<?xml version="1.0"?>
<VTKFile type="UnstructuredGrid" version="0.1" byte_order="LittleEndian">
<UnstructuredGrid>
<Piece NumberOfPoints="30578" NumberOfCells="10723">
<Points>
<DataArray type="Float64" NumberOfComponents="3" format="ascii">
-0.5 -0.5 0 -0.47439485679867832 -0.48072581506667478 0 -0.5 -0.44765434486020428 0 -0.5 -0.5 0 -0.47439485679867832 -0.48072581506667478 0 -0.43702443379937372 -0.49999999999999922 0 -0.47439485679867832 -0.48072581506667478 0 -0.45530669598391149 -0.47718009944797551 0 -0.43702443379937372 -0.49999999999999922 0 -0.47439485679867832 -0.48072581506667478 0 -0.45530669598391149 -0.47718009944797551 0 -0.4597353119515426 -0.45943449384344293 0 -0.45530669598391149 -0.47718009944797551 0 -0.44381084376742141 -0.47114793899167112 0 -0.4597353119515426 -0.45943449384344293 0 -0.45530669598391149 -0.47718009944797551 0 -0.44381084376742141 -0.47114793899167112 0 -0.43702443379937372 -0.49999999999999922 0 -0.44381084376742141 -0.47114793899167112 0 -0.43702443379937372 -0.49999999999999922 0 -0.45059725373546922 -0.44229587798334291 0 -0.4339166039271336 -0.43498117536117131 0 -0.43309128002320102 -0.45351235807576151 0 -0.44381084376742141 -0.47114793899167112 0 -0.45059725373546922 -0.44229587798334291 0 -0.4597353119515426 -0.45943449384344293 0 -0.44381084376742141 -0.47114793899167112 0 -0.45059725373546922 -0.44229587798334291 0 -0.43309128002320102 -0.45351235807576151 0 -0.44381084376742141 -0.47114793899167112 0 -0.45059725373546922 -0.44229587798334291 0 -0.4597353119515426 -0.45943449384344293 0 -0.47505511338101108 -0.44868394208069429 0 -0.46517432262153441 -0.43649963461163338 0 -0.45059725373546922 -0.44229587798334291 0 -0.4597353119515426 -0.45943449384344293 0 -0.46517432262153441 -0.43649963461163338 0 -0.47505511338101108 -0.44868394208069429 0 -0.47820614292347569 -0.42776699273468149 0 -0.46517432262153441 -0.43649963461163338 0 -0.47505511338101108 -0.44868394208069429 0 -0.47820614292347569 -0.42776699273468149 0 -0.47439485679867832 -0.48072581506667478 0 -0.47505511338101108 -0.44868394208069429 0 -0.5 -0.44765434486020428 0 -0.47439485679867832 -0.48072581506667478 0 -0.4597353119515426 -0.45943449384344293 0 -0.47505511338101108 -0.44868394208069429 0 -0.47505511338101108 -0.44868394208069429 0 -0.5 -0.44765434486020428 0 -0.47820614292347569 -0.42776699273468149 0 -0.5 -0.44765434486020428 0 -0.49656450065014057 -0.42151023988558672 0 -0.47820614292347569 -0.42776699273468149 0 -0.5 -0.44765434486020428 0 -0.49656450065014057 -0.42151023988558672 0 -0.50000000000000089 -0.37904661106745707 0 -0.49656450065014057 -0.42151023988558672 0 -0.48135717246594062 -0.40685004338866881 0 -0.47820614292347569 -0.42776699273468149 0 -0.49656450065014057 -0.42151023988558672 0 -0.48135717246594062 -0.40685004338866881 0 -0.48135717246594062 -0.40685004338866881 0 -0.47820614292347569 -0.42776699273468149 0 -0.48135717246594062 -0.40685004338866881 0 -0.47820614292347569 -0.42776699273468149 0 -0.45738366370351707 -0.41344381697501481 0 -0.49656450065014057 -0.42151023988558672 0 -0.48135717246594062 -0.40685004338866881 0 -0.50000000000000089 -0.37904661106745707 0 -0.50000000000000089 -0.37904661106745707 0 -0.48466894952205442 -0.38486603086372417 0 -0.48717439863114548 -0.36823452950912272 0 -0.48135717246594062 -0.40685004338866881 0 -0.50000000000000089 -0.37904661106745707 0 -0.48466894952205442 -0.38486603086372417 0 -0.48466894952205442 -0.38486603086372417 0 -0.48717439863114548 -0.36823452950912272 0 -0.50000000000000089 -0.37904661106745707 0 -0.48466894952205442 -0.38486603086372417 0 -0.48135717246594062 -0.40685004338866881 0 -0.48466894952205442 -0.38486603086372417 0 -0.46593083509403682 -0.39197871725165279 0 -0.48135717246594062 -0.40685004338866881 0 -0.48466894952205442 -0.38486603086372417 0 -0.48135717246594062 -0.40685004338866881 0 -0.46593083509403682 -0.39197871725165279 0 -0.48466894952205442 -0.38486603086372417 0 -0.47195833844942919 -0.37959069520904498 0 -0.46593083509403682 -0.39197871725165279 0 -0.48466894952205442 -0.38486603086372417 0 -0.46593083509403682 -0.39197871725165279 0 -0.48466894952205442 -0.38486603086372417 0 -0.47195833844942919 -0.37959069520904498 0 -0.48717439863114548 -0.36823452950912272 0 -0.46593083509403682 -0.39197871725165279 0 -0.44890944387521442 -0.39029302340116001 0 -0.45132291774153199 -0.37789636588759368 0 -0.47195833844942919 -0.37959069520904498 0 -0.46593083509403682 -0.39197871725165279 0 -0.45132291774153199 -0.37789636588759368 0 -0.46593083509403682 -0.39197871725165279 0 -0.45132291774153199 -0.37789636588759368 0 -0.48135717246594062 -0.40685004338866881 0 -0.46593083509403682 -0.39197871725165279 0 -0.45738366370351707 -0.41344381697501481 0 -0.46593083509403682 -0.39197871725165279 0 -0.44275815558040038 -0.40077469311046232 0 -0.45738366370351707 -0.41344381697501481 0 -0.46593083509403682 -0.39197871725165279 0 -0.44275815558040038 -0.40077469311046232 0 -0.46593083509403682 -0.39197871725165279 0 -0.44275815558040038 -0.40077469311046232 0 -0.44890944387521442 -0.39029302340116001 0 -0.44275815558040038 -0.40077469311046232 0 -0.44064580868350911 -0.39542861624611658 0 -0.44890944387521442 -0.39029302340116001 0 -0.44225344557501872 -0.38376649822575309 0 -0.45132291774153199 -0.37789636588759368 0 -0.43671500038902772 -0.36381401452353412 0 -0.44890944387521442 -0.39029302340116001 0 -0.44225344557501872 -0.38376649822575309 0 -0.45132291774153199 -0.37789636588759368 0 -0.44064580868350911 -0.39542861624611658 0 -0.44225344557501872 -0.38376649822575309 0 -0.43040194378266172 -0.3881600185019185 0 -0.44064580868350911 -0.39542861624611658 0 -0.44890944387521442 -0.39029302340116001 0 -0.44225344557501872 -0.38376649822575309 0 -0.47820614292347569 -0.42776699273468149 0 -0.46517432262153441 -0.43649963461163338 0 -0.45738366370351707 -0.41344381697501481 0 -0.45059725373546922 -0.44229587798334291 0 -0.45738366370351707 -0.41344381697501481 0 -0.45059725373546922 -0.44229587798334291 0 -0.46517432262153441 -0.43649963461163338 0 -0.45738366370351707 -0.41344381697501481 0 -0.44275815558040038 -0.40077469311046232 0 -0.45738366370351707 -0.41344381697501481 0 -0.44164244492799948 -0.42121090558557039 0 -0.45059725373546922 -0.44229587798334291 0 -0.45738366370351707 -0.41344381697501481 0 -0.44164244492799948 -0.42121090558557039 0 -0.45059725373546922 -0.44229587798334291 0 -0.44164244492799948 -0.42121090558557039 0 -0.4339166039271336 -0.43498117536117131 0 -0.4339166039271336 -0.43498117536117131 0 -0.42355654769347711 -0.414558964497861 0 -0.41671115160429401 -0.44095791049380378 0 -0.44164244492799948 -0.42121090558557039 0 -0.4339166039271336 -0.43498117536117131 0 -0.42355654769347711 -0.414558964497861 0 -0.44275815558040038 -0.40077469311046232 0 -0.44164244492799948 -0.42121090558557039 0 -0.42355654769347711 -0.414558964497861 0 -0.42355654769347711 -0.414558964497861 0 -0.41056920252370888 -0.3963363404412637 0 -0.40050668374064252 -0.41734442193795029 0 -0.42355654769347711 -0.414558964497861 0 -0.41671115160429401 -0.44095791049380378 0 -0.42355654769347711 -0.414558964497861 0 -0.40050668374064252 -0.41734442193795029 0 -0.41671115160429401 -0.44095791049380378 0 -0.44225344557501872 -0.38376649822575309 0 -0.43040194378266172 -0.3881600185019185 0 -0.43671500038902772 -0.36381401452353412 0 -0.43040194378266172 -0.3881600185019185 0 -0.43671500038902772 -0.36381401452353412 0 -0.44064580868350911 -0.39542861624611658 0 -0.42355654769347711 -0.414558964497861 0 -0.43040194378266172 -0.3881600185019185 0 -0.42355654769347711 -0.414558964497861 0 -0.43040194378266172 -0.3881600185019185 0 -0.44275815558040038 -0.40077469311046232 0 -0.44064580868350911 -0.39542861624611658 0 -0.42355654769347711 -0.414558964497861 0 -0.44064580868350911 -0.39542861624611658 0 -0.43040194378266172 -0.3881600185019185 0 -0.42355654769347711 -0.414558964497861 0 -0.43040194378266172 -0.3881600185019185 0 -0.41056920252370888 -0.3963363404412637 0 -0.43040194378266172 -0.3881600185019185 0 -0.4079689369259607 -0.37224253963894771 0 -0.43040194378266172 -0.3881600185019185 0 -0.41056920252370888 -0.3963363404412637 0 -0.4079689369259607 -0.37224253963894771 0 -0.41056920252370888 -0.3963363404412637 0 -0.39195929229331972 -0.37982250283040359 0 -0.4079689369259607 -0.37224253963894771 0 -0.41056920252370888 -0.3963363404412637 0 -0.39195929229331972 -0.37982250283040359 0 -0.39357845321732049 -0.39746174547711199 0 -0.41056920252370888 -0.3963363404412637 0 -0.39357845321732049 -0.39746174547711199 0 -0.40050668374064252 -0.41734442193795029 0 -0.39357845321732049 -0.39746174547711199 0 -0.38114412328536468 -0.40833987260765031 0 -0.36544727141479139 -0.39026932065168712 0 -0.39195929229331972 -0.37982250283040359 0 -0.37549160074202448 -0.3732971907138336 0 -0.36544727141479139 -0.39026932065168712 0 -0.39195929229331972 -0.37982250283040359 0 -0.39357845321732049 -0.39746174547711199 0 -0.36544727141479139 -0.39026932065168712 0 -0.40050668374064252 -0.41734442193795029 0 -0.3944977858259317 -0.43926335073686201 0 -0.41671115160429401 -0.44095791049380378 0 -0.40050668374064252 -0.41734442193795029 0 -0.38028594703985957 -0.42392304976487449 0 -0.3944977858259317 -0.43926335073686201 0 -0.39357845321732049 -0.39746174547711199 0 -0.40050668374064252 -0.41734442193795029 0 -0.38114412328536468 -0.40833987260765031 0 -0.40050668374064252 -0.41734442193795029 0 -0.38114412328536468 -0.40833987260765031 0 -0.38028594703985957 -0.42392304976487449 0 -0.38114412328536468 -0.40833987260765031 0 -0.38028594703985957 -0.42392304976487449 0 -0.36590226101420908 -0.41270082520662749 0 -0.38028594703985957 -0.42392304976487449 0 -0.3944977858259317 -0.43926335073686201 0 -0.3723601590800425 -0.44005613486137668 0 -0.3944977858259317 -0.43926335073686201 0 -0.38265619596279349 -0.45813348326120767 0 -0.3723601590800425 -0.44005613486137668 0 -0.40093272222703252 -0.45142790024540502 0 -0.3944977858259317 -0.43926335073686201 0 -0.38265619596279349 -0.45813348326120767 0 -0.40093272222703252 -0.45142790024540502 0 -0.3944977858259317 -0.43926335073686201 0 -0.41671115160429401 -0.44095791049380378 0 -0.38265619596279349 -0.45813348326120767 0 -0.40986575551511062 -0.46735685648974662 0 -0.38265619596279349 -0.45813348326120767 0 -0.39389470715733632 -0.47355095168427308 0 -0.40986575551511062 -0.46735685648974662 0 -0.40093272222703252 -0.45142790024540502 0 -0.38265619596279349 -0.45813348326120767 0 -0.40986575551511062 -0.46735685648974662 0 -0.38265619596279349 -0.45813348326120767 0 -0.38272382101637098 -0.47243968377412587 0 -0.39389470715733632 -0.47355095168427308 0 -0.38272382101637098 -0.47243968377412587 0 -0.38859428369766791 -0.48614630665141417 0 -0.36652141413456929 -0.48474993749143802 0 -0.38272382101637098 -0.47243968377412587 0 -0.38859428369766791 -0.48614630665141417 0 -0.39389470715733632 -0.47355095168427308 0 -0.37500484199342449 -0.5 0 -0.38859428369766791 -0.48614630665141417 0 -0.40140120367436599 -0.49999999999999611 0 -0.37500484199342449 -0.5 0 -0.38859428369766791 -0.48614630665141417 0 -0.36652141413456929 -0.48474993749143802 0 -0.38859428369766791 -0.48614630665141417 0 -0.40140120367436599 -0.49999999999999611 0 -0.40563347959473789 -0.48367842824487117 0 -0.40140120367436599 -0.49999999999999611 0 -0.40563347959473789 -0.48367842824487117 0 -0.40563347959473789 -0.48367842824487117 0 -0.39389470715733632 -0.47355095168427308 0 -0.40986575551511062 -0.46735685648974662 0 -0.38859428369766791 -0.48614630665141417 0 -0.40563347959473789 -0.48367842824487117 0 -0.39389470715733632 -0.47355095168427308 0 -0.40563347959473789 -0.48367842824487117 0 -0.40986575551511062 -0.46735685648974662 0 -0.42809744812538553 -0.47353695305504512 0 -0.40986575551511062 -0.46735685648974662 0 -0.4199949121527507 -0.4855396040697898 0 -0.42809744812538553 -0.47353695305504512 0 -0.40986575551511062 -0.46735685648974662 0 -0.40563347959473789 -0.48367842824487117 0 -0.4199949121527507 -0.4855396040697898 0 -0.40986575551511062 -0.46735685648974662 0 -0.40563347959473789 -0.48367842824487117 0 -0.4199949121527507 -0.4855396040697898 0 -0.41921281873686977 -0.5 0 -0.40140120367436599 -0.49999999999999611 0 -0.40563347959473789 -0.48367842824487117 0 -0.41921281873686977 -0.5 0 -0.4199949121527507 -0.4855396040697898 0 -0.41921281873686977 -0.5 0 -0.43702443379937372 -0.49999999999999922 0 -0.4199949121527507 -0.4855396040697898 0 -0.43702443379937372 -0.49999999999999922 0 -0.42809744812538553 -0.47353695305504512 0 -0.44381084376742141 -0.47114793899167112 0 -0.43702443379937372 -0.49999999999999922 0 -0.42809744812538553 -0.47353695305504512 0 -0.42809744812538553 -0.47353695305504512 0 -0.42194140881699782 -0.45884101952858919 0 -0.43309128002320102 -0.45351235807576151 0 -0.44381084376742141 -0.47114793899167112 0 -0.42809744812538553 -0.47353695305504512 0 -0.43309128002320102 -0.45351235807576151 0 -0.4339166039271336 -0.43498117536117131 0 -0.43309128002320102 -0.45351235807576151 0 -0.41671115160429401 -0.44095791049380378 0 -0.42194140881699782 -0.45884101952858919 0 -0.43309128002320102 -0.45351235807576151 0 -0.41671115160429401 -0.44095791049380378 0 -0.42194140881699782 -0.45884101952858919 0 -0.41671115160429401 -0.44095791049380378 0 -0.40986575551511062 -0.46735685648974662 0 -0.41671115160429401 -0.44095791049380378 0 -0.40986575551511062 -0.46735685648974662 0 -0.40093272222703252 -0.45142790024540502 0 -0.41671115160429401 -0.44095791049380378 0 -0.40986575551511062 -0.46735685648974662 0 -0.42809744812538553 -0.47353695305504512 0 -0.42194140881699782 -0.45884101952858919 0 -0.40986575551511062 -0.46735685648974662 0 -0.45828666285701658 -0.26028432573271792 0 -0.43487007995442373 -0.25384069753834382 0 -0.45658005330295048 -0.2439827770756183 0 -0.43864273500925549 -0.2751587481676856 0 -0.45828666285701658 -0.26028432573271792 0 -0.43487007995442373 -0.25384069753834382 0 -0.43864273500925549 -0.2751587481676856 0 -0.45645423860141388 -0.27827293425430932 0 -0.45828666285701658 -0.26028432573271792 0 -0.43864273500925549 -0.2751587481676856 0 -0.45828666285701658 -0.26028432573271792 0 -0.45645423860141388 -0.27827293425430932 0 -0.47869064668718631 -0.2683854874950159 0 -0.47091363495918082 -0.28947603344621109 0 -0.45645423860141388 -0.27827293425430932 0 -0.45828666285701658 -0.26028432573271792 0 -0.47869064668718631 -0.2683854874950159 0 -0.45828666285701658 -0.26028432573271792 0 -0.47793059070477772 -0.24540990329775009 0 -0.45828666285701658 -0.26028432573271792 0 -0.47869064668718631 -0.2683854874950159 0 -0.47793059070477772 -0.24540990329775009 0 -0.4872249908214738 -0.25598993182963242 0 -0.47869064668718631 -0.2683854874950159 0 -0.47793059070477772 -0.24540990329775009 0 -0.4872249908214738 -0.25598993182963242 0 -0.5 -0.25006354863638108 0 -0.5 -0.27586016112259643 0 -0.4872249908214738 -0.25598993182963242 0 -0.5 -0.25006354863638108 0 -0.49068252501969761 -0.24549971615663649 0 -0.4872249908214738 -0.25598993182963242 0 -0.5 -0.27586016112259643 0 -0.47869064668718631 -0.2683854874950159 0 -0.5 -0.27586016112259643 0 -0.47869064668718631 -0.2683854874950159 0 -0.48721788021035761 -0.2882082846164955 0 -0.47869064668718631 -0.2683854874950159 0 -0.47091363495918082 -0.28947603344621109 0 -0.48721788021035761 -0.2882082846164955 0 -0.47091363495918082 -0.28947603344621109 0 -0.48721788021035761 -0.2882082846164955 0 -0.48161809245015419 -0.30465866835107641 0 -0.5 -0.27586016112259643 0 -0.48721788021035761 -0.2882082846164955 0 -0.5 -0.3016567736088116 0 -0.48721788021035761 -0.2882082846164955 0 -0.5 -0.3016567736088116 0 -0.48161809245015419 -0.30465866835107641 0 -0.5 -0.3016567736088116 0 -0.48161809245015419 -0.30465866835107641 0 -0.5 -0.32745338609502678 0 -0.47091363495918082 -0.28947603344621109 0 -0.48161809245015419 -0.30465866835107641 0 -0.45879166701778518 -0.3036258058313378 0 -0.48161809245015419 -0.30465866835107641 0 -0.45879166701778518 -0.3036258058313378 0 -0.47638885418803739 -0.32253493654140952 0 -0.45645423860141388 -0.27827293425430932 0 -0.47091363495918082 -0.28947603344621109 0 -0.45879166701778518 -0.3036258058313378 0 -0.45645423860141388 -0.27827293425430932 0 -0.45879166701778518 -0.3036258058313378 0 -0.43905227881958647 -0.29505920944709452 0 -0.43864273500925549 -0.2751587481676856 0 -0.45645423860141388 -0.27827293425430932 0 -0.43905227881958647 -0.29505920944709452 0 -0.45879166701778518 -0.3036258058313378 0 -0.43905227881958647 -0.29505920944709452 0 -0.4399695753826649 -0.31139282438396382 0 -0.4399695753826649 -0.31139282438396382 0 -0.45223868162566522 -0.32343332413938758 0 -0.42808850906329299 -0.32433171173736591 0 -0.45879166701778518 -0.3036258058313378 0 -0.4399695753826649 -0.31139282438396382 0 -0.45223868162566522 -0.32343332413938758 0 -0.45223868162566522 -0.32343332413938758 0 -0.42808850906329299 -0.32433171173736591 0 -0.45223868162566522 -0.32343332413938758 0 -0.44207286924452832 -0.33783824796895978 0 -0.46140244920768408 -0.33754740415941759 0 -0.44207286924452832 -0.33783824796895978 0 -0.46140244920768408 -0.33754740415941759 0 -0.45117994904742642 -0.3486532256997657 0 -0.45223868162566522 -0.32343332413938758 0 -0.44207286924452832 -0.33783824796895978 0 -0.42808850906329299 -0.32433171173736591 0 -0.45879166701778518 -0.3036258058313378 0 -0.45223868162566522 -0.32343332413938758 0 -0.47638885418803739 -0.32253493654140952 0 -0.45223868162566522 -0.32343332413938758 0 -0.46140244920768408 -0.33754740415941759 0 -0.47638885418803739 -0.32253493654140952 0 -0.45223868162566522 -0.32343332413938758 0 -0.47638885418803739 -0.32253493654140952 0 -0.48161809245015419 -0.30465866835107641 0 -0.47638885418803739 -0.32253493654140952 0 -0.5 -0.32745338609502678 0 -0.47638885418803739 -0.32253493654140952 0 -0.5 -0.32745338609502678 0 -0.48104103145021149 -0.34129537751375599 0 -0.5 -0.32745338609502678 0 -0.48104103145021149 -0.34129537751375599 0 -0.5 -0.35324999858124201 0 -0.46140244920768408 -0.33754740415941759 0 -0.48104103145021149 -0.34129537751375599 0 -0.46549330969023639 -0.35152931309322771 0 -0.46140244920768408 -0.33754740415941759 0 -0.47638885418803739 -0.32253493654140952 0 -0.48104103145021149 -0.34129537751375599 0 -0.48104103145021149 -0.34129537751375599 0 -0.48025743214923627 -0.35616585996071459 0 -0.46549330969023639 -0.35152931309322771 0 -0.48025743214923627 -0.35616585996071459 0 -0.46757842097458802 -0.36652008110622503 0 -0.46549330969023639 -0.35152931309322771 0 -0.48025743214923627 -0.35616585996071459 0 -0.5 -0.35324999858124201 0 -0.48717439863114548 -0.36823452950912272 0 -0.48104103145021149 -0.34129537751375599 0 -0.48025743214923627 -0.35616585996071459 0 -0.5 -0.35324999858124201 0 -0.50000000000000089 -0.37904661106745707 0 -0.5 -0.35324999858124201 0 -0.48717439863114548 -0.36823452950912272 0 -0.47195833844942919 -0.37959069520904498 0 -0.48717439863114548 -0.36823452950912272 0 -0.46757842097458802 -0.36652008110622503 0 -0.48025743214923627 -0.35616585996071459 0 -0.48717439863114548 -0.36823452950912272 0 -0.46757842097458802 -0.36652008110622503 0 -0.45132291774153199 -0.37789636588759368 0 -0.46757842097458802 -0.36652008110622503 0 -0.45216690816074923 -0.36231126303824313 0 -0.47195833844942919 -0.37959069520904498 0 -0.45132291774153199 -0.37789636588759368 0 -0.46757842097458802 -0.36652008110622503 0 -0.46757842097458802 -0.36652008110622503 0 -0.46549330969023639 -0.35152931309322771 0 -0.45216690816074923 -0.36231126303824313 0 -0.46140244920768408 -0.33754740415941759 0 -0.46549330969023639 -0.35152931309322771 0 -0.45117994904742642 -0.3486532256997657 0 -0.46549330969023639 -0.35152931309322771 0 -0.45117994904742642 -0.3486532256997657 0 -0.45216690816074923 -0.36231126303824313 0 -0.44599028472907742 -0.35554349803526408 0 -0.45117994904742642 -0.3486532256997657 0 -0.45216690816074923 -0.36231126303824313 0 -0.44599028472907742 -0.35554349803526408 0 -0.45117994904742642 -0.3486532256997657 0 -0.44228407783080631 -0.34851364977492799 0 -0.44207286924452832 -0.33783824796895978 0 -0.44228407783080631 -0.34851364977492799 0 -0.43394442261003058 -0.34546672586134508 0 -0.44228407783080631 -0.34851364977492799 0 -0.43858436747801349 -0.35660488883003821 0 -0.43394442261003058 -0.34546672586134508 0 -0.44207286924452832 -0.33783824796895978 0 -0.45117994904742642 -0.3486532256997657 0 -0.44228407783080631 -0.34851364977492799 0 -0.44599028472907742 -0.35554349803526408 0 -0.44228407783080631 -0.34851364977492799 0 -0.43858436747801349 -0.35660488883003821 0 -0.44599028472907742 -0.35554349803526408 0 -0.43858436747801349 -0.35660488883003821 0 -0.43671500038902772 -0.36381401452353412 0 -0.43858436747801349 -0.35660488883003821 0 -0.43671500038902772 -0.36381401452353412 0 -0.44599028472907742 -0.35554349803526408 0 -0.45216690816074923 -0.36231126303824313 0 -0.43671500038902772 -0.36381401452353412 0 -0.45132291774153199 -0.37789636588759368 0 -0.43671500038902772 -0.36381401452353412 0 -0.45132291774153199 -0.37789636588759368 0 -0.45216690816074923 -0.36231126303824313 0 -0.43671500038902772 -0.36381401452353412 0 -0.43040194378266172 -0.3881600185019185 0 -0.43671500038902772 -0.36381401452353412 0 -0.4079689369259607 -0.37224253963894771 0 -0.43858436747801349 -0.35660488883003821 0 -0.43671500038902772 -0.36381401452353412 0 -0.41901032175007979 -0.34674631764622038 0 -0.43671500038902772 -0.36381401452353412 0 -0.41901032175007979 -0.34674631764622038 0 -0.43858436747801349 -0.35660488883003821 0 -0.43394442261003058 -0.34546672586134508 0 -0.41901032175007979 -0.34674631764622038 0 -0.41901032175007979 -0.34674631764622038 0 -0.4079689369259607 -0.37224253963894771 0 -0.40160491304204049 -0.35527610236370899 0 -0.43671500038902772 -0.36381401452353412 0 -0.41901032175007979 -0.34674631764622038 0 -0.4079689369259607 -0.37224253963894771 0 -0.4079689369259607 -0.37224253963894771 0 -0.38553593006925752 -0.3563250607759802 0 -0.4079689369259607 -0.37224253963894771 0 -0.38553593006925752 -0.3563250607759802 0 -0.40160491304204049 -0.35527610236370899 0 -0.39195929229331972 -0.37982250283040359 0 -0.4079689369259607 -0.37224253963894771 0 -0.38553593006925752 -0.3563250607759802 0 -0.39195929229331972 -0.37982250283040359 0 -0.37549160074202448 -0.3732971907138336 0 -0.38553593006925752 -0.3563250607759802 0 -0.37549160074202448 -0.3732971907138336 0 -0.38553593006925752 -0.3563250607759802 0 -0.38553593006925752 -0.3563250607759802 0 -0.36666079927166728 -0.34293209489202431 0 -0.38553593006925752 -0.3563250607759802 0 -0.39342078659019603 -0.34300184077244372 0 -0.38006824781918919 -0.33243312042550199 0 -0.38553593006925752 -0.3563250607759802 0 -0.38006824781918919 -0.33243312042550199 0 -0.36666079927166728 -0.34293209489202431 0 -0.38553593006925752 -0.3563250607759802 0 -0.39342078659019603 -0.34300184077244372 0 -0.41901032175007979 -0.34674631764622038 0 -0.40160491304204049 -0.35527610236370899 0 -0.39342078659019603 -0.34300184077244372 0 -0.38553593006925752 -0.3563250607759802 0 -0.40160491304204049 -0.35527610236370899 0 -0.39342078659019603 -0.34300184077244372 0 -0.41901032175007979 -0.34674631764622038 0 -0.40130564311113259 -0.32967862076890581 0 -0.39342078659019603 -0.34300184077244372 0 -0.40130564311113259 -0.32967862076890581 0 -0.39064670272592411 -0.32967160323888278 0 -0.39342078659019603 -0.34300184077244372 0 -0.40130564311113259 -0.32967862076890581 0 -0.39342078659019603 -0.34300184077244372 0 -0.39064670272592411 -0.32967160323888278 0 -0.39342078659019603 -0.34300184077244372 0 -0.38006824781918919 -0.33243312042550199 0 -0.38006824781918919 -0.33243312042550199 0 -0.38935907146989862 -0.31816186479418052 0 -0.37140736883531977 -0.32183989730859341 0 -0.38935907146989862 -0.31816186479418052 0 -0.38351210912712752 -0.30253866195360818 0 -0.37140736883531977 -0.32183989730859341 0 -0.39064670272592411 -0.32967160323888278 0 -0.38006824781918919 -0.33243312042550199 0 -0.38935907146989862 -0.31816186479418052 0 -0.38935907146989862 -0.31816186479418052 0 -0.401514660155255 -0.31819685637317691 0 -0.39554973675391708 -0.30949047449279188 0 -0.40130564311113259 -0.32967862076890581 0 -0.38935907146989862 -0.31816186479418052 0 -0.40130564311113259 -0.32967862076890581 0 -0.38935907146989862 -0.31816186479418052 0 -0.39962023335203928 -0.32539073298322901 0 -0.38935907146989862 -0.31816186479418052 0 -0.39962023335203928 -0.32539073298322901 0 -0.401514660155255 -0.31819685637317691 0 -0.40130564311113259 -0.32967862076890581 0 -0.39064670272592411 -0.32967160323888278 0 -0.38935907146989862 -0.31816186479418052 0 -0.40130564311113259 -0.32967862076890581 0 -0.39962023335203928 -0.32539073298322901 0 -0.4039383365009207 -0.3252300993353433 0 -0.39962023335203928 -0.32539073298322901 0 -0.4039383365009207 -0.3252300993353433 0 -0.39962023335203928 -0.32539073298322901 0 -0.4039383365009207 -0.3252300993353433 0 -0.401514660155255 -0.31819685637317691 0 -0.40130564311113259 -0.32967862076890581 0 -0.4039383365009207 -0.3252300993353433 0 -0.401514660155255 -0.31819685637317691 0 -0.4088463285069534 -0.31693695448250642 0 -0.4053668684804122 -0.3086126184714344 0 -0.4039383365009207 -0.3252300993353433 0 -0.401514660155255 -0.31819685637317691 0 -0.4088463285069534 -0.31693695448250642 0 -0.4039383365009207 -0.3252300993353433 0 -0.42808850906329299 -0.32433171173736591 0 -0.4088463285069534 -0.31693695448250642 0 -0.42808850906329299 -0.32433171173736591 0 -0.41503252140001728 -0.31110728079830707 0 -0.4039383365009207 -0.3252300993353433 0 -0.4088463285069534 -0.31693695448250642 0 -0.42808850906329299 -0.32433171173736591 0 -0.4039383365009207 -0.3252300993353433 0 -0.41609663568284688 -0.33258428014908531 0 -0.42808850906329299 -0.32433171173736591 0 -0.4039383365009207 -0.3252300993353433 0 -0.4088463285069534 -0.31693695448250642 0 -0.40130564311113259 -0.32967862076890581 0 -0.4039383365009207 -0.3252300993353433 0 -0.41609663568284688 -0.33258428014908531 0 -0.41901032175007979 -0.34674631764622038 0 -0.40130564311113259 -0.32967862076890581 0 -0.41609663568284688 -0.33258428014908531 0 -0.41901032175007979 -0.34674631764622038 0 -0.40130564311113259 -0.32967862076890581 0 -0.41901032175007979 -0.34674631764622038 0 -0.41609663568284688 -0.33258428014908531 0 -0.42777047674672519 -0.33763052508657909 0 -0.41609663568284688 -0.33258428014908531 0 -0.42777047674672519 -0.33763052508657909 0 -0.42808850906329299 -0.32433171173736591 0 -0.43394442261003058 -0.34546672586134508 0 -0.41901032175007979 -0.34674631764622038 0 -0.42777047674672519 -0.33763052508657909 0 -0.44207286924452832 -0.33783824796895978 0 -0.43394442261003058 -0.34546672586134508 0 -0.42777047674672519 -0.33763052508657909 0 -0.44207286924452832 -0.33783824796895978 0 -0.42777047674672519 -0.33763052508657909 0 -0.42808850906329299 -0.32433171173736591 0 -0.4399695753826649 -0.31139282438396382 0 -0.42808850906329299 -0.32433171173736591 0 -0.42349591428063971 -0.31031667424466408 0 -0.42808850906329299 -0.32433171173736591 0 -0.42349591428063971 -0.31031667424466408 0 -0.41503252140001728 -0.31110728079830707 0 -0.43905227881958647 -0.29505920944709452 0 -0.42349591428063971 -0.31031667424466408 0 -0.41899880716149451 -0.29003317060265321 0 -0.43905227881958647 -0.29505920944709452 0 -0.4399695753826649 -0.31139282438396382 0 -0.42349591428063971 -0.31031667424466408 0 -0.43864273500925549 -0.2751587481676856 0 -0.43905227881958647 -0.29505920944709452 0 -0.41899880716149451 -0.29003317060265321 0 -0.43864273500925549 -0.2751587481676856 0 -0.41899880716149451 -0.29003317060265321 0 -0.41649742047364408 -0.2919272257303569 0 -0.41502826726935188 -0.28951283527362931 0 -0.41151645216318689 -0.29124877083691719 0 -0.41899880716149451 -0.29003317060265321 0 -0.41649742047364408 -0.2919272257303569 0 -0.41502826726935188 -0.28951283527362931 0 -0.41899880716149451 -0.29003317060265321 0 -0.41649742047364408 -0.2919272257303569 0 -0.41899880716149451 -0.29003317060265321 0 -0.41502826726935188 -0.28951283527362931 0 -0.41310038927908221 -0.28484217392458988 0 -0.41310038927908221 -0.28484217392458988 0 -0.40629814920556201 -0.2872410904076857 0 -0.40433064532645308 -0.27892106023783952 0 -0.41502826726935188 -0.28951283527362931 0 -0.41310038927908221 -0.28484217392458988 0 -0.41151645216318689 -0.29124877083691719 0 -0.41310038927908221 -0.28484217392458988 0 -0.40629814920556201 -0.2872410904076857 0 -0.41151645216318689 -0.29124877083691719 0 -0.41649742047364408 -0.2919272257303569 0 -0.41151645216318689 -0.29124877083691719 0 -0.41283916949633909 -0.29890888486812428 0 -0.40629814920556201 -0.2872410904076857 0 -0.41151645216318689 -0.29124877083691719 0 -0.4052488046064433 -0.29379102377099447 0 -0.41151645216318689 -0.29124877083691719 0 -0.41283916949633909 -0.29890888486812428 0 -0.4052488046064433 -0.29379102377099447 0 -0.42349591428063971 -0.31031667424466408 0 -0.41899880716149451 -0.29003317060265321 0 -0.42349591428063971 -0.31031667424466408 0 -0.41649742047364408 -0.2919272257303569 0 -0.41283916949633909 -0.29890888486812428 0 -0.42349591428063971 -0.31031667424466408 0 -0.41899880716149451 -0.29003317060265321 0 -0.41649742047364408 -0.2919272257303569 0 -0.40711072979061191 -0.30081998795009107 0 -0.41283916949633909 -0.29890888486812428 0 -0.4052488046064433 -0.29379102377099447 0 -0.40711072979061191 -0.30081998795009107 0 -0.41283916949633909 -0.29890888486812428 0 -0.41256685577174013 -0.30556786269479153 0 -0.42349591428063971 -0.31031667424466408 0 -0.41283916949633909 -0.29890888486812428 0 -0.41256685577174013 -0.30556786269479153 0 -0.42349591428063971 -0.31031667424466408 0 -0.41503252140001728 -0.31110728079830707 0 -0.41256685577174013 -0.30556786269479153 0 -0.4088463285069534 -0.31693695448250642 0 -0.41503252140001728 -0.31110728079830707 0 -0.4053668684804122 -0.3086126184714344 0 -0.41503252140001728 -0.31110728079830707 0 -0.41256685577174013 -0.30556786269479153 0 -0.4053668684804122 -0.3086126184714344 0 -0.40711072979061191 -0.30081998795009107 0 -0.41256685577174013 -0.30556786269479153 0 -0.4053668684804122 -0.3086126184714344 0 -0.401514660155255 -0.31819685637317691 0 -0.4053668684804122 -0.3086126184714344 0 -0.39554973675391708 -0.30949047449279188 0 -0.4053668684804122 -0.3086126184714344 0 -0.39799597453689262 -0.29994237087155962 0 -0.39554973675391708 -0.30949047449279188 0 -0.40711072979061191 -0.30081998795009107 0 -0.4053668684804122 -0.3086126184714344 0 -0.39799597453689262 -0.29994237087155962 0 -0.40711072979061191 -0.30081998795009107 0 -0.39799597453689262 -0.29994237087155962 0 -0.4052488046064433 -0.29379102377099447 0 -0.39799597453689262 -0.29994237087155962 0 -0.39554973675391708 -0.30949047449279188 0 -0.38351210912712752 -0.30253866195360818 0 -0.38935907146989862 -0.31816186479418052 0 -0.39554973675391708 -0.30949047449279188 0 -0.38351210912712752 -0.30253866195360818 0 -0.38351210912712752 -0.30253866195360818 0 -0.3950660262777419 -0.28803976586637831 0 -0.37433096522584453 -0.28132989654828328 0 -0.39799597453689262 -0.29994237087155962 0 -0.38351210912712752 -0.30253866195360818 0 -0.3950660262777419 -0.28803976586637831 0 -0.39799597453689262 -0.29994237087155962 0 -0.3950660262777419 -0.28803976586637831 0 -0.4052488046064433 -0.29379102377099447 0 -0.40629814920556201 -0.2872410904076857 0 -0.3950660262777419 -0.28803976586637831 0 -0.4052488046064433 -0.29379102377099447 0 -0.40629814920556201 -0.2872410904076857 0 -0.3950660262777419 -0.28803976586637831 0 -0.40433064532645308 -0.27892106023783952 0 -0.40433064532645308 -0.27892106023783952 0 -0.39374553591587069 -0.27251425727467649 0 -0.41316010660589619 -0.2636986180010682 0 -0.39374553591587069 -0.27251425727467649 0 -0.41316010660589619 -0.2636986180010682 0 -0.3950660262777419 -0.28803976586637831 0 -0.40433064532645308 -0.27892106023783952 0 -0.39374553591587069 -0.27251425727467649 0 -0.39374553591587069 -0.27251425727467649 0 -0.37433096522584453 -0.28132989654828328 0 -0.3950660262777419 -0.28803976586637831 0 -0.39374553591587069 -0.27251425727467649 0 -0.37433096522584453 -0.28132989654828328 0 -0.39374553591587069 -0.27251425727467649 0 -0.37648826808451968 -0.27741199289956509 0 -0.37433096522584453 -0.28132989654828328 0 -0.39374553591587069 -0.27251425727467649 0 -0.37598097480723441 -0.26745556380373348 0 -0.38363075469537122 -0.26088114511686322 0 -0.39374553591587069 -0.27251425727467649 0 -0.37598097480723441 -0.26745556380373348 0 -0.37648826808451968 -0.27741199289956509 0 -0.37598097480723441 -0.26745556380373348 0 -0.37648826808451968 -0.27741199289956509 0 -0.37277902062147272 -0.27405557492128901 0 -0.37648826808451968 -0.27741199289956509 0 -0.37433096522584453 -0.28132989654828328 0 -0.38363075469537122 -0.26088114511686322 0 -0.37393540655460039 -0.25504906339868932 0 -0.38258347849844832 -0.24967798674395081 0 -0.37598097480723441 -0.26745556380373348 0 -0.38363075469537122 -0.26088114511686322 0 -0.37393540655460039 -0.25504906339868932 0 -0.38363075469537122 -0.26088114511686322 0 -0.3945867816951415 -0.25828321704239809 0 -0.38258347849844832 -0.24967798674395081 0 -0.3945867816951415 -0.25828321704239809 0 -0.3933004523496676 -0.24484402304582939 0 -0.38258347849844832 -0.24967798674395081 0 -0.39374553591587069 -0.27251425727467649 0 -0.3945867816951415 -0.25828321704239809 0 -0.41316010660589619 -0.2636986180010682 0 -0.3945867816951415 -0.25828321704239809 0 -0.41316010660589619 -0.2636986180010682 0 -0.40847937369743209 -0.24258689873782929 0 -0.39374553591587069 -0.27251425727467649 0 -0.38363075469537122 -0.26088114511686322 0 -0.3945867816951415 -0.25828321704239809 0 -0.41316010660589619 -0.2636986180010682 0 -0.42931567121415071 -0.25028064732030619 0 -0.40847937369743209 -0.24258689873782929 0 -0.41316010660589619 -0.2636986180010682 0 -0.40847937369743209 -0.24258689873782929 0 -0.41899880716149451 -0.29003317060265321 0 -0.41310038927908221 -0.28484217392458988 0 -0.41316010660589619 -0.2636986180010682 0 -0.41310038927908221 -0.28484217392458988 0 -0.40433064532645308 -0.27892106023783952 0 -0.41316010660589619 -0.2636986180010682 0 -0.41899880716149451 -0.29003317060265321 0 -0.41316010660589619 -0.2636986180010682 0 -0.42551969657153998 -0.27199364899169498 0 -0.41899880716149451 -0.29003317060265321 0 -0.41316010660589619 -0.2636986180010682 0 -0.43864273500925549 -0.2751587481676856 0 -0.42551969657153998 -0.27199364899169498 0 -0.43487007995442373 -0.25384069753834382 0 -0.43864273500925549 -0.2751587481676856 0 -0.41899880716149451 -0.29003317060265321 0 -0.42551969657153998 -0.27199364899169498 0 -0.41316010660589619 -0.2636986180010682 0 -0.43487007995442373 -0.25384069753834382 0 -0.41316010660589619 -0.2636986180010682 0 -0.42551969657153998 -0.27199364899169498 0 -0.43487007995442373 -0.25384069753834382 0 -0.41316010660589619 -0.2636986180010682 0 -0.43487007995442373 -0.25384069753834382 0 -0.42931567121415071 -0.25028064732030619 0 -0.32316489217708799 -0.25890650528201359 0 -0.32888695585781391 -0.26910619260742191 0 -0.31032083431566337 -0.26180085087236171 0 -0.32316489217708799 -0.25890650528201359 0 -0.32888695585781391 -0.26910619260742191 0 -0.33131030172746923 -0.25321851497678438 0 -0.32888695585781391 -0.26910619260742191 0 -0.31032083431566337 -0.26180085087236171 0 -0.32316489217708799 -0.25890650528201359 0 -0.33131030172746923 -0.25321851497678438 0 -0.32202724095639168 -0.2495658441092535 0 -0.32316489217708799 -0.25890650528201359 0 -0.31032083431566337 -0.26180085087236171 0 -0.32202724095639168 -0.2495658441092535 0 -0.31032083431566337 -0.26180085087236171 0 -0.32202724095639168 -0.2495658441092535 0 -0.31283906540333922 -0.25031215033235238 0 -0.31032083431566337 -0.26180085087236171 0 -0.32202724095639168 -0.2495658441092535 0 -0.31480478096024378 -0.27564718726691712 0 -0.32888695585781391 -0.26910619260742191 0 -0.31032083431566337 -0.26180085087236171 0 -0.31480478096024378 -0.27564718726691712 0 -0.32888695585781391 -0.26910619260742191 0 -0.32507396769595592 -0.29410449247197662 0 -0.32888695585781391 -0.26910619260742191 0 -0.3381311227387106 -0.26238754928509761 0 -0.34453036853746388 -0.27526151563856671 0 -0.32888695585781391 -0.26910619260742191 0 -0.34453036853746388 -0.27526151563856671 0 -0.33279411355556121 -0.28213246275860349 0 -0.32888695585781391 -0.26910619260742191 0 -0.34453036853746388 -0.27526151563856671 0 -0.34453036853746388 -0.27526151563856671 0 -0.34450588037081892 -0.28462367662190302 0 -0.33279411355556121 -0.28213246275860349 0 -0.32888695585781391 -0.26910619260742191 0 -0.33131030172746923 -0.25321851497678438 0 -0.32888695585781391 -0.26910619260742191 0 -0.3381311227387106 -0.26238754928509761 0 -0.33131030172746923 -0.25321851497678438 0 -0.3381311227387106 -0.26238754928509761 0 -0.34897267059429732 -0.25990550268967838 0 -0.3420777495351906 -0.24844208584564559 0 -0.3381311227387106 -0.26238754928509761 0 -0.33131030172746923 -0.25321851497678438 0 -0.3420777495351906 -0.24844208584564559 0 -0.34897267059429732 -0.25990550268967838 0 -0.35255150303394622 -0.24812522560144931 0 -0.3420777495351906 -0.24844208584564559 0 -0.34897267059429732 -0.25990550268967838 0 -0.35751050643918753 -0.2560897164936603 0 -0.35722060467742811 -0.26762499714769428 0 -0.34897267059429732 -0.25990550268967838 0 -0.35751050643918753 -0.2560897164936603 0 -0.35255150303394622 -0.24812522560144931 0 -0.35751050643918753 -0.2560897164936603 0 -0.363557814049559 -0.2486896754833777 0 -0.35255150303394622 -0.24812522560144931 0 -0.35751050643918753 -0.2560897164936603 0 -0.36561260290989678 -0.26128521942254013 0 -0.363557814049559 -0.2486896754833777 0 -0.35751050643918753 -0.2560897164936603 0 -0.36561260290989678 -0.26128521942254013 0 -0.35722060467742811 -0.26762499714769428 0 -0.37598097480723441 -0.26745556380373348 0 -0.36561260290989678 -0.26128521942254013 0 -0.37393540655460039 -0.25504906339868932 0 -0.36561260290989678 -0.26128521942254013 0 -0.37393540655460039 -0.25504906339868932 0 -0.363557814049559 -0.2486896754833777 0 -0.37277902062147272 -0.27405557492128901 0 -0.36654922363893422 -0.27215591673696138 0 -0.37433096522584453 -0.28132989654828328 0 -0.37648826808451968 -0.27741199289956509 0 -0.37277902062147272 -0.27405557492128901 0 -0.37433096522584453 -0.28132989654828328 0 -0.37598097480723441 -0.26745556380373348 0 -0.37277902062147272 -0.27405557492128901 0 -0.36654922363893422 -0.27215591673696138 0 -0.37598097480723441 -0.26745556380373348 0 -0.36561260290989678 -0.26128521942254013 0 -0.36654922363893422 -0.27215591673696138 0 -0.36561260290989678 -0.26128521942254013 0 -0.36654922363893422 -0.27215591673696138 0 -0.35722060467742811 -0.26762499714769428 0 -0.36654922363893422 -0.27215591673696138 0 -0.35722060467742811 -0.26762499714769428 0 -0.36017378121711419 -0.28141683866971062 0 -0.36654922363893422 -0.27215591673696138 0 -0.36017378121711419 -0.28141683866971062 0 -0.37433096522584453 -0.28132989654828328 0 -0.34453036853746388 -0.27526151563856671 0 -0.36017378121711419 -0.28141683866971062 0 -0.35722060467742811 -0.26762499714769428 0 -0.34453036853746388 -0.27526151563856671 0 -0.36017378121711419 -0.28141683866971062 0 -0.34453036853746388 -0.27526151563856671 0 -0.34450588037081892 -0.28462367662190302 0 -0.36017378121711419 -0.28141683866971062 0 -0.34897267059429732 -0.25990550268967838 0 -0.35722060467742811 -0.26762499714769428 0 -0.34453036853746388 -0.27526151563856671 0 -0.3381311227387106 -0.26238754928509761 0 -0.34897267059429732 -0.25990550268967838 0 -0.34453036853746388 -0.27526151563856671 0 -0.34450588037081892 -0.28462367662190302 0 -0.34891652205724832 -0.29286991805537971 0 -0.36017378121711419 -0.28141683866971062 0 -0.37433096522584453 -0.28132989654828328 0 -0.36105831684996031 -0.30543451277817618 0 -0.34891652205724832 -0.29286991805537971 0 -0.37433096522584453 -0.28132989654828328 0 -0.34891652205724832 -0.29286991805537971 0 -0.36017378121711419 -0.28141683866971062 0 -0.37433096522584453 -0.28132989654828328 0 -0.38351210912712752 -0.30253866195360818 0 -0.37433096522584453 -0.28132989654828328 0 -0.36105831684996031 -0.30543451277817618 0 -0.34891652205724832 -0.29286991805537971 0 -0.37433096522584453 -0.28132989654828328 0 -0.36105831684996031 -0.30543451277817618 0 -0.38351210912712752 -0.30253866195360818 0 -0.36105831684996031 -0.30543451277817618 0 -0.37140736883531977 -0.32183989730859341 0 -0.36105831684996031 -0.30543451277817618 0 -0.3496688877197569 -0.30429177800002122 0 -0.34586440994984541 -0.3145735322147622 0 -0.34891652205724832 -0.29286991805537971 0 -0.36105831684996031 -0.30543451277817618 0 -0.3496688877197569 -0.30429177800002122 0 -0.34891652205724832 -0.29286991805537971 0 -0.3496688877197569 -0.30429177800002122 0 -0.33956299038192078 -0.30735077663143923 0 -0.3496688877197569 -0.30429177800002122 0 -0.33956299038192078 -0.30735077663143923 0 -0.34586440994984541 -0.3145735322147622 0 -0.34891652205724832 -0.29286991805537971 0 -0.33956299038192078 -0.30735077663143923 0 -0.32350207888865212 -0.30440993956247547 0 -0.33956299038192078 -0.30735077663143923 0 -0.3301339810941622 -0.31110503031331638 0 -0.32350207888865212 -0.30440993956247547 0 -0.34891652205724832 -0.29286991805537971 0 -0.32350207888865212 -0.30440993956247547 0 -0.33956299038192078 -0.30735077663143923 0 -0.3301339810941622 -0.31110503031331638 0 -0.33675509785737662 -0.31655799101612769 0 -0.34891652205724832 -0.29286991805537971 0 -0.33611461648670682 -0.29143764798725502 0 -0.32350207888865212 -0.30440993956247547 0 -0.32888695585781391 -0.26910619260742191 0 -0.33279411355556121 -0.28213246275860349 0 -0.32507396769595592 -0.29410449247197662 0 -0.34450588037081892 -0.28462367662190302 0 -0.34891652205724832 -0.29286991805537971 0 -0.33611461648670682 -0.29143764798725502 0 -0.34450588037081892 -0.28462367662190302 0 -0.33611461648670682 -0.29143764798725502 0 -0.33279411355556121 -0.28213246275860349 0 -0.33279411355556121 -0.28213246275860349 0 -0.33070524953878982 -0.29012978506972142 0 -0.32507396769595592 -0.29410449247197662 0 -0.33611461648670682 -0.29143764798725502 0 -0.33279411355556121 -0.28213246275860349 0 -0.33070524953878982 -0.29012978506972142 0 -0.33611461648670682 -0.29143764798725502 0 -0.32742439802278828 -0.29462709162158601 0 -0.32350207888865212 -0.30440993956247547 0 -0.33611461648670682 -0.29143764798725502 0 -0.33070524953878982 -0.29012978506972142 0 -0.32742439802278828 -0.29462709162158601 0 -0.32507396769595592 -0.29410449247197662 0 -0.30234930147786221 -0.28905184696057518 0 -0.32507396769595592 -0.29410449247197662 0 -0.32350207888865212 -0.30440993956247547 0 -0.30234930147786221 -0.28905184696057518 0 -0.31480478096024378 -0.27564718726691712 0 -0.32507396769595592 -0.29410449247197662 0 -0.30234930147786221 -0.28905184696057518 0 -0.32888695585781391 -0.26910619260742191 0 -0.32507396769595592 -0.29410449247197662 0 -0.32507396769595592 -0.29410449247197662 0 -0.32742439802278828 -0.29462709162158601 0 -0.33070524953878982 -0.29012978506972142 0 -0.32507396769595592 -0.29410449247197662 0 -0.32742439802278828 -0.29462709162158601 0 -0.32302725724223008 -0.30752291379569302 0 -0.32350207888865212 -0.30440993956247547 0 -0.2999756881373381 -0.31509264677165549 0 -0.3301339810941622 -0.31110503031331638 0 -0.32302725724223008 -0.30752291379569302 0 -0.32422013968378288 -0.31561436227230438 0 -0.32302725724223008 -0.30752291379569302 0 -0.32350207888865212 -0.30440993956247547 0 -0.3301339810941622 -0.31110503031331638 0 -0.32302725724223008 -0.30752291379569302 0 -0.32350207888865212 -0.30440993956247547 0 -0.32507396769595592 -0.29410449247197662 0 -0.32742439802278828 -0.29462709162158601 0 -0.32350207888865212 -0.30440993956247547 0 -0.32507396769595592 -0.29410449247197662 0 -0.32350207888865212 -0.30440993956247547 0 -0.32302725724223008 -0.30752291379569302 0 -0.31656029902357641 -0.31849097864348519 0 -0.2999756881373381 -0.31509264677165549 0 -0.32265466046617669 -0.32198754646013139 0 -0.33127214989488979 -0.33008610863815152 0 -0.32872450059276898 -0.31896534214889599 0 -0.32265466046617669 -0.32198754646013139 0 -0.31892782856615448 -0.32825501756413727 0 -0.33127214989488979 -0.33008610863815152 0 -0.32265466046617669 -0.32198754646013139 0 -0.32422013968378288 -0.31561436227230438 0 -0.32872450059276898 -0.31896534214889599 0 -0.32302725724223008 -0.30752291379569302 0 -0.32422013968378288 -0.31561436227230438 0 -0.31656029902357641 -0.31849097864348519 0 -0.3301339810941622 -0.31110503031331638 0 -0.32422013968378288 -0.31561436227230438 0 -0.32872450059276898 -0.31896534214889599 0 -0.32265466046617669 -0.32198754646013139 0 -0.32422013968378288 -0.31561436227230438 0 -0.31656029902357641 -0.31849097864348519 0 -0.32265466046617669 -0.32198754646013139 0 -0.31656029902357641 -0.31849097864348519 0 -0.31892782856615448 -0.32825501756413727 0 -0.31656029902357641 -0.31849097864348519 0 -0.31892782856615448 -0.32825501756413727 0 -0.30936258926988919 -0.3261434941065412 0 -0.31892782856615448 -0.32825501756413727 0 -0.31208723605418232 -0.33616024018399832 0 -0.30936258926988919 -0.3261434941065412 0 -0.31892782856615448 -0.32825501756413727 0 -0.32183099473442811 -0.33958013728355868 0 -0.31208723605418232 -0.33616024018399832 0 -0.32183099473442811 -0.33958013728355868 0 -0.31234840654553953 -0.34764506024843322 0 -0.31208723605418232 -0.33616024018399832 0 -0.31892782856615448 -0.32825501756413727 0 -0.32183099473442811 -0.33958013728355868 0 -0.33127214989488979 -0.33008610863815152 0 -0.33127214989488979 -0.33008610863815152 0 -0.34778566847407638 -0.32953912900806931 0 -0.33412452318830171 -0.35434929914508079 0 -0.32183099473442811 -0.33958013728355868 0 -0.33127214989488979 -0.33008610863815152 0 -0.33412452318830171 -0.35434929914508079 0 -0.34778566847407638 -0.32953912900806931 0 -0.33412452318830171 -0.35434929914508079 0 -0.33127214989488979 -0.33008610863815152 0 -0.34035549841598117 -0.32426700585474 0 -0.34778566847407638 -0.32953912900806931 0 -0.34035549841598117 -0.32426700585474 0 -0.33427681169025408 -0.32246911191447869 0 -0.33675509785737662 -0.31655799101612769 0 -0.33127214989488979 -0.33008610863815152 0 -0.34035549841598117 -0.32426700585474 0 -0.33427681169025408 -0.32246911191447869 0 -0.33127214989488979 -0.33008610863815152 0 -0.33427681169025408 -0.32246911191447869 0 -0.32872450059276898 -0.31896534214889599 0 -0.33427681169025408 -0.32246911191447869 0 -0.32872450059276898 -0.31896534214889599 0 -0.33675509785737662 -0.31655799101612769 0 -0.3301339810941622 -0.31110503031331638 0 -0.32872450059276898 -0.31896534214889599 0 -0.33675509785737662 -0.31655799101612769 0 -0.33956299038192078 -0.30735077663143923 0 -0.33675509785737662 -0.31655799101612769 0 -0.34586440994984541 -0.3145735322147622 0 -0.34035549841598117 -0.32426700585474 0 -0.33675509785737662 -0.31655799101612769 0 -0.34586440994984541 -0.3145735322147622 0 -0.36105831684996031 -0.30543451277817618 0 -0.34778566847407638 -0.32953912900806931 0 -0.36105831684996031 -0.30543451277817618 0 -0.34586440994984541 -0.3145735322147622 0 -0.34778566847407638 -0.32953912900806931 0 -0.34035549841598117 -0.32426700585474 0 -0.34586440994984541 -0.3145735322147622 0 -0.34778566847407638 -0.32953912900806931 0 -0.34035549841598117 -0.32426700585474 0 -0.34778566847407638 -0.32953912900806931 0 -0.36105831684996031 -0.30543451277817618 0 -0.37140736883531977 -0.32183989730859341 0 -0.34778566847407638 -0.32953912900806931 0 -0.38006824781918919 -0.33243312042550199 0 -0.37140736883531977 -0.32183989730859341 0 -0.36666079927166728 -0.34293209489202431 0 -0.37140736883531977 -0.32183989730859341 0 -0.36666079927166728 -0.34293209489202431 0 -0.34778566847407638 -0.32953912900806931 0 -0.34778566847407638 -0.32953912900806931 0 -0.35170181166344461 -0.34709871950800919 0 -0.33412452318830171 -0.35434929914508079 0 -0.36666079927166728 -0.34293209489202431 0 -0.34778566847407638 -0.32953912900806931 0 -0.36666079927166728 -0.34293209489202431 0 -0.34778566847407638 -0.32953912900806931 0 -0.35170181166344461 -0.34709871950800919 0 -0.36666079927166728 -0.34293209489202431 0 -0.35170181166344461 -0.34709871950800919 0 -0.35823625571973289 -0.36157435498686258 0 -0.35170181166344461 -0.34709871950800919 0 -0.35823625571973289 -0.36157435498686258 0 -0.33412452318830171 -0.35434929914508079 0 -0.38553593006925752 -0.3563250607759802 0 -0.36666079927166728 -0.34293209489202431 0 -0.35823625571973289 -0.36157435498686258 0 -0.37549160074202448 -0.3732971907138336 0 -0.38553593006925752 -0.3563250607759802 0 -0.35823625571973289 -0.36157435498686258 0 -0.37549160074202448 -0.3732971907138336 0 -0.35823625571973289 -0.36157435498686258 0 -0.35302350150803719 -0.38208755235937009 0 -0.35823625571973289 -0.36157435498686258 0 -0.34413293857164062 -0.37054757780120701 0 -0.35302350150803719 -0.38208755235937009 0 -0.35823625571973289 -0.36157435498686258 0 -0.34413293857164062 -0.37054757780120701 0 -0.33412452318830171 -0.35434929914508079 0 -0.34413293857164062 -0.37054757780120701 0 -0.33412452318830171 -0.35434929914508079 0 -0.33519042443293379 -0.3802220457599616 0 -0.33412452318830171 -0.35434929914508079 0 -0.33519042443293379 -0.3802220457599616 0 -0.32046337790252549 -0.37915946928209171 0 -0.32183099473442811 -0.33958013728355868 0 -0.33412452318830171 -0.35434929914508079 0 -0.31234840654553953 -0.34764506024843322 0 -0.33412452318830171 -0.35434929914508079 0 -0.316806384823896 -0.36257585725837499 0 -0.31234840654553953 -0.34764506024843322 0 -0.316806384823896 -0.36257585725837499 0 -0.3002892316592175 -0.36914960035789463 0 -0.32046337790252549 -0.37915946928209171 0 -0.33412452318830171 -0.35434929914508079 0 -0.316806384823896 -0.36257585725837499 0 -0.32046337790252549 -0.37915946928209171 0 -0.33412452318830171 -0.35434929914508079 0 -0.32046337790252549 -0.37915946928209171 0 -0.3002892316592175 -0.36914960035789463 0 -0.32046337790252549 -0.37915946928209171 0 -0.3002892316592175 -0.36914960035789463 0 -0.31234840654553953 -0.34764506024843322 0 -0.29527517448125451 -0.36666176000398298 0 -0.316806384823896 -0.36257585725837499 0 -0.3002892316592175 -0.36914960035789463 0 -0.31234840654553953 -0.34764506024843322 0 -0.3002892316592175 -0.36914960035789463 0 -0.29527517448125451 -0.36666176000398298 0 -0.3002892316592175 -0.36914960035789463 0 -0.29403121103535113 -0.38030922419454549 0 -0.31234840654553953 -0.34764506024843322 0 -0.29527517448125451 -0.36666176000398298 0 -0.2976254313092957 -0.34087720338781918 0 -0.3002892316592175 -0.36914960035789463 0 -0.31234840654553953 -0.34764506024843322 0 -0.29527517448125451 -0.36666176000398298 0 -0.26926364122666091 -0.35375553660024128 0 -0.28048823453243299 -0.34080574413418752 0 -0.29527517448125451 -0.36666176000398298 0 -0.2976254313092957 -0.34087720338781918 0 -0.29527517448125451 -0.36666176000398298 0 -0.28048823453243299 -0.34080574413418752 0 -0.2976254313092957 -0.34087720338781918 0 -0.29527517448125451 -0.36666176000398298 0 -0.26926364122666091 -0.35375553660024128 0 -0.29527517448125451 -0.36666176000398298 0 -0.27994264201103719 -0.36323993691456841 0 -0.26926364122666091 -0.35375553660024128 0 -0.29527517448125451 -0.36666176000398298 0 -0.28588261091775702 -0.37268605543787447 0 -0.29403121103535113 -0.38030922419454549 0 -0.29527517448125451 -0.36666176000398298 0 -0.29403121103535113 -0.38030922419454549 0 -0.3002892316592175 -0.36914960035789463 0 -0.29527517448125451 -0.36666176000398298 0 -0.29403121103535113 -0.38030922419454549 0 -0.29527517448125451 -0.36666176000398298 0 -0.28588261091775702 -0.37268605543787447 0 -0.27994264201103719 -0.36323993691456841 0 -0.28588261091775702 -0.37268605543787447 0 -0.27994264201103719 -0.36323993691456841 0 -0.2742629371717063 -0.37916463673385931 0 -0.27994264201103719 -0.36323993691456841 0 -0.26568404082974961 -0.36651666061706623 0 -0.2742629371717063 -0.37916463673385931 0 -0.27994264201103719 -0.36323993691456841 0 -0.26568404082974961 -0.36651666061706623 0 -0.26017799311385281 -0.35268912854855933 0 -0.26568404082974961 -0.36651666061706623 0 -0.25909124390184018 -0.37475905286733341 0 -0.2742629371717063 -0.37916463673385931 0 -0.26568404082974961 -0.36651666061706623 0 -0.25909124390184018 -0.37475905286733341 0 -0.25494538795031141 -0.36273054802101118 0 -0.26568404082974961 -0.36651666061706623 0 -0.25494538795031141 -0.36273054802101118 0 -0.26017799311385281 -0.35268912854855933 0 -0.25909124390184018 -0.37475905286733341 0 -0.25494538795031141 -0.36273054802101118 0 -0.24748772700216881 -0.3717564301773445 0 -0.26017799311385281 -0.35268912854855933 0 -0.2404133442166683 -0.34213832018255058 0 -0.26926364122666091 -0.35375553660024128 0 -0.24325210797206609 -0.34084931319650169 0 -0.26017799311385281 -0.35268912854855933 0 -0.26926364122666091 -0.35375553660024128 0 -0.24325210797206609 -0.34084931319650169 0 -0.25494538795031141 -0.36273054802101118 0 -0.26017799311385281 -0.35268912854855933 0 -0.24808760514302669 -0.3536558827211943 0 -0.27994264201103719 -0.36323993691456841 0 -0.26017799311385281 -0.35268912854855933 0 -0.27994264201103719 -0.36323993691456841 0 -0.26017799311385281 -0.35268912854855933 0 -0.26926364122666091 -0.35375553660024128 0 -0.28048823453243299 -0.34080574413418752 0 -0.2621599680271573 -0.33226375772155409 0 -0.28106782808224812 -0.3236782022466056 0 -0.26926364122666091 -0.35375553660024128 0 -0.28048823453243299 -0.34080574413418752 0 -0.2621599680271573 -0.33226375772155409 0 -0.2621599680271573 -0.33226375772155409 0 -0.24518994726652291 -0.33234415230164399 0 -0.24308922262768951 -0.32099342612622928 0 -0.2621599680271573 -0.33226375772155409 0 -0.24325210797206609 -0.34084931319650169 0 -0.24518994726652291 -0.33234415230164399 0 -0.2621599680271573 -0.33226375772155409 0 -0.24325210797206609 -0.34084931319650169 0 -0.26926364122666091 -0.35375553660024128 0 -0.2621599680271573 -0.33226375772155409 0 -0.24325210797206609 -0.34084931319650169 0 -0.2621599680271573 -0.33226375772155409 0 -0.25915672867891859 -0.31415112243359272 0 -0.24308922262768951 -0.32099342612622928 0 -0.2621599680271573 -0.33226375772155409 0 -0.28106782808224812 -0.3236782022466056 0 -0.25915672867891859 -0.31415112243359272 0 -0.28106782808224812 -0.3236782022466056 0 -0.2709678639136075 -0.30238435136382452 0 -0.2621599680271573 -0.33226375772155409 0 -0.25915672867891859 -0.31415112243359272 0 -0.28106782808224812 -0.3236782022466056 0 -0.28106782808224812 -0.3236782022466056 0 -0.2999756881373381 -0.31509264677165549 0 -0.28453315598845252 -0.30841843357299598 0 -0.28106782808224812 -0.3236782022466056 0 -0.2976254313092957 -0.34087720338781918 0 -0.2999756881373381 -0.31509264677165549 0 -0.28106782808224812 -0.3236782022466056 0 -0.2999756881373381 -0.31509264677165549 0 -0.28048823453243299 -0.34080574413418752 0 -0.28106782808224812 -0.3236782022466056 0 -0.2976254313092957 -0.34087720338781918 0 -0.31234840654553953 -0.34764506024843322 0 -0.2976254313092957 -0.34087720338781918 0 -0.31208723605418232 -0.33616024018399832 0 -0.2976254313092957 -0.34087720338781918 0 -0.31208723605418232 -0.33616024018399832 0 -0.30936258926988919 -0.3261434941065412 0 -0.2976254313092957 -0.34087720338781918 0 -0.2999756881373381 -0.31509264677165549 0 -0.2976254313092957 -0.34087720338781918 0 -0.30936258926988919 -0.3261434941065412 0 -0.2999756881373381 -0.31509264677165549 0 -0.31656029902357641 -0.31849097864348519 0 -0.30936258926988919 -0.3261434941065412 0 -0.2999756881373381 -0.31509264677165549 0 -0.32350207888865212 -0.30440993956247547 0 -0.2999756881373381 -0.31509264677165549 0 -0.30234930147786221 -0.28905184696057518 0 -0.2999756881373381 -0.31509264677165549 0 -0.30234930147786221 -0.28905184696057518 0 -0.2999756881373381 -0.31509264677165549 0 -0.30234930147786221 -0.28905184696057518 0 -0.29239547880504652 -0.30127313523009702 0 -0.32350207888865212 -0.30440993956247547 0 -0.2999756881373381 -0.31509264677165549 0 -0.30234930147786221 -0.28905184696057518 0 -0.29006270545698909 -0.29189763306700739 0 -0.29239547880504652 -0.30127313523009702 0 -0.30234930147786221 -0.28905184696057518 0 -0.29006270545698909 -0.29189763306700739 0 -0.28742262680475061 -0.28573302172180548 0 -0.30234930147786221 -0.28905184696057518 0 -0.28742262680475061 -0.28573302172180548 0 -0.29006270545698909 -0.29189763306700739 0 -0.28742262680475061 -0.28573302172180548 0 -0.28158089536532038 -0.29680102193740848 0 -0.29006270545698909 -0.29189763306700739 0 -0.28158089536532038 -0.29680102193740848 0 -0.29239547880504652 -0.30127313523009702 0 -0.28158089536532038 -0.29680102193740848 0 -0.29239547880504652 -0.30127313523009702 0 -0.28453315598845252 -0.30841843357299598 0 -0.2999756881373381 -0.31509264677165549 0 -0.29239547880504652 -0.30127313523009702 0 -0.28453315598845252 -0.30841843357299598 0 -0.28106782808224812 -0.3236782022466056 0 -0.28453315598845252 -0.30841843357299598 0 -0.2709678639136075 -0.30238435136382452 0 -0.28158089536532038 -0.29680102193740848 0 -0.28453315598845252 -0.30841843357299598 0 -0.2709678639136075 -0.30238435136382452 0 -0.25915672867891859 -0.31415112243359272 0 -0.25718459078837252 -0.29759752524363881 0 -0.24047089863443691 -0.30798947189970438 0 -0.25915672867891859 -0.31415112243359272 0 -0.2709678639136075 -0.30238435136382452 0 -0.25718459078837252 -0.29759752524363881 0 -0.25718459078837252 -0.29759752524363881 0 -0.25108388684634803 -0.28956965662021522 0 -0.26792751193251091 -0.28139844079955562 0 -0.25108388684634803 -0.28956965662021522 0 -0.26792751193251091 -0.28139844079955562 0 -0.2484323970602714 -0.27706385987730509 0 -0.2709678639136075 -0.30238435136382452 0 -0.25718459078837252 -0.29759752524363881 0 -0.26792751193251091 -0.28139844079955562 0 -0.28742262680475061 -0.28573302172180548 0 -0.26792751193251091 -0.28139844079955562 0 -0.28158089536532038 -0.29680102193740848 0 -0.2709678639136075 -0.30238435136382452 0 -0.26792751193251091 -0.28139844079955562 0 -0.28742262680475061 -0.28573302172180548 0 -0.28158089536532038 -0.29680102193740848 0 -0.26792751193251091 -0.28139844079955562 0 -0.26792751193251091 -0.28139844079955562 0 -0.27965676560653041 -0.27550351800418249 0 -0.27506057922854799 -0.26523935036500679 0 -0.28742262680475061 -0.28573302172180548 0 -0.26792751193251091 -0.28139844079955562 0 -0.27965676560653041 -0.27550351800418249 0 -0.26792751193251091 -0.28139844079955562 0 -0.26170023695288303 -0.26848976391570201 0 -0.27506057922854799 -0.26523935036500679 0 -0.27965676560653041 -0.27550351800418249 0 -0.27506057922854799 -0.26523935036500679 0 -0.28821634446031208 -0.2696432591303618 0 -0.26792751193251091 -0.28139844079955562 0 -0.2484323970602714 -0.27706385987730509 0 -0.26792751193251091 -0.28139844079955562 0 -0.26170023695288303 -0.26848976391570201 0 -0.2484323970602714 -0.27706385987730509 0 -0.26170023695288303 -0.26848976391570201 0 -0.25309751137434572 -0.26289123234143091 0 -0.2484323970602714 -0.27706385987730509 0 -0.2565674865322034 -0.25340195958415102 0 -0.26524553468775469 -0.25886506807255583 0 -0.27383001930629169 -0.24744255459442921 0 -0.2565674865322034 -0.25340195958415102 0 -0.27383001930629169 -0.24744255459442921 0 -0.2565674865322034 -0.25340195958415102 0 -0.25309751137434572 -0.26289123234143091 0 -0.24233717299785959 -0.25960849866204011 0 -0.2565674865322034 -0.25340195958415102 0 -0.25309751137434572 -0.26289123234143091 0 -0.26524553468775469 -0.25886506807255583 0 -0.26170023695288303 -0.26848976391570201 0 -0.25309751137434572 -0.26289123234143091 0 -0.26524553468775469 -0.25886506807255583 0 -0.27506057922854799 -0.26523935036500679 0 -0.28942662192718172 -0.25357945894426132 0 -0.27383001930629169 -0.24744255459442921 0 -0.26524553468775469 -0.25886506807255583 0 -0.27506057922854799 -0.26523935036500679 0 -0.27383001930629169 -0.24744255459442921 0 -0.26170023695288303 -0.26848976391570201 0 -0.26524553468775469 -0.25886506807255583 0 -0.27506057922854799 -0.26523935036500679 0 -0.28942662192718172 -0.25357945894426132 0 -0.29569431645386429 -0.26311293363000732 0 -0.28821634446031208 -0.2696432591303618 0 -0.28942662192718172 -0.25357945894426132 0 -0.27383001930629169 -0.24744255459442921 0 -0.27506057922854799 -0.26523935036500679 0 -0.28942662192718172 -0.25357945894426132 0 -0.28821634446031208 -0.2696432591303618 0 -0.28942662192718172 -0.25357945894426132 0 -0.29569431645386429 -0.26311293363000732 0 -0.30502322454807101 -0.25971636329409542 0 -0.29569431645386429 -0.26311293363000732 0 -0.28821634446031208 -0.2696432591303618 0 -0.30425539613548452 -0.26814017253042433 0 -0.28742262680475061 -0.28573302172180548 0 -0.27965676560653041 -0.27550351800418249 0 -0.28821634446031208 -0.2696432591303618 0 -0.28742262680475061 -0.28573302172180548 0 -0.28821634446031208 -0.2696432591303618 0 -0.30425539613548452 -0.26814017253042433 0 -0.28742262680475061 -0.28573302172180548 0 -0.30425539613548452 -0.26814017253042433 0 -0.31480478096024378 -0.27564718726691712 0 -0.30234930147786221 -0.28905184696057518 0 -0.30425539613548452 -0.26814017253042433 0 -0.30234930147786221 -0.28905184696057518 0 -0.30425539613548452 -0.26814017253042433 0 -0.30234930147786221 -0.28905184696057518 0 -0.28742262680475061 -0.28573302172180548 0 -0.30425539613548452 -0.26814017253042433 0 -0.31480478096024378 -0.27564718726691712 0 -0.30425539613548452 -0.26814017253042433 0 -0.31032083431566337 -0.26180085087236171 0 -0.30425539613548452 -0.26814017253042433 0 -0.31032083431566337 -0.26180085087236171 0 -0.30502322454807101 -0.25971636329409542 0 -0.28942662192718172 -0.25357945894426132 0 -0.30538593138510828 -0.25573712372202267 0 -0.29948497002523827 -0.2483657822867901 0 -0.28942662192718172 -0.25357945894426132 0 -0.30502322454807101 -0.25971636329409542 0 -0.30538593138510828 -0.25573712372202267 0 -0.30425539613548452 -0.26814017253042433 0 -0.31032083431566337 -0.26180085087236171 0 -0.31032083431566337 -0.26180085087236171 0 -0.30502322454807101 -0.25971636329409542 0 -0.31032083431566337 -0.26180085087236171 0 -0.30502322454807101 -0.25971636329409542 0 -0.30538593138510828 -0.25573712372202267 0 -0.31283906540333922 -0.25031215033235238 0 -0.31032083431566337 -0.26180085087236171 0 -0.30538593138510828 -0.25573712372202267 0 -0.31283906540333922 -0.25031215033235238 0 -0.30538593138510828 -0.25573712372202267 0 -0.30623861516307299 -0.24935013043731349 0 -0.30502322454807101 -0.25971636329409542 0 -0.30538593138510828 -0.25573712372202267 0 -0.28942662192718172 -0.25357945894426132 0 -0.30502322454807101 -0.25971636329409542 0 -0.30538593138510828 -0.25573712372202267 0 -0.29948497002523827 -0.2483657822867901 0 -0.30623861516307299 -0.24935013043731349 0 -0.30425539613548452 -0.26814017253042433 0 -0.30502322454807101 -0.25971636329409542 0 -0.29569431645386429 -0.26311293363000732 0 -0.30425539613548452 -0.26814017253042433 0 -0.30502322454807101 -0.25971636329409542 0 -0.33143192801526428 -0.45396038638140679 0 -0.33152258580119082 -0.46633970128806979 0 -0.34296165509457921 -0.45730971557378147 0 -0.34069406563311189 -0.44566521365826578 0 -0.32492704317595772 -0.44077768091168912 0 -0.33812272201467081 -0.43047089330918592 0 -0.33143192801526428 -0.45396038638140679 0 -0.34069406563311189 -0.44566521365826578 0 -0.32492704317595772 -0.44077768091168912 0 -0.33143192801526428 -0.45396038638140679 0 -0.34296165509457921 -0.45730971557378147 0 -0.34069406563311189 -0.44566521365826578 0 -0.33143192801526428 -0.45396038638140679 0 -0.32492704317595772 -0.44077768091168912 0 -0.31987457796333868 -0.4551426725204325 0 -0.32492704317595772 -0.44077768091168912 0 -0.31987457796333868 -0.4551426725204325 0 -0.31015853372433788 -0.44544301337781073 0 -0.33152258580119082 -0.46633970128806979 0 -0.30592196819360068 -0.46328971004504182 0 -0.33152258580119082 -0.46633970128806979 0 -0.31987457796333868 -0.4551426725204325 0 -0.30592196819360068 -0.46328971004504182 0 -0.33152258580119082 -0.46633970128806979 0 -0.32094261384274558 -0.46854088973335889 0 -0.30592196819360068 -0.46328971004504182 0 -0.33143192801526428 -0.45396038638140679 0 -0.33152258580119082 -0.46633970128806979 0 -0.31987457796333868 -0.4551426725204325 0 -0.33152258580119082 -0.46633970128806979 0 -0.32094261384274558 -0.46854088973335889 0 -0.32966732857214198 -0.4835879285261328 0 -0.32094261384274558 -0.46854088973335889 0 -0.32966732857214198 -0.4835879285261328 0 -0.31208929727375578 -0.48491526738579699 0 -0.32221211863154181 -0.5 0 -0.32966732857214198 -0.4835879285261328 0 -0.31208929727375578 -0.48491526738579699 0 -0.32221211863154181 -0.5 0 -0.32966732857214198 -0.4835879285261328 0 -0.34860848031248309 -0.5 0 -0.32966732857214198 -0.4835879285261328 0 -0.34707385437868848 -0.48052394199199022 0 -0.34860848031248309 -0.5 0 -0.33152258580119082 -0.46633970128806979 0 -0.32966732857214198 -0.4835879285261328 0 -0.34707385437868848 -0.48052394199199022 0 -0.33152258580119082 -0.46633970128806979 0 -0.3571232034087809 -0.46938969253109791 0 -0.34707385437868848 -0.48052394199199022 0 -0.3571232034087809 -0.46938969253109791 0 -0.34707385437868848 -0.48052394199199022 0 -0.36652141413456929 -0.48474993749143802 0 -0.34707385437868848 -0.48052394199199022 0 -0.34860848031248309 -0.5 0 -0.36652141413456929 -0.48474993749143802 0 -0.37500484199342449 -0.5 0 -0.34860848031248309 -0.5 0 -0.36652141413456929 -0.48474993749143802 0 -0.38272382101637098 -0.47243968377412587 0 -0.3571232034087809 -0.46938969253109791 0 -0.36652141413456929 -0.48474993749143802 0 -0.38272382101637098 -0.47243968377412587 0 -0.3571232034087809 -0.46938969253109791 0 -0.38265619596279349 -0.45813348326120767 0 -0.38272382101637098 -0.47243968377412587 0 -0.3571232034087809 -0.46938969253109791 0 -0.38265619596279349 -0.45813348326120767 0 -0.3571232034087809 -0.46938969253109791 0 -0.35544663641047641 -0.4489101100326689 0 -0.38265619596279349 -0.45813348326120767 0 -0.35544663641047641 -0.4489101100326689 0 -0.34296165509457921 -0.45730971557378147 0 -0.3571232034087809 -0.46938969253109791 0 -0.35544663641047641 -0.4489101100326689 0 -0.33152258580119082 -0.46633970128806979 0 -0.3571232034087809 -0.46938969253109791 0 -0.33152258580119082 -0.46633970128806979 0 -0.34296165509457921 -0.45730971557378147 0 -0.3571232034087809 -0.46938969253109791 0 -0.34069406563311189 -0.44566521365826578 0 -0.35544663641047641 -0.4489101100326689 0 -0.35372302635176472 -0.43532257313283612 0 -0.34296165509457921 -0.45730971557378147 0 -0.34069406563311189 -0.44566521365826578 0 -0.35544663641047641 -0.4489101100326689 0 -0.35544663641047641 -0.4489101100326689 0 -0.3723601590800425 -0.44005613486137668 0 -0.35372302635176472 -0.43532257313283612 0 -0.38265619596279349 -0.45813348326120767 0 -0.35544663641047641 -0.4489101100326689 0 -0.3723601590800425 -0.44005613486137668 0 -0.38028594703985957 -0.42392304976487449 0 -0.3723601590800425 -0.44005613486137668 0 -0.36423780173753523 -0.4264797532188066 0 -0.3723601590800425 -0.44005613486137668 0 -0.36423780173753523 -0.4264797532188066 0 -0.35372302635176472 -0.43532257313283612 0 -0.38028594703985957 -0.42392304976487449 0 -0.36423780173753523 -0.4264797532188066 0 -0.36590226101420908 -0.41270082520662749 0 -0.36423780173753523 -0.4264797532188066 0 -0.36590226101420908 -0.41270082520662749 0 -0.35147677323475168 -0.42035333371671318 0 -0.36590226101420908 -0.41270082520662749 0 -0.35147677323475168 -0.42035333371671318 0 -0.35184044830027089 -0.40346733636007898 0 -0.35147677323475168 -0.42035333371671318 0 -0.35184044830027089 -0.40346733636007898 0 -0.33675831632547681 -0.41105613646481343 0 -0.35147677323475168 -0.42035333371671318 0 -0.35372302635176472 -0.43532257313283612 0 -0.33812272201467081 -0.43047089330918592 0 -0.34069406563311189 -0.44566521365826578 0 -0.35372302635176472 -0.43532257313283612 0 -0.33812272201467081 -0.43047089330918592 0 -0.36423780173753523 -0.4264797532188066 0 -0.35147677323475168 -0.42035333371671318 0 -0.35372302635176472 -0.43532257313283612 0 -0.37549160074202448 -0.3732971907138336 0 -0.36544727141479139 -0.39026932065168712 0 -0.37549160074202448 -0.3732971907138336 0 -0.36544727141479139 -0.39026932065168712 0 -0.35302350150803719 -0.38208755235937009 0 -0.36590226101420908 -0.41270082520662749 0 -0.36544727141479139 -0.39026932065168712 0 -0.35184044830027089 -0.40346733636007898 0 -0.38114412328536468 -0.40833987260765031 0 -0.36590226101420908 -0.41270082520662749 0 -0.36544727141479139 -0.39026932065168712 0 -0.35184044830027089 -0.40346733636007898 0 -0.35302350150803719 -0.38208755235937009 0 -0.34082557137486691 -0.39523504024196021 0 -0.36544727141479139 -0.39026932065168712 0 -0.35184044830027089 -0.40346733636007898 0 -0.35302350150803719 -0.38208755235937009 0 -0.34413293857164062 -0.37054757780120701 0 -0.35302350150803719 -0.38208755235937009 0 -0.33519042443293379 -0.3802220457599616 0 -0.35302350150803719 -0.38208755235937009 0 -0.33519042443293379 -0.3802220457599616 0 -0.34082557137486691 -0.39523504024196021 0 -0.33519042443293379 -0.3802220457599616 0 -0.32808226850220168 -0.39240284671641351 0 -0.3247168406287716 -0.38559411673624039 0 -0.33519042443293379 -0.3802220457599616 0 -0.34082557137486691 -0.39523504024196021 0 -0.32808226850220168 -0.39240284671641351 0 -0.34082557137486691 -0.39523504024196021 0 -0.32808226850220168 -0.39240284671641351 0 -0.33675831632547681 -0.41105613646481343 0 -0.32808226850220168 -0.39240284671641351 0 -0.33675831632547681 -0.41105613646481343 0 -0.3206477944579052 -0.41019310838576051 0 -0.35184044830027089 -0.40346733636007898 0 -0.34082557137486691 -0.39523504024196021 0 -0.33675831632547681 -0.41105613646481343 0 -0.32808226850220168 -0.39240284671641351 0 -0.31437491003333667 -0.39021680895226152 0 -0.3206477944579052 -0.41019310838576051 0 -0.32808226850220168 -0.39240284671641351 0 -0.3247168406287716 -0.38559411673624039 0 -0.31437491003333667 -0.39021680895226152 0 -0.31437491003333667 -0.39021680895226152 0 -0.32046337790252549 -0.37915946928209171 0 -0.30588070030683939 -0.38181824174751872 0 -0.3247168406287716 -0.38559411673624039 0 -0.31437491003333667 -0.39021680895226152 0 -0.32046337790252549 -0.37915946928209171 0 -0.31437491003333667 -0.39021680895226152 0 -0.32046337790252549 -0.37915946928209171 0 -0.33519042443293379 -0.3802220457599616 0 -0.3247168406287716 -0.38559411673624039 0 -0.32046337790252549 -0.37915946928209171 0 -0.32492704317595772 -0.44077768091168912 0 -0.33812272201467081 -0.43047089330918592 0 -0.32670905357880831 -0.42305010768611329 0 -0.35147677323475168 -0.42035333371671318 0 -0.33812272201467081 -0.43047089330918592 0 -0.33675831632547681 -0.41105613646481343 0 -0.33812272201467081 -0.43047089330918592 0 -0.33675831632547681 -0.41105613646481343 0 -0.32670905357880831 -0.42305010768611329 0 -0.33675831632547681 -0.41105613646481343 0 -0.3206477944579052 -0.41019310838576051 0 -0.32670905357880831 -0.42305010768611329 0 -0.3206477944579052 -0.41019310838576051 0 -0.31307232924124478 -0.42559811140412351 0 -0.32670905357880831 -0.42305010768611329 0 -0.32492704317595772 -0.44077768091168912 0 -0.31307232924124478 -0.42559811140412351 0 -0.31015853372433788 -0.44544301337781073 0 -0.32492704317595772 -0.44077768091168912 0 -0.31307232924124478 -0.42559811140412351 0 -0.32670905357880831 -0.42305010768611329 0 -0.31307232924124478 -0.42559811140412351 0 -0.29907098912325059 -0.43374406761790368 0 -0.29851577765410048 -0.41098608612968202 0 -0.31307232924124478 -0.42559811140412351 0 -0.29907098912325059 -0.43374406761790368 0 -0.31015853372433788 -0.44544301337781073 0 -0.3206477944579052 -0.41019310838576051 0 -0.31307232924124478 -0.42559811140412351 0 -0.29851577765410048 -0.41098608612968202 0 -0.3206477944579052 -0.41019310838576051 0 -0.29851577765410048 -0.41098608612968202 0 -0.29851577765410048 -0.41098608612968202 0 -0.27638376085029581 -0.41177906387360241 0 -0.29851577765410048 -0.41098608612968202 0 -0.28520748594282241 -0.3960441440340734 0 -0.27638376085029581 -0.41177906387360241 0 -0.29851577765410048 -0.41098608612968202 0 -0.28540276919059199 -0.42535658303670731 0 -0.27638376085029581 -0.41177906387360241 0 -0.29907098912325059 -0.43374406761790368 0 -0.29851577765410048 -0.41098608612968202 0 -0.28540276919059199 -0.42535658303670731 0 -0.28540276919059199 -0.42535658303670731 0 -0.27848929033898201 -0.43669604725877897 0 -0.28902284908971709 -0.44016681433255572 0 -0.29907098912325059 -0.43374406761790368 0 -0.28540276919059199 -0.42535658303670731 0 -0.28902284908971709 -0.44016681433255572 0 -0.3002892316592175 -0.36914960035789463 0 -0.32046337790252549 -0.37915946928209171 0 -0.30588070030683939 -0.38181824174751872 0 -0.3002892316592175 -0.36914960035789463 0 -0.29819443980788141 -0.38001079285233907 0 -0.30588070030683939 -0.38181824174751872 0 -0.3002892316592175 -0.36914960035789463 0 -0.29819443980788141 -0.38001079285233907 0 -0.29403121103535113 -0.38030922419454549 0 -0.31437491003333667 -0.39021680895226152 0 -0.30588070030683939 -0.38181824174751872 0 -0.30232780815510779 -0.39560758766926629 0 -0.29819443980788141 -0.38001079285233907 0 -0.30588070030683939 -0.38181824174751872 0 -0.29681739610749358 -0.387616864260033 0 -0.30588070030683939 -0.38181824174751872 0 -0.30232780815510779 -0.39560758766926629 0 -0.29681739610749358 -0.387616864260033 0 -0.31437491003333667 -0.39021680895226152 0 -0.3206477944579052 -0.41019310838576051 0 -0.30232780815510779 -0.39560758766926629 0 -0.3206477944579052 -0.41019310838576051 0 -0.29851577765410048 -0.41098608612968202 0 -0.30232780815510779 -0.39560758766926629 0 -0.30232780815510779 -0.39560758766926629 0 -0.28520748594282241 -0.3960441440340734 0 -0.29681739610749358 -0.387616864260033 0 -0.29851577765410048 -0.41098608612968202 0 -0.30232780815510779 -0.39560758766926629 0 -0.28520748594282241 -0.3960441440340734 0 -0.28520748594282241 -0.3960441440340734 0 -0.28484606126690931 -0.38205101510008821 0 -0.29403121103535113 -0.38030922419454549 0 -0.28520748594282241 -0.3960441440340734 0 -0.29403121103535113 -0.38030922419454549 0 -0.28520748594282241 -0.3960441440340734 0 -0.29681739610749358 -0.387616864260033 0 -0.29403121103535113 -0.38030922419454549 0 -0.28520748594282241 -0.3960441440340734 0 -0.28484606126690931 -0.38205101510008821 0 -0.2742629371717063 -0.37916463673385931 0 -0.28588261091775702 -0.37268605543787447 0 -0.28484606126690931 -0.38205101510008821 0 -0.2742629371717063 -0.37916463673385931 0 -0.28588261091775702 -0.37268605543787447 0 -0.28484606126690931 -0.38205101510008821 0 -0.29403121103535113 -0.38030922419454549 0 -0.29819443980788141 -0.38001079285233907 0 -0.29681739610749358 -0.387616864260033 0 -0.29403121103535113 -0.38030922419454549 0 -0.28520748594282241 -0.3960441440340734 0 -0.2742629371717063 -0.37916463673385931 0 -0.26755910350718881 -0.39582792531461569 0 -0.2742629371717063 -0.37916463673385931 0 -0.26755910350718881 -0.39582792531461569 0 -0.26281209396899169 -0.38517470131063508 0 -0.28520748594282241 -0.3960441440340734 0 -0.27638376085029581 -0.41177906387360241 0 -0.28520748594282241 -0.3960441440340734 0 -0.26755910350718881 -0.39582792531461569 0 -0.27638376085029581 -0.41177906387360241 0 -0.26755910350718881 -0.39582792531461569 0 -0.25033509129523179 -0.39094719032673231 0 -0.25487024651921952 -0.41254988102096568 0 -0.26755910350718881 -0.39582792531461569 0 -0.25033509129523179 -0.39094719032673231 0 -0.26281209396899169 -0.38517470131063508 0 -0.25909124390184018 -0.37475905286733341 0 -0.25033509129523179 -0.39094719032673231 0 -0.26281209396899169 -0.38517470131063508 0 -0.25909124390184018 -0.37475905286733341 0 -0.25033509129523179 -0.39094719032673231 0 -0.24748772700216881 -0.3717564301773445 0 -0.25909124390184018 -0.37475905286733341 0 -0.2742629371717063 -0.37916463673385931 0 -0.26281209396899169 -0.38517470131063508 0 -0.26911429951178012 -0.42474234074800371 0 -0.27848929033898201 -0.43669604725877897 0 -0.26690007516498948 -0.44242471351124879 0 -0.28540276919059199 -0.42535658303670731 0 -0.26911429951178012 -0.42474234074800371 0 -0.27848929033898201 -0.43669604725877897 0 -0.27638376085029581 -0.41177906387360241 0 -0.25487024651921952 -0.41254988102096568 0 -0.28540276919059199 -0.42535658303670731 0 -0.26911429951178012 -0.42474234074800371 0 -0.27638376085029581 -0.41177906387360241 0 -0.26911429951178012 -0.42474234074800371 0 -0.27638376085029581 -0.41177906387360241 0 -0.25487024651921952 -0.41254988102096568 0 -0.26755910350718881 -0.39582792531461569 0 -0.27638376085029581 -0.41177906387360241 0 -0.25487024651921952 -0.41254988102096568 0 -0.26911429951178012 -0.42474234074800371 0 -0.27638376085029581 -0.41177906387360241 0 -0.26911429951178012 -0.42474234074800371 0 -0.25908880606166329 -0.43064529781943001 0 -0.26690007516498948 -0.44242471351124879 0 -0.25487024651921952 -0.41254988102096568 0 -0.25908880606166329 -0.43064529781943001 0 -0.2468605885266735 -0.43014712497011809 0 -0.26911429951178012 -0.42474234074800371 0 -0.25487024651921952 -0.41254988102096568 0 -0.25908880606166329 -0.43064529781943001 0 -0.25908880606166329 -0.43064529781943001 0 -0.25479397652280911 -0.44050862113911837 0 -0.2468605885266735 -0.43014712497011809 0 -0.25479397652280911 -0.44050862113911837 0 -0.2546108597688766 -0.45375703833677078 0 -0.2450571310604201 -0.44414202720417628 0 -0.25479397652280911 -0.44050862113911837 0 -0.2546108597688766 -0.45375703833677078 0 -0.26690007516498948 -0.44242471351124879 0 -0.2546108597688766 -0.45375703833677078 0 -0.26838297633475061 -0.45652413347846638 0 -0.26690007516498948 -0.44242471351124879 0 -0.25908880606166329 -0.43064529781943001 0 -0.25479397652280911 -0.44050862113911837 0 -0.26690007516498948 -0.44242471351124879 0 -0.25109629719050858 -0.46406488014867903 0 -0.2546108597688766 -0.45375703833677078 0 -0.26079873433517492 -0.46936342421069649 0 -0.2546108597688766 -0.45375703833677078 0 -0.26838297633475061 -0.45652413347846638 0 -0.26079873433517492 -0.46936342421069649 0 -0.27799569035848881 -0.46687050799545499 0 -0.26838297633475061 -0.45652413347846638 0 -0.26079873433517492 -0.46936342421069649 0 -0.27799569035848881 -0.46687050799545499 0 -0.26838297633475061 -0.45652413347846638 0 -0.28160952204622303 -0.450204983338161 0 -0.26838297633475061 -0.45652413347846638 0 -0.26690007516498948 -0.44242471351124879 0 -0.28160952204622303 -0.450204983338161 0 -0.27848929033898201 -0.43669604725877897 0 -0.26690007516498948 -0.44242471351124879 0 -0.28160952204622303 -0.450204983338161 0 -0.29907098912325059 -0.43374406761790368 0 -0.28902284908971709 -0.44016681433255572 0 -0.29708038679871529 -0.44973292283788502 0 -0.27848929033898201 -0.43669604725877897 0 -0.28902284908971709 -0.44016681433255572 0 -0.28160952204622303 -0.450204983338161 0 -0.28902284908971709 -0.44016681433255572 0 -0.28160952204622303 -0.450204983338161 0 -0.29708038679871529 -0.44973292283788502 0 -0.27799569035848881 -0.46687050799545499 0 -0.29150619976335518 -0.46129715127825488 0 -0.29492343141974797 -0.47638763217473168 0 -0.27799569035848881 -0.46687050799545499 0 -0.28160952204622303 -0.450204983338161 0 -0.29150619976335518 -0.46129715127825488 0 -0.28160952204622303 -0.450204983338161 0 -0.29150619976335518 -0.46129715127825488 0 -0.29708038679871529 -0.44973292283788502 0 -0.29150619976335518 -0.46129715127825488 0 -0.30592196819360068 -0.46328971004504182 0 -0.29708038679871529 -0.44973292283788502 0 -0.31987457796333868 -0.4551426725204325 0 -0.30592196819360068 -0.46328971004504182 0 -0.31015853372433788 -0.44544301337781073 0 -0.29150619976335518 -0.46129715127825488 0 -0.30592196819360068 -0.46328971004504182 0 -0.29492343141974797 -0.47638763217473168 0 -0.29907098912325059 -0.43374406761790368 0 -0.31015853372433788 -0.44544301337781073 0 -0.29708038679871529 -0.44973292283788502 0 -0.30592196819360068 -0.46328971004504182 0 -0.31015853372433788 -0.44544301337781073 0 -0.29708038679871529 -0.44973292283788502 0 -0.31208929727375578 -0.48491526738579699 0 -0.29492343141974797 -0.47638763217473168 0 -0.29581575695060047 -0.5 0 -0.32221211863154181 -0.5 0 -0.31208929727375578 -0.48491526738579699 0 -0.29581575695060047 -0.5 0 -0.32094261384274558 -0.46854088973335889 0 -0.30592196819360068 -0.46328971004504182 0 -0.29492343141974797 -0.47638763217473168 0 -0.32094261384274558 -0.46854088973335889 0 -0.29492343141974797 -0.47638763217473168 0 -0.32094261384274558 -0.46854088973335889 0 -0.31208929727375578 -0.48491526738579699 0 -0.29492343141974797 -0.47638763217473168 0 -0.29492343141974797 -0.47638763217473168 0 -0.26890424899675031 -0.48423437461610452 0 -0.29492343141974797 -0.47638763217473168 0 -0.28441593737837417 -0.48860776134254891 0 -0.26890424899675031 -0.48423437461610452 0 -0.29492343141974797 -0.47638763217473168 0 -0.28441593737837417 -0.48860776134254891 0 -0.29581575695060047 -0.5 0 -0.28441593737837417 -0.48860776134254891 0 -0.29581575695060047 -0.5 0 -0.26941939526965919 -0.5 0 -0.28441593737837417 -0.48860776134254891 0 -0.26941939526965919 -0.5 0 -0.26890424899675031 -0.48423437461610452 0 -0.27799569035848881 -0.46687050799545499 0 -0.29492343141974797 -0.47638763217473168 0 -0.26890424899675031 -0.48423437461610452 0 -0.27799569035848881 -0.46687050799545499 0 -0.26890424899675031 -0.48423437461610452 0 -0.26079873433517492 -0.46936342421069649 0 -0.26890424899675031 -0.48423437461610452 0 -0.26079873433517492 -0.46936342421069649 0 -0.25379328426056558 -0.48205965705463422 0 -0.26079873433517492 -0.46936342421069649 0 -0.25379328426056558 -0.48205965705463422 0 -0.250874604213362 -0.47391739130808008 0 -0.25109629719050858 -0.46406488014867903 0 -0.26079873433517492 -0.46936342421069649 0 -0.250874604213362 -0.47391739130808008 0 -0.26941939526965919 -0.5 0 -0.26890424899675031 -0.48423437461610452 0 -0.2544134183364497 -0.49413622749019132 0 -0.26941939526965919 -0.5 0 -0.2544134183364497 -0.49413622749019132 0 -0.2430230335887178 -0.5 0 -0.26890424899675031 -0.48423437461610452 0 -0.2544134183364497 -0.49413622749019132 0 -0.24288506657375261 -0.49208111705747781 0 -0.26890424899675031 -0.48423437461610452 0 -0.25379328426056558 -0.48205965705463422 0 -0.24288506657375261 -0.49208111705747781 0 -0.26890424899675031 -0.48423437461610452 0 -0.24288506657375261 -0.49208111705747781 0 -0.2544134183364497 -0.49413622749019132 0 -0.2430230335887178 -0.5 0 -0.24783534725336881 -0.49436564577737419 0 -0.2544134183364497 -0.49413622749019132 0 -0.24783534725336881 -0.49436564577737419 0 -0.24288506657375261 -0.49208111705747781 0 -0.2430230335887178 -0.5 0 -0.24783534725336881 -0.49436564577737419 0 -0.24288506657375261 -0.49208111705747781 0 -0.24783534725336881 -0.49436564577737419 0 -0.24288506657375261 -0.49208111705747781 0 -0.24288506657375261 -0.49208111705747781 0 -0.24429345028001889 -0.4821559175287794 0 -0.23457410743521059 -0.47899140825596259 0 -0.25379328426056558 -0.48205965705463422 0 -0.24288506657375261 -0.49208111705747781 0 -0.24429345028001889 -0.4821559175287794 0 -0.25379328426056558 -0.48205965705463422 0 -0.250874604213362 -0.47391739130808008 0 -0.24429345028001889 -0.4821559175287794 0 -0.24429345028001889 -0.4821559175287794 0 -0.2443912550005416 -0.47194307759761112 0 -0.2395637252682277 -0.47605318874815389 0 -0.25109629719050858 -0.46406488014867903 0 -0.250874604213362 -0.47391739130808008 0 -0.2443912550005416 -0.47194307759761112 0 -0.250874604213362 -0.47391739130808008 0 -0.24429345028001889 -0.4821559175287794 0 -0.2443912550005416 -0.47194307759761112 0 -0.2443912550005416 -0.47194307759761112 0 -0.2395637252682277 -0.47605318874815389 0 -0.23499608835713959 -0.47112235161026261 0 -0.2395637252682277 -0.47605318874815389 0 -0.23499608835713959 -0.47112235161026261 0 -0.23457410743521059 -0.47899140825596259 0 -0.24429345028001889 -0.4821559175287794 0 -0.2395637252682277 -0.47605318874815389 0 -0.23457410743521059 -0.47899140825596259 0 -0.23457410743521059 -0.47899140825596259 0 -0.2250369990674011 -0.47003999804886298 0 -0.2204246459600448 -0.48171575006642248 0 -0.24288506657375261 -0.49208111705747781 0 -0.23457410743521059 -0.47899140825596259 0 -0.2204246459600448 -0.48171575006642248 0 -0.23499608835713959 -0.47112235161026261 0 -0.23457410743521059 -0.47899140825596259 0 -0.2250369990674011 -0.47003999804886298 0 -0.2430230335887178 -0.5 0 -0.24288506657375261 -0.49208111705747781 0 -0.21662667190777651 -0.49999999999999939 0 -0.24288506657375261 -0.49208111705747781 0 -0.21662667190777651 -0.49999999999999939 0 -0.24288506657375261 -0.49208111705747781 0 -0.2204246459600448 -0.48171575006642248 0 -0.24288506657375261 -0.49208111705747781 0 -0.2204246459600448 -0.48171575006642248 0 -0.21662667190777651 -0.49999999999999939 0 -0.2450571310604201 -0.44414202720417628 0 -0.23716380350122879 -0.45645441389937441 0 -0.23280677558438309 -0.43386548686292281 0 -0.2546108597688766 -0.45375703833677078 0 -0.2450571310604201 -0.44414202720417628 0 -0.23716380350122879 -0.45645441389937441 0 -0.25479397652280911 -0.44050862113911837 0 -0.2450571310604201 -0.44414202720417628 0 -0.2468605885266735 -0.43014712497011809 0 -0.25109629719050858 -0.46406488014867903 0 -0.2546108597688766 -0.45375703833677078 0 -0.23716380350122879 -0.45645441389937441 0 -0.25109629719050858 -0.46406488014867903 0 -0.2443912550005416 -0.47194307759761112 0 -0.23716380350122879 -0.45645441389937441 0 -0.2443912550005416 -0.47194307759761112 0 -0.23499608835713959 -0.47112235161026261 0 -0.23716380350122879 -0.45645441389937441 0 -0.2250369990674011 -0.47003999804886298 0 -0.21844010846223411 -0.44206575668227449 0 -0.2250369990674011 -0.47003999804886298 0 -0.23716380350122879 -0.45645441389937441 0 -0.21844010846223411 -0.44206575668227449 0 -0.23499608835713959 -0.47112235161026261 0 -0.2250369990674011 -0.47003999804886298 0 -0.23716380350122879 -0.45645441389937441 0 -0.23716380350122879 -0.45645441389937441 0 -0.21844010846223411 -0.44206575668227449 0 -0.23280677558438309 -0.43386548686292281 0 -0.21844010846223411 -0.44206575668227449 0 -0.21054881561508179 -0.46151962797655111 0 -0.19087809923939161 -0.44242625200982799 0 -0.2250369990674011 -0.47003999804886298 0 -0.21844010846223411 -0.44206575668227449 0 -0.21054881561508179 -0.46151962797655111 0 -0.21054881561508179 -0.46151962797655111 0 -0.19087809923939161 -0.44242625200982799 0 -0.1979642253463372 -0.47135038307536692 0 -0.19087809923939161 -0.44242625200982799 0 -0.1979642253463372 -0.47135038307536692 0 -0.17550380473262961 -0.46098501608431119 0 -0.2039060436575347 -0.48788306012054039 0 -0.21662667190777651 -0.49999999999999939 0 -0.191185415407293 -0.5 0 -0.2204246459600448 -0.48171575006642248 0 -0.2039060436575347 -0.48788306012054039 0 -0.21662667190777651 -0.49999999999999939 0 -0.2250369990674011 -0.47003999804886298 0 -0.2204246459600448 -0.48171575006642248 0 -0.21054881561508179 -0.46151962797655111 0 -0.2204246459600448 -0.48171575006642248 0 -0.2039060436575347 -0.48788306012054039 0 -0.1979642253463372 -0.47135038307536692 0 -0.2204246459600448 -0.48171575006642248 0 -0.1979642253463372 -0.47135038307536692 0 -0.2204246459600448 -0.48171575006642248 0 -0.21054881561508179 -0.46151962797655111 0 -0.1979642253463372 -0.47135038307536692 0 -0.2039060436575347 -0.48788306012054039 0 -0.1979642253463372 -0.47135038307536692 0 -0.18170511770794731 -0.48283447360099019 0 -0.2039060436575347 -0.48788306012054039 0 -0.191185415407293 -0.5 0 -0.18170511770794731 -0.48283447360099019 0 -0.191185415407293 -0.5 0 -0.16574415890680941 -0.5 0 -0.18170511770794731 -0.48283447360099019 0 -0.16574415890680941 -0.5 0 -0.18170511770794731 -0.48283447360099019 0 -0.1559270581970803 -0.47678838232572268 0 -0.18170511770794731 -0.48283447360099019 0 -0.17550380473262961 -0.46098501608431119 0 -0.1559270581970803 -0.47678838232572268 0 -0.1979642253463372 -0.47135038307536692 0 -0.18170511770794731 -0.48283447360099019 0 -0.17550380473262961 -0.46098501608431119 0 -0.1979642253463372 -0.47135038307536692 0 -0.17550380473262961 -0.46098501608431119 0 -0.19087809923939161 -0.44242625200982799 0 -0.17550380473262961 -0.46098501608431119 0 -0.16487953686040341 -0.43668708651363358 0 -0.17550380473262961 -0.46098501608431119 0 -0.15866236735209521 -0.45377864165300308 0 -0.16487953686040341 -0.43668708651363358 0 -0.17550380473262961 -0.46098501608431119 0 -0.15866236735209521 -0.45377864165300308 0 -0.1559270581970803 -0.47678838232572268 0 -0.15866236735209521 -0.45377864165300308 0 -0.14280129841846509 -0.46103953978105727 0 -0.1559270581970803 -0.47678838232572268 0 -0.15866236735209521 -0.45377864165300308 0 -0.14280129841846509 -0.46103953978105727 0 -0.1438484805828521 -0.43705968193712769 0 -0.15866236735209521 -0.45377864165300308 0 -0.1438484805828521 -0.43705968193712769 0 -0.16487953686040341 -0.43668708651363358 0 -0.14280129841846509 -0.46103953978105727 0 -0.13093011984253891 -0.44972195681556543 0 -0.1438484805828521 -0.43705968193712769 0 -0.13093011984253891 -0.44972195681556543 0 -0.1438484805828521 -0.43705968193712769 0 -0.123519809913229 -0.43733662075251151 0 -0.14280129841846509 -0.46103953978105727 0 -0.13093011984253891 -0.44972195681556543 0 -0.12704973474613379 -0.46277216333596533 0 -0.14280129841846509 -0.46103953978105727 0 -0.12704973474613379 -0.46277216333596533 0 -0.13010403334985379 -0.48000251283874379 0 -0.13010403334985379 -0.48000251283874379 0 -0.1403029024063259 -0.5 0 -0.1148616459058424 -0.5 0 -0.16574415890680941 -0.5 0 -0.1403029024063259 -0.5 0 -0.1559270581970803 -0.47678838232572268 0 -0.13010403334985379 -0.48000251283874379 0 -0.1403029024063259 -0.5 0 -0.1559270581970803 -0.47678838232572268 0 -0.14280129841846509 -0.46103953978105727 0 -0.13010403334985379 -0.48000251283874379 0 -0.1559270581970803 -0.47678838232572268 0 -0.13724659116883831 -0.38156720383825199 0 -0.13696324729183901 -0.40051159333262831 0 -0.1562511533772393 -0.40085091578326698 0 -0.13696324729183901 -0.40051159333262831 0 -0.14428023194946249 -0.41611080081516499 0 -0.1562511533772393 -0.40085091578326698 0 -0.13724659116883831 -0.38156720383825199 0 -0.1562511533772393 -0.40085091578326698 0 -0.1663441030446621 -0.37717300760659073 0 -0.13724659116883831 -0.38156720383825199 0 -0.11827115974421661 -0.40327967795429231 0 -0.13724659116883831 -0.38156720383825199 0 -0.13696324729183901 -0.40051159333262831 0 -0.11827115974421661 -0.40327967795429231 0 -0.13696324729183901 -0.40051159333262831 0 -0.12597911368703019 -0.41952469120143437 0 -0.14428023194946249 -0.41611080081516499 0 -0.13696324729183901 -0.40051159333262831 0 -0.12597911368703019 -0.41952469120143437 0 -0.11827115974421661 -0.40327967795429231 0 -0.12597911368703019 -0.41952469120143437 0 -0.1438484805828521 -0.43705968193712769 0 -0.123519809913229 -0.43733662075251151 0 -0.12597911368703019 -0.41952469120143437 0 -0.1438484805828521 -0.43705968193712769 0 -0.14428023194946249 -0.41611080081516499 0 -0.1438484805828521 -0.43705968193712769 0 -0.16487953686040341 -0.43668708651363358 0 -0.1579375607246061 -0.42228606781690858 0 -0.1438484805828521 -0.43705968193712769 0 -0.14428023194946249 -0.41611080081516499 0 -0.1579375607246061 -0.42228606781690858 0 -0.14428023194946249 -0.41611080081516499 0 -0.1579375607246061 -0.42228606781690858 0 -0.1562511533772393 -0.40085091578326698 0 -0.1717517290487513 -0.41486076781395709 0 -0.1579375607246061 -0.42228606781690858 0 -0.1562511533772393 -0.40085091578326698 0 -0.1717517290487513 -0.41486076781395709 0 -0.16487953686040341 -0.43668708651363358 0 -0.1579375607246061 -0.42228606781690858 0 -0.1717517290487513 -0.41486076781395709 0 -0.16487953686040341 -0.43668708651363358 0 -0.19087809923939161 -0.44242625200982799 0 -0.16487953686040341 -0.43668708651363358 0 -0.18049207608238291 -0.42812424827546058 0 -0.1717517290487513 -0.41486076781395709 0 -0.16487953686040341 -0.43668708651363358 0 -0.18049207608238291 -0.42812424827546058 0 -0.1717517290487513 -0.41486076781395709 0 -0.18680736564207029 -0.41498853585306777 0 -0.17862392123709919 -0.39303444911428059 0 -0.1717517290487513 -0.41486076781395709 0 -0.18049207608238291 -0.42812424827546058 0 -0.18680736564207029 -0.41498853585306777 0 -0.18680736564207029 -0.41498853585306777 0 -0.17862392123709919 -0.39303444911428059 0 -0.19656737959219739 -0.40219111980173922 0 -0.1717517290487513 -0.41486076781395709 0 -0.17862392123709919 -0.39303444911428059 0 -0.1717517290487513 -0.41486076781395709 0 -0.17862392123709919 -0.39303444911428059 0 -0.1562511533772393 -0.40085091578326698 0 -0.17862392123709919 -0.39303444911428059 0 -0.1562511533772393 -0.40085091578326698 0 -0.1663441030446621 -0.37717300760659073 0 -0.17862392123709919 -0.39303444911428059 0 -0.1663441030446621 -0.37717300760659073 0 -0.1854961134254472 -0.37120813041460421 0 -0.17862392123709919 -0.39303444911428059 0 -0.1854961134254472 -0.37120813041460421 0 -0.17862392123709919 -0.39303444911428059 0 -0.20527564977482679 -0.38624161667098289 0 -0.1854961134254472 -0.37120813041460421 0 -0.17862392123709919 -0.39303444911428059 0 -0.19656737959219739 -0.40219111980173922 0 -0.20527564977482679 -0.38624161667098289 0 -0.20527564977482679 -0.38624161667098289 0 -0.2118432178570665 -0.41409151531568628 0 -0.2281799985799623 -0.39436158075255778 0 -0.19656737959219739 -0.40219111980173922 0 -0.20527564977482679 -0.38624161667098289 0 -0.2118432178570665 -0.41409151531568628 0 -0.20527564977482679 -0.38624161667098289 0 -0.2118432178570665 -0.41409151531568628 0 -0.20527564977482679 -0.38624161667098289 0 -0.22195794658956111 -0.37463091785279867 0 -0.21168543115216709 -0.36681117402183649 0 -0.20527564977482679 -0.38624161667098289 0 -0.2281799985799623 -0.39436158075255778 0 -0.22195794658956111 -0.37463091785279867 0 -0.18049207608238291 -0.42812424827546058 0 -0.18680736564207029 -0.41498853585306777 0 -0.19899408631087909 -0.4269358685541359 0 -0.19087809923939161 -0.44242625200982799 0 -0.18049207608238291 -0.42812424827546058 0 -0.19899408631087909 -0.4269358685541359 0 -0.21844010846223411 -0.44206575668227449 0 -0.19087809923939161 -0.44242625200982799 0 -0.19899408631087909 -0.4269358685541359 0 -0.18680736564207029 -0.41498853585306777 0 -0.19656737959219739 -0.40219111980173922 0 -0.2118432178570665 -0.41409151531568628 0 -0.18680736564207029 -0.41498853585306777 0 -0.19899408631087909 -0.4269358685541359 0 -0.2118432178570665 -0.41409151531568628 0 -0.18680736564207029 -0.41498853585306777 0 -0.2118432178570665 -0.41409151531568628 0 -0.21844010846223411 -0.44206575668227449 0 -0.19899408631087909 -0.4269358685541359 0 -0.2118432178570665 -0.41409151531568628 0 -0.21844010846223411 -0.44206575668227449 0 -0.2118432178570665 -0.41409151531568628 0 -0.21844010846223411 -0.44206575668227449 0 -0.2118432178570665 -0.41409151531568628 0 -0.23280677558438309 -0.43386548686292281 0 -0.2118432178570665 -0.41409151531568628 0 -0.23335673218814301 -0.41332069816832789 0 -0.2281799985799623 -0.39436158075255778 0 -0.2118432178570665 -0.41409151531568628 0 -0.23335673218814301 -0.41332069816832789 0 -0.2118432178570665 -0.41409151531568628 0 -0.23280677558438309 -0.43386548686292281 0 -0.23335673218814301 -0.41332069816832789 0 -0.25487024651921952 -0.41254988102096568 0 -0.23335673218814301 -0.41332069816832789 0 -0.25487024651921952 -0.41254988102096568 0 -0.23335673218814301 -0.41332069816832789 0 -0.24168551714563921 -0.4027948375671459 0 -0.25487024651921952 -0.41254988102096568 0 -0.23335673218814301 -0.41332069816832789 0 -0.2468605885266735 -0.43014712497011809 0 -0.23280677558438309 -0.43386548686292281 0 -0.23335673218814301 -0.41332069816832789 0 -0.2468605885266735 -0.43014712497011809 0 -0.2450571310604201 -0.44414202720417628 0 -0.23280677558438309 -0.43386548686292281 0 -0.2468605885266735 -0.43014712497011809 0 -0.2281799985799623 -0.39436158075255778 0 -0.2359431282162788 -0.37698905115118858 0 -0.22195794658956111 -0.37463091785279867 0 -0.25033509129523179 -0.39094719032673231 0 -0.2281799985799623 -0.39436158075255778 0 -0.24168551714563921 -0.4027948375671459 0 -0.25033509129523179 -0.39094719032673231 0 -0.25487024651921952 -0.41254988102096568 0 -0.24168551714563921 -0.4027948375671459 0 -0.23335673218814301 -0.41332069816832789 0 -0.2281799985799623 -0.39436158075255778 0 -0.24168551714563921 -0.4027948375671459 0 -0.25033509129523179 -0.39094719032673231 0 -0.2359431282162788 -0.37698905115118858 0 -0.24748772700216881 -0.3717564301773445 0 -0.25033509129523179 -0.39094719032673231 0 -0.2281799985799623 -0.39436158075255778 0 -0.2359431282162788 -0.37698905115118858 0 -0.25494538795031141 -0.36273054802101118 0 -0.24748772700216881 -0.3717564301773445 0 -0.24521251836493849 -0.35951647641646678 0 -0.24748772700216881 -0.3717564301773445 0 -0.24521251836493849 -0.35951647641646678 0 -0.23939899228441261 -0.3655962622813349 0 -0.23939899228441261 -0.3655962622813349 0 -0.23024759562621139 -0.36380396142485888 0 -0.23761117654761921 -0.35850429625613017 0 -0.24521251836493849 -0.35951647641646678 0 -0.23939899228441261 -0.3655962622813349 0 -0.23761117654761921 -0.35850429625613017 0 -0.2359431282162788 -0.37698905115118858 0 -0.23939899228441261 -0.3655962622813349 0 -0.23024759562621139 -0.36380396142485888 0 -0.2359431282162788 -0.37698905115118858 0 -0.24748772700216881 -0.3717564301773445 0 -0.23939899228441261 -0.3655962622813349 0 -0.2359431282162788 -0.37698905115118858 0 -0.23024759562621139 -0.36380396142485888 0 -0.22195794658956111 -0.37463091785279867 0 -0.23024759562621139 -0.36380396142485888 0 -0.22135664398937441 -0.36020929429952131 0 -0.2310785660723691 -0.35440187846705151 0 -0.23024759562621139 -0.36380396142485888 0 -0.22135664398937441 -0.36020929429952131 0 -0.22195794658956111 -0.37463091785279867 0 -0.22135664398937441 -0.36020929429952131 0 -0.22331676928072861 -0.34527245129667988 0 -0.2310785660723691 -0.35440187846705151 0 -0.23024759562621139 -0.36380396142485888 0 -0.2310785660723691 -0.35440187846705151 0 -0.23761117654761921 -0.35850429625613017 0 -0.22331676928072861 -0.34527245129667988 0 -0.2337118992122327 -0.34903918396608452 0 -0.23708401688859529 -0.34365007901650441 0 -0.22331676928072861 -0.34527245129667988 0 -0.2310785660723691 -0.35440187846705151 0 -0.2337118992122327 -0.34903918396608452 0 -0.26017799311385281 -0.35268912854855933 0 -0.24808760514302669 -0.3536558827211943 0 -0.2404133442166683 -0.34213832018255058 0 -0.2310785660723691 -0.35440187846705151 0 -0.2337118992122327 -0.34903918396608452 0 -0.2396887820693627 -0.35120494043738398 0 -0.26017799311385281 -0.35268912854855933 0 -0.24325210797206609 -0.34084931319650169 0 -0.2404133442166683 -0.34213832018255058 0 -0.2396887820693627 -0.35120494043738398 0 -0.23708401688859529 -0.34365007901650441 0 -0.2404133442166683 -0.34213832018255058 0 -0.2337118992122327 -0.34903918396608452 0 -0.2396887820693627 -0.35120494043738398 0 -0.23708401688859529 -0.34365007901650441 0 -0.2310785660723691 -0.35440187846705151 0 -0.2396887820693627 -0.35120494043738398 0 -0.23761117654761921 -0.35850429625613017 0 -0.24521251836493849 -0.35951647641646678 0 -0.2396887820693627 -0.35120494043738398 0 -0.23761117654761921 -0.35850429625613017 0 -0.24521251836493849 -0.35951647641646678 0 -0.2396887820693627 -0.35120494043738398 0 -0.24808760514302669 -0.3536558827211943 0 -0.25494538795031141 -0.36273054802101118 0 -0.24521251836493849 -0.35951647641646678 0 -0.24808760514302669 -0.3536558827211943 0 -0.2396887820693627 -0.35120494043738398 0 -0.24808760514302669 -0.3536558827211943 0 -0.2404133442166683 -0.34213832018255058 0 -0.24325210797206609 -0.34084931319650169 0 -0.24518994726652291 -0.33234415230164399 0 -0.23958942898634211 -0.33903199036576709 0 -0.24518994726652291 -0.33234415230164399 0 -0.23560348244150561 -0.32909319502054812 0 -0.23958942898634211 -0.33903199036576709 0 -0.23708401688859529 -0.34365007901650441 0 -0.2404133442166683 -0.34213832018255058 0 -0.24325210797206609 -0.34084931319650169 0 -0.2404133442166683 -0.34213832018255058 0 -0.23958942898634211 -0.33903199036576709 0 -0.24325210797206609 -0.34084931319650169 0 -0.2404133442166683 -0.34213832018255058 0 -0.24325210797206609 -0.34084931319650169 0 -0.23958942898634211 -0.33903199036576709 0 -0.25915672867891859 -0.31415112243359272 0 -0.24308922262768951 -0.32099342612622928 0 -0.24047089863443691 -0.30798947189970438 0 -0.24518994726652291 -0.33234415230164399 0 -0.23560348244150561 -0.32909319502054812 0 -0.24308922262768951 -0.32099342612622928 0 -0.23560348244150561 -0.32909319502054812 0 -0.24308922262768951 -0.32099342612622928 0 -0.22938765682563561 -0.32144886021699343 0 -0.24308922262768951 -0.32099342612622928 0 -0.22938765682563561 -0.32144886021699343 0 -0.23158309368585001 -0.31181085789310747 0 -0.24308922262768951 -0.32099342612622928 0 -0.24047089863443691 -0.30798947189970438 0 -0.23158309368585001 -0.31181085789310747 0 -0.22938765682563561 -0.32144886021699343 0 -0.23158309368585001 -0.31181085789310747 0 -0.22249387381410951 -0.31123320620709588 0 -0.23560348244150561 -0.32909319502054812 0 -0.22938765682563561 -0.32144886021699343 0 -0.22076115650133771 -0.33164754609210678 0 -0.22938765682563561 -0.32144886021699343 0 -0.22076115650133771 -0.33164754609210678 0 -0.2180259411870723 -0.31620608063285149 0 -0.22938765682563561 -0.32144886021699343 0 -0.2180259411870723 -0.31620608063285149 0 -0.22249387381410951 -0.31123320620709588 0 -0.22331676928072861 -0.34527245129667988 0 -0.23708401688859529 -0.34365007901650441 0 -0.22076115650133771 -0.33164754609210678 0 -0.23560348244150561 -0.32909319502054812 0 -0.23958942898634211 -0.33903199036576709 0 -0.22076115650133771 -0.33164754609210678 0 -0.2404133442166683 -0.34213832018255058 0 -0.22076115650133771 -0.33164754609210678 0 -0.2404133442166683 -0.34213832018255058 0 -0.23958942898634211 -0.33903199036576709 0 -0.22076115650133771 -0.33164754609210678 0 -0.23708401688859529 -0.34365007901650441 0 -0.2404133442166683 -0.34213832018255058 0 -0.22076115650133771 -0.33164754609210678 0 -0.22331676928072861 -0.34527245129667988 0 -0.22076115650133771 -0.33164754609210678 0 -0.20784983644103361 -0.34097302903627591 0 -0.22076115650133771 -0.33164754609210678 0 -0.20348412114368319 -0.33156666209817831 0 -0.20784983644103361 -0.34097302903627591 0 -0.2180259411870723 -0.31620608063285149 0 -0.19974136112887431 -0.31343603927203523 0 -0.20110896878600679 -0.32115677200166343 0 -0.22076115650133771 -0.33164754609210678 0 -0.2180259411870723 -0.31620608063285149 0 -0.20110896878600679 -0.32115677200166343 0 -0.22076115650133771 -0.33164754609210678 0 -0.20348412114368319 -0.33156666209817831 0 -0.20110896878600679 -0.32115677200166343 0 -0.22076115650133771 -0.33164754609210678 0 -0.20110896878600679 -0.32115677200166343 0 -0.2180259411870723 -0.31620608063285149 0 -0.19974136112887431 -0.31343603927203523 0 -0.20904493575850211 -0.30938578927939081 0 -0.2180259411870723 -0.31620608063285149 0 -0.19974136112887431 -0.31343603927203523 0 -0.19974136112887431 -0.31343603927203523 0 -0.20110896878600679 -0.32115677200166343 0 -0.1814567810706762 -0.3106659979112194 0 -0.20110896878600679 -0.32115677200166343 0 -0.1814567810706762 -0.3106659979112194 0 -0.20110896878600679 -0.32115677200166343 0 -0.19214051361034601 -0.33054181938157612 0 -0.1814567810706762 -0.3106659979112194 0 -0.20348412114368319 -0.33156666209817831 0 -0.20110896878600679 -0.32115677200166343 0 -0.19214051361034601 -0.33054181938157612 0 -0.20348412114368319 -0.33156666209817831 0 -0.20784983644103361 -0.34097302903627591 0 -0.19214051361034601 -0.33054181938157612 0 -0.20784983644103361 -0.34097302903627591 0 -0.19214051361034601 -0.33054181938157612 0 -0.20232946575910341 -0.34593351830387509 0 -0.19214051361034601 -0.33054181938157612 0 -0.19236830561379509 -0.34938181171492771 0 -0.18622265824693729 -0.34003474470360739 0 -0.19214051361034601 -0.33054181938157612 0 -0.19236830561379509 -0.34938181171492771 0 -0.19870808169258641 -0.35839171802627962 0 -0.19214051361034601 -0.33054181938157612 0 -0.19870808169258641 -0.35839171802627962 0 -0.19214051361034601 -0.33054181938157612 0 -0.20232946575910341 -0.34593351830387509 0 -0.19870808169258641 -0.35839171802627962 0 -0.19236830561379509 -0.34938181171492771 0 -0.1854961134254472 -0.37120813041460421 0 -0.20527564977482679 -0.38624161667098289 0 -0.19870808169258641 -0.35839171802627962 0 -0.20527564977482679 -0.38624161667098289 0 -0.19870808169258641 -0.35839171802627962 0 -0.1854961134254472 -0.37120813041460421 0 -0.19236830561379509 -0.34938181171492771 0 -0.19870808169258641 -0.35839171802627962 0 -0.1854961134254472 -0.37120813041460421 0 -0.20527564977482679 -0.38624161667098289 0 -0.19870808169258641 -0.35839171802627962 0 -0.21168543115216709 -0.36681117402183649 0 -0.19870808169258641 -0.35839171802627962 0 -0.21168543115216709 -0.36681117402183649 0 -0.21061943129244759 -0.3538275067713687 0 -0.22135664398937441 -0.36020929429952131 0 -0.22195794658956111 -0.37463091785279867 0 -0.21168543115216709 -0.36681117402183649 0 -0.22135664398937441 -0.36020929429952131 0 -0.21168543115216709 -0.36681117402183649 0 -0.21061943129244759 -0.3538275067713687 0 -0.22135664398937441 -0.36020929429952131 0 -0.22331676928072861 -0.34527245129667988 0 -0.21061943129244759 -0.3538275067713687 0 -0.22331676928072861 -0.34527245129667988 0 -0.20784983644103361 -0.34097302903627591 0 -0.21061943129244759 -0.3538275067713687 0 -0.20784983644103361 -0.34097302903627591 0 -0.20232946575910341 -0.34593351830387509 0 -0.21061943129244759 -0.3538275067713687 0 -0.20232946575910341 -0.34593351830387509 0 -0.19870808169258641 -0.35839171802627962 0 -0.21061943129244759 -0.3538275067713687 0 -0.22866545068461799 -0.25948943059043711 0 -0.21759888839251429 -0.26212753750200368 0 -0.22025275826160279 -0.2471257797298928 0 -0.22866545068461799 -0.25948943059043711 0 -0.22398633244919169 -0.27132847136955079 0 -0.21759888839251429 -0.26212753750200368 0 -0.22866545068461799 -0.25948943059043711 0 -0.23442911476228809 -0.24683612341654529 0 -0.22025275826160279 -0.2471257797298928 0 -0.22866545068461799 -0.25948943059043711 0 -0.24233717299785959 -0.25960849866204011 0 -0.23442911476228809 -0.24683612341654529 0 -0.2565674865322034 -0.25340195958415102 0 -0.24233717299785959 -0.25960849866204011 0 -0.25018128361314113 -0.24746468840205441 0 -0.22866545068461799 -0.25948943059043711 0 -0.24233717299785959 -0.25960849866204011 0 -0.2333815926018066 -0.27110706845475141 0 -0.24233717299785959 -0.25960849866204011 0 -0.2333815926018066 -0.27110706845475141 0 -0.24140403581614819 -0.28379898528087227 0 -0.24233717299785959 -0.25960849866204011 0 -0.24140403581614819 -0.28379898528087227 0 -0.24233717299785959 -0.25960849866204011 0 -0.2484323970602714 -0.27706385987730509 0 -0.24140403581614819 -0.28379898528087227 0 -0.25309751137434572 -0.26289123234143091 0 -0.24233717299785959 -0.25960849866204011 0 -0.2484323970602714 -0.27706385987730509 0 -0.2333815926018066 -0.27110706845475141 0 -0.2300547693907766 -0.28178467995593781 0 -0.24140403581614819 -0.28379898528087227 0 -0.2333815926018066 -0.27110706845475141 0 -0.22398633244919169 -0.27132847136955079 0 -0.2300547693907766 -0.28178467995593781 0 -0.22866545068461799 -0.25948943059043711 0 -0.2333815926018066 -0.27110706845475141 0 -0.22398633244919169 -0.27132847136955079 0 -0.22398633244919169 -0.27132847136955079 0 -0.21947311754018139 -0.28174823216008099 0 -0.2300547693907766 -0.28178467995593781 0 -0.21947311754018139 -0.28174823216008099 0 -0.22569627159534009 -0.29064390563822362 0 -0.2300547693907766 -0.28178467995593781 0 -0.21947311754018139 -0.28174823216008099 0 -0.22569627159534009 -0.29064390563822362 0 -0.21595054291829549 -0.29285447433738648 0 -0.22569627159534009 -0.29064390563822362 0 -0.22453607640027501 -0.29842387346705762 0 -0.21595054291829549 -0.29285447433738648 0 -0.22569627159534009 -0.29064390563822362 0 -0.2341156104824163 -0.28973116501788848 0 -0.23104294706112549 -0.29817392722980551 0 -0.22569627159534009 -0.29064390563822362 0 -0.23104294706112549 -0.29817392722980551 0 -0.22453607640027501 -0.29842387346705762 0 -0.22569627159534009 -0.29064390563822362 0 -0.2341156104824163 -0.28973116501788848 0 -0.2300547693907766 -0.28178467995593781 0 -0.25108388684634803 -0.28956965662021522 0 -0.24140403581614819 -0.28379898528087227 0 -0.24047089863443691 -0.30798947189970438 0 -0.2341156104824163 -0.28973116501788848 0 -0.24140403581614819 -0.28379898528087227 0 -0.24047089863443691 -0.30798947189970438 0 -0.24140403581614819 -0.28379898528087227 0 -0.24047089863443691 -0.30798947189970438 0 -0.2341156104824163 -0.28973116501788848 0 -0.2300547693907766 -0.28178467995593781 0 -0.24140403581614819 -0.28379898528087227 0 -0.25108388684634803 -0.28956965662021522 0 -0.2484323970602714 -0.27706385987730509 0 -0.24140403581614819 -0.28379898528087227 0 -0.25718459078837252 -0.29759752524363881 0 -0.25108388684634803 -0.28956965662021522 0 -0.24047089863443691 -0.30798947189970438 0 -0.2341156104824163 -0.28973116501788848 0 -0.24047089863443691 -0.30798947189970438 0 -0.23104294706112549 -0.29817392722980551 0 -0.24047089863443691 -0.30798947189970438 0 -0.23158309368585001 -0.31181085789310747 0 -0.2303958781931594 -0.30408122012615352 0 -0.23158309368585001 -0.31181085789310747 0 -0.2303958781931594 -0.30408122012615352 0 -0.2249978911063876 -0.30539226771637512 0 -0.24047089863443691 -0.30798947189970438 0 -0.23104294706112549 -0.29817392722980551 0 -0.2303958781931594 -0.30408122012615352 0 -0.23104294706112549 -0.29817392722980551 0 -0.2303958781931594 -0.30408122012615352 0 -0.22453607640027501 -0.29842387346705762 0 -0.2303958781931594 -0.30408122012615352 0 -0.22453607640027501 -0.29842387346705762 0 -0.2249978911063876 -0.30539226771637512 0 -0.22453607640027501 -0.29842387346705762 0 -0.2249978911063876 -0.30539226771637512 0 -0.21872282414136721 -0.30136563651957121 0 -0.22453607640027501 -0.29842387346705762 0 -0.21872282414136721 -0.30136563651957121 0 -0.21595054291829549 -0.29285447433738648 0 -0.22249387381410951 -0.31123320620709588 0 -0.2249978911063876 -0.30539226771637512 0 -0.21872282414136721 -0.30136563651957121 0 -0.23158309368585001 -0.31181085789310747 0 -0.22249387381410951 -0.31123320620709588 0 -0.2249978911063876 -0.30539226771637512 0 -0.22249387381410951 -0.31123320620709588 0 -0.20819654573008861 -0.30010144335043992 0 -0.2180259411870723 -0.31620608063285149 0 -0.2144403241224431 -0.30923162986744451 0 -0.20904493575850211 -0.30938578927939081 0 -0.22249387381410951 -0.31123320620709588 0 -0.2144403241224431 -0.30923162986744451 0 -0.20819654573008861 -0.30010144335043992 0 -0.2180259411870723 -0.31620608063285149 0 -0.22249387381410951 -0.31123320620709588 0 -0.2144403241224431 -0.30923162986744451 0 -0.21872282414136721 -0.30136563651957121 0 -0.20819654573008861 -0.30010144335043992 0 -0.21595054291829549 -0.29285447433738648 0 -0.22249387381410951 -0.31123320620709588 0 -0.21872282414136721 -0.30136563651957121 0 -0.20819654573008861 -0.30010144335043992 0 -0.20819654573008861 -0.30010144335043992 0 -0.20288915614788011 -0.30684576889979082 0 -0.200327377448308 -0.30070497350852549 0 -0.19974136112887431 -0.31343603927203523 0 -0.20904493575850211 -0.30938578927939081 0 -0.20288915614788011 -0.30684576889979082 0 -0.2144403241224431 -0.30923162986744451 0 -0.20819654573008861 -0.30010144335043992 0 -0.20904493575850211 -0.30938578927939081 0 -0.20819654573008861 -0.30010144335043992 0 -0.20904493575850211 -0.30938578927939081 0 -0.20288915614788011 -0.30684576889979082 0 -0.19974136112887431 -0.31343603927203523 0 -0.1814567810706762 -0.3106659979112194 0 -0.19974136112887431 -0.31343603927203523 0 -0.20288915614788011 -0.30684576889979082 0 -0.19308950921137841 -0.30535425612401718 0 -0.19974136112887431 -0.31343603927203523 0 -0.19308950921137841 -0.30535425612401718 0 -0.1814567810706762 -0.3106659979112194 0 -0.19308950921137841 -0.30535425612401718 0 -0.1899902243989981 -0.29832565749187118 0 -0.1817779539512053 -0.30255714357571323 0 -0.19308950921137841 -0.30535425612401718 0 -0.1899902243989981 -0.29832565749187118 0 -0.200327377448308 -0.30070497350852549 0 -0.20288915614788011 -0.30684576889979082 0 -0.19308950921137841 -0.30535425612401718 0 -0.200327377448308 -0.30070497350852549 0 -0.20819654573008861 -0.30010144335043992 0 -0.19389921764606771 -0.28896968049378402 0 -0.200327377448308 -0.30070497350852549 0 -0.19389921764606771 -0.28896968049378402 0 -0.20819654573008861 -0.30010144335043992 0 -0.200327377448308 -0.30070497350852549 0 -0.19389921764606771 -0.28896968049378402 0 -0.20819654573008861 -0.30010144335043992 0 -0.19389921764606771 -0.28896968049378402 0 -0.2049502680629153 -0.28953974020436019 0 -0.1899902243989981 -0.29832565749187118 0 -0.19389921764606771 -0.28896968049378402 0 -0.18066470514172869 -0.29420676669921531 0 -0.1899902243989981 -0.29832565749187118 0 -0.200327377448308 -0.30070497350852549 0 -0.19389921764606771 -0.28896968049378402 0 -0.19389921764606771 -0.28896968049378402 0 -0.18643891475010321 -0.2753500999052107 0 -0.19389921764606771 -0.28896968049378402 0 -0.1815972113741586 -0.27939145610981342 0 -0.19389921764606771 -0.28896968049378402 0 -0.2049502680629153 -0.28953974020436019 0 -0.20163083764207049 -0.27816255368004889 0 -0.2099333729274668 -0.28317129254800538 0 -0.2049502680629153 -0.28953974020436019 0 -0.20163083764207049 -0.27816255368004889 0 -0.2099333729274668 -0.28317129254800538 0 -0.2049502680629153 -0.28953974020436019 0 -0.21595054291829549 -0.29285447433738648 0 -0.20819654573008861 -0.30010144335043992 0 -0.2049502680629153 -0.28953974020436019 0 -0.21595054291829549 -0.29285447433738648 0 -0.21947311754018139 -0.28174823216008099 0 -0.2099333729274668 -0.28317129254800538 0 -0.21595054291829549 -0.29285447433738648 0 -0.2117440640613063 -0.2714560660025862 0 -0.20163083764207049 -0.27816255368004889 0 -0.20334583650585281 -0.26123793981755161 0 -0.22398633244919169 -0.27132847136955079 0 -0.21947311754018139 -0.28174823216008099 0 -0.2117440640613063 -0.2714560660025862 0 -0.21947311754018139 -0.28174823216008099 0 -0.2099333729274668 -0.28317129254800538 0 -0.2117440640613063 -0.2714560660025862 0 -0.22398633244919169 -0.27132847136955079 0 -0.2117440640613063 -0.2714560660025862 0 -0.21759888839251429 -0.26212753750200368 0 -0.2099333729274668 -0.28317129254800538 0 -0.2117440640613063 -0.2714560660025862 0 -0.20163083764207049 -0.27816255368004889 0 -0.20163083764207049 -0.27816255368004889 0 -0.20334583650585281 -0.26123793981755161 0 -0.18643891475010321 -0.2753500999052107 0 -0.20334583650585281 -0.26123793981755161 0 -0.18643891475010321 -0.2753500999052107 0 -0.1892261620383611 -0.26071341320317981 0 -0.20334583650585281 -0.26123793981755161 0 -0.18643891475010321 -0.2753500999052107 0 -0.19389921764606771 -0.28896968049378402 0 -0.20163083764207049 -0.27816255368004889 0 -0.18643891475010321 -0.2753500999052107 0 -0.1892261620383611 -0.26071341320317981 0 -0.20334583650585281 -0.26123793981755161 0 -0.1971211098569064 -0.2485562144643311 0 -0.20334583650585281 -0.26123793981755161 0 -0.21759888839251429 -0.26212753750200368 0 -0.22025275826160279 -0.2471257797298928 0 -0.20334583650585281 -0.26123793981755161 0 -0.22025275826160279 -0.2471257797298928 0 -0.20334583650585281 -0.26123793981755161 0 -0.1971211098569064 -0.2485562144643311 0 -0.22025275826160279 -0.2471257797298928 0 -0.2117440640613063 -0.2714560660025862 0 -0.20334583650585281 -0.26123793981755161 0 -0.21759888839251429 -0.26212753750200368 0 -0.15821309250511281 -0.26118480488572993 0 -0.17536452169406261 -0.25513261131262932 0 -0.1815972113741586 -0.27939145610981342 0 -0.15821309250511281 -0.26118480488572993 0 -0.17536452169406261 -0.25513261131262932 0 -0.15566934165753701 -0.24482136105764621 0 -0.1892261620383611 -0.26071341320317981 0 -0.17536452169406261 -0.25513261131262932 0 -0.1971211098569064 -0.2485562144643311 0 -0.1892261620383611 -0.26071341320317981 0 -0.17536452169406261 -0.25513261131262932 0 -0.18643891475010321 -0.2753500999052107 0 -0.17536452169406261 -0.25513261131262932 0 -0.18643891475010321 -0.2753500999052107 0 -0.17536452169406261 -0.25513261131262932 0 -0.18643891475010321 -0.2753500999052107 0 -0.1815972113741586 -0.27939145610981342 0 -0.19389921764606771 -0.28896968049378402 0 -0.18643891475010321 -0.2753500999052107 0 -0.1815972113741586 -0.27939145610981342 0 -0.18643891475010321 -0.2753500999052107 0 -0.1815972113741586 -0.27939145610981342 0 -0.15821309250511281 -0.26118480488572993 0 -0.1815972113741586 -0.27939145610981342 0 -0.1605334253196628 -0.27705414769848019 0 -0.15821309250511281 -0.26118480488572993 0 -0.1815972113741586 -0.27939145610981342 0 -0.1605334253196628 -0.27705414769848019 0 -0.16662117086531369 -0.29189191504570172 0 -0.1460397447830028 -0.28392096720827609 0 -0.1815972113741586 -0.27939145610981342 0 -0.1605334253196628 -0.27705414769848019 0 -0.16662117086531369 -0.29189191504570172 0 -0.16662117086531369 -0.29189191504570172 0 -0.18066470514172869 -0.29420676669921531 0 -0.16807172941449361 -0.30108874618849107 0 -0.1815972113741586 -0.27939145610981342 0 -0.16662117086531369 -0.29189191504570172 0 -0.1815972113741586 -0.27939145610981342 0 -0.16662117086531369 -0.29189191504570172 0 -0.18066470514172869 -0.29420676669921531 0 -0.19389921764606771 -0.28896968049378402 0 -0.1815972113741586 -0.27939145610981342 0 -0.18066470514172869 -0.29420676669921531 0 -0.18066470514172869 -0.29420676669921531 0 -0.1817779539512053 -0.30255714357571323 0 -0.16807172941449361 -0.30108874618849107 0 -0.1817779539512053 -0.30255714357571323 0 -0.17538193411824851 -0.30742310974349601 0 -0.16807172941449361 -0.30108874618849107 0 -0.1899902243989981 -0.29832565749187118 0 -0.18066470514172869 -0.29420676669921531 0 -0.1817779539512053 -0.30255714357571323 0 -0.19308950921137841 -0.30535425612401718 0 -0.1817779539512053 -0.30255714357571323 0 -0.1814567810706762 -0.3106659979112194 0 -0.1817779539512053 -0.30255714357571323 0 -0.1814567810706762 -0.3106659979112194 0 -0.17538193411824851 -0.30742310974349601 0 -0.1814567810706762 -0.3106659979112194 0 -0.17538193411824851 -0.30742310974349601 0 -0.1814567810706762 -0.3106659979112194 0 -0.17538193411824851 -0.30742310974349601 0 -0.1521471234576928 -0.30622570102712859 0 -0.16662117086531369 -0.29189191504570172 0 -0.16807172941449361 -0.30108874618849107 0 -0.15164513035647001 -0.30439237398159158 0 -0.17538193411824851 -0.30742310974349601 0 -0.16807172941449361 -0.30108874618849107 0 -0.1521471234576928 -0.30622570102712859 0 -0.16807172941449361 -0.30108874618849107 0 -0.1521471234576928 -0.30622570102712859 0 -0.15164513035647001 -0.30439237398159158 0 -0.1814567810706762 -0.3106659979112194 0 -0.1521471234576928 -0.30622570102712859 0 -0.16662117086531369 -0.29189191504570172 0 -0.15164513035647001 -0.30439237398159158 0 -0.14986325126998301 -0.30587970344869631 0 -0.1472482395654931 -0.30806244637126978 0 -0.13137693926794269 -0.30307910049847142 0 -0.14986325126998301 -0.30587970344869631 0 -0.13137693926794269 -0.30307910049847142 0 -0.14191197011226919 -0.29595195204747682 0 -0.1521471234576928 -0.30622570102712859 0 -0.15536928910057479 -0.31799335959440589 0 -0.1521471234576928 -0.30622570102712859 0 -0.1472482395654931 -0.30806244637126978 0 -0.1481744133336001 -0.31559103279323952 0 -0.1521471234576928 -0.30622570102712859 0 -0.14986325126998301 -0.30587970344869631 0 -0.1472482395654931 -0.30806244637126978 0 -0.1521471234576928 -0.30622570102712859 0 -0.14986325126998301 -0.30587970344869631 0 -0.15164513035647001 -0.30439237398159158 0 -0.1521471234576928 -0.30622570102712859 0 -0.14986325126998301 -0.30587970344869631 0 -0.1521471234576928 -0.30622570102712859 0 -0.15164513035647001 -0.30439237398159158 0 -0.14986325126998301 -0.30587970344869631 0 -0.15164513035647001 -0.30439237398159158 0 -0.14986325126998301 -0.30587970344869631 0 -0.1472482395654931 -0.30806244637126978 0 -0.14986325126998301 -0.30587970344869631 0 -0.15164513035647001 -0.30439237398159158 0 -0.14191197011226919 -0.29595195204747682 0 -0.1472482395654931 -0.30806244637126978 0 -0.13676428411235661 -0.311985534419285 0 -0.1481744133336001 -0.31559103279323952 0 -0.14986325126998301 -0.30587970344869631 0 -0.13137693926794269 -0.30307910049847142 0 -0.1472482395654931 -0.30806244637126978 0 -0.13676428411235661 -0.311985534419285 0 -0.13137693926794269 -0.30307910049847142 0 -0.13137693926794269 -0.30307910049847142 0 -0.14191197011226919 -0.29595195204747682 0 -0.12354370332633501 -0.29237215235494779 0 -0.13676428411235661 -0.311985534419285 0 -0.13137693926794269 -0.30307910049847142 0 -0.12202825811921469 -0.30947938976295097 0 -0.1460397447830028 -0.28392096720827609 0 -0.14191197011226919 -0.29595195204747682 0 -0.13317406737037779 -0.2802173890703723 0 -0.14191197011226919 -0.29595195204747682 0 -0.13317406737037779 -0.2802173890703723 0 -0.12354370332633501 -0.29237215235494779 0 -0.13317406737037779 -0.2802173890703723 0 -0.121176560474238 -0.27855216134530347 0 -0.12354370332633501 -0.29237215235494779 0 -0.16662117086531369 -0.29189191504570172 0 -0.15164513035647001 -0.30439237398159158 0 -0.1460397447830028 -0.28392096720827609 0 -0.15164513035647001 -0.30439237398159158 0 -0.1460397447830028 -0.28392096720827609 0 -0.14191197011226919 -0.29595195204747682 0 -0.15164513035647001 -0.30439237398159158 0 -0.1460397447830028 -0.28392096720827609 0 -0.1460397447830028 -0.28392096720827609 0 -0.14043435920953651 -0.26344956043496021 0 -0.1605334253196628 -0.27705414769848019 0 -0.1460397447830028 -0.28392096720827609 0 -0.14043435920953651 -0.26344956043496021 0 -0.15821309250511281 -0.26118480488572993 0 -0.1605334253196628 -0.27705414769848019 0 -0.14043435920953651 -0.26344956043496021 0 -0.13317406737037779 -0.2802173890703723 0 -0.1259380663168852 -0.26705754103126977 0 -0.14043435920953651 -0.26344956043496021 0 -0.1460397447830028 -0.28392096720827609 0 -0.13317406737037779 -0.2802173890703723 0 -0.14043435920953651 -0.26344956043496021 0 -0.13317406737037779 -0.2802173890703723 0 -0.1259380663168852 -0.26705754103126977 0 -0.121176560474238 -0.27855216134530347 0 -0.14043435920953651 -0.26344956043496021 0 -0.1283361407779757 -0.25159171728621699 0 -0.13482897363606841 -0.24297815366164491 0 -0.14043435920953651 -0.26344956043496021 0 -0.13482897363606841 -0.24297815366164491 0 -0.1259380663168852 -0.26705754103126977 0 -0.14043435920953651 -0.26344956043496021 0 -0.1283361407779757 -0.25159171728621699 0 -0.15821309250511281 -0.26118480488572993 0 -0.13482897363606841 -0.24297815366164491 0 -0.15821309250511281 -0.26118480488572993 0 -0.14043435920953651 -0.26344956043496021 0 -0.13482897363606841 -0.24297815366164491 0 -0.17697510949039719 -0.35596577996135209 0 -0.17519745401808179 -0.33814225560617162 0 -0.1562220225934601 -0.35985472972221177 0 -0.17519745401808179 -0.33814225560617162 0 -0.1532624182972378 -0.33871633494107939 0 -0.1562220225934601 -0.35985472972221177 0 -0.17519745401808179 -0.33814225560617162 0 -0.1562220225934601 -0.35985472972221177 0 -0.1663441030446621 -0.37717300760659073 0 -0.17697510949039719 -0.35596577996135209 0 -0.1562220225934601 -0.35985472972221177 0 -0.1663441030446621 -0.37717300760659073 0 -0.1854961134254472 -0.37120813041460421 0 -0.17697510949039719 -0.35596577996135209 0 -0.19236830561379509 -0.34938181171492771 0 -0.1854961134254472 -0.37120813041460421 0 -0.17697510949039719 -0.35596577996135209 0 -0.17697510949039719 -0.35596577996135209 0 -0.17519745401808179 -0.33814225560617162 0 -0.18622265824693729 -0.34003474470360739 0 -0.19236830561379509 -0.34938181171492771 0 -0.17697510949039719 -0.35596577996135209 0 -0.18622265824693729 -0.34003474470360739 0 -0.19214051361034601 -0.33054181938157612 0 -0.17519745401808179 -0.33814225560617162 0 -0.18622265824693729 -0.34003474470360739 0 -0.19214051361034601 -0.33054181938157612 0 -0.17519745401808179 -0.33814225560617162 0 -0.17075841890319021 -0.32267991232295651 0 -0.19214051361034601 -0.33054181938157612 0 -0.1814567810706762 -0.3106659979112194 0 -0.17075841890319021 -0.32267991232295651 0 -0.1814567810706762 -0.3106659979112194 0 -0.1521471234576928 -0.30622570102712859 0 -0.17075841890319021 -0.32267991232295651 0 -0.1521471234576928 -0.30622570102712859 0 -0.17075841890319021 -0.32267991232295651 0 -0.15536928910057479 -0.31799335959440589 0 -0.17075841890319021 -0.32267991232295651 0 -0.15536928910057479 -0.31799335959440589 0 -0.15041885550205389 -0.32708722206771829 0 -0.17519745401808179 -0.33814225560617162 0 -0.17075841890319021 -0.32267991232295651 0 -0.1532624182972378 -0.33871633494107939 0 -0.17075841890319021 -0.32267991232295651 0 -0.1532624182972378 -0.33871633494107939 0 -0.15041885550205389 -0.32708722206771829 0 -0.1532624182972378 -0.33871633494107939 0 -0.15041885550205389 -0.32708722206771829 0 -0.13403844172661231 -0.33095488736429202 0 -0.15041885550205389 -0.32708722206771829 0 -0.14028103823900179 -0.32077908792264309 0 -0.13403844172661231 -0.33095488736429202 0 -0.15536928910057479 -0.31799335959440589 0 -0.15041885550205389 -0.32708722206771829 0 -0.1481744133336001 -0.31559103279323952 0 -0.1521471234576928 -0.30622570102712859 0 -0.15536928910057479 -0.31799335959440589 0 -0.1481744133336001 -0.31559103279323952 0 -0.15041885550205389 -0.32708722206771829 0 -0.1481744133336001 -0.31559103279323952 0 -0.14028103823900179 -0.32077908792264309 0 -0.13676428411235661 -0.311985534419285 0 -0.1481744133336001 -0.31559103279323952 0 -0.14028103823900179 -0.32077908792264309 0 -0.13676428411235661 -0.311985534419285 0 -0.14028103823900179 -0.32077908792264309 0 -0.12839564496088529 -0.32005881249807028 0 -0.14028103823900179 -0.32077908792264309 0 -0.12839564496088529 -0.32005881249807028 0 -0.13403844172661231 -0.33095488736429202 0 -0.12839564496088529 -0.32005881249807028 0 -0.13403844172661231 -0.33095488736429202 0 -0.1231279148664025 -0.32697127933959502 0 -0.13676428411235661 -0.311985534419285 0 -0.12839564496088529 -0.32005881249807028 0 -0.12202825811921469 -0.30947938976295097 0 -0.13403844172661231 -0.33095488736429202 0 -0.13290241802702499 -0.35265178330474523 0 -0.1166361947753133 -0.33638206822001748 0 -0.1532624182972378 -0.33871633494107939 0 -0.13403844172661231 -0.33095488736429202 0 -0.13290241802702499 -0.35265178330474523 0 -0.1532624182972378 -0.33871633494107939 0 -0.13290241802702499 -0.35265178330474523 0 -0.1562220225934601 -0.35985472972221177 0 -0.13724659116883831 -0.38156720383825199 0 -0.13290241802702499 -0.35265178330474523 0 -0.1562220225934601 -0.35985472972221177 0 -0.13724659116883831 -0.38156720383825199 0 -0.1663441030446621 -0.37717300760659073 0 -0.1562220225934601 -0.35985472972221177 0 -0.13724659116883831 -0.38156720383825199 0 -0.1562220225934601 -0.35985472972221177 0 -0.13724659116883831 -0.38156720383825199 0 -0.13290241802702499 -0.35265178330474523 0 -0.1192781490478088 -0.36668410834504778 0 -0.1192781490478088 -0.36668410834504778 0 -0.1016352808315869 -0.36700177770792092 0 -0.11220573075163159 -0.38220411347121069 0 -0.1192781490478088 -0.36668410834504778 0 -0.1016352808315869 -0.36700177770792092 0 -0.1099844304083452 -0.35257743562026572 0 -0.1016352808315869 -0.36700177770792092 0 -0.091783481537845241 -0.36974840743822202 0 -0.093334558199797538 -0.36412034719781128 0 -0.1016352808315869 -0.36700177770792092 0 -0.094364811557621053 -0.35389299716276579 0 -0.093334558199797538 -0.36412034719781128 0 -0.1016352808315869 -0.36700177770792092 0 -0.091783481537845241 -0.36974840743822202 0 -0.093814789784828018 -0.38091150164421111 0 -0.094364811557621053 -0.35389299716276579 0 -0.1099844304083452 -0.35257743562026572 0 -0.096042697554356071 -0.3397062417384924 0 -0.1016352808315869 -0.36700177770792092 0 -0.094364811557621053 -0.35389299716276579 0 -0.1099844304083452 -0.35257743562026572 0 -0.13290241802702499 -0.35265178330474523 0 -0.1099844304083452 -0.35257743562026572 0 -0.1166361947753133 -0.33638206822001748 0 -0.13290241802702499 -0.35265178330474523 0 -0.1192781490478088 -0.36668410834504778 0 -0.1099844304083452 -0.35257743562026572 0 -0.13403844172661231 -0.33095488736429202 0 -0.1166361947753133 -0.33638206822001748 0 -0.1231279148664025 -0.32697127933959502 0 -0.1166361947753133 -0.33638206822001748 0 -0.1152881905332649 -0.31967160768574748 0 -0.098893476597157901 -0.32632392269665411 0 -0.1166361947753133 -0.33638206822001748 0 -0.1231279148664025 -0.32697127933959502 0 -0.1152881905332649 -0.31967160768574748 0 -0.12839564496088529 -0.32005881249807028 0 -0.1152881905332649 -0.31967160768574748 0 -0.12202825811921469 -0.30947938976295097 0 -0.12839564496088529 -0.32005881249807028 0 -0.1231279148664025 -0.32697127933959502 0 -0.1152881905332649 -0.31967160768574748 0 -0.1152881905332649 -0.31967160768574748 0 -0.11397155121489801 -0.30848478901155318 0 -0.10823649018657309 -0.3106210867482716 0 -0.1152881905332649 -0.31967160768574748 0 -0.12202825811921469 -0.30947938976295097 0 -0.11397155121489801 -0.30848478901155318 0 -0.1152881905332649 -0.31967160768574748 0 -0.098893476597157901 -0.32632392269665411 0 -0.10823649018657309 -0.3106210867482716 0 -0.1166361947753133 -0.33638206822001748 0 -0.098893476597157901 -0.32632392269665411 0 -0.096042697554356071 -0.3397062417384924 0 -0.1099844304083452 -0.35257743562026572 0 -0.1166361947753133 -0.33638206822001748 0 -0.096042697554356071 -0.3397062417384924 0 -0.081273045807338212 -0.32012122354728773 0 -0.072383893537199012 -0.33396092306611819 0 -0.082523744249277803 -0.34494336359321798 0 -0.081273045807338212 -0.32012122354728773 0 -0.082523744249277803 -0.34494336359321798 0 -0.096042697554356071 -0.3397062417384924 0 -0.081273045807338212 -0.32012122354728773 0 -0.082523744249277803 -0.34494336359321798 0 -0.098893476597157901 -0.32632392269665411 0 -0.096042697554356071 -0.3397062417384924 0 -0.081273045807338212 -0.32012122354728773 0 -0.098893476597157901 -0.32632392269665411 0 -0.081273045807338212 -0.32012122354728773 0 -0.088490963390462057 -0.3073149594937738 0 -0.081273045807338212 -0.32012122354728773 0 -0.06349485352407537 -0.31994243130957151 0 -0.072383893537199012 -0.33396092306611819 0 -0.081273045807338212 -0.32012122354728773 0 -0.06349485352407537 -0.31994243130957151 0 -0.071882199735688629 -0.30989172464331072 0 -0.06349485352407537 -0.31994243130957151 0 -0.072383893537199012 -0.33396092306611819 0 -0.062587044379988993 -0.33886333000968721 0 -0.072383893537199012 -0.33396092306611819 0 -0.072040779725314613 -0.34593426687082662 0 -0.082523744249277803 -0.34494336359321798 0 -0.072383893537199012 -0.33396092306611819 0 -0.062587044379988993 -0.33886333000968721 0 -0.072040779725314613 -0.34593426687082662 0 -0.062587044379988993 -0.33886333000968721 0 -0.072040779725314613 -0.34593426687082662 0 -0.05778126825204781 -0.35817517109810632 0 -0.081484465201393491 -0.35485127927681481 0 -0.05778126825204781 -0.35817517109810632 0 -0.072289445743601369 -0.36429171085611578 0 -0.081484465201393491 -0.35485127927681481 0 -0.05778126825204781 -0.35817517109810632 0 -0.072040779725314613 -0.34593426687082662 0 -0.081484465201393491 -0.35485127927681481 0 -0.05778126825204781 -0.35817517109810632 0 -0.066117606829746781 -0.37437488941039382 0 -0.072289445743601369 -0.36429171085611578 0 -0.05778126825204781 -0.35817517109810632 0 -0.066117606829746781 -0.37437488941039382 0 -0.072289445743601369 -0.36429171085611578 0 -0.083774442691217046 -0.36976550363914829 0 -0.072289445743601369 -0.36429171085611578 0 -0.083774442691217046 -0.36976550363914829 0 -0.081484465201393491 -0.35485127927681481 0 -0.085554658872136979 -0.36583820648233678 0 -0.083774442691217046 -0.36976550363914829 0 -0.082523744249277803 -0.34494336359321798 0 -0.085554658872136979 -0.36583820648233678 0 -0.083774442691217046 -0.36976550363914829 0 -0.083774442691217046 -0.36976550363914829 0 -0.091783481537845241 -0.36974840743822202 0 -0.093814789784828018 -0.38091150164421111 0 -0.085554658872136979 -0.36583820648233678 0 -0.083774442691217046 -0.36976550363914829 0 -0.091783481537845241 -0.36974840743822202 0 -0.094364811557621053 -0.35389299716276579 0 -0.085554658872136979 -0.36583820648233678 0 -0.093334558199797538 -0.36412034719781128 0 -0.085554658872136979 -0.36583820648233678 0 -0.091783481537845241 -0.36974840743822202 0 -0.093334558199797538 -0.36412034719781128 0 -0.094364811557621053 -0.35389299716276579 0 -0.085554658872136979 -0.36583820648233678 0 -0.082523744249277803 -0.34494336359321798 0 -0.083774442691217046 -0.36976550363914829 0 -0.082523744249277803 -0.34494336359321798 0 -0.083774442691217046 -0.36976550363914829 0 -0.082523744249277803 -0.34494336359321798 0 -0.081484465201393491 -0.35485127927681481 0 -0.094364811557621053 -0.35389299716276579 0 -0.096042697554356071 -0.3397062417384924 0 -0.082523744249277803 -0.34494336359321798 0 -0.072040779725314613 -0.34593426687082662 0 -0.082523744249277803 -0.34494336359321798 0 -0.081484465201393491 -0.35485127927681481 0 -0.101475907254733 -0.26829823342826459 0 -0.093680051977193257 -0.25300014610948141 0 -0.1025516661405015 -0.24412656761791199 0 -0.1097432552782682 -0.2572086698476283 0 -0.101475907254733 -0.26829823342826459 0 -0.1025516661405015 -0.24412656761791199 0 -0.101475907254733 -0.26829823342826459 0 -0.1025516661405015 -0.24412656761791199 0 -0.101475907254733 -0.26829823342826459 0 -0.092490388530258719 -0.26367462890309928 0 -0.093680051977193257 -0.25300014610948141 0 -0.1097432552782682 -0.2572086698476283 0 -0.11415052326640381 -0.26847741843797612 0 -0.101475907254733 -0.26829823342826459 0 -0.1097432552782682 -0.2572086698476283 0 -0.1183855941197941 -0.25651062511641259 0 -0.1121525856099083 -0.24863050463757599 0 -0.1283361407779757 -0.25159171728621699 0 -0.1183855941197941 -0.25651062511641259 0 -0.11992695639240671 -0.24305274461581289 0 -0.1259380663168852 -0.26705754103126977 0 -0.1183855941197941 -0.25651062511641259 0 -0.11415052326640381 -0.26847741843797612 0 -0.1259380663168852 -0.26705754103126977 0 -0.1283361407779757 -0.25159171728621699 0 -0.1183855941197941 -0.25651062511641259 0 -0.1097432552782682 -0.2572086698476283 0 -0.1183855941197941 -0.25651062511641259 0 -0.11415052326640381 -0.26847741843797612 0 -0.1259380663168852 -0.26705754103126977 0 -0.11415052326640381 -0.26847741843797612 0 -0.121176560474238 -0.27855216134530347 0 -0.11415052326640381 -0.26847741843797612 0 -0.121176560474238 -0.27855216134530347 0 -0.112272911659429 -0.28340806039222649 0 -0.101475907254733 -0.26829823342826459 0 -0.1004001483689636 -0.29246989923861699 0 -0.089806853404465051 -0.2713401455271785 0 -0.101475907254733 -0.26829823342826459 0 -0.1004001483689636 -0.29246989923861699 0 -0.11415052326640381 -0.26847741843797612 0 -0.101475907254733 -0.26829823342826459 0 -0.112272911659429 -0.28340806039222649 0 -0.101475907254733 -0.26829823342826459 0 -0.089806853404465051 -0.2713401455271785 0 -0.092490388530258719 -0.26367462890309928 0 -0.1004001483689636 -0.29246989923861699 0 -0.112272911659429 -0.28340806039222649 0 -0.11289062726590229 -0.30027849754824781 0 -0.101475907254733 -0.26829823342826459 0 -0.1004001483689636 -0.29246989923861699 0 -0.112272911659429 -0.28340806039222649 0 -0.1004001483689636 -0.29246989923861699 0 -0.10013860532164209 -0.29834661679915908 0 -0.1004001483689636 -0.29246989923861699 0 -0.11289062726590229 -0.30027849754824781 0 -0.112272911659429 -0.28340806039222649 0 -0.12354370332633501 -0.29237215235494779 0 -0.11289062726590229 -0.30027849754824781 0 -0.121176560474238 -0.27855216134530347 0 -0.112272911659429 -0.28340806039222649 0 -0.12354370332633501 -0.29237215235494779 0 -0.13137693926794269 -0.30307910049847142 0 -0.11289062726590229 -0.30027849754824781 0 -0.13137693926794269 -0.30307910049847142 0 -0.11289062726590229 -0.30027849754824781 0 -0.12202825811921469 -0.30947938976295097 0 -0.13137693926794269 -0.30307910049847142 0 -0.12354370332633501 -0.29237215235494779 0 -0.11289062726590229 -0.30027849754824781 0 -0.11289062726590229 -0.30027849754824781 0 -0.11397155121489801 -0.30848478901155318 0 -0.10823649018657309 -0.3106210867482716 0 -0.11289062726590229 -0.30027849754824781 0 -0.12202825811921469 -0.30947938976295097 0 -0.11397155121489801 -0.30848478901155318 0 -0.098893476597157901 -0.32632392269665411 0 -0.10013860532164209 -0.29834661679915908 0 -0.098893476597157901 -0.32632392269665411 0 -0.10013860532164209 -0.29834661679915908 0 -0.088490963390462057 -0.3073149594937738 0 -0.098893476597157901 -0.32632392269665411 0 -0.10823649018657309 -0.3106210867482716 0 -0.10013860532164209 -0.29834661679915908 0 -0.11289062726590229 -0.30027849754824781 0 -0.10013860532164209 -0.29834661679915908 0 -0.1004001483689636 -0.29246989923861699 0 -0.11289062726590229 -0.30027849754824781 0 -0.10013860532164209 -0.29834661679915908 0 -0.11289062726590229 -0.30027849754824781 0 -0.10823649018657309 -0.3106210867482716 0 -0.10013860532164209 -0.29834661679915908 0 -0.081273045807338212 -0.32012122354728773 0 -0.075730545320634307 -0.30237183499028841 0 -0.080022347365398816 -0.29529908350135742 0 -0.081273045807338212 -0.32012122354728773 0 -0.088490963390462057 -0.3073149594937738 0 -0.080022347365398816 -0.29529908350135742 0 -0.10013860532164209 -0.29834661679915908 0 -0.088490963390462057 -0.3073149594937738 0 -0.080022347365398816 -0.29529908350135742 0 -0.081273045807338212 -0.32012122354728773 0 -0.080022347365398816 -0.29529908350135742 0 -0.06349485352407537 -0.31994243130957151 0 -0.067929239438661637 -0.29744245220773302 0 -0.06349485352407537 -0.31994243130957151 0 -0.067929239438661637 -0.29744245220773302 0 -0.05709164511789562 -0.30596989755068921 0 -0.081273045807338212 -0.32012122354728773 0 -0.071882199735688629 -0.30989172464331072 0 -0.075730545320634307 -0.30237183499028841 0 -0.06349485352407537 -0.31994243130957151 0 -0.071882199735688629 -0.30989172464331072 0 -0.067929239438661637 -0.29744245220773302 0 -0.067929239438661637 -0.29744245220773302 0 -0.075730545320634307 -0.30237183499028841 0 -0.074800211398343183 -0.29676828128919502 0 -0.071882199735688629 -0.30989172464331072 0 -0.067929239438661637 -0.29744245220773302 0 -0.075730545320634307 -0.30237183499028841 0 -0.075730545320634307 -0.30237183499028841 0 -0.074800211398343183 -0.29676828128919502 0 -0.080022347365398816 -0.29529908350135742 0 -0.067929239438661637 -0.29744245220773302 0 -0.072363625353247057 -0.27494247310589431 0 -0.074800211398343183 -0.29676828128919502 0 -0.075988861669628593 -0.29203098004520328 0 -0.080022347365398816 -0.29529908350135742 0 -0.067929239438661637 -0.29744245220773302 0 -0.063481929201992804 -0.28659419931659808 0 -0.072363625353247057 -0.27494247310589431 0 -0.067929239438661637 -0.29744245220773302 0 -0.075162920182542767 -0.28731555611229459 0 -0.072363625353247057 -0.27494247310589431 0 -0.075988861669628593 -0.29203098004520328 0 -0.075162920182542767 -0.28731555611229459 0 -0.080022347365398816 -0.29529908350135742 0 -0.067929239438661637 -0.29744245220773302 0 -0.075988861669628593 -0.29203098004520328 0 -0.075162920182542767 -0.28731555611229459 0 -0.067929239438661637 -0.29744245220773302 0 -0.074800211398343183 -0.29676828128919502 0 -0.075988861669628593 -0.29203098004520328 0 -0.067929239438661637 -0.29744245220773302 0 -0.063481929201992804 -0.28659419931659808 0 -0.057157199652218327 -0.29433345841048941 0 -0.1004001483689636 -0.29246989923861699 0 -0.079212385277153408 -0.27922407156230239 0 -0.10013860532164209 -0.29834661679915908 0 -0.080022347365398816 -0.29529908350135742 0 -0.075162920182542767 -0.28731555611229459 0 -0.080022347365398816 -0.29529908350135742 0 -0.079212385277153408 -0.27922407156230239 0 -0.1004001483689636 -0.29246989923861699 0 -0.080022347365398816 -0.29529908350135742 0 -0.079212385277153408 -0.27922407156230239 0 -0.1004001483689636 -0.29246989923861699 0 -0.10013860532164209 -0.29834661679915908 0 -0.080022347365398816 -0.29529908350135742 0 -0.080022347365398816 -0.29529908350135742 0 -0.079212385277153408 -0.27922407156230239 0 -0.1004001483689636 -0.29246989923861699 0 -0.089806853404465051 -0.2713401455271785 0 -0.079212385277153408 -0.27922407156230239 0 -0.089806853404465051 -0.2713401455271785 0 -0.084998741484643592 -0.26205999054747281 0 -0.092490388530258719 -0.26367462890309928 0 -0.089806853404465051 -0.2713401455271785 0 -0.078429256909339093 -0.26368161834739218 0 -0.084998741484643592 -0.26205999054747281 0 -0.079212385277153408 -0.27922407156230239 0 -0.078429256909339093 -0.26368161834739218 0 -0.089806853404465051 -0.2713401455271785 0 -0.079212385277153408 -0.27922407156230239 0 -0.078429256909339093 -0.26368161834739218 0 -0.075162920182542767 -0.28731555611229459 0 -0.079212385277153408 -0.27922407156230239 0 -0.072363625353247057 -0.27494247310589431 0 -0.072363625353247057 -0.27494247310589431 0 -0.052651973256824323 -0.26261945695013877 0 -0.072363625353247057 -0.27494247310589431 0 -0.065594040539757301 -0.27326720108960889 0 -0.052651973256824323 -0.26261945695013877 0 -0.079212385277153408 -0.27922407156230239 0 -0.072363625353247057 -0.27494247310589431 0 -0.072363625353247057 -0.27494247310589431 0 -0.065594040539757301 -0.27326720108960889 0 -0.061663959528748452 -0.27997783588547598 0 -0.063481929201992804 -0.28659419931659808 0 -0.072363625353247057 -0.27494247310589431 0 -0.061663959528748452 -0.27997783588547598 0 -0.079212385277153408 -0.27922407156230239 0 -0.072363625353247057 -0.27494247310589431 0 -0.078429256909339093 -0.26368161834739218 0 -0.072363625353247057 -0.27494247310589431 0 -0.077646128541525 -0.24813916513248199 0 -0.072363625353247057 -0.27494247310589431 0 -0.078429256909339093 -0.26368161834739218 0 -0.077646128541525 -0.24813916513248199 0 -0.072363625353247057 -0.27494247310589431 0 -0.052651973256824323 -0.26261945695013877 0 -0.077646128541525 -0.24813916513248199 0 -0.078429256909339093 -0.26368161834739218 0 -0.077646128541525 -0.24813916513248199 0 -0.084998741484643592 -0.26205999054747281 0 -0.088104632666654803 -0.24175912157342011 0 -0.084998741484643592 -0.26205999054747281 0 -0.093680051977193257 -0.25300014610948141 0 -0.088104632666654803 -0.24175912157342011 0 -0.084998741484643592 -0.26205999054747281 0 -0.088104632666654803 -0.24175912157342011 0 -0.077646128541525 -0.24813916513248199 0 -0.078429256909339093 -0.26368161834739218 0 -0.084998741484643592 -0.26205999054747281 0 -0.077646128541525 -0.24813916513248199 0 -0.084998741484643592 -0.26205999054747281 0 -0.092490388530258719 -0.26367462890309928 0 -0.093680051977193257 -0.25300014610948141 0 -0.032940321160402269 -0.25029644079438251 0 -0.052651973256824323 -0.26261945695013877 0 -0.050902643065861071 -0.24349095896983161 0 -0.032940321160402269 -0.25029644079438251 0 -0.052651973256824323 -0.26261945695013877 0 -0.030801127425925001 -0.25680016795848581 0 -0.032940321160402269 -0.25029644079438251 0 -0.052651973256824323 -0.26261945695013877 0 -0.052651973256824323 -0.26261945695013877 0 -0.048838748996681343 -0.27669498093657302 0 -0.030801127425925001 -0.25680016795848581 0 -0.032940321160402269 -0.25029644079438251 0 -0.030801127425925001 -0.25680016795848581 0 -0.052651973256824323 -0.26261945695013877 0 -0.050902643065861071 -0.24349095896983161 0 -0.077646128541525 -0.24813916513248199 0 -0.065594040539757301 -0.27326720108960889 0 -0.048838748996681343 -0.27669498093657302 0 -0.065594040539757301 -0.27326720108960889 0 -0.052651973256824323 -0.26261945695013877 0 -0.048838748996681343 -0.27669498093657302 0 -0.065594040539757301 -0.27326720108960889 0 -0.061663959528748452 -0.27997783588547598 0 -0.048838748996681343 -0.27669498093657302 0 -0.061663959528748452 -0.27997783588547598 0 -0.048838748996681343 -0.27669498093657302 0 -0.054451087829631463 -0.28288517796522222 0 -0.048838748996681343 -0.27669498093657302 0 -0.054451087829631463 -0.28288517796522222 0 -0.048838748996681343 -0.27669498093657302 0 -0.030801127425925001 -0.25680016795848581 0 -0.048838748996681343 -0.27669498093657302 0 -0.02248395618448398 -0.28208661661419232 0 -0.030801127425925001 -0.25680016795848581 0 -0.048838748996681343 -0.27669498093657302 0 -0.02248395618448398 -0.28208661661419232 0 -0.048838748996681343 -0.27669498093657302 0 -0.041077846387481028 -0.28937070966441081 0 -0.02248395618448398 -0.28208661661419232 0 -0.041077846387481028 -0.28937070966441081 0 -0.037109865356421391 -0.29952186761000271 0 -0.029468436869721851 -0.29252598106650862 0 -0.041077846387481028 -0.28937070966441081 0 -0.04975385330497957 -0.2890306135367654 0 -0.047244383658885593 -0.30186874070713182 0 -0.048838748996681343 -0.27669498093657302 0 -0.041077846387481028 -0.28937070966441081 0 -0.04975385330497957 -0.2890306135367654 0 -0.048838748996681343 -0.27669498093657302 0 -0.04975385330497957 -0.2890306135367654 0 -0.054451087829631463 -0.28288517796522222 0 -0.04975385330497957 -0.2890306135367654 0 -0.054451087829631463 -0.28288517796522222 0 -0.057157199652218327 -0.29433345841048941 0 -0.063481929201992804 -0.28659419931659808 0 -0.054451087829631463 -0.28288517796522222 0 -0.057157199652218327 -0.29433345841048941 0 -0.063481929201992804 -0.28659419931659808 0 -0.061663959528748452 -0.27997783588547598 0 -0.054451087829631463 -0.28288517796522222 0 -0.04975385330497957 -0.2890306135367654 0 -0.057157199652218327 -0.29433345841048941 0 -0.047244383658885593 -0.30186874070713182 0 -0.057157199652218327 -0.29433345841048941 0 -0.047244383658885593 -0.30186874070713182 0 -0.05709164511789562 -0.30596989755068921 0 -0.067929239438661637 -0.29744245220773302 0 -0.057157199652218327 -0.29433345841048941 0 -0.05709164511789562 -0.30596989755068921 0 -0.047244383658885593 -0.30186874070713182 0 -0.05709164511789562 -0.30596989755068921 0 -0.049632549315637188 -0.31626240511852 0 -0.047244383658885593 -0.30186874070713182 0 -0.049632549315637188 -0.31626240511852 0 -0.036505516356473318 -0.31400569198040618 0 -0.047244383658885593 -0.30186874070713182 0 -0.037109865356421391 -0.29952186761000271 0 -0.036505516356473318 -0.31400569198040618 0 -0.041077846387481028 -0.28937070966441081 0 -0.047244383658885593 -0.30186874070713182 0 -0.037109865356421391 -0.29952186761000271 0 -0.037109865356421391 -0.29952186761000271 0 -0.02678144107749017 -0.30078470409936309 0 -0.036505516356473318 -0.31400569198040618 0 -0.02678144107749017 -0.30078470409936309 0 -0.021312585502779081 -0.32213078764647213 0 -0.02678144107749017 -0.30078470409936309 0 -0.036505516356473318 -0.31400569198040618 0 -0.021312585502779081 -0.32213078764647213 0 -0.02678144107749017 -0.30078470409936309 0 -0.01630762940426286 -0.3038502133106713 0 -0.021312585502779081 -0.32213078764647213 0 -0.037109865356421391 -0.29952186761000271 0 -0.02678144107749017 -0.30078470409936309 0 -0.029468436869721851 -0.29252598106650862 0 -0.02678144107749017 -0.30078470409936309 0 -0.01630762940426286 -0.3038502133106713 0 -0.01957434403417008 -0.29093262400193609 0 -0.0063780240591087903 -0.31078717533589839 0 -0.0074917523477661804 -0.29461577546968681 0 0.013051880611257029 -0.30817184754300292 0 -0.01630762940426286 -0.3038502133106713 0 -0.0063780240591087903 -0.31078717533589839 0 -0.021312585502779081 -0.32213078764647213 0 -0.01630762940426286 -0.3038502133106713 0 -0.0063780240591087903 -0.31078717533589839 0 -0.0074917523477661804 -0.29461577546968681 0 -0.02248395618448398 -0.28208661661419232 0 0.0027723556212477219 -0.28725352620772771 0 -0.01075429771457371 -0.28163518560512563 0 -0.02248395618448398 -0.28208661661419232 0 0.0027723556212477219 -0.28725352620772771 0 -0.0074917523477661804 -0.29461577546968681 0 -0.02248395618448398 -0.28208661661419232 0 0.0027723556212477219 -0.28725352620772771 0 -0.01630762940426286 -0.3038502133106713 0 -0.0074917523477661804 -0.29461577546968681 0 -0.01957434403417008 -0.29093262400193609 0 -0.01075429771457371 -0.28163518560512563 0 -0.0017476628817073611 -0.27805551369469472 0 0.0027723556212477219 -0.28725352620772771 0 -0.041077846387481028 -0.28937070966441081 0 -0.02248395618448398 -0.28208661661419232 0 -0.029468436869721851 -0.29252598106650862 0 -0.02248395618448398 -0.28208661661419232 0 -0.01957434403417008 -0.29093262400193609 0 -0.0074917523477661804 -0.29461577546968681 0 -0.02248395618448398 -0.28208661661419232 0 -0.01957434403417008 -0.29093262400193609 0 -0.02678144107749017 -0.30078470409936309 0 -0.01957434403417008 -0.29093262400193609 0 -0.029468436869721851 -0.29252598106650862 0 -0.02248395618448398 -0.28208661661419232 0 -0.01957434403417008 -0.29093262400193609 0 -0.029468436869721851 -0.29252598106650862 0 -0.02248395618448398 -0.28208661661419232 0 -0.030801127425925001 -0.25680016795848581 0 -0.02248395618448398 -0.28208661661419232 0 -0.01520552987642871 -0.27187005660595642 0 -0.030801127425925001 -0.25680016795848581 0 -0.01075429771457371 -0.28163518560512563 0 -0.02248395618448398 -0.28208661661419232 0 -0.01520552987642871 -0.27187005660595642 0 -0.0017476628817073611 -0.27805551369469472 0 -0.01024060517545407 -0.26077279915728391 0 0.0057386521092319797 -0.26220041049146298 0 -0.0017476628817073611 -0.27805551369469472 0 -0.01520552987642871 -0.27187005660595642 0 -0.01024060517545407 -0.26077279915728391 0 -0.0017476628817073611 -0.27805551369469472 0 -0.01024060517545407 -0.26077279915728391 0 -0.01075429771457371 -0.28163518560512563 0 -0.0017476628817073611 -0.27805551369469472 0 -0.01520552987642871 -0.27187005660595642 0 -0.01075429771457371 -0.28163518560512563 0 -0.0017476628817073611 -0.27805551369469472 0 -0.01024060517545407 -0.26077279915728391 0 0.0057386521092319797 -0.26220041049146298 0 0.0025328853753160741 -0.24958102673793139 0 -0.01024060517545407 -0.26077279915728391 0 -0.018733547469201091 -0.24349008461987329 0 -0.01024060517545407 -0.26077279915728391 0 -0.018733547469201091 -0.24349008461987329 0 0.0025328853753160741 -0.24958102673793139 0 -0.01024060517545407 -0.26077279915728391 0 -0.030801127425925001 -0.25680016795848581 0 -0.018733547469201091 -0.24349008461987329 0 -0.01520552987642871 -0.27187005660595642 0 -0.01024060517545407 -0.26077279915728391 0 -0.030801127425925001 -0.25680016795848581 0 -0.032940321160402269 -0.25029644079438251 0 -0.030801127425925001 -0.25680016795848581 0 -0.026871719323301121 -0.24650256912316601 0 -0.030801127425925001 -0.25680016795848581 0 -0.018733547469201091 -0.24349008461987329 0 -0.034078071302702163 -0.36149906291939787 0 -0.05778126825204781 -0.35817517109810632 0 -0.044598414929564491 -0.33459332569111688 0 -0.034078071302702163 -0.36149906291939787 0 -0.044598414929564491 -0.33459332569111688 0 -0.02963630761074966 -0.34409655343526241 0 -0.034078071302702163 -0.36149906291939787 0 -0.05778126825204781 -0.35817517109810632 0 -0.034078071302702163 -0.36149906291939787 0 -0.031733352269984409 -0.37630872523495079 0 -0.04671422923235316 -0.37926911911211442 0 -0.034078071302702163 -0.36149906291939787 0 -0.05778126825204781 -0.35817517109810632 0 -0.04671422923235316 -0.37926911911211442 0 -0.066117606829746781 -0.37437488941039382 0 -0.05778126825204781 -0.35817517109810632 0 -0.04671422923235316 -0.37926911911211442 0 -0.062587044379988993 -0.33886333000968721 0 -0.05778126825204781 -0.35817517109810632 0 -0.044598414929564491 -0.33459332569111688 0 -0.06349485352407537 -0.31994243130957151 0 -0.062587044379988993 -0.33886333000968721 0 -0.044598414929564491 -0.33459332569111688 0 -0.06349485352407537 -0.31994243130957151 0 -0.049632549315637188 -0.31626240511852 0 -0.044598414929564491 -0.33459332569111688 0 -0.06349485352407537 -0.31994243130957151 0 -0.05709164511789562 -0.30596989755068921 0 -0.049632549315637188 -0.31626240511852 0 -0.049632549315637188 -0.31626240511852 0 -0.036505516356473318 -0.31400569198040618 0 -0.044598414929564491 -0.33459332569111688 0 -0.036505516356473318 -0.31400569198040618 0 -0.044598414929564491 -0.33459332569111688 0 -0.021312585502779081 -0.32213078764647213 0 -0.044598414929564491 -0.33459332569111688 0 -0.021312585502779081 -0.32213078764647213 0 -0.02963630761074966 -0.34409655343526241 0 -0.015843729928067991 -0.34347687119358122 0 -0.021312585502779081 -0.32213078764647213 0 -0.02963630761074966 -0.34409655343526241 0 -0.015843729928067991 -0.34347687119358122 0 -0.021312585502779081 -0.32213078764647213 0 -0.0063780240591087903 -0.31078717533589839 0 -0.021312585502779081 -0.32213078764647213 0 3.5896068887442723e-05 -0.32803491845883598 0 -0.015843729928067991 -0.34347687119358122 0 -0.00014080085946228561 -0.35082738964002957 0 3.5896068887442723e-05 -0.32803491845883598 0 -0.015843729928067991 -0.34347687119358122 0 -0.021312585502779081 -0.32213078764647213 0 3.5896068887442723e-05 -0.32803491845883598 0 -0.015843729928067991 -0.34347687119358122 0 -0.00014080085946228561 -0.35082738964002957 0 -0.01037487435335663 -0.3648229547406901 0 -0.015843729928067991 -0.34347687119358122 0 -0.01037487435335663 -0.3648229547406901 0 -0.015843729928067991 -0.34347687119358122 0 -0.02275820373048933 -0.35362182208710219 0 -0.02963630761074966 -0.34409655343526241 0 -0.015843729928067991 -0.34347687119358122 0 -0.02275820373048933 -0.35362182208710219 0 -0.01037487435335663 -0.3648229547406901 0 -0.034078071302702163 -0.36149906291939787 0 -0.02275820373048933 -0.35362182208710219 0 -0.02963630761074966 -0.34409655343526241 0 -0.034078071302702163 -0.36149906291939787 0 -0.02215424893162643 -0.37111505202744122 0 -0.01037487435335663 -0.3648229547406901 0 -0.034078071302702163 -0.36149906291939787 0 -0.01037487435335663 -0.3648229547406901 0 -0.034078071302702163 -0.36149906291939787 0 -0.02275820373048933 -0.35362182208710219 0 -0.01037487435335663 -0.3648229547406901 0 -0.034078071302702163 -0.36149906291939787 0 -0.02215424893162643 -0.37111505202744122 0 -0.031733352269984409 -0.37630872523495079 0 -0.02215424893162643 -0.37111505202744122 0 -0.016772253886492949 -0.37410089839641808 0 -0.01404568160319189 -0.3712617873641948 0 -0.01404568160319189 -0.3712617873641948 0 -0.0094265442937821464 -0.37378457166277412 0 -0.01319259440905524 -0.37623554315916408 0 -0.0078283346885702904 -0.37476262999778609 0 -0.0094265442937821464 -0.37378457166277412 0 -0.01037487435335663 -0.3648229547406901 0 -0.02215424893162643 -0.37111505202744122 0 -0.01404568160319189 -0.3712617873641948 0 -0.01037487435335663 -0.3648229547406901 0 -0.01037487435335663 -0.3648229547406901 0 0.0058490520874761691 -0.36709803082098191 0 -0.016772253886492949 -0.37410089839641808 0 -0.01404568160319189 -0.3712617873641948 0 -0.01319259440905524 -0.37623554315916408 0 -0.00014080085946228561 -0.35082738964002957 0 -0.01037487435335663 -0.3648229547406901 0 0.0058490520874761691 -0.36709803082098191 0 -0.0078283346885702904 -0.37476262999778609 0 -0.01037487435335663 -0.3648229547406901 0 0.0058490520874761691 -0.36709803082098191 0 -0.0078283346885702904 -0.37476262999778609 0 -0.01037487435335663 -0.3648229547406901 0 -0.01404568160319189 -0.3712617873641948 0 -0.0094265442937821464 -0.37378457166277412 0 -0.01037487435335663 -0.3648229547406901 0 -0.0078283346885702904 -0.37476262999778609 0 -0.0094265442937821464 -0.37378457166277412 0 -0.0078283346885702904 -0.37476262999778609 0 -0.0023576536845698339 -0.39611583857600319 0 -0.0078283346885702904 -0.37476262999778609 0 -0.011142097151610131 -0.38172381805447092 0 -0.0023576536845698339 -0.39611583857600319 0 -0.011142097151610131 -0.38172381805447092 0 -0.0023576536845698339 -0.39611583857600319 0 -0.01587325479487519 -0.38723674351337972 0 -0.011142097151610131 -0.38172381805447092 0 -0.01610234460482865 -0.37998891207167063 0 -0.01587325479487519 -0.38723674351337972 0 -0.01319259440905524 -0.37623554315916408 0 -0.011142097151610131 -0.38172381805447092 0 -0.01610234460482865 -0.37998891207167063 0 -0.016772253886492949 -0.37410089839641808 0 -0.01319259440905524 -0.37623554315916408 0 -0.01610234460482865 -0.37998891207167063 0 -0.01319259440905524 -0.37623554315916408 0 -0.010397392635754449 -0.37662664071854879 0 -0.011142097151610131 -0.38172381805447092 0 -0.0078283346885702904 -0.37476262999778609 0 -0.010397392635754449 -0.37662664071854879 0 -0.011142097151610131 -0.38172381805447092 0 -0.0094265442937821464 -0.37378457166277412 0 -0.01319259440905524 -0.37623554315916408 0 -0.010397392635754449 -0.37662664071854879 0 -0.0078283346885702904 -0.37476262999778609 0 -0.0094265442937821464 -0.37378457166277412 0 -0.010397392635754449 -0.37662664071854879 0 -0.0023576536845698339 -0.39611583857600319 0 -0.016854849126784088 -0.39742738565483049 0 -0.01587325479487519 -0.38723674351337972 0 -0.0023576536845698339 -0.39611583857600319 0 -0.016854849126784088 -0.39742738565483049 0 -0.0081630895937607941 -0.41129335178386173 0 -0.016854849126784088 -0.39742738565483049 0 -0.023392714889338931 -0.39064901327928331 0 -0.029305467632274609 -0.40049385546170407 0 -0.016854849126784088 -0.39742738565483049 0 -0.023392714889338931 -0.39064901327928331 0 -0.01587325479487519 -0.38723674351337972 0 -0.023392714889338931 -0.39064901327928331 0 -0.029305467632274609 -0.40049385546170407 0 -0.032188689101130562 -0.38901283488088068 0 -0.02215424893162643 -0.37111505202744122 0 -0.016772253886492949 -0.37410089839641808 0 -0.02353152278210973 -0.38064755723492022 0 -0.016772253886492949 -0.37410089839641808 0 -0.01610234460482865 -0.37998891207167063 0 -0.02353152278210973 -0.38064755723492022 0 -0.01610234460482865 -0.37998891207167063 0 -0.01587325479487519 -0.38723674351337972 0 -0.02353152278210973 -0.38064755723492022 0 -0.023392714889338931 -0.39064901327928331 0 -0.01587325479487519 -0.38723674351337972 0 -0.02353152278210973 -0.38064755723492022 0 -0.023392714889338931 -0.39064901327928331 0 -0.02353152278210973 -0.38064755723492022 0 -0.032188689101130562 -0.38901283488088068 0 -0.02353152278210973 -0.38064755723492022 0 -0.031733352269984409 -0.37630872523495079 0 -0.032188689101130562 -0.38901283488088068 0 -0.02215424893162643 -0.37111505202744122 0 -0.02353152278210973 -0.38064755723492022 0 -0.031733352269984409 -0.37630872523495079 0 -0.031733352269984409 -0.37630872523495079 0 -0.04671422923235316 -0.37926911911211442 0 -0.032188689101130562 -0.38901283488088068 0 -0.04671422923235316 -0.37926911911211442 0 -0.032188689101130562 -0.38901283488088068 0 -0.044289202763444772 -0.39135289085216762 0 -0.032188689101130562 -0.38901283488088068 0 -0.041257957344308177 -0.40487627914437913 0 -0.044289202763444772 -0.39135289085216762 0 -0.029305467632274609 -0.40049385546170407 0 -0.032188689101130562 -0.38901283488088068 0 -0.041257957344308177 -0.40487627914437913 0 -0.056230819367541693 -0.39440183914975269 0 -0.051493530029743613 -0.41277891791385168 0 -0.065747409502729032 -0.40953455918739179 0 -0.041257957344308177 -0.40487627914437913 0 -0.056230819367541693 -0.39440183914975269 0 -0.051493530029743613 -0.41277891791385168 0 -0.041257957344308177 -0.40487627914437913 0 -0.044289202763444772 -0.39135289085216762 0 -0.056230819367541693 -0.39440183914975269 0 -0.056230819367541693 -0.39440183914975269 0 -0.065747409502729032 -0.40953455918739179 0 -0.066117606829746781 -0.37437488941039382 0 -0.04671422923235316 -0.37926911911211442 0 -0.056230819367541693 -0.39440183914975269 0 -0.04671422923235316 -0.37926911911211442 0 -0.044289202763444772 -0.39135289085216762 0 -0.056230819367541693 -0.39440183914975269 0 -0.04671422923235316 -0.37926911911211442 0 -0.056230819367541693 -0.39440183914975269 0 -0.057674512383022389 -0.42734400629007657 0 -0.049601615263317987 -0.44515345339276252 0 -0.057674512383022389 -0.42734400629007657 0 -0.051493530029743613 -0.41277891791385168 0 -0.065747409502729032 -0.40953455918739179 0 -0.057674512383022389 -0.42734400629007657 0 -0.065747409502729032 -0.40953455918739179 0 -0.057674512383022389 -0.42734400629007657 0 -0.051493530029743613 -0.41277891791385168 0 -0.03322823219505102 -0.42129041952379648 0 -0.029305467632274609 -0.40049385546170407 0 -0.041257957344308177 -0.40487627914437913 0 -0.03322823219505102 -0.42129041952379648 0 -0.041257957344308177 -0.40487627914437913 0 -0.051493530029743613 -0.41277891791385168 0 -0.03322823219505102 -0.42129041952379648 0 -0.03322823219505102 -0.42129041952379648 0 -0.02439234541253921 -0.43490569650885758 0 -0.049601615263317987 -0.44515345339276252 0 -0.03322823219505102 -0.42129041952379648 0 -0.049601615263317987 -0.44515345339276252 0 -0.057674512383022389 -0.42734400629007657 0 -0.03322823219505102 -0.42129041952379648 0 -0.049601615263317987 -0.44515345339276252 0 -0.03322823219505102 -0.42129041952379648 0 -0.02439234541253921 -0.43490569650885758 0 -0.010818991714530671 -0.42579448288144173 0 -0.016854849126784088 -0.39742738565483049 0 -0.03322823219505102 -0.42129041952379648 0 -0.03322823219505102 -0.42129041952379648 0 -0.0081630895937607941 -0.41129335178386173 0 -0.010818991714530671 -0.42579448288144173 0 -0.016854849126784088 -0.39742738565483049 0 -0.029305467632274609 -0.40049385546170407 0 -0.03322823219505102 -0.42129041952379648 0 -0.016854849126784088 -0.39742738565483049 0 -0.03322823219505102 -0.42129041952379648 0 -0.0081630895937607941 -0.41129335178386173 0 -0.0081630895937607941 -0.41129335178386173 0 -0.010818991714530671 -0.42579448288144173 0 0.0026957591361241309 -0.41958824334712869 0 -0.02439234541253921 -0.43490569650885758 0 -0.010818991714530671 -0.42579448288144173 0 -0.01027783979290609 -0.4450418277695869 0 -0.010818991714530671 -0.42579448288144173 0 -0.01027783979290609 -0.4450418277695869 0 0.003851027954898749 -0.43172418954792041 0 -0.010818991714530671 -0.42579448288144173 0 0.0026957591361241309 -0.41958824334712869 0 0.003851027954898749 -0.43172418954792041 0 -0.01027783979290609 -0.4450418277695869 0 -0.011038280792740629 -0.46258843223684681 0 0.0031349746952128348 -0.45732154608844711 0 -0.01027783979290609 -0.4450418277695869 0 -0.011038280792740629 -0.46258843223684681 0 -0.02289260566061898 -0.45897742689034388 0 -0.011038280792740629 -0.46258843223684681 0 -0.00094907817261298132 -0.47112804672216879 0 0.0031349746952128348 -0.45732154608844711 0 -0.02289260566061898 -0.45897742689034388 0 -0.029356635895327849 -0.44930438287917762 0 -0.040413005672661102 -0.46542425011239508 0 -0.02289260566061898 -0.45897742689034388 0 -0.023377266149459251 -0.47252824145371342 0 -0.040413005672661102 -0.46542425011239508 0 -0.011038280792740629 -0.46258843223684681 0 -0.02289260566061898 -0.45897742689034388 0 -0.023377266149459251 -0.47252824145371342 0 -0.02439234541253921 -0.43490569650885758 0 -0.01027783979290609 -0.4450418277695869 0 -0.029356635895327849 -0.44930438287917762 0 -0.01027783979290609 -0.4450418277695869 0 -0.02289260566061898 -0.45897742689034388 0 -0.029356635895327849 -0.44930438287917762 0 -0.0023310323066341181 -0.5 0 -0.0043793089323552817 -0.49170101865338262 0 -0.02815109917196898 -0.49861636840837392 0 -0.0043793089323552817 -0.49170101865338262 0 -0.0043176495648967151 -0.48070428616945038 0 0.0053352152350804568 -0.4807791696356124 0 -0.0043793089323552817 -0.49170101865338262 0 -0.0106231170010091 -0.48419136288379427 0 -0.0043176495648967151 -0.48070428616945038 0 -0.0043793089323552817 -0.49170101865338262 0 -0.0106231170010091 -0.48419136288379427 0 -0.017950876149337221 -0.4893641285520216 0 -0.0106231170010091 -0.48419136288379427 0 -0.01097195895358667 -0.47572183295229409 0 -0.019957514846631629 -0.48311391022826639 0 -0.0106231170010091 -0.48419136288379427 0 -0.0043176495648967151 -0.48070428616945038 0 -0.01097195895358667 -0.47572183295229409 0 -0.011038280792740629 -0.46258843223684681 0 -0.00094907817261298132 -0.47112804672216879 0 -0.01097195895358667 -0.47572183295229409 0 -0.0043176495648967151 -0.48070428616945038 0 -0.00094907817261298132 -0.47112804672216879 0 -0.01097195895358667 -0.47572183295229409 0 -0.011038280792740629 -0.46258843223684681 0 -0.01097195895358667 -0.47572183295229409 0 -0.023377266149459251 -0.47252824145371342 0 -0.023377266149459251 -0.47252824145371342 0 -0.019957514846631629 -0.48311391022826639 0 -0.031224396082004221 -0.48569504683202769 0 -0.01097195895358667 -0.47572183295229409 0 -0.023377266149459251 -0.47252824145371342 0 -0.019957514846631629 -0.48311391022826639 0 -0.0023310323066341181 -0.5 0 -0.02815109917196898 -0.49861636840837392 0 -0.031360818006208928 -0.5 0 -0.0043793089323552817 -0.49170101865338262 0 -0.017950876149337221 -0.4893641285520216 0 -0.02815109917196898 -0.49861636840837392 0 -0.0043793089323552817 -0.49170101865338262 0 -0.02815109917196898 -0.49861636840837392 0 -0.0106231170010091 -0.48419136288379427 0 -0.019957514846631629 -0.48311391022826639 0 -0.017950876149337221 -0.4893641285520216 0 -0.019957514846631629 -0.48311391022826639 0 -0.017950876149337221 -0.4893641285520216 0 -0.025597474744393309 -0.49118284869574791 0 -0.019957514846631629 -0.48311391022826639 0 -0.031224396082004221 -0.48569504683202769 0 -0.025597474744393309 -0.49118284869574791 0 -0.025597474744393309 -0.49118284869574791 0 -0.02815109917196898 -0.49861636840837392 0 -0.031360818006208928 -0.5 0 -0.031224396082004221 -0.48569504683202769 0 -0.025597474744393309 -0.49118284869574791 0 -0.031360818006208928 -0.5 0 -0.017950876149337221 -0.4893641285520216 0 -0.025597474744393309 -0.49118284869574791 0 -0.02815109917196898 -0.49861636840837392 0 -0.031360818006208928 -0.5 0 -0.048343055904351132 -0.4819359294639956 0 -0.060390603705783863 -0.5 0 -0.031224396082004221 -0.48569504683202769 0 -0.031360818006208928 -0.5 0 -0.048343055904351132 -0.4819359294639956 0 -0.031224396082004221 -0.48569504683202769 0 -0.040413005672661102 -0.46542425011239508 0 -0.031224396082004221 -0.48569504683202769 0 -0.048343055904351132 -0.4819359294639956 0 -0.040413005672661102 -0.46542425011239508 0 -0.023377266149459251 -0.47252824145371342 0 -0.031224396082004221 -0.48569504683202769 0 -0.040413005672661102 -0.46542425011239508 0 -0.048343055904351132 -0.4819359294639956 0 -0.040413005672661102 -0.46542425011239508 0 -0.061868527913120197 -0.46303160055449383 0 -0.048343055904351132 -0.4819359294639956 0 -0.061868527913120197 -0.46303160055449383 0 -0.067715258758524743 -0.48343239441089819 0 -0.048343055904351132 -0.4819359294639956 0 -0.060390603705783863 -0.5 0 -0.067715258758524743 -0.48343239441089819 0 -0.02439234541253921 -0.43490569650885758 0 -0.029356635895327849 -0.44930438287917762 0 -0.049601615263317987 -0.44515345339276252 0 -0.029356635895327849 -0.44930438287917762 0 -0.040413005672661102 -0.46542425011239508 0 -0.049601615263317987 -0.44515345339276252 0 -0.040413005672661102 -0.46542425011239508 0 -0.049601615263317987 -0.44515345339276252 0 -0.040413005672661102 -0.46542425011239508 0 -0.061868527913120197 -0.46303160055449383 0 -0.049601615263317987 -0.44515345339276252 0 -0.061868527913120197 -0.46303160055449383 0 -0.049601615263317987 -0.44515345339276252 0 -0.057674512383022389 -0.42734400629007657 0 -0.049601615263317987 -0.44515345339276252 0 -0.067687044322660692 -0.44438888407200389 0 -0.061868527913120197 -0.46303160055449383 0 -0.049601615263317987 -0.44515345339276252 0 -0.067687044322660692 -0.44438888407200389 0 -0.067687044322660692 -0.44438888407200389 0 -0.087522951364224152 -0.44416074083195012 0 -0.076635180433477057 -0.42684765000967062 0 -0.067687044322660692 -0.44438888407200389 0 -0.078553716864009776 -0.47219444203600192 0 -0.067687044322660692 -0.44438888407200389 0 -0.080483752515153384 -0.45444307226959779 0 -0.078553716864009776 -0.47219444203600192 0 -0.061868527913120197 -0.46303160055449383 0 -0.067687044322660692 -0.44438888407200389 0 -0.078553716864009776 -0.47219444203600192 0 -0.088171297509719124 -0.45702822213843508 0 -0.078553716864009776 -0.47219444203600192 0 -0.094850460920166413 -0.46755552228499719 0 -0.080483752515153384 -0.45444307226959779 0 -0.088171297509719124 -0.45702822213843508 0 -0.078553716864009776 -0.47219444203600192 0 -0.088171297509719124 -0.45702822213843508 0 -0.092026296169145899 -0.451321693988255 0 -0.09646742034415963 -0.45806785732742278 0 -0.088171297509719124 -0.45702822213843508 0 -0.09646742034415963 -0.45806785732742278 0 -0.094850460920166413 -0.46755552228499719 0 -0.067687044322660692 -0.44438888407200389 0 -0.080483752515153384 -0.45444307226959779 0 -0.087522951364224152 -0.44416074083195012 0 -0.088171297509719124 -0.45702822213843508 0 -0.087522951364224152 -0.44416074083195012 0 -0.088171297509719124 -0.45702822213843508 0 -0.092026296169145899 -0.451321693988255 0 -0.087522951364224152 -0.44416074083195012 0 -0.092026296169145899 -0.451321693988255 0 -0.087522951364224152 -0.44416074083195012 0 -0.080483752515153384 -0.45444307226959779 0 -0.088171297509719124 -0.45702822213843508 0 -0.087522951364224152 -0.44416074083195012 0 -0.060390603705783863 -0.5 0 -0.067715258758524743 -0.48343239441089819 0 -0.089420389405358791 -0.49999999999999978 0 -0.061868527913120197 -0.46303160055449383 0 -0.067715258758524743 -0.48343239441089819 0 -0.078553716864009776 -0.47219444203600192 0 -0.078553716864009776 -0.47219444203600192 0 -0.098208235557426499 -0.48290520710575457 0 -0.094850460920166413 -0.46755552228499719 0 -0.067715258758524743 -0.48343239441089819 0 -0.078553716864009776 -0.47219444203600192 0 -0.089420389405358791 -0.49999999999999978 0 -0.078553716864009776 -0.47219444203600192 0 -0.089420389405358791 -0.49999999999999978 0 -0.078553716864009776 -0.47219444203600192 0 -0.089420389405358791 -0.49999999999999978 0 -0.098208235557426499 -0.48290520710575457 0 -0.098208235557426499 -0.48290520710575457 0 -0.1125398430852395 -0.48112820013538338 0 -0.1148616459058424 -0.5 0 -0.089420389405358791 -0.49999999999999978 0 -0.098208235557426499 -0.48290520710575457 0 -0.1148616459058424 -0.5 0 -0.098208235557426499 -0.48290520710575457 0 -0.1051850434628086 -0.47275710198064308 0 -0.1125398430852395 -0.48112820013538338 0 -0.098208235557426499 -0.48290520710575457 0 -0.1051850434628086 -0.47275710198064308 0 -0.094850460920166413 -0.46755552228499719 0 -0.12704973474613379 -0.46277216333596533 0 -0.13010403334985379 -0.48000251283874379 0 -0.1157083509407465 -0.46985326695645979 0 -0.13010403334985379 -0.48000251283874379 0 -0.1157083509407465 -0.46985326695645979 0 -0.1125398430852395 -0.48112820013538338 0 -0.1051850434628086 -0.47275710198064308 0 -0.1157083509407465 -0.46985326695645979 0 -0.1125398430852395 -0.48112820013538338 0 -0.13010403334985379 -0.48000251283874379 0 -0.1125398430852395 -0.48112820013538338 0 -0.1148616459058424 -0.5 0 -0.10267072031130239 -0.4520905348048061 0 -0.102335674083258 -0.43919792399196639 0 -0.11570487117906469 -0.45324354028800051 0 -0.092026296169145899 -0.451321693988255 0 -0.087522951364224152 -0.44416074083195012 0 -0.102335674083258 -0.43919792399196639 0 -0.092026296169145899 -0.451321693988255 0 -0.10267072031130239 -0.4520905348048061 0 -0.102335674083258 -0.43919792399196639 0 -0.10267072031130239 -0.4520905348048061 0 -0.09646742034415963 -0.45806785732742278 0 -0.1046183268104643 -0.46234331342062063 0 -0.092026296169145899 -0.451321693988255 0 -0.10267072031130239 -0.4520905348048061 0 -0.09646742034415963 -0.45806785732742278 0 -0.1051850434628086 -0.47275710198064308 0 -0.094850460920166413 -0.46755552228499719 0 -0.1046183268104643 -0.46234331342062063 0 -0.09646742034415963 -0.45806785732742278 0 -0.094850460920166413 -0.46755552228499719 0 -0.1046183268104643 -0.46234331342062063 0 -0.1051850434628086 -0.47275710198064308 0 -0.1157083509407465 -0.46985326695645979 0 -0.1046183268104643 -0.46234331342062063 0 -0.10267072031130239 -0.4520905348048061 0 -0.1046183268104643 -0.46234331342062063 0 -0.11570487117906469 -0.45324354028800051 0 -0.12704973474613379 -0.46277216333596533 0 -0.1157083509407465 -0.46985326695645979 0 -0.11570487117906469 -0.45324354028800051 0 -0.1157083509407465 -0.46985326695645979 0 -0.1046183268104643 -0.46234331342062063 0 -0.11570487117906469 -0.45324354028800051 0 -0.13093011984253891 -0.44972195681556543 0 -0.12704973474613379 -0.46277216333596533 0 -0.11570487117906469 -0.45324354028800051 0 -0.13093011984253891 -0.44972195681556543 0 -0.11570487117906469 -0.45324354028800051 0 -0.123519809913229 -0.43733662075251151 0 -0.102335674083258 -0.43919792399196639 0 -0.11570487117906469 -0.45324354028800051 0 -0.123519809913229 -0.43733662075251151 0 -0.102335674083258 -0.43919792399196639 0 -0.123519809913229 -0.43733662075251151 0 -0.1073839645685936 -0.41867419567875119 0 -0.12597911368703019 -0.41952469120143437 0 -0.123519809913229 -0.43733662075251151 0 -0.1073839645685936 -0.41867419567875119 0 -0.102335674083258 -0.43919792399196639 0 -0.1073839645685936 -0.41867419567875119 0 -0.086273448473222103 -0.4193623284343494 0 -0.1073839645685936 -0.41867419567875119 0 -0.1004955064841186 -0.39983262220326049 0 -0.086273448473222103 -0.4193623284343494 0 -0.1073839645685936 -0.41867419567875119 0 -0.11827115974421661 -0.40327967795429231 0 -0.1004955064841186 -0.39983262220326049 0 -0.12597911368703019 -0.41952469120143437 0 -0.1073839645685936 -0.41867419567875119 0 -0.11827115974421661 -0.40327967795429231 0 -0.11827115974421661 -0.40327967795429231 0 -0.11220573075163159 -0.38220411347121069 0 -0.1004955064841186 -0.39983262220326049 0 -0.13724659116883831 -0.38156720383825199 0 -0.1192781490478088 -0.36668410834504778 0 -0.11220573075163159 -0.38220411347121069 0 -0.13724659116883831 -0.38156720383825199 0 -0.11827115974421661 -0.40327967795429231 0 -0.11220573075163159 -0.38220411347121069 0 -0.11220573075163159 -0.38220411347121069 0 -0.093814789784828018 -0.38091150164421111 0 -0.1004955064841186 -0.39983262220326049 0 -0.1016352808315869 -0.36700177770792092 0 -0.11220573075163159 -0.38220411347121069 0 -0.093814789784828018 -0.38091150164421111 0 -0.093814789784828018 -0.38091150164421111 0 -0.1004955064841186 -0.39983262220326049 0 -0.085023945582219762 -0.39456391603674879 0 -0.085023945582219762 -0.39456391603674879 0 -0.074760926096971728 -0.38965003141326948 0 -0.077688182017724178 -0.40799169701628579 0 -0.1004955064841186 -0.39983262220326049 0 -0.085023945582219762 -0.39456391603674879 0 -0.086273448473222103 -0.4193623284343494 0 -0.083774442691217046 -0.36976550363914829 0 -0.093814789784828018 -0.38091150164421111 0 -0.085023945582219762 -0.39456391603674879 0 -0.083774442691217046 -0.36976550363914829 0 -0.085023945582219762 -0.39456391603674879 0 -0.074760926096971728 -0.38965003141326948 0 -0.083774442691217046 -0.36976550363914829 0 -0.085023945582219762 -0.39456391603674879 0 -0.083774442691217046 -0.36976550363914829 0 -0.074760926096971728 -0.38965003141326948 0 -0.066117606829746781 -0.37437488941039382 0 -0.083774442691217046 -0.36976550363914829 0 -0.074760926096971728 -0.38965003141326948 0 -0.066117606829746781 -0.37437488941039382 0 -0.056230819367541693 -0.39440183914975269 0 -0.074760926096971728 -0.38965003141326948 0 -0.074760926096971728 -0.38965003141326948 0 -0.065747409502729032 -0.40953455918739179 0 -0.056230819367541693 -0.39440183914975269 0 -0.074760926096971728 -0.38965003141326948 0 -0.065747409502729032 -0.40953455918739179 0 -0.074760926096971728 -0.38965003141326948 0 -0.077688182017724178 -0.40799169701628579 0 -0.065747409502729032 -0.40953455918739179 0 -0.057674512383022389 -0.42734400629007657 0 -0.065747409502729032 -0.40953455918739179 0 -0.076635180433477057 -0.42684765000967062 0 -0.065747409502729032 -0.40953455918739179 0 -0.076635180433477057 -0.42684765000967062 0 -0.077688182017724178 -0.40799169701628579 0 -0.065747409502729032 -0.40953455918739179 0 -0.076635180433477057 -0.42684765000967062 0 -0.057674512383022389 -0.42734400629007657 0 -0.067687044322660692 -0.44438888407200389 0 -0.076635180433477057 -0.42684765000967062 0 -0.087522951364224152 -0.44416074083195012 0 -0.102335674083258 -0.43919792399196639 0 -0.086273448473222103 -0.4193623284343494 0 -0.087522951364224152 -0.44416074083195012 0 -0.076635180433477057 -0.42684765000967062 0 -0.087522951364224152 -0.44416074083195012 0 -0.086273448473222103 -0.4193623284343494 0 -0.087522951364224152 -0.44416074083195012 0 -0.076635180433477057 -0.42684765000967062 0 -0.086273448473222103 -0.4193623284343494 0 -0.077688182017724178 -0.40799169701628579 0 -0.076635180433477057 -0.42684765000967062 0 -0.086273448473222103 -0.4193623284343494 0 -0.085023945582219762 -0.39456391603674879 0 -0.086273448473222103 -0.4193623284343494 0 -0.085023945582219762 -0.39456391603674879 0 -0.077688182017724178 -0.40799169701628579 0 -0.086273448473222103 -0.4193623284343494 0 -0.088492877882569029 -0.082108210476901852 0 -0.076927128592812144 -0.088910799915979499 0 -0.09750588448509391 -0.094492999713411269 0 -0.088492877882569029 -0.082108210476901852 0 -0.079577064860946206 -0.073577453582062496 0 -0.076927128592812144 -0.088910799915979499 0 -0.079577064860946206 -0.073577453582062496 0 -0.0985919344824224 -0.072778756797164931 0 -0.087769009107716192 -0.046193724725750278 0 -0.088492877882569029 -0.082108210476901852 0 -0.079577064860946206 -0.073577453582062496 0 -0.0985919344824224 -0.072778756797164931 0 -0.079577064860946206 -0.073577453582062496 0 -0.068797467898171552 -0.064113028811232264 0 -0.064240921843242857 -0.078969573753286809 0 -0.068797467898171552 -0.064113028811232264 0 -0.064240921843242857 -0.078969573753286809 0 -0.05461803829180413 -0.069755112608578862 0 -0.064240921843242857 -0.078969573753286809 0 -0.065719917437320752 -0.085301382988547655 0 -0.071622236241637716 -0.082994103557465768 0 -0.079577064860946206 -0.073577453582062496 0 -0.064240921843242857 -0.078969573753286809 0 -0.071622236241637716 -0.082994103557465768 0 -0.079577064860946206 -0.073577453582062496 0 -0.071622236241637716 -0.082994103557465768 0 -0.076927128592812144 -0.088910799915979499 0 -0.076927128592812144 -0.088910799915979499 0 -0.070013937980536456 -0.090181036700446429 0 -0.073360588416105155 -0.101926594449817 0 -0.071622236241637716 -0.082994103557465768 0 -0.076927128592812144 -0.088910799915979499 0 -0.070013937980536456 -0.090181036700446429 0 -0.065719917437320752 -0.085301382988547655 0 -0.070013937980536456 -0.090181036700446429 0 -0.057002573683865979 -0.089060817942991616 0 -0.065719917437320752 -0.085301382988547655 0 -0.071622236241637716 -0.082994103557465768 0 -0.070013937980536456 -0.090181036700446429 0 -0.073360588416105155 -0.101926594449817 0 -0.064648045787775776 -0.1114736180136202 0 -0.083029262804162729 -0.11173362360677321 0 -0.076927128592812144 -0.088910799915979499 0 -0.073360588416105155 -0.101926594449817 0 -0.083029262804162729 -0.11173362360677321 0 -0.070013937980536456 -0.090181036700446429 0 -0.064167586873575405 -0.098824988458513688 0 -0.073360588416105155 -0.101926594449817 0 -0.064167586873575405 -0.098824988458513688 0 -0.073360588416105155 -0.101926594449817 0 -0.064648045787775776 -0.1114736180136202 0 -0.064648045787775776 -0.1114736180136202 0 -0.083029262804162729 -0.11173362360677321 0 -0.072915517223638954 -0.12670463451369329 0 -0.064648045787775776 -0.1114736180136202 0 -0.060928146748241367 -0.123537549367131 0 -0.072915517223638954 -0.12670463451369329 0 -0.083029262804162729 -0.11173362360677321 0 -0.089131397015513494 -0.13455644729756691 0 -0.072915517223638954 -0.12670463451369329 0 -0.083029262804162729 -0.11173362360677321 0 -0.089131397015513494 -0.13455644729756691 0 -0.083029262804162729 -0.11173362360677321 0 -0.099989791654964619 -0.11261170107408 0 -0.089131397015513494 -0.13455644729756691 0 -0.076927128592812144 -0.088910799915979499 0 -0.083029262804162729 -0.11173362360677321 0 -0.076927128592812144 -0.088910799915979499 0 -0.083029262804162729 -0.11173362360677321 0 -0.09750588448509391 -0.094492999713411269 0 -0.083029262804162729 -0.11173362360677321 0 -0.09750588448509391 -0.094492999713411269 0 -0.099989791654964619 -0.11261170107408 0 -0.09750588448509391 -0.094492999713411269 0 -0.099989791654964619 -0.11261170107408 0 -0.11605893441195141 -0.10185107539240761 0 -0.099989791654964619 -0.11261170107408 0 -0.11422347955810171 -0.1204243593602408 0 -0.089131397015513494 -0.13455644729756691 0 -0.11422347955810171 -0.1204243593602408 0 -0.11605893441195141 -0.10185107539240761 0 -0.13931556210068971 -0.10629227142291391 0 -0.099989791654964619 -0.11261170107408 0 -0.11422347955810171 -0.1204243593602408 0 -0.11605893441195141 -0.10185107539240761 0 -0.09750588448509391 -0.094492999713411269 0 -0.11605893441195141 -0.10185107539240761 0 -0.121811479392537 -0.084095963505499416 0 -0.09750588448509391 -0.094492999713411269 0 -0.121811479392537 -0.084095963505499416 0 -0.0985919344824224 -0.072778756797164931 0 -0.088492877882569029 -0.082108210476901852 0 -0.09750588448509391 -0.094492999713411269 0 -0.0985919344824224 -0.072778756797164931 0 -0.121811479392537 -0.084095963505499416 0 -0.0985919344824224 -0.072778756797164931 0 -0.12197003300458489 -0.067133964797042034 0 -0.0985919344824224 -0.072778756797164931 0 -0.12197003300458489 -0.067133964797042034 0 -0.11173313641422659 -0.051099137712197359 0 -0.12197003300458489 -0.067133964797042034 0 -0.11173313641422659 -0.051099137712197359 0 -0.13241258759658719 -0.044529255409706578 0 -0.11719553878173181 -0.037741673539740471 0 -0.12411398995058071 -0.026208981462584841 0 -0.13241258759658719 -0.044529255409706578 0 -0.11173313641422659 -0.051099137712197359 0 -0.11719553878173181 -0.037741673539740471 0 -0.13241258759658719 -0.044529255409706578 0 -0.11719553878173181 -0.037741673539740471 0 -0.1033935341420949 -0.036608907929656417 0 -0.1118019010511415 -0.027957019938586129 0 -0.11173313641422659 -0.051099137712197359 0 -0.11719553878173181 -0.037741673539740471 0 -0.1033935341420949 -0.036608907929656417 0 -0.11173313641422659 -0.051099137712197359 0 -0.1033935341420949 -0.036608907929656417 0 -0.087769009107716192 -0.046193724725750278 0 -0.1033935341420949 -0.036608907929656417 0 -0.091700817231413184 -0.028161456197506499 0 -0.087769009107716192 -0.046193724725750278 0 -0.0985919344824224 -0.072778756797164931 0 -0.11173313641422659 -0.051099137712197359 0 -0.087769009107716192 -0.046193724725750278 0 -0.1152652699767374 -0.0044733142422073097 0 -0.1278640484455188 -0.012334690821253821 0 -0.1273771369441013 0.0023450629401116992 0 -0.1152652699767374 -0.0044733142422073097 0 -0.11303603589243651 -0.016818202060669259 0 -0.1278640484455188 -0.012334690821253821 0 -0.1152652699767374 -0.0044733142422073097 0 -0.11303603589243651 -0.016818202060669259 0 -0.1012139958851531 -0.0082010901258140791 0 -0.11303603589243651 -0.016818202060669259 0 -0.12411398995058071 -0.026208981462584841 0 -0.1278640484455188 -0.012334690821253821 0 -0.11719553878173181 -0.037741673539740471 0 -0.12411398995058071 -0.026208981462584841 0 -0.1118019010511415 -0.027957019938586129 0 -0.11303603589243651 -0.016818202060669259 0 -0.12411398995058071 -0.026208981462584841 0 -0.1118019010511415 -0.027957019938586129 0 -0.1033935341420949 -0.036608907929656417 0 -0.1118019010511415 -0.027957019938586129 0 -0.10074487633177411 -0.021927112774035699 0 -0.1033935341420949 -0.036608907929656417 0 -0.10074487633177411 -0.021927112774035699 0 -0.091700817231413184 -0.028161456197506499 0 -0.10074487633177411 -0.021927112774035699 0 -0.089359217900845153 -0.01537750648633354 0 -0.091700817231413184 -0.028161456197506499 0 -0.11303603589243651 -0.016818202060669259 0 -0.10074487633177411 -0.021927112774035699 0 -0.1012139958851531 -0.0082010901258140791 0 -0.11303603589243651 -0.016818202060669259 0 -0.1118019010511415 -0.027957019938586129 0 -0.10074487633177411 -0.021927112774035699 0 -0.10074487633177411 -0.021927112774035699 0 -0.1012139958851531 -0.0082010901258140791 0 -0.089359217900845153 -0.01537750648633354 0 -0.1012139958851531 -0.0082010901258140791 0 -0.089124004628701792 -0.0040277377021705899 0 -0.097507665945787692 0.0040820149966005574 0 -0.1012139958851531 -0.0082010901258140791 0 -0.097507665945787692 0.0040820149966005574 0 -0.1058521268010089 0.00073384547527136773 0 -0.1152652699767374 -0.0044733142422073097 0 -0.1012139958851531 -0.0082010901258140791 0 -0.1058521268010089 0.00073384547527136773 0 -0.079764572027605563 -0.001208843295517239 0 -0.089124004628701792 -0.0040277377021705899 0 -0.080379206648835008 -0.009775819102595687 0 -0.089124004628701792 -0.0040277377021705899 0 -0.089359217900845153 -0.01537750648633354 0 -0.080379206648835008 -0.009775819102595687 0 -0.1012139958851531 -0.0082010901258140791 0 -0.089124004628701792 -0.0040277377021705899 0 -0.089359217900845153 -0.01537750648633354 0 -0.089359217900845153 -0.01537750648633354 0 -0.080379206648835008 -0.009775819102595687 0 -0.076946083733010012 -0.019608692654335649 0 -0.089359217900845153 -0.01537750648633354 0 -0.091700817231413184 -0.028161456197506499 0 -0.076946083733010012 -0.019608692654335649 0 -0.066439508831189667 -0.02875513821822643 0 -0.076946083733010012 -0.019608692654335649 0 -0.073396792324475907 -0.036549185213838799 0 -0.066439508831189667 -0.02875513821822643 0 -0.068530762808199294 -0.019938962024248611 0 -0.056338296441182101 -0.027044179732367449 0 -0.066439508831189667 -0.02875513821822643 0 -0.068530762808199294 -0.019938962024248611 0 -0.076946083733010012 -0.019608692654335649 0 -0.080379206648835008 -0.009775819102595687 0 -0.076946083733010012 -0.019608692654335649 0 -0.066123158358303874 0.0069763394170788487 0 -0.079764572027605563 -0.001208843295517239 0 -0.080379206648835008 -0.009775819102595687 0 -0.066123158358303874 0.0069763394170788487 0 -0.076946083733010012 -0.019608692654335649 0 -0.059664616745900671 -0.0040500510012267867 0 -0.066123158358303874 0.0069763394170788487 0 -0.068530762808199294 -0.019938962024248611 0 -0.059664616745900671 -0.0040500510012267867 0 -0.068530762808199294 -0.019938962024248611 0 -0.076946083733010012 -0.019608692654335649 0 -0.059664616745900671 -0.0040500510012267867 0 -0.076946083733010012 -0.019608692654335649 0 -0.066123158358303874 0.0069763394170788487 0 -0.079577064860946206 -0.073577453582062496 0 -0.068797467898171552 -0.064113028811232264 0 -0.087769009107716192 -0.046193724725750278 0 -0.0985919344824224 -0.072778756797164931 0 -0.087769009107716192 -0.046193724725750278 0 -0.076946083733010012 -0.019608692654335649 0 -0.087769009107716192 -0.046193724725750278 0 -0.073396792324475907 -0.036549185213838799 0 -0.091700817231413184 -0.028161456197506499 0 -0.076946083733010012 -0.019608692654335649 0 -0.087769009107716192 -0.046193724725750278 0 -0.076946083733010012 -0.019608692654335649 0 -0.087769009107716192 -0.046193724725750278 0 -0.073396792324475907 -0.036549185213838799 0 -0.062271996897588083 -0.052791321925605532 0 -0.056985608849081007 -0.04063467146634165 0 -0.087769009107716192 -0.046193724725750278 0 -0.073396792324475907 -0.036549185213838799 0 -0.062271996897588083 -0.052791321925605532 0 -0.066439508831189667 -0.02875513821822643 0 -0.073396792324475907 -0.036549185213838799 0 -0.056985608849081007 -0.04063467146634165 0 -0.068797467898171552 -0.064113028811232264 0 -0.087769009107716192 -0.046193724725750278 0 -0.062271996897588083 -0.052791321925605532 0 -0.050876123791686781 -0.0557005837010279 0 -0.062271996897588083 -0.052791321925605532 0 -0.05461803829180413 -0.069755112608578862 0 -0.068797467898171552 -0.064113028811232264 0 -0.062271996897588083 -0.052791321925605532 0 -0.05461803829180413 -0.069755112608578862 0 -0.050876123791686781 -0.0557005837010279 0 -0.04125611079489349 -0.061033813963863537 0 -0.05461803829180413 -0.069755112608578862 0 -0.050876123791686781 -0.0557005837010279 0 -0.056985608849081007 -0.04063467146634165 0 -0.043217803893324663 -0.046983348469378128 0 -0.050876123791686781 -0.0557005837010279 0 -0.062271996897588083 -0.052791321925605532 0 -0.056985608849081007 -0.04063467146634165 0 -0.066439508831189667 -0.02875513821822643 0 -0.056985608849081007 -0.04063467146634165 0 -0.056338296441182101 -0.027044179732367449 0 -0.056985608849081007 -0.04063467146634165 0 -0.048013312662868769 -0.034084565957593307 0 -0.056338296441182101 -0.027044179732367449 0 -0.056985608849081007 -0.04063467146634165 0 -0.048013312662868769 -0.034084565957593307 0 -0.043217803893324663 -0.046983348469378128 0 -0.034747022969916552 -0.036023397885302497 0 -0.03178279228815796 -0.053256275703554248 0 -0.043217803893324663 -0.046983348469378128 0 -0.048013312662868769 -0.034084565957593307 0 -0.034747022969916552 -0.036023397885302497 0 -0.043217803893324663 -0.046983348469378128 0 -0.03178279228815796 -0.053256275703554248 0 -0.04125611079489349 -0.061033813963863537 0 -0.027189616291661511 -0.068956488044421491 0 -0.03178279228815796 -0.053256275703554248 0 -0.04125611079489349 -0.061033813963863537 0 -0.043217803893324663 -0.046983348469378128 0 -0.050876123791686781 -0.0557005837010279 0 -0.04125611079489349 -0.061033813963863537 0 -0.043217803893324663 -0.046983348469378128 0 -0.068530762808199294 -0.019938962024248611 0 -0.059664616745900671 -0.0040500510012267867 0 -0.057625718948113309 -0.01560592069947127 0 -0.047617207273071643 -0.0035118018543059538 0 -0.059664616745900671 -0.0040500510012267867 0 -0.057625718948113309 -0.01560592069947127 0 -0.047617207273071643 -0.0035118018543059538 0 -0.057625718948113309 -0.01560592069947127 0 -0.044435943862541481 -0.018862463730406901 0 -0.057625718948113309 -0.01560592069947127 0 -0.056338296441182101 -0.027044179732367449 0 -0.044435943862541481 -0.018862463730406901 0 -0.068530762808199294 -0.019938962024248611 0 -0.057625718948113309 -0.01560592069947127 0 -0.056338296441182101 -0.027044179732367449 0 -0.048013312662868769 -0.034084565957593307 0 -0.056338296441182101 -0.027044179732367449 0 -0.044435943862541481 -0.018862463730406901 0 -0.048013312662868769 -0.034084565957593307 0 -0.034747022969916552 -0.036023397885302497 0 -0.044435943862541481 -0.018862463730406901 0 -0.034747022969916552 -0.036023397885302497 0 -0.044435943862541481 -0.018862463730406901 0 -0.029096019340949839 -0.020089153358083849 0 -0.044435943862541481 -0.018862463730406901 0 -0.037331614038931003 -0.0090830911405071785 0 -0.029096019340949839 -0.020089153358083849 0 -0.047617207273071643 -0.0035118018543059538 0 -0.044435943862541481 -0.018862463730406901 0 -0.037331614038931003 -0.0090830911405071785 0 -0.047617207273071643 -0.0035118018543059538 0 -0.044435943862541481 -0.018862463730406901 0 -0.037331614038931003 -0.0090830911405071785 0 -0.025670282478897081 -0.0054027298625421993 0 -0.03671052455766443 0.0037031618858211421 0 -0.047617207273071643 -0.0035118018543059538 0 -0.037331614038931003 -0.0090830911405071785 0 -0.03671052455766443 0.0037031618858211421 0 -0.025670282478897081 -0.0054027298625421993 0 -0.029096019340949839 -0.020089153358083849 0 -0.01201491237982177 -0.012697106039732861 0 -0.025670282478897081 -0.0054027298625421993 0 -0.01201491237982177 -0.012697106039732861 0 -0.010105069976996849 0.0023765649732562961 0 -0.037331614038931003 -0.0090830911405071785 0 -0.025670282478897081 -0.0054027298625421993 0 -0.029096019340949839 -0.020089153358083849 0 -0.034747022969916552 -0.036023397885302497 0 -0.029096019340949839 -0.020089153358083849 0 -0.01621539074153976 -0.030149579770640821 0 -0.029096019340949839 -0.020089153358083849 0 -0.01621539074153976 -0.030149579770640821 0 -0.01201491237982177 -0.012697106039732861 0 -0.01621539074153976 -0.030149579770640821 0 0.0026421611525163911 -0.019923693291100199 0 0.001114662024295677 -0.034644724797188199 0 -0.01621539074153976 -0.030149579770640821 0 -0.01201491237982177 -0.012697106039732861 0 0.0026421611525163911 -0.019923693291100199 0 -0.01201491237982177 -0.012697106039732861 0 0.0047038114401232534 -0.001040937293712483 0 0.0026421611525163911 -0.019923693291100199 0 -0.01201491237982177 -0.012697106039732861 0 -0.010105069976996849 0.0023765649732562961 0 0.0047038114401232534 -0.001040937293712483 0 -0.03178279228815796 -0.053256275703554248 0 -0.015718878272565229 -0.058792224196781109 0 -0.02130541942185268 -0.044498810144407437 0 -0.03178279228815796 -0.053256275703554248 0 -0.015718878272565229 -0.058792224196781109 0 -0.027189616291661511 -0.068956488044421491 0 -0.034747022969916552 -0.036023397885302497 0 -0.01621539074153976 -0.030149579770640821 0 -0.02130541942185268 -0.044498810144407437 0 -0.034747022969916552 -0.036023397885302497 0 -0.03178279228815796 -0.053256275703554248 0 -0.02130541942185268 -0.044498810144407437 0 -0.01621539074153976 -0.030149579770640821 0 -0.0092606153764647689 -0.044492254616565037 0 0.001114662024295677 -0.034644724797188199 0 -0.0092606153764647689 -0.044492254616565037 0 0.001114662024295677 -0.034644724797188199 0 0.003426744450576454 -0.054815297075420773 0 -0.01621539074153976 -0.030149579770640821 0 -0.02130541942185268 -0.044498810144407437 0 -0.0092606153764647689 -0.044492254616565037 0 -0.015718878272565229 -0.058792224196781109 0 -0.0092606153764647689 -0.044492254616565037 0 0.003426744450576454 -0.054815297075420773 0 -0.015718878272565229 -0.058792224196781109 0 -0.0072319765520409062 -0.068818796064575097 0 0.003426744450576454 -0.054815297075420773 0 -0.015718878272565229 -0.058792224196781109 0 -0.02130541942185268 -0.044498810144407437 0 -0.0092606153764647689 -0.044492254616565037 0 -0.0072319765520409062 -0.068818796064575097 0 -0.0056293594721457006 -0.082036805430144924 0 0.0054575408194632406 -0.073720759659108445 0 -0.0072319765520409062 -0.068818796064575097 0 -0.016531268938654212 -0.068489504758274394 0 -0.015984604638349179 -0.077390510727319894 0 -0.0072319765520409062 -0.068818796064575097 0 -0.0056293594721457006 -0.082036805430144924 0 -0.015984604638349179 -0.077390510727319894 0 -0.015718878272565229 -0.058792224196781109 0 -0.0072319765520409062 -0.068818796064575097 0 -0.016531268938654212 -0.068489504758274394 0 -0.0075898384642912086 -0.092772169897659226 0 -0.0056293594721457006 -0.082036805430144924 0 0.0072012692200917657 -0.09144049599341271 0 -0.0056293594721457006 -0.082036805430144924 0 -0.01562854721774792 -0.088078100238794171 0 -0.015984604638349179 -0.077390510727319894 0 -0.0075898384642912086 -0.092772169897659226 0 -0.0056293594721457006 -0.082036805430144924 0 -0.01562854721774792 -0.088078100238794171 0 -0.0075898384642912086 -0.092772169897659226 0 -0.01562854721774792 -0.088078100238794171 0 -0.015839401072447711 -0.097831294581907868 0 -0.01562854721774792 -0.088078100238794171 0 -0.02305577581672685 -0.083163458542690943 0 -0.024670005891415589 -0.092262667611894875 0 -0.01562854721774792 -0.088078100238794171 0 -0.024670005891415589 -0.092262667611894875 0 -0.015839401072447711 -0.097831294581907868 0 -0.01562854721774792 -0.088078100238794171 0 -0.02305577581672685 -0.083163458542690943 0 -0.015984604638349179 -0.077390510727319894 0 -0.02305577581672685 -0.083163458542690943 0 -0.024670005891415589 -0.092262667611894875 0 -0.031754510724464793 -0.081253108138323094 0 -0.024670005891415589 -0.092262667611894875 0 -0.031754510724464793 -0.081253108138323094 0 -0.03344051123233422 -0.092098432850847969 0 -0.015718878272565229 -0.058792224196781109 0 -0.016531268938654212 -0.068489504758274394 0 -0.027189616291661511 -0.068956488044421491 0 -0.016531268938654212 -0.068489504758274394 0 -0.015984604638349179 -0.077390510727319894 0 -0.027189616291661511 -0.068956488044421491 0 -0.02305577581672685 -0.083163458542690943 0 -0.015984604638349179 -0.077390510727319894 0 -0.027189616291661511 -0.068956488044421491 0 -0.02305577581672685 -0.083163458542690943 0 -0.027189616291661511 -0.068956488044421491 0 -0.031754510724464793 -0.081253108138323094 0 -0.04125611079489349 -0.061033813963863537 0 -0.027189616291661511 -0.068956488044421491 0 -0.04053175759116228 -0.071452392996033218 0 -0.04125611079489349 -0.061033813963863537 0 -0.04053175759116228 -0.071452392996033218 0 -0.05461803829180413 -0.069755112608578862 0 -0.04053175759116228 -0.071452392996033218 0 -0.04331800788480706 -0.080321541169751709 0 -0.05461803829180413 -0.069755112608578862 0 -0.027189616291661511 -0.068956488044421491 0 -0.04053175759116228 -0.071452392996033218 0 -0.031754510724464793 -0.081253108138323094 0 -0.04053175759116228 -0.071452392996033218 0 -0.031754510724464793 -0.081253108138323094 0 -0.04331800788480706 -0.080321541169751709 0 -0.031754510724464793 -0.081253108138323094 0 -0.037920360895102763 -0.086728863392239786 0 -0.04331800788480706 -0.080321541169751709 0 -0.031754510724464793 -0.081253108138323094 0 -0.03344051123233422 -0.092098432850847969 0 -0.037920360895102763 -0.086728863392239786 0 -0.03344051123233422 -0.092098432850847969 0 -0.037920360895102763 -0.086728863392239786 0 -0.039477100495342581 -0.093081883261144749 0 -0.043535591074226332 -0.088659540190963698 0 -0.052607434978589038 -0.084605160310905272 0 -0.044151246104392423 -0.095288874830203096 0 -0.039477100495342581 -0.093081883261144749 0 -0.043535591074226332 -0.088659540190963698 0 -0.044151246104392423 -0.095288874830203096 0 -0.037920360895102763 -0.086728863392239786 0 -0.039477100495342581 -0.093081883261144749 0 -0.043535591074226332 -0.088659540190963698 0 -0.043535591074226332 -0.088659540190963698 0 -0.044151246104392423 -0.095288874830203096 0 -0.037920360895102763 -0.086728863392239786 0 -0.043535591074226332 -0.088659540190963698 0 -0.04331800788480706 -0.080321541169751709 0 -0.043535591074226332 -0.088659540190963698 0 -0.04331800788480706 -0.080321541169751709 0 -0.052607434978589038 -0.084605160310905272 0 -0.04331800788480706 -0.080321541169751709 0 -0.052607434978589038 -0.084605160310905272 0 -0.05461803829180413 -0.069755112608578862 0 -0.070013937980536456 -0.090181036700446429 0 -0.057002573683865979 -0.089060817942991616 0 -0.04460455598339258 -0.10017008709341529 0 -0.052607434978589038 -0.084605160310905272 0 -0.044151246104392423 -0.095288874830203096 0 -0.052607434978589038 -0.084605160310905272 0 -0.057002573683865979 -0.089060817942991616 0 -0.044151246104392423 -0.095288874830203096 0 -0.064240921843242857 -0.078969573753286809 0 -0.065719917437320752 -0.085301382988547655 0 -0.057002573683865979 -0.089060817942991616 0 -0.064240921843242857 -0.078969573753286809 0 -0.052607434978589038 -0.084605160310905272 0 -0.057002573683865979 -0.089060817942991616 0 -0.064240921843242857 -0.078969573753286809 0 -0.052607434978589038 -0.084605160310905272 0 -0.05461803829180413 -0.069755112608578862 0 -0.064648045787775776 -0.1114736180136202 0 -0.054889055151619223 -0.1064960745062641 0 -0.046573596299020338 -0.1213725893565638 0 -0.064648045787775776 -0.1114736180136202 0 -0.060928146748241367 -0.123537549367131 0 -0.046573596299020338 -0.1213725893565638 0 -0.064167586873575405 -0.098824988458513688 0 -0.054889055151619223 -0.1064960745062641 0 -0.04460455598339258 -0.10017008709341529 0 -0.054889055151619223 -0.1064960745062641 0 -0.04460455598339258 -0.10017008709341529 0 -0.046573596299020338 -0.1213725893565638 0 -0.070013937980536456 -0.090181036700446429 0 -0.04460455598339258 -0.10017008709341529 0 -0.070013937980536456 -0.090181036700446429 0 -0.064167586873575405 -0.098824988458513688 0 -0.04460455598339258 -0.10017008709341529 0 -0.064167586873575405 -0.098824988458513688 0 -0.064648045787775776 -0.1114736180136202 0 -0.054889055151619223 -0.1064960745062641 0 -0.057002573683865979 -0.089060817942991616 0 -0.044151246104392423 -0.095288874830203096 0 -0.04460455598339258 -0.10017008709341529 0 -0.04460455598339258 -0.10017008709341529 0 -0.038337793170655582 -0.1026337050414691 0 -0.046573596299020338 -0.1213725893565638 0 -0.039477100495342581 -0.093081883261144749 0 -0.044151246104392423 -0.095288874830203096 0 -0.038337793170655582 -0.1026337050414691 0 -0.044151246104392423 -0.095288874830203096 0 -0.04460455598339258 -0.10017008709341529 0 -0.044151246104392423 -0.095288874830203096 0 -0.038337793170655582 -0.1026337050414691 0 -0.04460455598339258 -0.10017008709341529 0 -0.038337793170655582 -0.1026337050414691 0 -0.044151246104392423 -0.095288874830203096 0 -0.04460455598339258 -0.10017008709341529 0 -0.038337793170655582 -0.1026337050414691 0 -0.03344051123233422 -0.092098432850847969 0 -0.039477100495342581 -0.093081883261144749 0 -0.038337793170655582 -0.1026337050414691 0 -0.03344051123233422 -0.092098432850847969 0 -0.038337793170655582 -0.1026337050414691 0 -0.030143021990877521 -0.097413384547063803 0 -0.038337793170655582 -0.1026337050414691 0 -0.046573596299020338 -0.1213725893565638 0 -0.032898799107638058 -0.1301455039054305 0 -0.04460455598339258 -0.10017008709341529 0 -0.046573596299020338 -0.1213725893565638 0 -0.038337793170655582 -0.1026337050414691 0 -0.02075820173733281 -0.1248441049076035 0 -0.038337793170655582 -0.1026337050414691 0 -0.02075820173733281 -0.1248441049076035 0 -0.032898799107638058 -0.1301455039054305 0 -0.038337793170655582 -0.1026337050414691 0 -0.02075820173733281 -0.1248441049076035 0 -0.013304609286582791 -0.1124748627422944 0 -0.038337793170655582 -0.1026337050414691 0 -0.013304609286582791 -0.1124748627422944 0 -0.038337793170655582 -0.1026337050414691 0 -0.024123777669104458 -0.10265873268404301 0 -0.013304609286582791 -0.1124748627422944 0 -0.038337793170655582 -0.1026337050414691 0 -0.030143021990877521 -0.097413384547063803 0 -0.024123777669104458 -0.10265873268404301 0 -0.024670005891415589 -0.092262667611894875 0 -0.030143021990877521 -0.097413384547063803 0 -0.024123777669104458 -0.10265873268404301 0 -0.024670005891415589 -0.092262667611894875 0 -0.03344051123233422 -0.092098432850847969 0 -0.030143021990877521 -0.097413384547063803 0 -0.024123777669104458 -0.10265873268404301 0 -0.015994782990863529 -0.1079378035875192 0 -0.013304609286582791 -0.1124748627422944 0 -0.024123777669104458 -0.10265873268404301 0 -0.015994782990863529 -0.1079378035875192 0 -0.015839401072447711 -0.097831294581907868 0 -0.024670005891415589 -0.092262667611894875 0 -0.024123777669104458 -0.10265873268404301 0 -0.015839401072447711 -0.097831294581907868 0 -0.0070294542012635762 -0.10327829347153671 0 -0.013304609286582791 -0.1124748627422944 0 0.0046245275045138064 -0.1076828264142336 0 -0.0075898384642912086 -0.092772169897659226 0 -0.015839401072447711 -0.097831294581907868 0 -0.0070294542012635762 -0.10327829347153671 0 -0.015994782990863529 -0.1079378035875192 0 -0.015839401072447711 -0.097831294581907868 0 -0.0070294542012635762 -0.10327829347153671 0 -0.015994782990863529 -0.1079378035875192 0 -0.0070294542012635762 -0.10327829347153671 0 -0.013304609286582791 -0.1124748627422944 0 -0.0075898384642912086 -0.092772169897659226 0 -0.0070294542012635762 -0.10327829347153671 0 0.0072012692200917657 -0.09144049599341271 0 -0.02075820173733281 -0.1248441049076035 0 -0.013304609286582791 -0.1124748627422944 0 -0.00221818493688669 -0.13117245205018849 0 -0.013304609286582791 -0.1124748627422944 0 -0.00221818493688669 -0.13117245205018849 0 0.014197789575412951 -0.12328672932727321 0 -0.013304609286582791 -0.1124748627422944 0 -0.00221818493688669 -0.13117245205018849 0 -0.015994782990863529 -0.1079378035875192 0 -0.013304609286582791 -0.1124748627422944 0 -0.02075820173733281 -0.1248441049076035 0 -0.0137133242766358 -0.14598078836242959 0 -0.0031786103040098569 -0.14705450477373769 0 -0.02075820173733281 -0.1248441049076035 0 -0.0031786103040098569 -0.14705450477373769 0 -0.02075820173733281 -0.1248441049076035 0 -0.00221818493688669 -0.13117245205018849 0 -0.0031786103040098569 -0.14705450477373769 0 -0.02075820173733281 -0.1248441049076035 0 -0.02657462786173766 -0.13400490724319661 0 -0.021326083532184278 -0.14069250208886769 0 -0.02075820173733281 -0.1248441049076035 0 -0.021326083532184278 -0.14069250208886769 0 -0.0137133242766358 -0.14598078836242959 0 -0.02657462786173766 -0.13400490724319661 0 -0.032898799107638058 -0.1301455039054305 0 -0.031315427069795509 -0.14033751807088471 0 -0.02657462786173766 -0.13400490724319661 0 -0.021326083532184278 -0.14069250208886769 0 -0.031315427069795509 -0.14033751807088471 0 -0.02075820173733281 -0.1248441049076035 0 -0.02657462786173766 -0.13400490724319661 0 -0.032898799107638058 -0.1301455039054305 0 -0.026655807174363451 -0.14845120392719069 0 -0.02210874630731275 -0.1561964137015745 0 -0.031495029160766817 -0.15509855920566379 0 -0.026655807174363451 -0.14845120392719069 0 -0.03449156258747036 -0.148917707105098 0 -0.031495029160766817 -0.15509855920566379 0 -0.026655807174363451 -0.14845120392719069 0 -0.021326083532184278 -0.14069250208886769 0 -0.031315427069795509 -0.14033751807088471 0 -0.026655807174363451 -0.14845120392719069 0 -0.031315427069795509 -0.14033751807088471 0 -0.03449156258747036 -0.148917707105098 0 -0.021326083532184278 -0.14069250208886769 0 -0.019449426413567759 -0.15004718796545319 0 -0.0137133242766358 -0.14598078836242959 0 -0.026655807174363451 -0.14845120392719069 0 -0.021326083532184278 -0.14069250208886769 0 -0.019449426413567759 -0.15004718796545319 0 -0.019449426413567759 -0.15004718796545319 0 -0.01542317820397726 -0.15505006264073101 0 -0.0137133242766358 -0.14598078836242959 0 -0.026655807174363451 -0.14845120392719069 0 -0.019449426413567759 -0.15004718796545319 0 -0.02210874630731275 -0.1561964137015745 0 -0.019449426413567759 -0.15004718796545319 0 -0.02210874630731275 -0.1561964137015745 0 -0.01542317820397726 -0.15505006264073101 0 -0.0137133242766358 -0.14598078836242959 0 -0.0031786103040098569 -0.14705450477373769 0 -0.0072073677341612146 -0.1544888065361133 0 -0.01542317820397726 -0.15505006264073101 0 -0.0137133242766358 -0.14598078836242959 0 -0.0072073677341612146 -0.1544888065361133 0 -0.0031786103040098569 -0.14705450477373769 0 -0.0072073677341612146 -0.1544888065361133 0 -0.0025999653858941639 -0.16131422913783491 0 -0.01542317820397726 -0.15505006264073101 0 -0.0084927016390539001 -0.17431231470194719 0 -0.01542317820397726 -0.15505006264073101 0 -0.0025999653858941639 -0.16131422913783491 0 -0.0084927016390539001 -0.17431231470194719 0 -0.01542317820397726 -0.15505006264073101 0 -0.0084927016390539001 -0.17431231470194719 0 -0.018600123305710169 -0.16452936741983731 0 -0.0025999653858941639 -0.16131422913783491 0 -0.0084927016390539001 -0.17431231470194719 0 0.0067086063528142403 -0.16809244781376179 0 -0.0084927016390539001 -0.17431231470194719 0 -0.019446339186483811 -0.17229591455881449 0 -0.018600123305710169 -0.16452936741983731 0 -0.01542317820397726 -0.15505006264073101 0 -0.0072073677341612146 -0.1544888065361133 0 -0.0025999653858941639 -0.16131422913783491 0 -0.0084927016390539001 -0.17431231470194719 0 -0.0015622250741301779 -0.1935745667631632 0 -0.01452589755716127 -0.18854972137590889 0 -0.0084927016390539001 -0.17431231470194719 0 -0.0015622250741301779 -0.1935745667631632 0 -0.0084927016390539001 -0.17431231470194719 0 -0.0015622250741301779 -0.1935745667631632 0 0.0091962193441852118 -0.18107109871456811 0 -0.0084927016390539001 -0.17431231470194719 0 -0.019789997202817391 -0.17944929683230451 0 -0.01452589755716127 -0.18854972137590889 0 -0.019789997202817391 -0.17944929683230451 0 -0.01452589755716127 -0.18854972137590889 0 -0.02459459850908961 -0.18853055632871979 0 -0.0084927016390539001 -0.17431231470194719 0 -0.019789997202817391 -0.17944929683230451 0 -0.019446339186483811 -0.17229591455881449 0 -0.019789997202817391 -0.17944929683230451 0 -0.019446339186483811 -0.17229591455881449 0 -0.025875972540285681 -0.17494695229964419 0 -0.019789997202817391 -0.17944929683230451 0 -0.025875972540285681 -0.17494695229964419 0 -0.028761852805915141 -0.18157091371807699 0 -0.025875972540285681 -0.17494695229964419 0 -0.032240004386850082 -0.17024588421870079 0 -0.032480769472988377 -0.1765838753595764 0 -0.025875972540285681 -0.17494695229964419 0 -0.028761852805915141 -0.18157091371807699 0 -0.032480769472988377 -0.1765838753595764 0 -0.028761852805915141 -0.18157091371807699 0 -0.032920373861235572 -0.18696580359983689 0 -0.02459459850908961 -0.18853055632871979 0 -0.019789997202817391 -0.17944929683230451 0 -0.028761852805915141 -0.18157091371807699 0 -0.02459459850908961 -0.18853055632871979 0 -0.02210874630731275 -0.1561964137015745 0 -0.02334206205745518 -0.16321350683772101 0 -0.018600123305710169 -0.16452936741983731 0 -0.02210874630731275 -0.1561964137015745 0 -0.01542317820397726 -0.15505006264073101 0 -0.018600123305710169 -0.16452936741983731 0 -0.019446339186483811 -0.17229591455881449 0 -0.018600123305710169 -0.16452936741983731 0 -0.024472901244551901 -0.1682416415403396 0 -0.019446339186483811 -0.17229591455881449 0 -0.025875972540285681 -0.17494695229964419 0 -0.024472901244551901 -0.1682416415403396 0 -0.02334206205745518 -0.16321350683772101 0 -0.018600123305710169 -0.16452936741983731 0 -0.024472901244551901 -0.1682416415403396 0 -0.02334206205745518 -0.16321350683772101 0 -0.024472901244551901 -0.1682416415403396 0 -0.028186477372245909 -0.16388660468913291 0 -0.025875972540285681 -0.17494695229964419 0 -0.024472901244551901 -0.1682416415403396 0 -0.032240004386850082 -0.17024588421870079 0 -0.024472901244551901 -0.1682416415403396 0 -0.028186477372245909 -0.16388660468913291 0 -0.032240004386850082 -0.17024588421870079 0 -0.02210874630731275 -0.1561964137015745 0 -0.036601677587355427 -0.1631254910080501 0 -0.02210874630731275 -0.1561964137015745 0 -0.028186477372245909 -0.16388660468913291 0 -0.036601677587355427 -0.1631254910080501 0 -0.02210874630731275 -0.1561964137015745 0 -0.036601677587355427 -0.1631254910080501 0 -0.031495029160766817 -0.15509855920566379 0 -0.02210874630731275 -0.1561964137015745 0 -0.02334206205745518 -0.16321350683772101 0 -0.028186477372245909 -0.16388660468913291 0 -0.036601677587355427 -0.1631254910080501 0 -0.031495029160766817 -0.15509855920566379 0 -0.03757233301838208 -0.1561293615731485 0 -0.036601677587355427 -0.1631254910080501 0 -0.042683024331232992 -0.16071659108817879 0 -0.03757233301838208 -0.1561293615731485 0 -0.036601677587355427 -0.1631254910080501 0 -0.032240004386850082 -0.17024588421870079 0 -0.040990311010288182 -0.1707810542940659 0 -0.028186477372245909 -0.16388660468913291 0 -0.036601677587355427 -0.1631254910080501 0 -0.032240004386850082 -0.17024588421870079 0 -0.036601677587355427 -0.1631254910080501 0 -0.040990311010288182 -0.1707810542940659 0 -0.051094608867397598 -0.17005456831452659 0 -0.036601677587355427 -0.1631254910080501 0 -0.042683024331232992 -0.16071659108817879 0 -0.051094608867397598 -0.17005456831452659 0 -0.036601677587355427 -0.1631254910080501 0 -0.051094608867397598 -0.17005456831452659 0 -0.042683024331232992 -0.16071659108817879 0 -0.03757233301838208 -0.1561293615731485 0 -0.042590371425084809 -0.152788459458752 0 -0.042683024331232992 -0.16071659108817879 0 -0.049852416986034973 -0.1566787242717059 0 -0.042590371425084809 -0.152788459458752 0 -0.042683024331232992 -0.16071659108817879 0 -0.049852416986034973 -0.1566787242717059 0 -0.032920373861235572 -0.18696580359983689 0 -0.035662893679222471 -0.1808176818492459 0 -0.039648887306358682 -0.18457447877016059 0 -0.028761852805915141 -0.18157091371807699 0 -0.032920373861235572 -0.18696580359983689 0 -0.035662893679222471 -0.1808176818492459 0 -0.032240004386850082 -0.17024588421870079 0 -0.040990311010288182 -0.1707810542940659 0 -0.038331319031698619 -0.1753090981098179 0 -0.035662893679222471 -0.1808176818492459 0 -0.038331319031698619 -0.1753090981098179 0 -0.042134054383572032 -0.1794085226548284 0 -0.035662893679222471 -0.1808176818492459 0 -0.032480769472988377 -0.1765838753595764 0 -0.038331319031698619 -0.1753090981098179 0 -0.028761852805915141 -0.18157091371807699 0 -0.035662893679222471 -0.1808176818492459 0 -0.032480769472988377 -0.1765838753595764 0 -0.032240004386850082 -0.17024588421870079 0 -0.032480769472988377 -0.1765838753595764 0 -0.038331319031698619 -0.1753090981098179 0 -0.040990311010288182 -0.1707810542940659 0 -0.045496547127059937 -0.17528527585558801 0 -0.051094608867397598 -0.17005456831452659 0 -0.040990311010288182 -0.1707810542940659 0 -0.038331319031698619 -0.1753090981098179 0 -0.045496547127059937 -0.17528527585558801 0 -0.045496547127059937 -0.17528527585558801 0 -0.042134054383572032 -0.1794085226548284 0 -0.049232931697160941 -0.18142535687920061 0 -0.038331319031698619 -0.1753090981098179 0 -0.045496547127059937 -0.17528527585558801 0 -0.042134054383572032 -0.1794085226548284 0 -0.042134054383572032 -0.1794085226548284 0 -0.039648887306358682 -0.18457447877016059 0 -0.049232931697160941 -0.18142535687920061 0 -0.039648887306358682 -0.18457447877016059 0 -0.049232931697160941 -0.18142535687920061 0 -0.037513132105194948 -0.19164621715467339 0 -0.035662893679222471 -0.1808176818492459 0 -0.042134054383572032 -0.1794085226548284 0 -0.039648887306358682 -0.18457447877016059 0 -0.052530262953744307 -0.18551360121156771 0 -0.064566778430722005 -0.1899668467895553 0 -0.070259181001566293 -0.17921715932508539 0 -0.052530262953744307 -0.18551360121156771 0 -0.051094608867397598 -0.17005456831452659 0 -0.070259181001566293 -0.17921715932508539 0 -0.051094608867397598 -0.17005456831452659 0 -0.070259181001566293 -0.17921715932508539 0 -0.052530262953744307 -0.18551360121156771 0 -0.049232931697160941 -0.18142535687920061 0 -0.051094608867397598 -0.17005456831452659 0 -0.052530262953744307 -0.18551360121156771 0 -0.051094608867397598 -0.17005456831452659 0 -0.045496547127059937 -0.17528527585558801 0 -0.049232931697160941 -0.18142535687920061 0 -0.051094608867397598 -0.17005456831452659 0 -0.051094608867397598 -0.17005456831452659 0 -0.061817946007188637 -0.1647032604190713 0 -0.070259181001566293 -0.17921715932508539 0 -0.049852416986034973 -0.1566787242717059 0 -0.051094608867397598 -0.17005456831452659 0 -0.061817946007188637 -0.1647032604190713 0 -0.042683024331232992 -0.16071659108817879 0 -0.049852416986034973 -0.1566787242717059 0 -0.051094608867397598 -0.17005456831452659 0 -0.049852416986034973 -0.1566787242717059 0 -0.051094608867397598 -0.17005456831452659 0 -0.049852416986034973 -0.1566787242717059 0 -0.061817946007188637 -0.1647032604190713 0 -0.059473492795946999 -0.1512600473178678 0 -0.049852416986034973 -0.1566787242717059 0 -0.059473492795946999 -0.1512600473178678 0 -0.049852416986034973 -0.1566787242717059 0 -0.048542636614648908 -0.14257509161971199 0 -0.042590371425084809 -0.152788459458752 0 -0.049852416986034973 -0.1566787242717059 0 -0.059473492795946999 -0.1512600473178678 0 -0.048542636614648908 -0.14257509161971199 0 -0.049852416986034973 -0.1566787242717059 0 -0.048542636614648908 -0.14257509161971199 0 -0.059473492795946999 -0.1512600473178678 0 -0.048542636614648908 -0.14257509161971199 0 -0.059473492795946999 -0.1512600473178678 0 -0.048542636614648908 -0.14257509161971199 0 -0.061100100412547438 -0.13647315015658409 0 -0.046573596299020338 -0.1213725893565638 0 -0.048542636614648908 -0.14257509161971199 0 -0.061100100412547438 -0.13647315015658409 0 -0.046573596299020338 -0.1213725893565638 0 -0.048542636614648908 -0.14257509161971199 0 -0.060928146748241367 -0.123537549367131 0 -0.046573596299020338 -0.1213725893565638 0 -0.061100100412547438 -0.13647315015658409 0 -0.046573596299020338 -0.1213725893565638 0 -0.048542636614648908 -0.14257509161971199 0 -0.032898799107638058 -0.1301455039054305 0 -0.048542636614648908 -0.14257509161971199 0 -0.032898799107638058 -0.1301455039054305 0 -0.031315427069795509 -0.14033751807088471 0 -0.048542636614648908 -0.14257509161971199 0 -0.032898799107638058 -0.1301455039054305 0 -0.048542636614648908 -0.14257509161971199 0 -0.031315427069795509 -0.14033751807088471 0 -0.03449156258747036 -0.148917707105098 0 -0.03449156258747036 -0.148917707105098 0 -0.03757233301838208 -0.1561293615731485 0 -0.042590371425084809 -0.152788459458752 0 -0.03449156258747036 -0.148917707105098 0 -0.031495029160766817 -0.15509855920566379 0 -0.03757233301838208 -0.1561293615731485 0 -0.048542636614648908 -0.14257509161971199 0 -0.03449156258747036 -0.148917707105098 0 -0.042590371425084809 -0.152788459458752 0 -0.030801127425925001 -0.25680016795848581 0 -0.026871719323301121 -0.24650256912316601 0 -0.018733547469201091 -0.24349008461987329 0 -0.032940321160402269 -0.25029644079438251 0 -0.026871719323301121 -0.24650256912316601 0 -0.030857658388656541 -0.2362056796655021 0 -0.032940321160402269 -0.25029644079438251 0 -0.026871719323301121 -0.24650256912316601 0 -0.026871719323301121 -0.24650256912316601 0 -0.030857658388656541 -0.2362056796655021 0 -0.018733547469201091 -0.24349008461987329 0 -0.018733547469201091 -0.24349008461987329 0 0.0010854142569982001 -0.23807309260292489 0 0.0025328853753160741 -0.24958102673793139 0 -0.018733547469201091 -0.24349008461987329 0 -0.0061584899570064598 -0.22962027277065361 0 0.0010854142569982001 -0.23807309260292489 0 -0.018733547469201091 -0.24349008461987329 0 -0.0061584899570064598 -0.22962027277065361 0 -0.018733547469201091 -0.24349008461987329 0 -0.0061584899570064598 -0.22962027277065361 0 -0.014959502272226489 -0.22084886391346231 0 -0.0061584899570064598 -0.22962027277065361 0 -0.0054289760133702037 -0.21457987404047249 0 0.0064165675551885711 -0.21575046092143421 0 -0.0061584899570064598 -0.22962027277065361 0 -0.014959502272226489 -0.22084886391346231 0 -0.0054289760133702037 -0.21457987404047249 0 -0.018733547469201091 -0.24349008461987329 0 -0.02919644603132129 -0.2221986071991269 0 -0.02714058579554627 -0.22330174697438809 0 -0.018733547469201091 -0.24349008461987329 0 -0.02919644603132129 -0.2221986071991269 0 -0.018733547469201091 -0.24349008461987329 0 -0.014959502272226489 -0.22084886391346231 0 -0.02714058579554627 -0.22330174697438809 0 -0.030857658388656541 -0.2362056796655021 0 -0.018733547469201091 -0.24349008461987329 0 -0.02919644603132129 -0.2221986071991269 0 -0.02919644603132129 -0.2221986071991269 0 -0.02714058579554627 -0.22330174697438809 0 -0.023298310508535151 -0.21367384618425 0 -0.02883797433537726 -0.20835292232393379 0 -0.020914866328615171 -0.2008213059726579 0 -0.039659344593441261 -0.20090712977838049 0 -0.02919644603132129 -0.2221986071991269 0 -0.02883797433537726 -0.20835292232393379 0 -0.023298310508535151 -0.21367384618425 0 -0.02883797433537726 -0.20835292232393379 0 -0.023298310508535151 -0.21367384618425 0 -0.020914866328615171 -0.2008213059726579 0 -0.023298310508535151 -0.21367384618425 0 -0.014351405434837939 -0.2084381568687759 0 -0.020914866328615171 -0.2008213059726579 0 -0.02714058579554627 -0.22330174697438809 0 -0.014351405434837939 -0.2084381568687759 0 -0.014959502272226489 -0.22084886391346231 0 -0.02714058579554627 -0.22330174697438809 0 -0.014351405434837939 -0.2084381568687759 0 -0.02714058579554627 -0.22330174697438809 0 -0.023298310508535151 -0.21367384618425 0 -0.014351405434837939 -0.2084381568687759 0 -0.014959502272226489 -0.22084886391346231 0 -0.0054289760133702037 -0.21457987404047249 0 -0.014351405434837939 -0.2084381568687759 0 -0.0054289760133702037 -0.21457987404047249 0 -0.014351405434837939 -0.2084381568687759 0 -0.0015622250741301779 -0.1935745667631632 0 -0.0054289760133702037 -0.21457987404047249 0 -0.0015622250741301779 -0.1935745667631632 0 0.0064165675551885711 -0.21575046092143421 0 -0.014351405434837939 -0.2084381568687759 0 -0.0015622250741301779 -0.1935745667631632 0 -0.014351405434837939 -0.2084381568687759 0 -0.01223217889679739 -0.19705511845509929 0 -0.0015622250741301779 -0.1935745667631632 0 -0.01223217889679739 -0.19705511845509929 0 -0.0015622250741301779 -0.1935745667631632 0 -0.01452589755716127 -0.18854972137590889 0 -0.020914866328615171 -0.2008213059726579 0 -0.039659344593441261 -0.20090712977838049 0 -0.01452589755716127 -0.18854972137590889 0 -0.020914866328615171 -0.2008213059726579 0 -0.02459459850908961 -0.18853055632871979 0 -0.020914866328615171 -0.2008213059726579 0 -0.030654603298793132 -0.19382629647353339 0 -0.039659344593441261 -0.20090712977838049 0 -0.014351405434837939 -0.2084381568687759 0 -0.01223217889679739 -0.19705511845509929 0 -0.020914866328615171 -0.2008213059726579 0 -0.01223217889679739 -0.19705511845509929 0 -0.01452589755716127 -0.18854972137590889 0 -0.020914866328615171 -0.2008213059726579 0 -0.020914866328615171 -0.2008213059726579 0 -0.030654603298793132 -0.19382629647353339 0 -0.02459459850908961 -0.18853055632871979 0 -0.032920373861235572 -0.18696580359983689 0 -0.030654603298793132 -0.19382629647353339 0 -0.02459459850908961 -0.18853055632871979 0 -0.049232931697160941 -0.18142535687920061 0 -0.037513132105194948 -0.19164621715467339 0 -0.039659344593441261 -0.20090712977838049 0 -0.049232931697160941 -0.18142535687920061 0 -0.039659344593441261 -0.20090712977838049 0 -0.032920373861235572 -0.18696580359983689 0 -0.039648887306358682 -0.18457447877016059 0 -0.037513132105194948 -0.19164621715467339 0 -0.032920373861235572 -0.18696580359983689 0 -0.030654603298793132 -0.19382629647353339 0 -0.037513132105194948 -0.19164621715467339 0 -0.030654603298793132 -0.19382629647353339 0 -0.037513132105194948 -0.19164621715467339 0 -0.039659344593441261 -0.20090712977838049 0 -0.039659344593441261 -0.20090712977838049 0 -0.049171036143441697 -0.20095068018059209 0 -0.052530262953744307 -0.18551360121156771 0 -0.053965917040092279 -0.20097263410860849 0 -0.052530262953744307 -0.18551360121156771 0 -0.049232931697160941 -0.18142535687920061 0 -0.039659344593441261 -0.20090712977838049 0 -0.052530262953744307 -0.18551360121156771 0 -0.053965917040092279 -0.20097263410860849 0 -0.064566778430722005 -0.1899668467895553 0 -0.052530262953744307 -0.18551360121156771 0 -0.039659344593441261 -0.20090712977838049 0 -0.049171036143441697 -0.20095068018059209 0 -0.053965917040092279 -0.20097263410860849 0 -0.049171036143441697 -0.20095068018059209 0 -0.052530262953744307 -0.18551360121156771 0 -0.053965917040092279 -0.20097263410860849 0 -0.049171036143441697 -0.20095068018059209 0 -0.049171036143441697 -0.20095068018059209 0 -0.054685660498906767 -0.208722786400212 0 -0.041055678651922348 -0.2256235604874875 0 -0.053965917040092279 -0.20097263410860849 0 -0.054685660498906767 -0.208722786400212 0 -0.075274492420391248 -0.20107019793555661 0 -0.054685660498906767 -0.208722786400212 0 -0.058782723788501128 -0.22597342721149569 0 -0.066300796797188796 -0.21509277327032089 0 -0.053965917040092279 -0.20097263410860849 0 -0.049171036143441697 -0.20095068018059209 0 -0.054685660498906767 -0.208722786400212 0 -0.053965917040092279 -0.20097263410860849 0 -0.054685660498906767 -0.208722786400212 0 -0.049171036143441697 -0.20095068018059209 0 -0.041055678651922348 -0.2256235604874875 0 -0.02919644603132129 -0.2221986071991269 0 -0.039659344593441261 -0.20090712977838049 0 -0.02919644603132129 -0.2221986071991269 0 -0.02883797433537726 -0.20835292232393379 0 -0.039659344593441261 -0.20090712977838049 0 -0.039659344593441261 -0.20090712977838049 0 -0.049171036143441697 -0.20095068018059209 0 -0.041055678651922348 -0.2256235604874875 0 -0.02919644603132129 -0.2221986071991269 0 -0.039659344593441261 -0.20090712977838049 0 -0.041055678651922348 -0.2256235604874875 0 -0.030857658388656541 -0.2362056796655021 0 -0.02919644603132129 -0.2221986071991269 0 -0.041055678651922348 -0.2256235604874875 0 -0.041055678651922348 -0.2256235604874875 0 -0.058782723788501128 -0.22597342721149569 0 -0.050902643065861071 -0.24349095896983161 0 -0.054685660498906767 -0.208722786400212 0 -0.041055678651922348 -0.2256235604874875 0 -0.058782723788501128 -0.22597342721149569 0 -0.058782723788501128 -0.22597342721149569 0 -0.050902643065861071 -0.24349095896983161 0 -0.077646128541525 -0.24813916513248199 0 -0.032940321160402269 -0.25029644079438251 0 -0.041055678651922348 -0.2256235604874875 0 -0.050902643065861071 -0.24349095896983161 0 -0.032940321160402269 -0.25029644079438251 0 -0.030857658388656541 -0.2362056796655021 0 -0.041055678651922348 -0.2256235604874875 0 -0.032940321160402269 -0.25029644079438251 0 -0.041055678651922348 -0.2256235604874875 0 -0.077646128541525 -0.24813916513248199 0 -0.082279147983734507 -0.22463132376819159 0 -0.088104632666654803 -0.24175912157342011 0 -0.077646128541525 -0.24813916513248199 0 -0.082279147983734507 -0.22463132376819159 0 -0.077646128541525 -0.24813916513248199 0 -0.076460310480956056 -0.22460468153401941 0 -0.058782723788501128 -0.22597342721149569 0 -0.077646128541525 -0.24813916513248199 0 -0.076460310480956056 -0.22460468153401941 0 -0.058782723788501128 -0.22597342721149569 0 -0.076460310480956056 -0.22460468153401941 0 -0.066300796797188796 -0.21509277327032089 0 -0.077646128541525 -0.24813916513248199 0 -0.076460310480956056 -0.22460468153401941 0 -0.082279147983734507 -0.22463132376819159 0 -0.088104632666654803 -0.24175912157342011 0 -0.091210523848666042 -0.22145825259936749 0 -0.096373561920523113 -0.2318247108995648 0 -0.088104632666654803 -0.24175912157342011 0 -0.082279147983734507 -0.22463132376819159 0 -0.091210523848666042 -0.22145825259936749 0 -0.088104632666654803 -0.24175912157342011 0 -0.091210523848666042 -0.22145825259936749 0 -0.082279147983734507 -0.22463132376819159 0 -0.075274492420391248 -0.20107019793555661 0 -0.086912167425944153 -0.20112348240390099 0 -0.082279147983734507 -0.22463132376819159 0 -0.091210523848666042 -0.22145825259936749 0 -0.086912167425944153 -0.20112348240390099 0 -0.091210523848666042 -0.22145825259936749 0 -0.094316415030678002 -0.20115738362531499 0 -0.091210523848666042 -0.22145825259936749 0 -0.086912167425944153 -0.20112348240390099 0 -0.094316415030678002 -0.20115738362531499 0 -0.082279147983734507 -0.22463132376819159 0 -0.086912167425944153 -0.20112348240390099 0 -0.076460310480956056 -0.22460468153401941 0 -0.066300796797188796 -0.21509277327032089 0 -0.075274492420391248 -0.20107019793555661 0 -0.054685660498906767 -0.208722786400212 0 -0.066300796797188796 -0.21509277327032089 0 -0.075274492420391248 -0.20107019793555661 0 -0.076460310480956056 -0.22460468153401941 0 -0.082279147983734507 -0.22463132376819159 0 -0.075274492420391248 -0.20107019793555661 0 -0.076460310480956056 -0.22460468153401941 0 -0.075274492420391248 -0.20107019793555661 0 -0.053965917040092279 -0.20097263410860849 0 -0.075274492420391248 -0.20107019793555661 0 -0.070100108945259781 -0.19629415080948229 0 -0.053965917040092279 -0.20097263410860849 0 -0.070100108945259781 -0.19629415080948229 0 -0.064566778430722005 -0.1899668467895553 0 -0.053965917040092279 -0.20097263410860849 0 -0.075274492420391248 -0.20107019793555661 0 -0.075274492420391248 -0.20107019793555661 0 -0.075113373652805612 -0.19571605274700751 0 -0.079733979793737045 -0.19605477611637959 0 -0.075274492420391248 -0.20107019793555661 0 -0.075113373652805612 -0.19571605274700751 0 -0.070100108945259781 -0.19629415080948229 0 -0.070100108945259781 -0.19629415080948229 0 -0.064566778430722005 -0.1899668467895553 0 -0.075377056328755521 -0.19008301367616509 0 -0.075113373652805612 -0.19571605274700751 0 -0.070100108945259781 -0.19629415080948229 0 -0.075377056328755521 -0.19008301367616509 0 -0.075113373652805612 -0.19571605274700751 0 -0.075377056328755521 -0.19008301367616509 0 -0.079733979793737045 -0.19605477611637959 0 -0.075377056328755521 -0.19008301367616509 0 -0.079733979793737045 -0.19605477611637959 0 -0.089423753135733974 -0.18837975033564619 0 -0.079733979793737045 -0.19605477611637959 0 -0.086912167425944153 -0.20112348240390099 0 -0.089423753135733974 -0.18837975033564619 0 -0.075274492420391248 -0.20107019793555661 0 -0.086912167425944153 -0.20112348240390099 0 -0.075274492420391248 -0.20107019793555661 0 -0.079733979793737045 -0.19605477611637959 0 -0.086912167425944153 -0.20112348240390099 0 -0.086912167425944153 -0.20112348240390099 0 -0.095804572093432044 -0.1914304229002349 0 -0.094316415030678002 -0.20115738362531499 0 -0.086912167425944153 -0.20112348240390099 0 -0.094316415030678002 -0.20115738362531499 0 -0.086912167425944153 -0.20112348240390099 0 -0.089423753135733974 -0.18837975033564619 0 -0.086912167425944153 -0.20112348240390099 0 -0.089423753135733974 -0.18837975033564619 0 -0.095804572093432044 -0.1914304229002349 0 -0.089423753135733974 -0.18837975033564619 0 -0.095804572093432044 -0.1914304229002349 0 -0.090500110278716836 -0.18291833725845449 0 -0.089423753135733974 -0.18837975033564619 0 -0.095804572093432044 -0.1914304229002349 0 -0.095804572093432044 -0.1914304229002349 0 -0.1055884512206339 -0.19610810014299959 0 -0.099028938128851704 -0.1826882615985625 0 -0.095804572093432044 -0.1914304229002349 0 -0.1055884512206339 -0.19610810014299959 0 -0.095804572093432044 -0.1914304229002349 0 -0.099726318276372988 -0.19712665769699661 0 -0.1055884512206339 -0.19610810014299959 0 -0.094316415030678002 -0.20115738362531499 0 -0.099726318276372988 -0.19712665769699661 0 -0.1069539478940484 -0.20121524606085259 0 -0.095804572093432044 -0.1914304229002349 0 -0.094316415030678002 -0.20115738362531499 0 -0.095804572093432044 -0.1914304229002349 0 -0.094316415030678002 -0.20115738362531499 0 -0.099726318276372988 -0.19712665769699661 0 -0.094316415030678002 -0.20115738362531499 0 -0.1069539478940484 -0.20121524606085259 0 -0.1006154135170836 -0.20550376286944089 0 -0.094316415030678002 -0.20115738362531499 0 -0.1069539478940484 -0.20121524606085259 0 -0.099726318276372988 -0.19712665769699661 0 -0.1069539478940484 -0.20121524606085259 0 -0.1055884512206339 -0.19610810014299959 0 -0.1069539478940484 -0.20121524606085259 0 -0.1055884512206339 -0.19610810014299959 0 -0.1143022105317214 -0.19176920984990589 0 -0.1234142843990034 -0.20129061165398179 0 -0.118443644943155 -0.18313735869921541 0 -0.1234142843990034 -0.20129061165398179 0 -0.118443644943155 -0.18313735869921541 0 -0.12836978379805469 -0.19505845874684749 0 -0.1055884512206339 -0.19610810014299959 0 -0.1143022105317214 -0.19176920984990589 0 -0.1095912747331507 -0.1796343382558257 0 -0.1234142843990034 -0.20129061165398179 0 -0.118443644943155 -0.18313735869921541 0 -0.1234142843990034 -0.20129061165398179 0 -0.11636069704563699 -0.20125831597190941 0 -0.12446659453658469 -0.2051337493999616 0 -0.1143022105317214 -0.19176920984990589 0 -0.1234142843990034 -0.20129061165398179 0 -0.11636069704563699 -0.20125831597190941 0 -0.1234142843990034 -0.20129061165398179 0 -0.11636069704563699 -0.20125831597190941 0 -0.1055884512206339 -0.19610810014299959 0 -0.1143022105317214 -0.19176920984990589 0 -0.11636069704563699 -0.20125831597190941 0 -0.1055884512206339 -0.19610810014299959 0 -0.11636069704563699 -0.20125831597190941 0 -0.1069539478940484 -0.20121524606085259 0 -0.11636069704563699 -0.20125831597190941 0 -0.116503442890511 -0.20615462214379501 0 -0.1069539478940484 -0.20121524606085259 0 -0.1055884512206339 -0.19610810014299959 0 -0.11636069704563699 -0.20125831597190941 0 -0.1069539478940484 -0.20121524606085259 0 -0.11636069704563699 -0.20125831597190941 0 -0.1069539478940484 -0.20121524606085259 0 -0.1182325320857732 -0.21701117714245771 0 -0.1146322195844853 -0.229933041338924 0 -0.1069539478940484 -0.20121524606085259 0 -0.1146322195844853 -0.229933041338924 0 -0.12446659453658469 -0.2051337493999616 0 -0.1182325320857732 -0.21701117714245771 0 -0.12964778408632779 -0.2240559515308029 0 -0.1069539478940484 -0.20121524606085259 0 -0.116503442890511 -0.20615462214379501 0 -0.1182325320857732 -0.21701117714245771 0 -0.116503442890511 -0.20615462214379501 0 -0.12446659453658469 -0.2051337493999616 0 -0.1182325320857732 -0.21701117714245771 0 -0.11636069704563699 -0.20125831597190941 0 -0.116503442890511 -0.20615462214379501 0 -0.12446659453658469 -0.2051337493999616 0 -0.11636069704563699 -0.20125831597190941 0 -0.12446659453658469 -0.2051337493999616 0 -0.1234142843990034 -0.20129061165398179 0 -0.12446659453658469 -0.2051337493999616 0 -0.1069539478940484 -0.20121524606085259 0 -0.1039432587622498 -0.21234961129803451 0 -0.1146322195844853 -0.229933041338924 0 -0.091210523848666042 -0.22145825259936749 0 -0.094316415030678002 -0.20115738362531499 0 -0.098742607236989521 -0.21208478243994361 0 -0.1039432587622498 -0.21234961129803451 0 -0.098742607236989521 -0.21208478243994361 0 -0.10362742502627011 -0.2199549018075595 0 -0.1069539478940484 -0.20121524606085259 0 -0.1039432587622498 -0.21234961129803451 0 -0.1006154135170836 -0.20550376286944089 0 -0.1039432587622498 -0.21234961129803451 0 -0.1006154135170836 -0.20550376286944089 0 -0.098742607236989521 -0.21208478243994361 0 -0.094316415030678002 -0.20115738362531499 0 -0.1006154135170836 -0.20550376286944089 0 -0.098742607236989521 -0.21208478243994361 0 -0.091210523848666042 -0.22145825259936749 0 -0.098742607236989521 -0.21208478243994361 0 -0.10362742502627011 -0.2199549018075595 0 -0.096373561920523113 -0.2318247108995648 0 -0.10362742502627011 -0.2199549018075595 0 -0.1025516661405015 -0.24412656761791199 0 -0.1039432587622498 -0.21234961129803451 0 -0.10362742502627011 -0.2199549018075595 0 -0.1146322195844853 -0.229933041338924 0 -0.10362742502627011 -0.2199549018075595 0 -0.1025516661405015 -0.24412656761791199 0 -0.10362742502627011 -0.2199549018075595 0 -0.11057817055071439 -0.23713955200355691 0 -0.1025516661405015 -0.24412656761791199 0 -0.091210523848666042 -0.22145825259936749 0 -0.096373561920523113 -0.2318247108995648 0 -0.10362742502627011 -0.2199549018075595 0 -0.10362742502627011 -0.2199549018075595 0 -0.1146322195844853 -0.229933041338924 0 -0.11057817055071439 -0.23713955200355691 0 -0.1182325320857732 -0.21701117714245771 0 -0.1146322195844853 -0.229933041338924 0 -0.12964778408632779 -0.2240559515308029 0 -0.1146322195844853 -0.229933041338924 0 -0.12594535918601221 -0.23537450645762351 0 -0.12964778408632779 -0.2240559515308029 0 -0.1146322195844853 -0.229933041338924 0 -0.11057817055071439 -0.23713955200355691 0 -0.11992695639240671 -0.24305274461581289 0 -0.1146322195844853 -0.229933041338924 0 -0.11992695639240671 -0.24305274461581289 0 -0.12594535918601221 -0.23537450645762351 0 -0.11992695639240671 -0.24305274461581289 0 -0.12594535918601221 -0.23537450645762351 0 -0.1270777831465402 -0.24161244513161839 0 -0.11057817055071439 -0.23713955200355691 0 -0.11992695639240671 -0.24305274461581289 0 -0.1121525856099083 -0.24863050463757599 0 -0.1183855941197941 -0.25651062511641259 0 -0.11992695639240671 -0.24305274461581289 0 -0.1121525856099083 -0.24863050463757599 0 -0.1097432552782682 -0.2572086698476283 0 -0.1121525856099083 -0.24863050463757599 0 -0.1025516661405015 -0.24412656761791199 0 -0.11057817055071439 -0.23713955200355691 0 -0.1121525856099083 -0.24863050463757599 0 -0.1025516661405015 -0.24412656761791199 0 -0.088104632666654803 -0.24175912157342011 0 -0.096373561920523113 -0.2318247108995648 0 -0.1025516661405015 -0.24412656761791199 0 -0.093680051977193257 -0.25300014610948141 0 -0.088104632666654803 -0.24175912157342011 0 -0.1025516661405015 -0.24412656761791199 0 -0.091208904987890735 -0.14232661368977559 0 -0.087323419063827665 -0.1566704494577609 0 -0.098398678104261977 -0.16921735691638781 0 -0.081276062778159672 -0.14883202435870879 0 -0.08710950077230438 -0.14178266396580899 0 -0.074302444905730333 -0.14290824730771751 0 -0.081276062778159672 -0.14883202435870879 0 -0.091208904987890735 -0.14232661368977559 0 -0.087323419063827665 -0.1566704494577609 0 -0.081276062778159672 -0.14883202435870879 0 -0.08710950077230438 -0.14178266396580899 0 -0.091208904987890735 -0.14232661368977559 0 -0.08710950077230438 -0.14178266396580899 0 -0.091208904987890735 -0.14232661368977559 0 -0.091208904987890735 -0.14232661368977559 0 -0.089131397015513494 -0.13455644729756691 0 -0.089131397015513494 -0.13455644729756691 0 -0.072915517223638954 -0.12670463451369329 0 -0.074302444905730333 -0.14290824730771751 0 -0.08710950077230438 -0.14178266396580899 0 -0.091208904987890735 -0.14232661368977559 0 -0.089131397015513494 -0.13455644729756691 0 -0.08710950077230438 -0.14178266396580899 0 -0.089131397015513494 -0.13455644729756691 0 -0.074302444905730333 -0.14290824730771751 0 -0.089131397015513494 -0.13455644729756691 0 -0.074302444905730333 -0.14290824730771751 0 -0.061100100412547438 -0.13647315015658409 0 -0.072915517223638954 -0.12670463451369329 0 -0.074302444905730333 -0.14290824730771751 0 -0.060928146748241367 -0.123537549367131 0 -0.061100100412547438 -0.13647315015658409 0 -0.072915517223638954 -0.12670463451369329 0 -0.059473492795946999 -0.1512600473178678 0 -0.081276062778159672 -0.14883202435870879 0 -0.074302444905730333 -0.14290824730771751 0 -0.059473492795946999 -0.1512600473178678 0 -0.081276062778159672 -0.14883202435870879 0 -0.078410030384998497 -0.16630580286617139 0 -0.059473492795946999 -0.1512600473178678 0 -0.074302444905730333 -0.14290824730771751 0 -0.059473492795946999 -0.1512600473178678 0 -0.061100100412547438 -0.13647315015658409 0 -0.074302444905730333 -0.14290824730771751 0 -0.061817946007188637 -0.1647032604190713 0 -0.070259181001566293 -0.17921715932508539 0 -0.078410030384998497 -0.16630580286617139 0 -0.059473492795946999 -0.1512600473178678 0 -0.078410030384998497 -0.16630580286617139 0 -0.061817946007188637 -0.1647032604190713 0 -0.059473492795946999 -0.1512600473178678 0 -0.078410030384998497 -0.16630580286617139 0 -0.064566778430722005 -0.1899668467895553 0 -0.075377056328755521 -0.19008301367616509 0 -0.070259181001566293 -0.17921715932508539 0 -0.070259181001566293 -0.17921715932508539 0 -0.08402443889557612 -0.1788939005998389 0 -0.078410030384998497 -0.16630580286617139 0 -0.089423753135733974 -0.18837975033564619 0 -0.070259181001566293 -0.17921715932508539 0 -0.075377056328755521 -0.19008301367616509 0 -0.089423753135733974 -0.18837975033564619 0 -0.070259181001566293 -0.17921715932508539 0 -0.078410030384998497 -0.16630580286617139 0 -0.098398678104261977 -0.16921735691638781 0 -0.097346567974052028 -0.18135155841447259 0 -0.078410030384998497 -0.16630580286617139 0 -0.097346567974052028 -0.18135155841447259 0 -0.08402443889557612 -0.1788939005998389 0 -0.078410030384998497 -0.16630580286617139 0 -0.097346567974052028 -0.18135155841447259 0 -0.089423753135733974 -0.18837975033564619 0 -0.070259181001566293 -0.17921715932508539 0 -0.08402443889557612 -0.1788939005998389 0 -0.089423753135733974 -0.18837975033564619 0 -0.08402443889557612 -0.1788939005998389 0 -0.090500110278716836 -0.18291833725845449 0 -0.08402443889557612 -0.1788939005998389 0 -0.090500110278716836 -0.18291833725845449 0 -0.097346567974052028 -0.18135155841447259 0 -0.089423753135733974 -0.18837975033564619 0 -0.090500110278716836 -0.18291833725845449 0 -0.081276062778159672 -0.14883202435870879 0 -0.078410030384998497 -0.16630580286617139 0 -0.087323419063827665 -0.1566704494577609 0 -0.078410030384998497 -0.16630580286617139 0 -0.087323419063827665 -0.1566704494577609 0 -0.098398678104261977 -0.16921735691638781 0 -0.098398678104261977 -0.16921735691638781 0 -0.1095912747331507 -0.1796343382558257 0 -0.1134730054873082 -0.16498410574444861 0 -0.098398678104261977 -0.16921735691638781 0 -0.1134730054873082 -0.16498410574444861 0 -0.1057127461594554 -0.15566112818699529 0 -0.1055884512206339 -0.19610810014299959 0 -0.098398678104261977 -0.16921735691638781 0 -0.099028938128851704 -0.1826882615985625 0 -0.1055884512206339 -0.19610810014299959 0 -0.098398678104261977 -0.16921735691638781 0 -0.1055884512206339 -0.19610810014299959 0 -0.098398678104261977 -0.16921735691638781 0 -0.1095912747331507 -0.1796343382558257 0 -0.095804572093432044 -0.1914304229002349 0 -0.097346567974052028 -0.18135155841447259 0 -0.099028938128851704 -0.1826882615985625 0 -0.095804572093432044 -0.1914304229002349 0 -0.090500110278716836 -0.18291833725845449 0 -0.097346567974052028 -0.18135155841447259 0 -0.095804572093432044 -0.1914304229002349 0 -0.097346567974052028 -0.18135155841447259 0 -0.097346567974052028 -0.18135155841447259 0 -0.099028938128851704 -0.1826882615985625 0 -0.098398678104261977 -0.16921735691638781 0 -0.097346567974052028 -0.18135155841447259 0 -0.099028938128851704 -0.1826882615985625 0 -0.118443644943155 -0.18313735869921541 0 -0.1134730054873082 -0.16498410574444861 0 -0.1288769000074067 -0.1787922372229141 0 -0.118443644943155 -0.18313735869921541 0 -0.1134730054873082 -0.16498410574444861 0 -0.1095912747331507 -0.1796343382558257 0 -0.118443644943155 -0.18313735869921541 0 -0.1134730054873082 -0.16498410574444861 0 -0.1143022105317214 -0.19176920984990589 0 -0.1095912747331507 -0.1796343382558257 0 -0.118443644943155 -0.18313735869921541 0 -0.1134730054873082 -0.16498410574444861 0 -0.1197703960583608 -0.14611643639736929 0 -0.1290470673658046 -0.1573335562640088 0 -0.1134730054873082 -0.16498410574444861 0 -0.1197703960583608 -0.14611643639736929 0 -0.1057127461594554 -0.15566112818699529 0 -0.091208904987890735 -0.14232661368977559 0 -0.1197703960583608 -0.14611643639736929 0 -0.1055319536065798 -0.13433424813048789 0 -0.091208904987890735 -0.14232661368977559 0 -0.1197703960583608 -0.14611643639736929 0 -0.091208904987890735 -0.14232661368977559 0 -0.098398678104261977 -0.16921735691638781 0 -0.091208904987890735 -0.14232661368977559 0 -0.1197703960583608 -0.14611643639736929 0 -0.1057127461594554 -0.15566112818699529 0 -0.091208904987890735 -0.14232661368977559 0 -0.098398678104261977 -0.16921735691638781 0 -0.1057127461594554 -0.15566112818699529 0 -0.11422347955810171 -0.1204243593602408 0 -0.089131397015513494 -0.13455644729756691 0 -0.1055319536065798 -0.13433424813048789 0 -0.091208904987890735 -0.14232661368977559 0 -0.089131397015513494 -0.13455644729756691 0 -0.1055319536065798 -0.13433424813048789 0 -0.11422347955810171 -0.1204243593602408 0 -0.089131397015513494 -0.13455644729756691 0 -0.11422347955810171 -0.1204243593602408 0 -0.1197703960583608 -0.14611643639736929 0 -0.13445671698849809 -0.1291024538471422 0 -0.11422347955810171 -0.1204243593602408 0 -0.1197703960583608 -0.14611643639736929 0 -0.1055319536065798 -0.13433424813048789 0 -0.1483318871288308 -0.14990625910496369 0 -0.16449988742022109 -0.13664022397910389 0 -0.1531014227808439 -0.1221458571451004 0 -0.13445671698849809 -0.1291024538471422 0 -0.1483318871288308 -0.14990625910496369 0 -0.1531014227808439 -0.1221458571451004 0 -0.1197703960583608 -0.14611643639736929 0 -0.1483318871288308 -0.14990625910496369 0 -0.1197703960583608 -0.14611643639736929 0 -0.13445671698849809 -0.1291024538471422 0 -0.1483318871288308 -0.14990625910496369 0 -0.1197703960583608 -0.14611643639736929 0 -0.1483318871288308 -0.14990625910496369 0 -0.1290470673658046 -0.1573335562640088 0 -0.1134730054873082 -0.16498410574444861 0 -0.13461298078871861 -0.16832742380925381 0 -0.1288769000074067 -0.1787922372229141 0 -0.1134730054873082 -0.16498410574444861 0 -0.1290470673658046 -0.1573335562640088 0 -0.13461298078871861 -0.16832742380925381 0 -0.1483318871288308 -0.14990625910496369 0 -0.1290470673658046 -0.1573335562640088 0 -0.13461298078871861 -0.16832742380925381 0 -0.1288769000074067 -0.1787922372229141 0 -0.13667151748925299 -0.18732448341615179 0 -0.12964513627792831 -0.18854704193980709 0 -0.118443644943155 -0.18313735869921541 0 -0.1288769000074067 -0.1787922372229141 0 -0.12964513627792831 -0.18854704193980709 0 -0.13461298078871861 -0.16832742380925381 0 -0.1288769000074067 -0.1787922372229141 0 -0.13971937495991149 -0.1792470101286355 0 -0.13971937495991149 -0.1792470101286355 0 -0.13667151748925299 -0.18732448341615179 0 -0.14496415935730611 -0.1865433765957375 0 -0.1288769000074067 -0.1787922372229141 0 -0.13971937495991149 -0.1792470101286355 0 -0.13667151748925299 -0.18732448341615179 0 -0.13461298078871861 -0.16832742380925381 0 -0.13971937495991149 -0.1792470101286355 0 -0.15185728900885839 -0.17281716391360821 0 -0.13971937495991149 -0.1792470101286355 0 -0.14496415935730611 -0.1865433765957375 0 -0.15185728900885839 -0.17281716391360821 0 -0.14496415935730611 -0.1865433765957375 0 -0.15185728900885839 -0.17281716391360821 0 -0.15433817598466459 -0.18776234762491931 0 -0.1483318871288308 -0.14990625910496369 0 -0.13461298078871861 -0.16832742380925381 0 -0.15185728900885839 -0.17281716391360821 0 -0.1483318871288308 -0.14990625910496369 0 -0.15185728900885839 -0.17281716391360821 0 -0.1768933781993007 -0.15369608181255809 0 -0.15185728900885839 -0.17281716391360821 0 -0.16517877359736971 -0.18077311964873491 0 -0.1768933781993007 -0.15369608181255809 0 -0.16517877359736971 -0.18077311964873491 0 -0.15433817598466459 -0.18776234762491931 0 -0.16707343948115469 -0.19329854854562631 0 -0.15185728900885839 -0.17281716391360821 0 -0.16517877359736971 -0.18077311964873491 0 -0.15433817598466459 -0.18776234762491931 0 -0.16517877359736971 -0.18077311964873491 0 -0.17993745220376059 -0.17895489523397801 0 -0.16707343948115469 -0.19329854854562631 0 -0.16517877359736971 -0.18077311964873491 0 -0.17993745220376059 -0.17895489523397801 0 -0.1768933781993007 -0.15369608181255809 0 -0.17993745220376059 -0.17895489523397801 0 -0.1768933781993007 -0.15369608181255809 0 -0.19905977422349169 -0.1755558360643551 0 -0.1768933781993007 -0.15369608181255809 0 -0.17856324423929071 -0.13411692648003359 0 -0.16449988742022109 -0.13664022397910389 0 -0.1768933781993007 -0.15369608181255809 0 -0.17856324423929071 -0.13411692648003359 0 -0.1900158864605431 -0.1418606691544825 0 -0.17856324423929071 -0.13411692648003359 0 -0.1912596026832544 -0.12883579632457359 0 -0.1900158864605431 -0.1418606691544825 0 -0.17856324423929071 -0.13411692648003359 0 -0.1912596026832544 -0.12883579632457359 0 -0.18212358698306741 -0.12142770117184561 0 -0.17856324423929071 -0.13411692648003359 0 -0.18212358698306741 -0.12142770117184561 0 -0.16904936396502779 -0.1225698900008125 0 -0.16449988742022109 -0.13664022397910389 0 -0.16904936396502779 -0.1225698900008125 0 -0.1531014227808439 -0.1221458571451004 0 -0.17856324423929071 -0.13411692648003359 0 -0.16449988742022109 -0.13664022397910389 0 -0.16904936396502779 -0.1225698900008125 0 -0.1483318871288308 -0.14990625910496369 0 -0.1768933781993007 -0.15369608181255809 0 -0.1483318871288308 -0.14990625910496369 0 -0.1768933781993007 -0.15369608181255809 0 -0.16449988742022109 -0.13664022397910389 0 -0.15566934165753701 -0.24482136105764621 0 -0.13482897363606841 -0.24297815366164491 0 -0.14564999181442231 -0.22989611270817639 0 -0.15566934165753701 -0.24482136105764621 0 -0.14564999181442231 -0.22989611270817639 0 -0.16429012863802009 -0.23491512272004891 0 -0.15821309250511281 -0.26118480488572993 0 -0.15566934165753701 -0.24482136105764621 0 -0.13482897363606841 -0.24297815366164491 0 -0.1283361407779757 -0.25159171728621699 0 -0.13482897363606841 -0.24297815366164491 0 -0.1310987251445577 -0.2446583467236331 0 -0.1283361407779757 -0.25159171728621699 0 -0.1310987251445577 -0.2446583467236331 0 -0.1270777831465402 -0.24161244513161839 0 -0.1283361407779757 -0.25159171728621699 0 -0.11992695639240671 -0.24305274461581289 0 -0.1270777831465402 -0.24161244513161839 0 -0.13482897363606841 -0.24297815366164491 0 -0.1310987251445577 -0.2446583467236331 0 -0.1270777831465402 -0.24161244513161839 0 -0.13482897363606841 -0.24297815366164491 0 -0.12594535918601221 -0.23537450645762351 0 -0.1270777831465402 -0.24161244513161839 0 -0.13482897363606841 -0.24297815366164491 0 -0.12964778408632779 -0.2240559515308029 0 -0.14564999181442231 -0.22989611270817639 0 -0.13482897363606841 -0.24297815366164491 0 -0.12594535918601221 -0.23537450645762351 0 -0.12964778408632779 -0.2240559515308029 0 -0.13482897363606841 -0.24297815366164491 0 -0.12964778408632779 -0.2240559515308029 0 -0.12964778408632779 -0.2240559515308029 0 -0.14564999181442231 -0.22989611270817639 0 -0.13906082520362789 -0.21424948005767519 0 -0.14564999181442231 -0.22989611270817639 0 -0.1532157355819776 -0.21469763412746851 0 -0.16429012863802009 -0.23491512272004891 0 -0.14564999181442231 -0.22989611270817639 0 -0.1532157355819776 -0.21469763412746851 0 -0.13906082520362789 -0.21424948005767519 0 -0.1532157355819776 -0.21469763412746851 0 -0.1421413425259351 -0.1944801455348881 0 -0.14344356041104711 -0.20138231805780499 0 -0.1532157355819776 -0.21469763412746851 0 -0.1421413425259351 -0.1944801455348881 0 -0.1532157355819776 -0.21469763412746851 0 -0.13906082520362789 -0.21424948005767519 0 -0.14344356041104711 -0.20138231805780499 0 -0.12964778408632779 -0.2240559515308029 0 -0.13906082520362789 -0.21424948005767519 0 -0.12775347419704111 -0.20670520812175669 0 -0.12446659453658469 -0.2051337493999616 0 -0.12964778408632779 -0.2240559515308029 0 -0.12775347419704111 -0.20670520812175669 0 -0.12446659453658469 -0.2051337493999616 0 -0.12964778408632779 -0.2240559515308029 0 -0.1234142843990034 -0.20129061165398179 0 -0.12775347419704111 -0.20670520812175669 0 -0.1342433848347403 -0.2059710501757869 0 -0.1234142843990034 -0.20129061165398179 0 -0.12446659453658469 -0.2051337493999616 0 -0.12775347419704111 -0.20670520812175669 0 -0.12446659453658469 -0.2051337493999616 0 -0.12775347419704111 -0.20670520812175669 0 -0.13906082520362789 -0.21424948005767519 0 -0.12775347419704111 -0.20670520812175669 0 -0.1342433848347403 -0.2059710501757869 0 -0.13906082520362789 -0.21424948005767519 0 -0.1342433848347403 -0.2059710501757869 0 -0.14344356041104711 -0.20138231805780499 0 -0.13448747671815081 -0.19705371152474219 0 -0.1421413425259351 -0.1944801455348881 0 -0.14344356041104711 -0.20138231805780499 0 -0.1234142843990034 -0.20129061165398179 0 -0.1342433848347403 -0.2059710501757869 0 -0.14344356041104711 -0.20138231805780499 0 -0.1234142843990034 -0.20129061165398179 0 -0.13448747671815081 -0.19705371152474219 0 -0.14344356041104711 -0.20138231805780499 0 -0.1234142843990034 -0.20129061165398179 0 -0.14344356041104711 -0.20138231805780499 0 -0.1234142843990034 -0.20129061165398179 0 -0.13448747671815081 -0.19705371152474219 0 -0.12836978379805469 -0.19505845874684749 0 -0.118443644943155 -0.18313735869921541 0 -0.12836978379805469 -0.19505845874684749 0 -0.12964513627792831 -0.18854704193980709 0 -0.12836978379805469 -0.19505845874684749 0 -0.12964513627792831 -0.18854704193980709 0 -0.1350684124567138 -0.19305702363018909 0 -0.13448747671815081 -0.19705371152474219 0 -0.12836978379805469 -0.19505845874684749 0 -0.1350684124567138 -0.19305702363018909 0 -0.13667151748925299 -0.18732448341615179 0 -0.12964513627792831 -0.18854704193980709 0 -0.1350684124567138 -0.19305702363018909 0 -0.13448747671815081 -0.19705371152474219 0 -0.1350684124567138 -0.19305702363018909 0 -0.1421413425259351 -0.1944801455348881 0 -0.13667151748925299 -0.18732448341615179 0 -0.1350684124567138 -0.19305702363018909 0 -0.1421413425259351 -0.1944801455348881 0 -0.1532157355819776 -0.21469763412746851 0 -0.1421413425259351 -0.1944801455348881 0 -0.15666351948114629 -0.1995899832452937 0 -0.13667151748925299 -0.18732448341615179 0 -0.14496415935730611 -0.1865433765957375 0 -0.1421413425259351 -0.1944801455348881 0 -0.14496415935730611 -0.1865433765957375 0 -0.1421413425259351 -0.1944801455348881 0 -0.15433817598466459 -0.18776234762491931 0 -0.1421413425259351 -0.1944801455348881 0 -0.15433817598466459 -0.18776234762491931 0 -0.15666351948114629 -0.1995899832452937 0 -0.15433817598466459 -0.18776234762491931 0 -0.15666351948114629 -0.1995899832452937 0 -0.16707343948115469 -0.19329854854562631 0 -0.15666351948114629 -0.1995899832452937 0 -0.16707343948115469 -0.19329854854562631 0 -0.16732224548458891 -0.20842311436722119 0 -0.16707343948115469 -0.19329854854562631 0 -0.17975878066101059 -0.20042989322362739 0 -0.16732224548458891 -0.20842311436722119 0 -0.17993745220376059 -0.17895489523397801 0 -0.17975878066101059 -0.20042989322362739 0 -0.19266467917721081 -0.1936257676085566 0 -0.17993745220376059 -0.17895489523397801 0 -0.16707343948115469 -0.19329854854562631 0 -0.17975878066101059 -0.20042989322362739 0 -0.17975878066101059 -0.20042989322362739 0 -0.18070391625864071 -0.21863984915545301 0 -0.19253239785726259 -0.2093467412910768 0 -0.17975878066101059 -0.20042989322362739 0 -0.18070391625864071 -0.21863984915545301 0 -0.16732224548458891 -0.20842311436722119 0 -0.1532157355819776 -0.21469763412746851 0 -0.15666351948114629 -0.1995899832452937 0 -0.16732224548458891 -0.20842311436722119 0 -0.1532157355819776 -0.21469763412746851 0 -0.16732224548458891 -0.20842311436722119 0 -0.16429012863802009 -0.23491512272004891 0 -0.1532157355819776 -0.21469763412746851 0 -0.16429012863802009 -0.23491512272004891 0 -0.18070391625864071 -0.21863984915545301 0 -0.16732224548458891 -0.20842311436722119 0 -0.16429012863802009 -0.23491512272004891 0 -0.18070391625864071 -0.21863984915545301 0 -0.18601458812680871 -0.23629827425452701 0 -0.16429012863802009 -0.23491512272004891 0 -0.18070391625864071 -0.21863984915545301 0 -0.18601458812680871 -0.23629827425452701 0 -0.19270158591305361 -0.22296204550849591 0 -0.17536452169406261 -0.25513261131262932 0 -0.18601458812680871 -0.23629827425452701 0 -0.1971211098569064 -0.2485562144643311 0 -0.17536452169406261 -0.25513261131262932 0 -0.18601458812680871 -0.23629827425452701 0 -0.16429012863802009 -0.23491512272004891 0 -0.17536452169406261 -0.25513261131262932 0 -0.16429012863802009 -0.23491512272004891 0 -0.17536452169406261 -0.25513261131262932 0 -0.15566934165753701 -0.24482136105764621 0 -0.16429012863802009 -0.23491512272004891 0 -0.2040044810152343 -0.23377727090047351 0 -0.22181314593257209 -0.22697511150882529 0 -0.22025275826160279 -0.2471257797298928 0 -0.1971211098569064 -0.2485562144643311 0 -0.2040044810152343 -0.23377727090047351 0 -0.22025275826160279 -0.2471257797298928 0 -0.18601458812680871 -0.23629827425452701 0 -0.1971211098569064 -0.2485562144643311 0 -0.2040044810152343 -0.23377727090047351 0 -0.18601458812680871 -0.23629827425452701 0 -0.19270158591305361 -0.22296204550849591 0 -0.2040044810152343 -0.23377727090047351 0 -0.19270158591305361 -0.22296204550849591 0 -0.20646661184779291 -0.2209366033754204 0 -0.2040044810152343 -0.23377727090047351 0 -0.20646661184779291 -0.2209366033754204 0 -0.2040044810152343 -0.23377727090047351 0 -0.22181314593257209 -0.22697511150882529 0 -0.20646661184779291 -0.2209366033754204 0 -0.22181314593257209 -0.22697511150882529 0 -0.20646661184779291 -0.2209366033754204 0 -0.21966781828876961 -0.21222017746694699 0 -0.22181314593257209 -0.22697511150882529 0 -0.20646661184779291 -0.2209366033754204 0 -0.20611948272011121 -0.20304611138236681 0 -0.21966781828876961 -0.21222017746694699 0 -0.20611948272011121 -0.20304611138236681 0 -0.21897926871800019 -0.19669337567287831 0 -0.21966781828876961 -0.21222017746694699 0 -0.20646661184779291 -0.2209366033754204 0 -0.19253239785726259 -0.2093467412910768 0 -0.20611948272011121 -0.20304611138236681 0 -0.19270158591305361 -0.22296204550849591 0 -0.20646661184779291 -0.2209366033754204 0 -0.19253239785726259 -0.2093467412910768 0 -0.18070391625864071 -0.21863984915545301 0 -0.19270158591305361 -0.22296204550849591 0 -0.19253239785726259 -0.2093467412910768 0 -0.19266467917721081 -0.1936257676085566 0 -0.20611948272011121 -0.20304611138236681 0 -0.2083219237785757 -0.1873320277690235 0 -0.17975878066101059 -0.20042989322362739 0 -0.19253239785726259 -0.2093467412910768 0 -0.19266467917721081 -0.1936257676085566 0 -0.19253239785726259 -0.2093467412910768 0 -0.19266467917721081 -0.1936257676085566 0 -0.20611948272011121 -0.20304611138236681 0 -0.20611948272011121 -0.20304611138236681 0 -0.21897926871800019 -0.19669337567287831 0 -0.2083219237785757 -0.1873320277690235 0 -0.21897926871800019 -0.19669337567287831 0 -0.23230424975577199 -0.20503470769258789 0 -0.23313215691775949 -0.18450877018534409 0 -0.2448317244682672 -0.19494017856122331 0 -0.23230424975577199 -0.20503470769258789 0 -0.23313215691775949 -0.18450877018534409 0 -0.2448317244682672 -0.19494017856122331 0 -0.24405101732391901 -0.2151790953022156 0 -0.23230424975577199 -0.20503470769258789 0 -0.2448317244682672 -0.19494017856122331 0 -0.24405101732391901 -0.2151790953022156 0 -0.24405101732391901 -0.2151790953022156 0 -0.23230424975577199 -0.20503470769258789 0 -0.23232415075836929 -0.22063515516960361 0 -0.23230424975577199 -0.20503470769258789 0 -0.21966781828876961 -0.21222017746694699 0 -0.23232415075836929 -0.22063515516960361 0 -0.21897926871800019 -0.19669337567287831 0 -0.23230424975577199 -0.20503470769258789 0 -0.21966781828876961 -0.21222017746694699 0 -0.21966781828876961 -0.21222017746694699 0 -0.22181314593257209 -0.22697511150882529 0 -0.23232415075836929 -0.22063515516960361 0 -0.22181314593257209 -0.22697511150882529 0 -0.23232415075836929 -0.22063515516960361 0 -0.2371596800173508 -0.23301361964223161 0 -0.22181314593257209 -0.22697511150882529 0 -0.2371596800173508 -0.23301361964223161 0 -0.24405101732391901 -0.2151790953022156 0 -0.24327031017957049 -0.23541801204320789 0 -0.24405101732391901 -0.2151790953022156 0 -0.24327031017957049 -0.23541801204320789 0 -0.25588924886857078 -0.22577026586403889 0 -0.24405101732391901 -0.2151790953022156 0 -0.23232415075836929 -0.22063515516960361 0 -0.23916826383476761 -0.23133706037317611 0 -0.24405101732391901 -0.2151790953022156 0 -0.23916826383476761 -0.23133706037317611 0 -0.24327031017957049 -0.23541801204320789 0 -0.23916826383476761 -0.23133706037317611 0 -0.2371596800173508 -0.23301361964223161 0 -0.24327031017957049 -0.23541801204320789 0 -0.2371596800173508 -0.23301361964223161 0 -0.24327031017957049 -0.23541801204320789 0 -0.23232415075836929 -0.22063515516960361 0 -0.23916826383476761 -0.23133706037317611 0 -0.2371596800173508 -0.23301361964223161 0 -0.23916826383476761 -0.23133706037317611 0 -0.2371596800173508 -0.23301361964223161 0 -0.24233717299785959 -0.25960849866204011 0 -0.24327031017957049 -0.23541801204320789 0 -0.23442911476228809 -0.24683612341654529 0 -0.24233717299785959 -0.25960849866204011 0 -0.24327031017957049 -0.23541801204320789 0 -0.25018128361314113 -0.24746468840205441 0 -0.2371596800173508 -0.23301361964223161 0 -0.24327031017957049 -0.23541801204320789 0 -0.23442911476228809 -0.24683612341654529 0 -0.24233717299785959 -0.25960849866204011 0 -0.24327031017957049 -0.23541801204320789 0 -0.2371596800173508 -0.23301361964223161 0 -0.22025275826160279 -0.2471257797298928 0 -0.2371596800173508 -0.23301361964223161 0 -0.23442911476228809 -0.24683612341654529 0 -0.22025275826160279 -0.2471257797298928 0 -0.22181314593257209 -0.22697511150882529 0 -0.2371596800173508 -0.23301361964223161 0 -0.22025275826160279 -0.2471257797298928 0 -0.21260261997950849 -0.1372892749024191 0 -0.20545486926977061 -0.1574859045201529 0 -0.21260261997950849 -0.1372892749024191 0 -0.20545486926977061 -0.1574859045201529 0 -0.22601880180638709 -0.14497793796819641 0 -0.21260261997950849 -0.1372892749024191 0 -0.20085213665154589 -0.13643960324073179 0 -0.20545486926977061 -0.1574859045201529 0 -0.21260261997950849 -0.1372892749024191 0 -0.2197503706892443 -0.1170926452846846 0 -0.20366324778073339 -0.1226314006036201 0 -0.21260261997950849 -0.1372892749024191 0 -0.2197503706892443 -0.1170926452846846 0 -0.21260261997950849 -0.1372892749024191 0 -0.20085213665154589 -0.13643960324073179 0 -0.20366324778073339 -0.1226314006036201 0 -0.20085213665154589 -0.13643960324073179 0 -0.1912596026832544 -0.12883579632457359 0 -0.20366324778073339 -0.1226314006036201 0 -0.20085213665154589 -0.13643960324073179 0 -0.1912596026832544 -0.12883579632457359 0 -0.1900158864605431 -0.1418606691544825 0 -0.1768933781993007 -0.15369608181255809 0 -0.1900158864605431 -0.1418606691544825 0 -0.20545486926977061 -0.1574859045201529 0 -0.1768933781993007 -0.15369608181255809 0 -0.20545486926977061 -0.1574859045201529 0 -0.20085213665154589 -0.13643960324073179 0 -0.1900158864605431 -0.1418606691544825 0 -0.20545486926977061 -0.1574859045201529 0 -0.1768933781993007 -0.15369608181255809 0 -0.19905977422349169 -0.1755558360643551 0 -0.20545486926977061 -0.1574859045201529 0 -0.19905977422349169 -0.1755558360643551 0 -0.20545486926977061 -0.1574859045201529 0 -0.19266467917721081 -0.1936257676085566 0 -0.19905977422349169 -0.1755558360643551 0 -0.19266467917721081 -0.1936257676085566 0 -0.19905977422349169 -0.1755558360643551 0 -0.2083219237785757 -0.1873320277690235 0 -0.17993745220376059 -0.17895489523397801 0 -0.19266467917721081 -0.1936257676085566 0 -0.19905977422349169 -0.1755558360643551 0 -0.21897926871800019 -0.19669337567287831 0 -0.2083219237785757 -0.1873320277690235 0 -0.21860002285518379 -0.17692462022396371 0 -0.19905977422349169 -0.1755558360643551 0 -0.2083219237785757 -0.1873320277690235 0 -0.21860002285518379 -0.17692462022396371 0 -0.19905977422349169 -0.1755558360643551 0 -0.21860002285518379 -0.17692462022396371 0 -0.20545486926977061 -0.1574859045201529 0 -0.21860002285518379 -0.17692462022396371 0 -0.20545486926977061 -0.1574859045201529 0 -0.2334194436613071 -0.16119652238585741 0 -0.20545486926977061 -0.1574859045201529 0 -0.2334194436613071 -0.16119652238585741 0 -0.21860002285518379 -0.17692462022396371 0 -0.2334194436613071 -0.16119652238585741 0 -0.23313215691775949 -0.18450877018534409 0 -0.21897926871800019 -0.19669337567287831 0 -0.21860002285518379 -0.17692462022396371 0 -0.23313215691775949 -0.18450877018534409 0 -0.2448317244682672 -0.19494017856122331 0 -0.24561243161261531 -0.1747012618202311 0 -0.2448317244682672 -0.19494017856122331 0 -0.23313215691775949 -0.18450877018534409 0 -0.24561243161261531 -0.1747012618202311 0 -0.2334194436613071 -0.16119652238585741 0 -0.23313215691775949 -0.18450877018534409 0 -0.24561243161261531 -0.1747012618202311 0 -0.2334194436613071 -0.16119652238585741 0 -0.24768759332024501 -0.15288591991307249 0 -0.26138401805284373 -0.16490714025156239 0 -0.2334194436613071 -0.16119652238585741 0 -0.24561243161261531 -0.1747012618202311 0 -0.26138401805284373 -0.16490714025156239 0 -0.2334194436613071 -0.16119652238585741 0 -0.26138401805284373 -0.16490714025156239 0 -0.24768759332024501 -0.15288591991307249 0 -0.24035206963199701 -0.13773520297616959 0 -0.25066558347885931 -0.13251764995053431 0 -0.23716828236838119 -0.14842713651880179 0 -0.22601880180638709 -0.14497793796819641 0 -0.24035206963199701 -0.13773520297616959 0 -0.24768759332024501 -0.15288591991307249 0 -0.23716828236838119 -0.14842713651880179 0 -0.24035206963199701 -0.13773520297616959 0 -0.2334194436613071 -0.16119652238585741 0 -0.24768759332024501 -0.15288591991307249 0 -0.23716828236838119 -0.14842713651880179 0 -0.20545486926977061 -0.1574859045201529 0 -0.2334194436613071 -0.16119652238585741 0 -0.22601880180638709 -0.14497793796819641 0 -0.2334194436613071 -0.16119652238585741 0 -0.23716828236838119 -0.14842713651880179 0 -0.22601880180638709 -0.14497793796819641 0 -0.21260261997950849 -0.1372892749024191 0 -0.22701037204806629 -0.12800517972509859 0 -0.2197503706892443 -0.1170926452846846 0 -0.22601880180638709 -0.14497793796819641 0 -0.22701037204806629 -0.12800517972509859 0 -0.24035206963199701 -0.13773520297616959 0 -0.21260261997950849 -0.1372892749024191 0 -0.22601880180638709 -0.14497793796819641 0 -0.22701037204806629 -0.12800517972509859 0 -0.22701037204806629 -0.12800517972509859 0 -0.23833475363582929 -0.12699719077821001 0 -0.24035206963199701 -0.13773520297616959 0 -0.23833475363582929 -0.12699719077821001 0 -0.24035206963199701 -0.13773520297616959 0 -0.25066558347885931 -0.13251764995053431 0 -0.23833475363582929 -0.12699719077821001 0 -0.2466021228926524 -0.1215603100838341 0 -0.25066558347885931 -0.13251764995053431 0 -0.2466021228926524 -0.1215603100838341 0 -0.23420880670407421 -0.115344861449812 0 -0.25028307647261949 -0.1119170655065333 0 -0.23833475363582929 -0.12699719077821001 0 -0.2466021228926524 -0.1215603100838341 0 -0.23420880670407421 -0.115344861449812 0 -0.23975108867161321 -0.096745383671773488 0 -0.23420880670407421 -0.115344861449812 0 -0.25028307647261949 -0.1119170655065333 0 -0.23975108867161321 -0.096745383671773488 0 -0.25028307647261949 -0.1119170655065333 0 -0.25454071313255938 -0.097810231909066098 0 -0.23975108867161321 -0.096745383671773488 0 -0.22550089202944229 -0.1008440162637169 0 -0.23125141336964011 -0.084595387242749231 0 -0.23975108867161321 -0.096745383671773488 0 -0.22550089202944229 -0.1008440162637169 0 -0.23420880670407421 -0.115344861449812 0 -0.22550089202944229 -0.1008440162637169 0 -0.23125141336964011 -0.084595387242749231 0 -0.20770402821161371 -0.098985744105056478 0 -0.22550089202944229 -0.1008440162637169 0 -0.2197503706892443 -0.1170926452846846 0 -0.22550089202944229 -0.1008440162637169 0 -0.2197503706892443 -0.1170926452846846 0 -0.23420880670407421 -0.115344861449812 0 -0.22701037204806629 -0.12800517972509859 0 -0.2197503706892443 -0.1170926452846846 0 -0.22701037204806629 -0.12800517972509859 0 -0.2197503706892443 -0.1170926452846846 0 -0.23420880670407421 -0.115344861449812 0 -0.22701037204806629 -0.12800517972509859 0 -0.23833475363582929 -0.12699719077821001 0 -0.23420880670407421 -0.115344861449812 0 -0.24621250417125429 -0.067242688607955695 0 -0.2359213828018043 -0.071399957410672343 0 -0.2460442741291925 -0.056732515276429897 0 -0.24101683233652779 -0.07862751170581421 0 -0.252754029676304 -0.071454636367457428 0 -0.24621250417125429 -0.067242688607955695 0 -0.24101683233652779 -0.07862751170581421 0 -0.252754029676304 -0.071454636367457428 0 -0.2359213828018043 -0.071399957410672343 0 -0.24101683233652779 -0.07862751170581421 0 -0.24621250417125429 -0.067242688607955695 0 -0.2359213828018043 -0.071399957410672343 0 -0.24101683233652779 -0.07862751170581421 0 -0.24101683233652779 -0.07862751170581421 0 -0.25454071313255938 -0.097810231909066098 0 -0.23975108867161321 -0.096745383671773488 0 -0.24101683233652779 -0.07862751170581421 0 -0.25454071313255938 -0.097810231909066098 0 -0.23975108867161321 -0.096745383671773488 0 -0.24101683233652779 -0.07862751170581421 0 -0.23125141336964011 -0.084595387242749231 0 -0.24101683233652779 -0.07862751170581421 0 -0.23125141336964011 -0.084595387242749231 0 -0.2359213828018043 -0.071399957410672343 0 -0.24101683233652779 -0.07862751170581421 0 -0.23125141336964011 -0.084595387242749231 0 -0.23125141336964011 -0.084595387242749231 0 -0.2244703125416819 -0.072794076224461268 0 -0.21310247649950159 -0.079773441579648038 0 -0.23125141336964011 -0.084595387242749231 0 -0.20770402821161371 -0.098985744105056478 0 -0.22550089202944229 -0.1008440162637169 0 -0.23125141336964011 -0.084595387242749231 0 -0.2359213828018043 -0.071399957410672343 0 -0.2235514570548072 -0.053854045248439182 0 -0.2244703125416819 -0.072794076224461268 0 -0.21482267827762841 -0.069082647852091478 0 -0.2235514570548072 -0.053854045248439182 0 -0.2359213828018043 -0.071399957410672343 0 -0.2244703125416819 -0.072794076224461268 0 -0.2235514570548072 -0.053854045248439182 0 -0.2359213828018043 -0.071399957410672343 0 -0.23125141336964011 -0.084595387242749231 0 -0.2244703125416819 -0.072794076224461268 0 -0.2359213828018043 -0.071399957410672343 0 -0.23125141336964011 -0.084595387242749231 0 -0.20472732395068391 -0.070425609547595483 0 -0.21310247649950159 -0.079773441579648038 0 -0.1942101978544846 -0.078703118630565005 0 -0.21482267827762841 -0.069082647852091478 0 -0.20472732395068391 -0.070425609547595483 0 -0.20783277774853701 -0.056374475910446593 0 -0.2244703125416819 -0.072794076224461268 0 -0.21482267827762841 -0.069082647852091478 0 -0.21310247649950159 -0.079773441579648038 0 -0.21482267827762841 -0.069082647852091478 0 -0.20472732395068391 -0.070425609547595483 0 -0.21310247649950159 -0.079773441579648038 0 -0.23125141336964011 -0.084595387242749231 0 -0.21310247649950159 -0.079773441579648038 0 -0.20770402821161371 -0.098985744105056478 0 -0.21310247649950159 -0.079773441579648038 0 -0.1942101978544846 -0.078703118630565005 0 -0.20770402821161371 -0.098985744105056478 0 -0.1942101978544846 -0.078703118630565005 0 -0.20770402821161371 -0.098985744105056478 0 -0.1942101978544846 -0.078703118630565005 0 -0.20770402821161371 -0.098985744105056478 0 -0.19331927689223261 -0.094690670375105077 0 -0.1942101978544846 -0.078703118630565005 0 -0.19331927689223261 -0.094690670375105077 0 -0.1804061946459036 -0.0975656506999769 0 -0.1942101978544846 -0.078703118630565005 0 -0.1807163674973549 -0.058420493156073998 0 -0.19569491766720151 -0.061370611856350392 0 -0.20472732395068391 -0.070425609547595483 0 -0.1942101978544846 -0.078703118630565005 0 -0.19569491766720151 -0.061370611856350392 0 -0.20472732395068391 -0.070425609547595483 0 -0.19569491766720151 -0.061370611856350392 0 -0.20783277774853701 -0.056374475910446593 0 -0.2197503706892443 -0.1170926452846846 0 -0.20366324778073339 -0.1226314006036201 0 -0.20770402821161371 -0.098985744105056478 0 -0.22550089202944229 -0.1008440162637169 0 -0.2197503706892443 -0.1170926452846846 0 -0.20770402821161371 -0.098985744105056478 0 -0.2197503706892443 -0.1170926452846846 0 -0.20770402821161371 -0.098985744105056478 0 -0.20770402821161371 -0.098985744105056478 0 -0.19331927689223261 -0.094690670375105077 0 -0.18400427859456039 -0.1134692144457318 0 -0.20770402821161371 -0.098985744105056478 0 -0.18400427859456039 -0.1134692144457318 0 -0.20770402821161371 -0.098985744105056478 0 -0.19170728544238649 -0.1194909919475228 0 -0.18400427859456039 -0.1134692144457318 0 -0.20366324778073339 -0.1226314006036201 0 -0.20770402821161371 -0.098985744105056478 0 -0.19170728544238649 -0.1194909919475228 0 -0.1912596026832544 -0.12883579632457359 0 -0.20366324778073339 -0.1226314006036201 0 -0.19170728544238649 -0.1194909919475228 0 -0.1912596026832544 -0.12883579632457359 0 -0.19170728544238649 -0.1194909919475228 0 -0.18212358698306741 -0.12142770117184561 0 -0.18212358698306741 -0.12142770117184561 0 -0.18400427859456039 -0.1134692144457318 0 -0.1804061946459036 -0.0975656506999769 0 -0.18212358698306741 -0.12142770117184561 0 -0.17231042801981861 -0.11010941660198729 0 -0.1804061946459036 -0.0975656506999769 0 -0.19170728544238649 -0.1194909919475228 0 -0.18212358698306741 -0.12142770117184561 0 -0.18400427859456039 -0.1134692144457318 0 -0.18212358698306741 -0.12142770117184561 0 -0.1804061946459036 -0.0975656506999769 0 -0.18212358698306741 -0.12142770117184561 0 -0.17231042801981861 -0.11010941660198729 0 -0.16904936396502779 -0.1225698900008125 0 -0.16904936396502779 -0.1225698900008125 0 -0.16303186383997401 -0.11054530689275879 0 -0.1531014227808439 -0.1221458571451004 0 -0.16303186383997401 -0.11054530689275879 0 -0.1531014227808439 -0.1221458571451004 0 -0.15302467802266631 -0.099964594768007481 0 -0.17231042801981861 -0.11010941660198729 0 -0.16904936396502779 -0.1225698900008125 0 -0.16303186383997401 -0.11054530689275879 0 -0.16694113066512001 -0.098438534244542714 0 -0.1583311292500037 -0.086155785580523059 0 -0.15302467802266631 -0.099964594768007481 0 -0.16303186383997401 -0.11054530689275879 0 -0.16694113066512001 -0.098438534244542714 0 -0.15302467802266631 -0.099964594768007481 0 -0.17231042801981861 -0.11010941660198729 0 -0.16303186383997401 -0.11054530689275879 0 -0.16694113066512001 -0.098438534244542714 0 -0.16694113066512001 -0.098438534244542714 0 -0.1804061946459036 -0.0975656506999769 0 -0.1699979234477183 -0.086164615643162509 0 -0.19331927689223261 -0.094690670375105077 0 -0.18400427859456039 -0.1134692144457318 0 -0.1804061946459036 -0.0975656506999769 0 -0.17231042801981861 -0.11010941660198729 0 -0.16694113066512001 -0.098438534244542714 0 -0.1804061946459036 -0.0975656506999769 0 -0.1942101978544846 -0.078703118630565005 0 -0.1804061946459036 -0.0975656506999769 0 -0.17868880230873979 -0.073703600228108263 0 -0.1804061946459036 -0.0975656506999769 0 -0.17868880230873979 -0.073703600228108263 0 -0.1804061946459036 -0.0975656506999769 0 -0.17868880230873979 -0.073703600228108263 0 -0.1699979234477183 -0.086164615643162509 0 -0.1942101978544846 -0.078703118630565005 0 -0.17868880230873979 -0.073703600228108263 0 -0.1807163674973549 -0.058420493156073998 0 -0.1942101978544846 -0.078703118630565005 0 -0.1807163674973549 -0.058420493156073998 0 -0.17868880230873979 -0.073703600228108263 0 -0.16456215259537851 -0.07423447470758808 0 -0.1687761726195266 -0.062055246708151823 0 -0.16456215259537851 -0.07423447470758808 0 -0.1601060057786266 -0.063048208625582775 0 -0.1687761726195266 -0.062055246708151823 0 -0.17868880230873979 -0.073703600228108263 0 -0.16456215259537851 -0.07423447470758808 0 -0.1699979234477183 -0.086164615643162509 0 -0.16456215259537851 -0.07423447470758808 0 -0.1601060057786266 -0.063048208625582775 0 -0.15147288216765581 -0.074279391460000108 0 -0.16694113066512001 -0.098438534244542714 0 -0.1699979234477183 -0.086164615643162509 0 -0.1583311292500037 -0.086155785580523059 0 -0.16456215259537851 -0.07423447470758808 0 -0.1699979234477183 -0.086164615643162509 0 -0.1583311292500037 -0.086155785580523059 0 -0.16456215259537851 -0.07423447470758808 0 -0.1583311292500037 -0.086155785580523059 0 -0.15147288216765581 -0.074279391460000108 0 -0.1583311292500037 -0.086155785580523059 0 -0.1406917504718985 -0.083199174386461974 0 -0.15147288216765581 -0.074279391460000108 0 -0.1583311292500037 -0.086155785580523059 0 -0.1406917504718985 -0.083199174386461974 0 -0.15302467802266631 -0.099964594768007481 0 -0.1601060057786266 -0.063048208625582775 0 -0.15147288216765581 -0.074279391460000108 0 -0.14916280428309589 -0.053864076679432472 0 -0.15147288216765581 -0.074279391460000108 0 -0.13891648936515211 -0.064472249171247775 0 -0.14916280428309589 -0.053864076679432472 0 -0.1406917504718985 -0.083199174386461974 0 -0.15147288216765581 -0.074279391460000108 0 -0.13891648936515211 -0.064472249171247775 0 -0.12197003300458489 -0.067133964797042034 0 -0.1406917504718985 -0.083199174386461974 0 -0.13891648936515211 -0.064472249171247775 0 -0.121811479392537 -0.084095963505499416 0 -0.12197003300458489 -0.067133964797042034 0 -0.1406917504718985 -0.083199174386461974 0 -0.121811479392537 -0.084095963505499416 0 -0.1406917504718985 -0.083199174386461974 0 -0.13931556210068971 -0.10629227142291391 0 -0.11605893441195141 -0.10185107539240761 0 -0.121811479392537 -0.084095963505499416 0 -0.13931556210068971 -0.10629227142291391 0 -0.11422347955810171 -0.1204243593602408 0 -0.13931556210068971 -0.10629227142291391 0 -0.11422347955810171 -0.1204243593602408 0 -0.13445671698849809 -0.1291024538471422 0 -0.13931556210068971 -0.10629227142291391 0 -0.13445671698849809 -0.1291024538471422 0 -0.13931556210068971 -0.10629227142291391 0 -0.1531014227808439 -0.1221458571451004 0 -0.13931556210068971 -0.10629227142291391 0 -0.1531014227808439 -0.1221458571451004 0 -0.15302467802266631 -0.099964594768007481 0 -0.1406917504718985 -0.083199174386461974 0 -0.13931556210068971 -0.10629227142291391 0 -0.15302467802266631 -0.099964594768007481 0 -0.14079925107272581 -0.02334449083682992 0 -0.15349169287978739 -0.035208883327978051 0 -0.15939520176274349 -0.015620398581745401 0 -0.14079925107272581 -0.02334449083682992 0 -0.14275634286812811 -0.006203461430080404 0 -0.15939520176274349 -0.015620398581745401 0 -0.14275634286812811 -0.006203461430080404 0 -0.15939520176274349 -0.015620398581745401 0 -0.15796117991031841 -0.00029962151665172479 0 -0.14079925107272581 -0.02334449083682992 0 -0.14275634286812811 -0.006203461430080404 0 -0.1278640484455188 -0.012334690821253821 0 -0.14275634286812811 -0.006203461430080404 0 -0.1278640484455188 -0.012334690821253821 0 -0.1273771369441013 0.0023450629401116992 0 -0.12411398995058071 -0.026208981462584841 0 -0.14079925107272581 -0.02334449083682992 0 -0.1278640484455188 -0.012334690821253821 0 -0.12411398995058071 -0.026208981462584841 0 -0.14079925107272581 -0.02334449083682992 0 -0.13241258759658719 -0.044529255409706578 0 -0.13891648936515211 -0.064472249171247775 0 -0.13241258759658719 -0.044529255409706578 0 -0.14916280428309589 -0.053864076679432472 0 -0.12197003300458489 -0.067133964797042034 0 -0.13891648936515211 -0.064472249171247775 0 -0.13241258759658719 -0.044529255409706578 0 -0.14079925107272581 -0.02334449083682992 0 -0.13241258759658719 -0.044529255409706578 0 -0.15349169287978739 -0.035208883327978051 0 -0.14916280428309589 -0.053864076679432472 0 -0.15349169287978739 -0.035208883327978051 0 -0.16249228466986629 -0.048723367468166891 0 -0.13241258759658719 -0.044529255409706578 0 -0.14916280428309589 -0.053864076679432472 0 -0.15349169287978739 -0.035208883327978051 0 -0.15349169287978739 -0.035208883327978051 0 -0.16249228466986629 -0.048723367468166891 0 -0.17525401763441231 -0.025979499284370731 0 -0.16249228466986629 -0.048723367468166891 0 -0.17697140997157609 -0.049841549756239563 0 -0.17525401763441231 -0.025979499284370731 0 -0.1601060057786266 -0.063048208625582775 0 -0.14916280428309589 -0.053864076679432472 0 -0.16249228466986629 -0.048723367468166891 0 -0.1601060057786266 -0.063048208625582775 0 -0.16249228466986629 -0.048723367468166891 0 -0.1687761726195266 -0.062055246708151823 0 -0.16249228466986629 -0.048723367468166891 0 -0.1687761726195266 -0.062055246708151823 0 -0.17697140997157609 -0.049841549756239563 0 -0.17868880230873979 -0.073703600228108263 0 -0.17697140997157609 -0.049841549756239563 0 -0.17868880230873979 -0.073703600228108263 0 -0.17697140997157609 -0.049841549756239563 0 -0.1807163674973549 -0.058420493156073998 0 -0.17868880230873979 -0.073703600228108263 0 -0.1687761726195266 -0.062055246708151823 0 -0.17697140997157609 -0.049841549756239563 0 -0.17697140997157609 -0.049841549756239563 0 -0.187061179232277 -0.050545000195171969 0 -0.1807163674973549 -0.058420493156073998 0 -0.17697140997157609 -0.049841549756239563 0 -0.17525401763441231 -0.025979499284370731 0 -0.17697140997157609 -0.049841549756239563 0 -0.1844822702309237 -0.037308153316215523 0 -0.17525401763441231 -0.025979499284370731 0 -0.17697140997157609 -0.049841549756239563 0 -0.187061179232277 -0.050545000195171969 0 -0.1844822702309237 -0.037308153316215523 0 -0.1844822702309237 -0.037308153316215523 0 -0.17525401763441231 -0.025979499284370731 0 -0.19881160556081021 -0.01876222092397466 0 -0.17525401763441231 -0.025979499284370731 0 -0.17967452986780849 -0.0030086181600807401 0 -0.19881160556081021 -0.01876222092397466 0 -0.15349169287978739 -0.035208883327978051 0 -0.17525401763441231 -0.025979499284370731 0 -0.15939520176274349 -0.015620398581745401 0 -0.17525401763441231 -0.025979499284370731 0 -0.15939520176274349 -0.015620398581745401 0 -0.17967452986780849 -0.0030086181600807401 0 -0.15939520176274349 -0.015620398581745401 0 -0.15796117991031841 -0.00029962151665172479 0 -0.17967452986780849 -0.0030086181600807401 0 -0.17967452986780849 -0.0030086181600807401 0 -0.19881160556081021 -0.01876222092397466 0 -0.20680301002479959 -0.0020434230711429339 0 -0.1844822702309237 -0.037308153316215523 0 -0.19881160556081021 -0.01876222092397466 0 -0.19797908447346779 -0.034540675054344362 0 -0.19881160556081021 -0.01876222092397466 0 -0.19797908447346779 -0.034540675054344362 0 -0.2111815313078087 -0.036308133086206937 0 -0.19881160556081021 -0.01876222092397466 0 -0.2111815313078087 -0.036308133086206937 0 -0.19881160556081021 -0.01876222092397466 0 -0.2111815313078087 -0.036308133086206937 0 -0.21993326537292579 -0.016570742696256829 0 -0.19881160556081021 -0.01876222092397466 0 -0.20680301002479959 -0.0020434230711429339 0 -0.21993326537292579 -0.016570742696256829 0 -0.20680301002479959 -0.0020434230711429339 0 -0.21993326537292579 -0.016570742696256829 0 -0.22850437187820721 0.00061554774341724197 0 -0.187061179232277 -0.050545000195171969 0 -0.1807163674973549 -0.058420493156073998 0 -0.19569491766720151 -0.061370611856350392 0 -0.187061179232277 -0.050545000195171969 0 -0.19569491766720151 -0.061370611856350392 0 -0.1974409307943287 -0.045784192890980333 0 -0.19569491766720151 -0.061370611856350392 0 -0.1974409307943287 -0.045784192890980333 0 -0.20783277774853701 -0.056374475910446593 0 -0.187061179232277 -0.050545000195171969 0 -0.1844822702309237 -0.037308153316215523 0 -0.1974409307943287 -0.045784192890980333 0 -0.1844822702309237 -0.037308153316215523 0 -0.1974409307943287 -0.045784192890980333 0 -0.19797908447346779 -0.034540675054344362 0 -0.1974409307943287 -0.045784192890980333 0 -0.19797908447346779 -0.034540675054344362 0 -0.2111815313078087 -0.036308133086206937 0 -0.1974409307943287 -0.045784192890980333 0 -0.2111815313078087 -0.036308133086206937 0 -0.20783277774853701 -0.056374475910446593 0 -0.2111815313078087 -0.036308133086206937 0 -0.2235514570548072 -0.053854045248439182 0 -0.21482267827762841 -0.069082647852091478 0 -0.20783277774853701 -0.056374475910446593 0 -0.2235514570548072 -0.053854045248439182 0 -0.2111815313078087 -0.036308133086206937 0 -0.20783277774853701 -0.056374475910446593 0 -0.2235514570548072 -0.053854045248439182 0 -0.2359213828018043 -0.071399957410672343 0 -0.2235514570548072 -0.053854045248439182 0 -0.23385975453729951 -0.05448316257834377 0 -0.2235514570548072 -0.053854045248439182 0 -0.23385975453729951 -0.05448316257834377 0 -0.23195090370150159 -0.044148728843497582 0 -0.2111815313078087 -0.036308133086206937 0 -0.23195090370150159 -0.044148728843497582 0 -0.2330954250503823 -0.030605580137893669 0 -0.2111815313078087 -0.036308133086206937 0 -0.2235514570548072 -0.053854045248439182 0 -0.23195090370150159 -0.044148728843497582 0 -0.2440152745910836 -0.048529918810766987 0 -0.25210916638036568 -0.025659880210862549 0 -0.23195090370150159 -0.044148728843497582 0 -0.2440152745910836 -0.048529918810766987 0 -0.2330954250503823 -0.030605580137893669 0 -0.2440152745910836 -0.048529918810766987 0 -0.2330954250503823 -0.030605580137893669 0 -0.25210916638036568 -0.025659880210862549 0 -0.2359213828018043 -0.071399957410672343 0 -0.2440152745910836 -0.048529918810766987 0 -0.2460442741291925 -0.056732515276429897 0 -0.2359213828018043 -0.071399957410672343 0 -0.2440152745910836 -0.048529918810766987 0 -0.2359213828018043 -0.071399957410672343 0 -0.23385975453729951 -0.05448316257834377 0 -0.2440152745910836 -0.048529918810766987 0 -0.23385975453729951 -0.05448316257834377 0 -0.23195090370150159 -0.044148728843497582 0 -0.2440152745910836 -0.048529918810766987 0 -0.2440152745910836 -0.048529918810766987 0 -0.2460442741291925 -0.056732515276429897 0 -0.25586239660102372 -0.042106716883949957 0 -0.21993326537292579 -0.016570742696256829 0 -0.2409228609234593 -0.01213331886889705 0 -0.22850437187820721 0.00061554774341724197 0 -0.21993326537292579 -0.016570742696256829 0 -0.2330954250503823 -0.030605580137893669 0 -0.2409228609234593 -0.01213331886889705 0 -0.2111815313078087 -0.036308133086206937 0 -0.21993326537292579 -0.016570742696256829 0 -0.2330954250503823 -0.030605580137893669 0 -0.2330954250503823 -0.030605580137893669 0 -0.2409228609234593 -0.01213331886889705 0 -0.25210916638036568 -0.025659880210862549 0 -0.2409228609234593 -0.01213331886889705 0 -0.25132042997239518 0.0027134119798401068 0 -0.22850437187820721 0.00061554774341724197 0 -0.2409228609234593 -0.01213331886889705 0 -0.26431478179583978 -0.01186883573312463 0 -0.25132042997239518 0.0027134119798401068 0 -0.2409228609234593 -0.01213331886889705 0 -0.26431478179583978 -0.01186883573312463 0 -0.25210916638036568 -0.025659880210862549 0 -0.26431478179583978 -0.01186883573312463 0 -0.25210916638036568 -0.025659880210862549 0 -0.26885463380623098 -0.032431385670777198 0 -0.26431478179583978 -0.01186883573312463 0 -0.28272693982295583 -0.022072801118422261 0 -0.26885463380623098 -0.032431385670777198 0 -0.26431478179583978 -0.01186883573312463 0 -0.2820771903446922 -0.0013122005201030101 0 -0.28272693982295583 -0.022072801118422261 0 -0.26431478179583978 -0.01186883573312463 0 -0.2820771903446922 -0.0013122005201030101 0 -0.26646431581863778 0.01029557754540468 0 -0.2820771903446922 -0.0013122005201030101 0 -0.29531588189047731 -0.01459302740547606 0 -0.28272693982295583 -0.022072801118422261 0 -0.2820771903446922 -0.0013122005201030101 0 -0.29531588189047731 -0.01459302740547606 0 -0.30047775033007851 -0.00039401612408775783 0 -0.28272693982295583 -0.022072801118422261 0 -0.29548818451705972 -0.026431314805352931 0 -0.29006158744840338 -0.043009214960059237 0 -0.29531588189047731 -0.01459302740547606 0 -0.28272693982295583 -0.022072801118422261 0 -0.29548818451705972 -0.026431314805352931 0 -0.30546101391149699 -0.021623392358951481 0 -0.31536924438116293 -0.015921951660718081 0 -0.31269309410946189 -0.035953378537937578 0 -0.29531588189047731 -0.01459302740547606 0 -0.29548818451705972 -0.026431314805352931 0 -0.30546101391149699 -0.021623392358951481 0 -0.29548818451705972 -0.026431314805352931 0 -0.30546101391149699 -0.021623392358951481 0 -0.30306546886548719 -0.032455918975325043 0 -0.30546101391149699 -0.021623392358951481 0 -0.31269309410946189 -0.035953378537937578 0 -0.30546101391149699 -0.021623392358951481 0 -0.30306546886548719 -0.032455918975325043 0 -0.31269309410946189 -0.035953378537937578 0 -0.30546101391149699 -0.021623392358951481 0 -0.30702321298661528 -0.0098616365840560535 0 -0.31536924438116293 -0.015921951660718081 0 -0.30702321298661528 -0.0098616365840560535 0 -0.30047775033007851 -0.00039401612408775783 0 -0.31849217441985911 0.0032242046289520012 0 -0.29531588189047731 -0.01459302740547606 0 -0.30702321298661528 -0.0098616365840560535 0 -0.30047775033007851 -0.00039401612408775783 0 -0.29531588189047731 -0.01459302740547606 0 -0.30546101391149699 -0.021623392358951481 0 -0.30702321298661528 -0.0098616365840560535 0 -0.30785263576887473 -0.062005008750064983 0 -0.31269309410946189 -0.035953378537937578 0 -0.30785263576887473 -0.062005008750064983 0 -0.29006158744840338 -0.043009214960059237 0 -0.31269309410946189 -0.035953378537937578 0 -0.30306546886548719 -0.032455918975325043 0 -0.29006158744840338 -0.043009214960059237 0 -0.31269309410946189 -0.035953378537937578 0 -0.29006158744840338 -0.043009214960059237 0 -0.31269309410946189 -0.035953378537937578 0 -0.29548818451705972 -0.026431314805352931 0 -0.30306546886548719 -0.032455918975325043 0 -0.29006158744840338 -0.043009214960059237 0 -0.30785263576887473 -0.062005008750064983 0 -0.29006158744840338 -0.043009214960059237 0 -0.29043964680931811 -0.063340758069959313 0 -0.29006158744840338 -0.043009214960059237 0 -0.27571433008302992 -0.061323808156972907 0 -0.29043964680931811 -0.063340758069959313 0 -0.27571433008302992 -0.061323808156972907 0 -0.26805293078879788 -0.049870865118244581 0 -0.25908974683711639 -0.062912752445689821 0 -0.29006158744840338 -0.043009214960059237 0 -0.27571433008302992 -0.061323808156972907 0 -0.26805293078879788 -0.049870865118244581 0 -0.28272693982295583 -0.022072801118422261 0 -0.29006158744840338 -0.043009214960059237 0 -0.26885463380623098 -0.032431385670777198 0 -0.29006158744840338 -0.043009214960059237 0 -0.26805293078879788 -0.049870865118244581 0 -0.29006158744840338 -0.043009214960059237 0 -0.26805293078879788 -0.049870865118244581 0 -0.26885463380623098 -0.032431385670777198 0 -0.2440152745910836 -0.048529918810766987 0 -0.25210916638036568 -0.025659880210862549 0 -0.25586239660102372 -0.042106716883949957 0 -0.26805293078879788 -0.049870865118244581 0 -0.26885463380623098 -0.032431385670777198 0 -0.25586239660102372 -0.042106716883949957 0 -0.25210916638036568 -0.025659880210862549 0 -0.26885463380623098 -0.032431385670777198 0 -0.25586239660102372 -0.042106716883949957 0 -0.2460442741291925 -0.056732515276429897 0 -0.26805293078879788 -0.049870865118244581 0 -0.2460442741291925 -0.056732515276429897 0 -0.26805293078879788 -0.049870865118244581 0 -0.25908974683711639 -0.062912752445689821 0 -0.2460442741291925 -0.056732515276429897 0 -0.26805293078879788 -0.049870865118244581 0 -0.25586239660102372 -0.042106716883949957 0 -0.24621250417125429 -0.067242688607955695 0 -0.2460442741291925 -0.056732515276429897 0 -0.25908974683711639 -0.062912752445689821 0 -0.24621250417125429 -0.067242688607955695 0 -0.25908974683711639 -0.062912752445689821 0 -0.252754029676304 -0.071454636367457428 0 -0.24101683233652779 -0.07862751170581421 0 -0.252754029676304 -0.071454636367457428 0 -0.26402766811367417 -0.083484384069295273 0 -0.25908974683711639 -0.062912752445689821 0 -0.252754029676304 -0.071454636367457428 0 -0.26621243399467659 -0.070844567870559746 0 -0.252754029676304 -0.071454636367457428 0 -0.26402766811367417 -0.083484384069295273 0 -0.26621243399467659 -0.070844567870559746 0 -0.24101683233652779 -0.07862751170581421 0 -0.26402766811367417 -0.083484384069295273 0 -0.25454071313255938 -0.097810231909066098 0 -0.26402766811367417 -0.083484384069295273 0 -0.27094601368544552 -0.10060299140421709 0 -0.28369928052750421 -0.089996057638050242 0 -0.26402766811367417 -0.083484384069295273 0 -0.27947639526325851 -0.075047258313383283 0 -0.28369928052750421 -0.089996057638050242 0 -0.27571433008302992 -0.061323808156972907 0 -0.25908974683711639 -0.062912752445689821 0 -0.26621243399467659 -0.070844567870559746 0 -0.27571433008302992 -0.061323808156972907 0 -0.27947639526325851 -0.075047258313383283 0 -0.26621243399467659 -0.070844567870559746 0 -0.26402766811367417 -0.083484384069295273 0 -0.27947639526325851 -0.075047258313383283 0 -0.26621243399467659 -0.070844567870559746 0 -0.25700205454408459 -0.1228995308742117 0 -0.25028307647261949 -0.1119170655065333 0 -0.26806459392859111 -0.11699295211231781 0 -0.25700205454408459 -0.1228995308742117 0 -0.26806459392859111 -0.11699295211231781 0 -0.26633673802341562 -0.13121143084146969 0 -0.2466021228926524 -0.1215603100838341 0 -0.25700205454408459 -0.1228995308742117 0 -0.25028307647261949 -0.1119170655065333 0 -0.25454071313255938 -0.097810231909066098 0 -0.27094601368544552 -0.10060299140421709 0 -0.26806459392859111 -0.11699295211231781 0 -0.25028307647261949 -0.1119170655065333 0 -0.25454071313255938 -0.097810231909066098 0 -0.26806459392859111 -0.11699295211231781 0 -0.25454071313255938 -0.097810231909066098 0 -0.26806459392859111 -0.11699295211231781 0 -0.26402766811367417 -0.083484384069295273 0 -0.25454071313255938 -0.097810231909066098 0 -0.27094601368544552 -0.10060299140421709 0 -0.27094601368544552 -0.10060299140421709 0 -0.28498588272658609 -0.10953694176986691 0 -0.28369928052750421 -0.089996057638050242 0 -0.27094601368544552 -0.10060299140421709 0 -0.26806459392859111 -0.11699295211231781 0 -0.28498588272658609 -0.10953694176986691 0 -0.26806459392859111 -0.11699295211231781 0 -0.28498588272658609 -0.10953694176986691 0 -0.26633673802341562 -0.13121143084146969 0 -0.28498588272658609 -0.10953694176986691 0 -0.26633673802341562 -0.13121143084146969 0 -0.28390483366507108 -0.12795146285425149 0 -0.28498588272658609 -0.10953694176986691 0 -0.26633673802341562 -0.13121143084146969 0 -0.28498588272658609 -0.10953694176986691 0 -0.29939047470698632 -0.1138850881088251 0 -0.28390483366507108 -0.12795146285425149 0 -0.28498588272658609 -0.10953694176986691 0 -0.29939047470698632 -0.1138850881088251 0 -0.30363502742975002 -0.087862452698258112 0 -0.28498588272658609 -0.10953694176986691 0 -0.28369928052750421 -0.089996057638050242 0 -0.30363502742975002 -0.087862452698258112 0 -0.28498588272658609 -0.10953694176986691 0 -0.30363502742975002 -0.087862452698258112 0 -0.31112038415555038 -0.105912916312301 0 -0.30363502742975002 -0.087862452698258112 0 -0.31872509099925939 -0.09489525911115787 0 -0.29939047470698632 -0.1138850881088251 0 -0.30363502742975002 -0.087862452698258112 0 -0.31112038415555038 -0.105912916312301 0 -0.29939047470698632 -0.1138850881088251 0 -0.30363502742975002 -0.087862452698258112 0 -0.31112038415555038 -0.105912916312301 0 -0.29939047470698632 -0.1138850881088251 0 -0.3108150907057583 -0.123289039988229 0 -0.27571433008302992 -0.061323808156972907 0 -0.27947639526325851 -0.075047258313383283 0 -0.29043964680931811 -0.063340758069959313 0 -0.27947639526325851 -0.075047258313383283 0 -0.29326350469267087 -0.075637034816957854 0 -0.29043964680931811 -0.063340758069959313 0 -0.27947639526325851 -0.075047258313383283 0 -0.29326350469267087 -0.075637034816957854 0 -0.28369928052750421 -0.089996057638050242 0 -0.29326350469267087 -0.075637034816957854 0 -0.28369928052750421 -0.089996057638050242 0 -0.30363502742975002 -0.087862452698258112 0 -0.30363502742975002 -0.087862452698258112 0 -0.3147457864693044 -0.074949258596716542 0 -0.31872509099925939 -0.09489525911115787 0 -0.30363502742975002 -0.087862452698258112 0 -0.3147457864693044 -0.074949258596716542 0 -0.30785263576887473 -0.062005008750064983 0 -0.29326350469267087 -0.075637034816957854 0 -0.30363502742975002 -0.087862452698258112 0 -0.30785263576887473 -0.062005008750064983 0 -0.30363502742975002 -0.087862452698258112 0 -0.3147457864693044 -0.074949258596716542 0 -0.30785263576887473 -0.062005008750064983 0 -0.29326350469267087 -0.075637034816957854 0 -0.29043964680931811 -0.063340758069959313 0 -0.30785263576887473 -0.062005008750064983 0 -0.30363502742975002 -0.087862452698258112 0 -0.3147457864693044 -0.074949258596716542 0 -0.3258565455088529 -0.062036064495169851 0 -0.3147457864693044 -0.074949258596716542 0 -0.33306166037992252 -0.0763126202985034 0 -0.3258565455088529 -0.062036064495169851 0 -0.30785263576887473 -0.062005008750064983 0 -0.3147457864693044 -0.074949258596716542 0 -0.3258565455088529 -0.062036064495169851 0 -0.3147457864693044 -0.074949258596716542 0 -0.32890001459834822 -0.087516828956376788 0 -0.31872509099925939 -0.09489525911115787 0 -0.3147457864693044 -0.074949258596716542 0 -0.32890001459834822 -0.087516828956376788 0 -0.33306166037992252 -0.0763126202985034 0 -0.32890001459834822 -0.087516828956376788 0 -0.34026677525099192 -0.090589176101837157 0 -0.33306166037992252 -0.0763126202985034 0 -0.34026677525099192 -0.090589176101837157 0 -0.33306166037992252 -0.0763126202985034 0 -0.34026677525099192 -0.090589176101837157 0 -0.33306166037992252 -0.0763126202985034 0 -0.34512097989852569 -0.077376017677512551 0 -0.3363426704622316 -0.065040097883454634 0 -0.33306166037992252 -0.0763126202985034 0 -0.34512097989852569 -0.077376017677512551 0 -0.3363426704622316 -0.065040097883454634 0 -0.34775082305034588 -0.06364522302323769 0 -0.34512097989852569 -0.077376017677512551 0 -0.33306166037992252 -0.0763126202985034 0 -0.3258565455088529 -0.062036064495169851 0 -0.3363426704622316 -0.065040097883454634 0 -0.33306166037992252 -0.0763126202985034 0 -0.3258565455088529 -0.062036064495169851 0 -0.31112038415555038 -0.105912916312301 0 -0.3108150907057583 -0.123289039988229 0 -0.32269556115348802 -0.1134475374517785 0 -0.32269556115348802 -0.1134475374517785 0 -0.33213803149032362 -0.1206207689722909 0 -0.32288905220234743 -0.1288405143651869 0 -0.3108150907057583 -0.123289039988229 0 -0.32269556115348802 -0.1134475374517785 0 -0.32288905220234743 -0.1288405143651869 0 -0.32269556115348802 -0.1134475374517785 0 -0.31872509099925939 -0.09489525911115787 0 -0.33360553934550968 -0.1041906416325506 0 -0.31112038415555038 -0.105912916312301 0 -0.32269556115348802 -0.1134475374517785 0 -0.31872509099925939 -0.09489525911115787 0 -0.32890001459834822 -0.087516828956376788 0 -0.31872509099925939 -0.09489525911115787 0 -0.33360553934550968 -0.1041906416325506 0 -0.3434725512788051 -0.1026137903417853 0 -0.33360553934550968 -0.1041906416325506 0 -0.3466874303271234 -0.11958926053505441 0 -0.32890001459834822 -0.087516828956376788 0 -0.34026677525099192 -0.090589176101837157 0 -0.33360553934550968 -0.1041906416325506 0 -0.34026677525099192 -0.090589176101837157 0 -0.3434725512788051 -0.1026137903417853 0 -0.33360553934550968 -0.1041906416325506 0 -0.33360553934550968 -0.1041906416325506 0 -0.33213803149032362 -0.1206207689722909 0 -0.3466874303271234 -0.11958926053505441 0 -0.32269556115348802 -0.1134475374517785 0 -0.33360553934550968 -0.1041906416325506 0 -0.33213803149032362 -0.1206207689722909 0 -0.3466874303271234 -0.11958926053505441 0 -0.36980343247362518 -0.1100922289949047 0 -0.35999293180258313 -0.1258522389537349 0 -0.3466874303271234 -0.11958926053505441 0 -0.35333046019159542 -0.096086083097699004 0 -0.36980343247362518 -0.1100922289949047 0 -0.3434725512788051 -0.1026137903417853 0 -0.3466874303271234 -0.11958926053505441 0 -0.35333046019159542 -0.096086083097699004 0 -0.3466874303271234 -0.11958926053505441 0 -0.35333046019159542 -0.096086083097699004 0 -0.34026677525099192 -0.090589176101837157 0 -0.3434725512788051 -0.1026137903417853 0 -0.35333046019159542 -0.096086083097699004 0 -0.35333046019159542 -0.096086083097699004 0 -0.36980343247362518 -0.1100922289949047 0 -0.37347114863240299 -0.089088331268139143 0 -0.36980343247362518 -0.1100922289949047 0 -0.35999293180258313 -0.1258522389537349 0 -0.37152802352755399 -0.13164580699010159 0 -0.36980343247362518 -0.1100922289949047 0 -0.37152802352755399 -0.13164580699010159 0 -0.38235470820745771 -0.123978498660336 0 -0.34775082305034588 -0.06364522302323769 0 -0.35997349005606738 -0.07258290566034345 0 -0.36099236519079719 -0.058965157594587259 0 -0.34775082305034588 -0.06364522302323769 0 -0.34512097989852569 -0.077376017677512551 0 -0.35997349005606738 -0.07258290566034345 0 -0.35333046019159542 -0.096086083097699004 0 -0.35997349005606738 -0.07258290566034345 0 -0.35333046019159542 -0.096086083097699004 0 -0.34512097989852569 -0.077376017677512551 0 -0.35997349005606738 -0.07258290566034345 0 -0.34026677525099192 -0.090589176101837157 0 -0.35333046019159542 -0.096086083097699004 0 -0.34512097989852569 -0.077376017677512551 0 -0.35333046019159542 -0.096086083097699004 0 -0.37347114863240299 -0.089088331268139143 0 -0.35997349005606738 -0.07258290566034345 0 -0.37347114863240299 -0.089088331268139143 0 -0.35997349005606738 -0.07258290566034345 0 -0.37513495807632252 -0.068027960422620465 0 -0.35997349005606738 -0.07258290566034345 0 -0.36099236519079719 -0.058965157594587259 0 -0.37513495807632252 -0.068027960422620465 0 -0.37357085562444819 -0.050327950541553881 0 -0.36099236519079719 -0.058965157594587259 0 -0.37513495807632252 -0.068027960422620465 0 -0.37357085562444819 -0.050327950541553881 0 -0.36080282922430701 -0.047544586661118063 0 -0.36099236519079719 -0.058965157594587259 0 -0.34775082305034588 -0.06364522302323769 0 -0.36099236519079719 -0.058965157594587259 0 -0.34872123511329239 -0.051662319258650009 0 -0.36080282922430701 -0.047544586661118063 0 -0.36099236519079719 -0.058965157594587259 0 -0.34872123511329239 -0.051662319258650009 0 -0.34775082305034588 -0.06364522302323769 0 -0.34872123511329239 -0.051662319258650009 0 -0.33906118872719399 -0.055758100993783748 0 -0.35023980363822049 -0.040197400203048239 0 -0.3638826905141766 -0.035463803005797899 0 -0.34258176142245139 -0.029723406047678591 0 -0.35023980363822049 -0.040197400203048239 0 -0.34258176142245139 -0.029723406047678591 0 -0.35023980363822049 -0.040197400203048239 0 -0.34258176142245139 -0.029723406047678591 0 -0.33960488145915169 -0.038902248398748569 0 -0.34872123511329239 -0.051662319258650009 0 -0.35023980363822049 -0.040197400203048239 0 -0.33950963895876157 -0.046563850177851397 0 -0.36080282922430701 -0.047544586661118063 0 -0.35023980363822049 -0.040197400203048239 0 -0.3638826905141766 -0.035463803005797899 0 -0.36080282922430701 -0.047544586661118063 0 -0.34872123511329239 -0.051662319258650009 0 -0.35023980363822049 -0.040197400203048239 0 -0.37357085562444819 -0.050327950541553881 0 -0.3638826905141766 -0.035463803005797899 0 -0.38712728366555788 -0.02974425569958293 0 -0.37357085562444819 -0.050327950541553881 0 -0.36080282922430701 -0.047544586661118063 0 -0.3638826905141766 -0.035463803005797899 0 -0.3638826905141766 -0.035463803005797899 0 -0.36897360951007507 -0.015245218881805699 0 -0.38712728366555788 -0.02974425569958293 0 -0.36897360951007507 -0.015245218881805699 0 -0.38465333842141641 -0.0066435457767305304 0 -0.36979036210562988 0.0025511841975563729 0 -0.36897360951007507 -0.015245218881805699 0 -0.35319748844548088 -0.0026450940697062141 0 -0.36979036210562988 0.0025511841975563729 0 -0.36897360951007507 -0.015245218881805699 0 -0.35319748844548088 -0.0026450940697062141 0 -0.36897360951007507 -0.015245218881805699 0 -0.35319748844548088 -0.0026450940697062141 0 -0.34557514790129729 -0.01385186480739395 0 -0.35319748844548088 -0.0026450940697062141 0 -0.34557514790129729 -0.01385186480739395 0 -0.33742136738088668 0.0099550307423931228 0 -0.36897360951007507 -0.015245218881805699 0 -0.34557514790129729 -0.01385186480739395 0 -0.34258176142245139 -0.029723406047678591 0 -0.3638826905141766 -0.035463803005797899 0 -0.36897360951007507 -0.015245218881805699 0 -0.34258176142245139 -0.029723406047678591 0 -0.36897360951007507 -0.015245218881805699 0 -0.34258176142245139 -0.029723406047678591 0 -0.34258176142245139 -0.029723406047678591 0 -0.33053696792115572 -0.013249600709362951 0 -0.34557514790129729 -0.01385186480739395 0 -0.34258176142245139 -0.029723406047678591 0 -0.33053696792115572 -0.013249600709362951 0 -0.34258176142245139 -0.029723406047678591 0 -0.33123792958382192 -0.02655418191443467 0 -0.33053696792115572 -0.013249600709362951 0 -0.33123792958382192 -0.02655418191443467 0 -0.33053696792115572 -0.013249600709362951 0 -0.32518110448499649 -0.02265309324021984 0 -0.33123792958382192 -0.02655418191443467 0 -0.32494971957893121 -0.032132124138264453 0 -0.33294009451157502 -0.035012685436647553 0 -0.34258176142245139 -0.029723406047678591 0 -0.33123792958382192 -0.02655418191443467 0 -0.33294009451157502 -0.035012685436647553 0 -0.33053696792115572 -0.013249600709362951 0 -0.31849217441985911 0.0032242046289520012 0 -0.33742136738088668 0.0099550307423931228 0 -0.34557514790129729 -0.01385186480739395 0 -0.33053696792115572 -0.013249600709362951 0 -0.33742136738088668 0.0099550307423931228 0 -0.30702321298661528 -0.0098616365840560535 0 -0.31536924438116293 -0.015921951660718081 0 -0.31849217441985911 0.0032242046289520012 0 -0.31536924438116293 -0.015921951660718081 0 -0.31849217441985911 0.0032242046289520012 0 -0.33053696792115572 -0.013249600709362951 0 -0.31849217441985911 0.0032242046289520012 0 -0.33053696792115572 -0.013249600709362951 0 -0.31536924438116293 -0.015921951660718081 0 -0.31849217441985911 0.0032242046289520012 0 -0.31536924438116293 -0.015921951660718081 0 -0.31269309410946189 -0.035953378537937578 0 -0.31536924438116293 -0.015921951660718081 0 -0.3196636581113782 -0.026330909640423061 0 -0.31269309410946189 -0.035953378537937578 0 -0.33123792958382192 -0.02655418191443467 0 -0.32518110448499649 -0.02265309324021984 0 -0.32494971957893121 -0.032132124138264453 0 -0.32518110448499649 -0.02265309324021984 0 -0.3196636581113782 -0.026330909640423061 0 -0.32494971957893121 -0.032132124138264453 0 -0.33053696792115572 -0.013249600709362951 0 -0.32518110448499649 -0.02265309324021984 0 -0.31536924438116293 -0.015921951660718081 0 -0.32518110448499649 -0.02265309324021984 0 -0.31536924438116293 -0.015921951660718081 0 -0.3196636581113782 -0.026330909640423061 0 -0.31269309410946189 -0.035953378537937578 0 -0.32494971957893121 -0.032132124138264453 0 -0.3196636581113782 -0.026330909640423061 0 -0.31269309410946189 -0.035953378537937578 0 -0.32494971957893121 -0.032132124138264453 0 -0.32589239144387999 -0.038804272667940308 0 -0.32494971957893121 -0.032132124138264453 0 -0.33294009451157502 -0.035012685436647553 0 -0.31269309410946189 -0.035953378537937578 0 -0.32589239144387999 -0.038804272667940308 0 -0.32494971957893121 -0.032132124138264453 0 -0.31269309410946189 -0.035953378537937578 0 -0.32589239144387999 -0.038804272667940308 0 -0.32612594025468172 -0.0479092750983348 0 -0.31269309410946189 -0.035953378537937578 0 -0.3258565455088529 -0.062036064495169851 0 -0.32612594025468172 -0.0479092750983348 0 -0.30785263576887473 -0.062005008750064983 0 -0.31269309410946189 -0.035953378537937578 0 -0.3258565455088529 -0.062036064495169851 0 -0.31269309410946189 -0.035953378537937578 0 -0.3258565455088529 -0.062036064495169851 0 -0.3258565455088529 -0.062036064495169851 0 -0.32612594025468172 -0.0479092750983348 0 -0.32948021068586231 -0.057824552786275359 0 -0.3258565455088529 -0.062036064495169851 0 -0.32948021068586231 -0.057824552786275359 0 -0.33273312926745618 -0.050000536382928867 0 -0.32948021068586231 -0.057824552786275359 0 -0.33906118872719399 -0.055758100993783748 0 -0.32612594025468172 -0.0479092750983348 0 -0.33273312926745618 -0.050000536382928867 0 -0.32948021068586231 -0.057824552786275359 0 -0.32612594025468172 -0.0479092750983348 0 -0.33273312926745618 -0.050000536382928867 0 -0.33275310876475001 -0.043013900128517107 0 -0.3363426704622316 -0.065040097883454634 0 -0.32948021068586231 -0.057824552786275359 0 -0.33906118872719399 -0.055758100993783748 0 -0.3363426704622316 -0.065040097883454634 0 -0.3258565455088529 -0.062036064495169851 0 -0.32948021068586231 -0.057824552786275359 0 -0.3363426704622316 -0.065040097883454634 0 -0.34775082305034588 -0.06364522302323769 0 -0.33906118872719399 -0.055758100993783748 0 -0.34872123511329239 -0.051662319258650009 0 -0.33906118872719399 -0.055758100993783748 0 -0.33950963895876157 -0.046563850177851397 0 -0.33273312926745618 -0.050000536382928867 0 -0.33906118872719399 -0.055758100993783748 0 -0.33950963895876157 -0.046563850177851397 0 -0.35023980363822049 -0.040197400203048239 0 -0.33950963895876157 -0.046563850177851397 0 -0.33960488145915169 -0.038902248398748569 0 -0.33950963895876157 -0.046563850177851397 0 -0.33960488145915169 -0.038902248398748569 0 -0.33275310876475001 -0.043013900128517107 0 -0.34258176142245139 -0.029723406047678591 0 -0.33294009451157502 -0.035012685436647553 0 -0.34258176142245139 -0.029723406047678591 0 -0.33960488145915169 -0.038902248398748569 0 -0.33294009451157502 -0.035012685436647553 0 -0.32589239144387999 -0.038804272667940308 0 -0.33294009451157502 -0.035012685436647553 0 -0.33275310876475001 -0.043013900128517107 0 -0.33960488145915169 -0.038902248398748569 0 -0.33294009451157502 -0.035012685436647553 0 -0.33275310876475001 -0.043013900128517107 0 -0.32589239144387999 -0.038804272667940308 0 -0.32612594025468172 -0.0479092750983348 0 -0.33275310876475001 -0.043013900128517107 0 -0.33273312926745618 -0.050000536382928867 0 -0.33950963895876157 -0.046563850177851397 0 -0.33275310876475001 -0.043013900128517107 0 -0.3072444938386063 -0.24298546540808871 0 -0.29465074886808879 -0.2402547820199166 0 -0.31547147842988582 -0.2330670094454039 0 -0.29465074886808879 -0.2402547820199166 0 -0.31547147842988582 -0.2330670094454039 0 -0.31283906540333922 -0.25031215033235238 0 -0.3072444938386063 -0.24298546540808871 0 -0.31547147842988582 -0.2330670094454039 0 -0.29948497002523827 -0.2483657822867901 0 -0.3072444938386063 -0.24298546540808871 0 -0.29465074886808879 -0.2402547820199166 0 -0.29948497002523827 -0.2483657822867901 0 -0.3072444938386063 -0.24298546540808871 0 -0.30623861516307299 -0.24935013043731349 0 -0.31283906540333922 -0.25031215033235238 0 -0.3072444938386063 -0.24298546540808871 0 -0.30623861516307299 -0.24935013043731349 0 -0.30340245666429422 -0.2199120115188499 0 -0.29465074886808879 -0.2402547820199166 0 -0.31547147842988582 -0.2330670094454039 0 -0.30340245666429422 -0.2199120115188499 0 -0.31790591229007997 -0.21133065133653661 0 -0.31547147842988582 -0.2330670094454039 0 -0.30340245666429422 -0.2199120115188499 0 -0.29465074886808879 -0.2402547820199166 0 -0.28241226381596191 -0.21797562975109799 0 -0.29465074886808879 -0.2402547820199166 0 -0.27816771109320582 -0.2439982651616662 0 -0.28241226381596191 -0.21797562975109799 0 -0.29465074886808879 -0.2402547820199166 0 -0.27383001930629169 -0.24744255459442921 0 -0.28942662192718172 -0.25357945894426132 0 -0.29465074886808879 -0.2402547820199166 0 -0.27383001930629169 -0.24744255459442921 0 -0.29465074886808879 -0.2402547820199166 0 -0.27816771109320582 -0.2439982651616662 0 -0.27383001930629169 -0.24744255459442921 0 -0.28942662192718172 -0.25357945894426132 0 -0.29948497002523827 -0.2483657822867901 0 -0.29465074886808879 -0.2402547820199166 0 -0.27816771109320582 -0.2439982651616662 0 -0.27383001930629169 -0.24744255459442921 0 -0.26926560585898118 -0.2360615599669478 0 -0.27383001930629169 -0.24744255459442921 0 -0.26926560585898118 -0.2360615599669478 0 -0.25855016474293108 -0.24143028331881861 0 -0.27383001930629169 -0.24744255459442921 0 -0.25855016474293108 -0.24143028331881861 0 -0.2565674865322034 -0.25340195958415102 0 -0.27383001930629169 -0.24744255459442921 0 -0.25855016474293108 -0.24143028331881861 0 -0.26926560585898118 -0.2360615599669478 0 -0.25855016474293108 -0.24143028331881861 0 -0.25588924886857078 -0.22577026586403889 0 -0.24327031017957049 -0.23541801204320789 0 -0.25855016474293108 -0.24143028331881861 0 -0.24327031017957049 -0.23541801204320789 0 -0.25855016474293108 -0.24143028331881861 0 -0.25018128361314113 -0.24746468840205441 0 -0.2565674865322034 -0.25340195958415102 0 -0.25855016474293108 -0.24143028331881861 0 -0.25018128361314113 -0.24746468840205441 0 -0.24327031017957049 -0.23541801204320789 0 -0.25855016474293108 -0.24143028331881861 0 -0.25588924886857078 -0.22577026586403889 0 -0.26926560585898118 -0.2360615599669478 0 -0.25588924886857078 -0.22577026586403889 0 -0.26783798195298542 -0.22189041659364681 0 -0.27816771109320582 -0.2439982651616662 0 -0.26926560585898118 -0.2360615599669478 0 -0.28241226381596191 -0.21797562975109799 0 -0.26926560585898118 -0.2360615599669478 0 -0.26783798195298542 -0.22189041659364681 0 -0.28241226381596191 -0.21797562975109799 0 -0.27816771109320582 -0.2439982651616662 0 -0.28241226381596191 -0.21797562975109799 0 -0.26378480926842768 -0.2077542107925027 0 -0.286656816538718 -0.19195299434052959 0 -0.28241226381596191 -0.21797562975109799 0 -0.26783798195298542 -0.22189041659364681 0 -0.26378480926842768 -0.2077542107925027 0 -0.28241226381596191 -0.21797562975109799 0 -0.25588924886857078 -0.22577026586403889 0 -0.26783798195298542 -0.22189041659364681 0 -0.26378480926842768 -0.2077542107925027 0 -0.2448317244682672 -0.19494017856122331 0 -0.24405101732391901 -0.2151790953022156 0 -0.26378480926842768 -0.2077542107925027 0 -0.24405101732391901 -0.2151790953022156 0 -0.25588924886857078 -0.22577026586403889 0 -0.26378480926842768 -0.2077542107925027 0 -0.2448317244682672 -0.19494017856122331 0 -0.26378480926842768 -0.2077542107925027 0 -0.26312512204060101 -0.18530650416748581 0 -0.26378480926842768 -0.2077542107925027 0 -0.286656816538718 -0.19195299434052959 0 -0.26312512204060101 -0.18530650416748581 0 -0.286656816538718 -0.19195299434052959 0 -0.28241226381596191 -0.21797562975109799 0 -0.30591086076688379 -0.19847336016990141 0 -0.286656816538718 -0.19195299434052959 0 -0.28241226381596191 -0.21797562975109799 0 -0.30340245666429422 -0.2199120115188499 0 -0.28241226381596191 -0.21797562975109799 0 -0.30591086076688379 -0.19847336016990141 0 -0.30340245666429422 -0.2199120115188499 0 -0.30591086076688379 -0.19847336016990141 0 -0.31790591229007997 -0.21133065133653661 0 -0.286656816538718 -0.19195299434052959 0 -0.30591086076688379 -0.19847336016990141 0 -0.31180552805921091 -0.17430838359622669 0 -0.31180552805921091 -0.17430838359622669 0 -0.29090136926147409 -0.16593035892996141 0 -0.30878195228896921 -0.15303576335633209 0 -0.286656816538718 -0.19195299434052959 0 -0.29090136926147409 -0.16593035892996141 0 -0.286656816538718 -0.19195299434052959 0 -0.31180552805921091 -0.17430838359622669 0 -0.29090136926147409 -0.16593035892996141 0 -0.286656816538718 -0.19195299434052959 0 -0.29090136926147409 -0.16593035892996141 0 -0.27584707269233227 -0.1739466899300364 0 -0.27584707269233227 -0.1739466899300364 0 -0.26312512204060101 -0.18530650416748581 0 -0.26138401805284373 -0.16490714025156239 0 -0.286656816538718 -0.19195299434052959 0 -0.27584707269233227 -0.1739466899300364 0 -0.26312512204060101 -0.18530650416748581 0 -0.2448317244682672 -0.19494017856122331 0 -0.24561243161261531 -0.1747012618202311 0 -0.26312512204060101 -0.18530650416748581 0 -0.24561243161261531 -0.1747012618202311 0 -0.26312512204060101 -0.18530650416748581 0 -0.26138401805284373 -0.16490714025156239 0 -0.27584707269233227 -0.1739466899300364 0 -0.26138401805284373 -0.16490714025156239 0 -0.27641132505293098 -0.14990407015019561 0 -0.29090136926147409 -0.16593035892996141 0 -0.27584707269233227 -0.1739466899300364 0 -0.27641132505293098 -0.14990407015019561 0 -0.27641132505293098 -0.14990407015019561 0 -0.26295491861235881 -0.14972714028907499 0 -0.26633673802341562 -0.13121143084146969 0 -0.26138401805284373 -0.16490714025156239 0 -0.27641132505293098 -0.14990407015019561 0 -0.26295491861235881 -0.14972714028907499 0 -0.24768759332024501 -0.15288591991307249 0 -0.26633673802341562 -0.13121143084146969 0 -0.24768759332024501 -0.15288591991307249 0 -0.26295491861235881 -0.14972714028907499 0 -0.26633673802341562 -0.13121143084146969 0 -0.24768759332024501 -0.15288591991307249 0 -0.26138401805284373 -0.16490714025156239 0 -0.26295491861235881 -0.14972714028907499 0 -0.25700205454408459 -0.1228995308742117 0 -0.25066558347885931 -0.13251764995053431 0 -0.26633673802341562 -0.13121143084146969 0 -0.24768759332024501 -0.15288591991307249 0 -0.25066558347885931 -0.13251764995053431 0 -0.26633673802341562 -0.13121143084146969 0 -0.2466021228926524 -0.1215603100838341 0 -0.25700205454408459 -0.1228995308742117 0 -0.25066558347885931 -0.13251764995053431 0 -0.27641132505293098 -0.14990407015019561 0 -0.26633673802341562 -0.13121143084146969 0 -0.28390483366507108 -0.12795146285425149 0 -0.27641132505293098 -0.14990407015019561 0 -0.29514592198423018 -0.13990772351939329 0 -0.28390483366507108 -0.12795146285425149 0 -0.29939047470698632 -0.1138850881088251 0 -0.29514592198423018 -0.13990772351939329 0 -0.28390483366507108 -0.12795146285425149 0 -0.29090136926147409 -0.16593035892996141 0 -0.27641132505293098 -0.14990407015019561 0 -0.29514592198423018 -0.13990772351939329 0 -0.29090136926147409 -0.16593035892996141 0 -0.29514592198423018 -0.13990772351939329 0 -0.29514592198423018 -0.13990772351939329 0 -0.30878195228896921 -0.15303576335633209 0 -0.31204687939749698 -0.1371714365216575 0 -0.29090136926147409 -0.16593035892996141 0 -0.29514592198423018 -0.13990772351939329 0 -0.30878195228896921 -0.15303576335633209 0 -0.3108150907057583 -0.123289039988229 0 -0.29514592198423018 -0.13990772351939329 0 -0.31204687939749698 -0.1371714365216575 0 -0.29939047470698632 -0.1138850881088251 0 -0.3108150907057583 -0.123289039988229 0 -0.29514592198423018 -0.13990772351939329 0 -0.29939047470698632 -0.1138850881088251 0 -0.29514592198423018 -0.13990772351939329 0 -0.32288905220234743 -0.1288405143651869 0 -0.32258299715563782 -0.14068177926995709 0 -0.33321030378869931 -0.13646686722665249 0 -0.3108150907057583 -0.123289039988229 0 -0.31204687939749698 -0.1371714365216575 0 -0.32288905220234743 -0.1288405143651869 0 -0.31204687939749698 -0.1371714365216575 0 -0.32288905220234743 -0.1288405143651869 0 -0.32258299715563782 -0.14068177926995709 0 -0.30878195228896921 -0.15303576335633209 0 -0.32482557091518699 -0.15217937608711771 0 -0.32258299715563782 -0.14068177926995709 0 -0.30878195228896921 -0.15303576335633209 0 -0.31204687939749698 -0.1371714365216575 0 -0.32258299715563782 -0.14068177926995709 0 -0.32482557091518699 -0.15217937608711771 0 -0.32258299715563782 -0.14068177926995709 0 -0.33321030378869931 -0.13646686722665249 0 -0.32482557091518699 -0.15217937608711771 0 -0.34004440046265172 -0.14309243797241011 0 -0.33321030378869931 -0.13646686722665249 0 -0.34004440046265172 -0.14309243797241011 0 -0.35498504575946821 -0.15757720561970059 0 -0.3332048416520596 -0.1672909388971599 0 -0.34004440046265172 -0.14309243797241011 0 -0.3332048416520596 -0.1672909388971599 0 -0.32482557091518699 -0.15217937608711771 0 -0.34004440046265172 -0.14309243797241011 0 -0.3332048416520596 -0.1672909388971599 0 -0.3466874303271234 -0.11958926053505441 0 -0.34004440046265172 -0.14309243797241011 0 -0.33213803149032362 -0.1206207689722909 0 -0.32288905220234743 -0.1288405143651869 0 -0.33321030378869931 -0.13646686722665249 0 -0.33213803149032362 -0.1206207689722909 0 -0.3466874303271234 -0.11958926053505441 0 -0.33321030378869931 -0.13646686722665249 0 -0.3466874303271234 -0.11958926053505441 0 -0.34004440046265172 -0.14309243797241011 0 -0.33321030378869931 -0.13646686722665249 0 -0.34004440046265172 -0.14309243797241011 0 -0.33321030378869931 -0.13646686722665249 0 -0.3466874303271234 -0.11958926053505441 0 -0.35676717686891291 -0.14006723761877321 0 -0.35999293180258313 -0.1258522389537349 0 -0.3466874303271234 -0.11958926053505441 0 -0.34004440046265172 -0.14309243797241011 0 -0.35676717686891291 -0.14006723761877321 0 -0.35676717686891291 -0.14006723761877321 0 -0.37152802352755399 -0.13164580699010159 0 -0.37069541475874412 -0.1487336244607225 0 -0.35676717686891291 -0.14006723761877321 0 -0.35999293180258313 -0.1258522389537349 0 -0.37152802352755399 -0.13164580699010159 0 -0.35676717686891291 -0.14006723761877321 0 -0.37069541475874412 -0.1487336244607225 0 -0.35498504575946821 -0.15757720561970059 0 -0.37069541475874412 -0.1487336244607225 0 -0.35498504575946821 -0.15757720561970059 0 -0.37692746124962329 -0.16011968929401549 0 -0.37152802352755399 -0.13164580699010159 0 -0.37069541475874412 -0.1487336244607225 0 -0.38190833683646341 -0.1417380771930716 0 -0.34004440046265172 -0.14309243797241011 0 -0.35676717686891291 -0.14006723761877321 0 -0.35498504575946821 -0.15757720561970059 0 -0.34004440046265172 -0.14309243797241011 0 -0.35498504575946821 -0.15757720561970059 0 -0.35102499454429859 -0.17065527247529391 0 -0.35498504575946821 -0.15757720561970059 0 -0.36992569105628492 -0.1720619732669908 0 -0.35102499454429859 -0.17065527247529391 0 -0.35498504575946821 -0.15757720561970059 0 -0.3332048416520596 -0.1672909388971599 0 -0.35498504575946821 -0.15757720561970059 0 -0.36992569105628492 -0.1720619732669908 0 -0.37692746124962329 -0.16011968929401549 0 -0.35498504575946821 -0.15757720561970059 0 -0.36992569105628492 -0.1720619732669908 0 -0.36802329911298681 -0.18587483615006681 0 -0.36992569105628492 -0.1720619732669908 0 -0.38452179946839471 -0.1862127167391712 0 -0.36802329911298681 -0.18587483615006681 0 -0.36992569105628492 -0.1720619732669908 0 -0.34598439970938172 -0.18569097211732419 0 -0.35102499454429859 -0.17065527247529391 0 -0.36992569105628492 -0.1720619732669908 0 -0.34598439970938172 -0.18569097211732419 0 -0.36992569105628492 -0.1720619732669908 0 -0.34598439970938172 -0.18569097211732419 0 -0.35102499454429859 -0.17065527247529391 0 -0.34598439970938172 -0.18569097211732419 0 -0.3332048416520596 -0.1672909388971599 0 -0.34598439970938172 -0.18569097211732419 0 -0.3332048416520596 -0.1672909388971599 0 -0.32636528284146782 -0.19148943982190991 0 -0.3332048416520596 -0.1672909388971599 0 -0.32636528284146782 -0.19148943982190991 0 -0.31180552805921091 -0.17430838359622669 0 -0.32482557091518699 -0.15217937608711771 0 -0.3332048416520596 -0.1672909388971599 0 -0.31180552805921091 -0.17430838359622669 0 -0.30878195228896921 -0.15303576335633209 0 -0.32482557091518699 -0.15217937608711771 0 -0.31180552805921091 -0.17430838359622669 0 -0.3332048416520596 -0.1672909388971599 0 -0.32636528284146782 -0.19148943982190991 0 -0.30591086076688379 -0.19847336016990141 0 -0.32636528284146782 -0.19148943982190991 0 -0.31790591229007997 -0.21133065133653661 0 -0.30591086076688379 -0.19847336016990141 0 -0.31180552805921091 -0.17430838359622669 0 -0.32636528284146782 -0.19148943982190991 0 -0.32636528284146782 -0.19148943982190991 0 -0.31790591229007997 -0.21133065133653661 0 -0.33039187961118982 -0.20742389982875531 0 -0.31790591229007997 -0.21133065133653661 0 -0.33039187961118982 -0.20742389982875531 0 -0.32870803705144969 -0.21844997174213321 0 -0.33039187961118982 -0.20742389982875531 0 -0.32870803705144969 -0.21844997174213321 0 -0.33850246058748812 -0.21389845468103499 0 -0.32870803705144969 -0.21844997174213321 0 -0.33850246058748812 -0.21389845468103499 0 -0.33596699493009807 -0.21993263715474329 0 -0.33850246058748812 -0.21389845468103499 0 -0.34687159193856038 -0.2183762197826761 0 -0.3403652740897718 -0.22150288532491411 0 -0.33850246058748812 -0.21389845468103499 0 -0.3403652740897718 -0.22150288532491411 0 -0.33596699493009807 -0.21993263715474329 0 -0.33039187961118982 -0.20742389982875531 0 -0.33850246058748812 -0.21389845468103499 0 -0.34047770528546362 -0.2019509815621614 0 -0.33850246058748812 -0.21389845468103499 0 -0.34047770528546362 -0.2019509815621614 0 -0.34737571748628571 -0.2101963969508848 0 -0.34598439970938172 -0.18569097211732419 0 -0.32636528284146782 -0.19148943982190991 0 -0.34047770528546362 -0.2019509815621614 0 -0.32636528284146782 -0.19148943982190991 0 -0.33039187961118982 -0.20742389982875531 0 -0.34047770528546362 -0.2019509815621614 0 -0.34598439970938172 -0.18569097211732419 0 -0.35303310702934909 -0.20231631441727971 0 -0.36343771537771569 -0.19566750525459251 0 -0.34598439970938172 -0.18569097211732419 0 -0.34047770528546362 -0.2019509815621614 0 -0.35303310702934909 -0.20231631441727971 0 -0.36802329911298681 -0.18587483615006681 0 -0.34598439970938172 -0.18569097211732419 0 -0.36343771537771569 -0.19566750525459251 0 -0.35303310702934909 -0.20231631441727971 0 -0.36343771537771569 -0.19566750525459251 0 -0.36388592792924168 -0.20758305467352059 0 -0.36343771537771569 -0.19566750525459251 0 -0.37301156641091737 -0.20337184000283479 0 -0.36388592792924168 -0.20758305467352059 0 -0.36343771537771569 -0.19566750525459251 0 -0.37438048369549509 -0.19384422148204511 0 -0.37301156641091737 -0.20337184000283479 0 -0.36802329911298681 -0.18587483615006681 0 -0.36343771537771569 -0.19566750525459251 0 -0.37438048369549509 -0.19384422148204511 0 -0.37273312771996808 -0.21396345107145709 0 -0.37301156641091737 -0.20337184000283479 0 -0.36388592792924168 -0.20758305467352059 0 -0.37273312771996808 -0.21396345107145709 0 -0.36388592792924168 -0.20758305467352059 0 -0.36460053442081081 -0.21946742083422599 0 -0.36388592792924168 -0.20758305467352059 0 -0.35626724818121019 -0.21440977701126371 0 -0.36460053442081081 -0.21946742083422599 0 -0.35626724818121019 -0.21440977701126371 0 -0.34687159193856038 -0.2183762197826761 0 -0.35361393690670712 -0.22275298964725909 0 -0.35303310702934909 -0.20231631441727971 0 -0.36388592792924168 -0.20758305467352059 0 -0.35626724818121019 -0.21440977701126371 0 -0.35303310702934909 -0.20231631441727971 0 -0.35626724818121019 -0.21440977701126371 0 -0.34737571748628571 -0.2101963969508848 0 -0.34047770528546362 -0.2019509815621614 0 -0.35303310702934909 -0.20231631441727971 0 -0.34737571748628571 -0.2101963969508848 0 -0.33850246058748812 -0.21389845468103499 0 -0.34737571748628571 -0.2101963969508848 0 -0.34687159193856038 -0.2183762197826761 0 -0.35626724818121019 -0.21440977701126371 0 -0.34737571748628571 -0.2101963969508848 0 -0.34687159193856038 -0.2183762197826761 0 -0.34687159193856038 -0.2183762197826761 0 -0.3448729074691318 -0.22568858673477191 0 -0.3403652740897718 -0.22150288532491411 0 -0.34687159193856038 -0.2183762197826761 0 -0.3448729074691318 -0.22568858673477191 0 -0.35361393690670712 -0.22275298964725909 0 -0.3448729074691318 -0.22568858673477191 0 -0.35311939258201253 -0.23120947699362049 0 -0.35361393690670712 -0.22275298964725909 0 -0.3448729074691318 -0.22568858673477191 0 -0.35311939258201253 -0.23120947699362049 0 -0.3466300329275056 -0.23782645962689411 0 -0.35311939258201253 -0.23120947699362049 0 -0.35361393690670712 -0.22275298964725909 0 -0.36278739720748587 -0.22937453583313699 0 -0.35311939258201253 -0.23120947699362049 0 -0.36278739720748587 -0.22937453583313699 0 -0.35743223323550471 -0.2390192939344549 0 -0.35626724818121019 -0.21440977701126371 0 -0.35361393690670712 -0.22275298964725909 0 -0.36460053442081081 -0.21946742083422599 0 -0.36460053442081081 -0.21946742083422599 0 -0.36278739720748587 -0.22937453583313699 0 -0.37306962678156358 -0.22430756502184571 0 -0.35361393690670712 -0.22275298964725909 0 -0.36460053442081081 -0.21946742083422599 0 -0.36278739720748587 -0.22937453583313699 0 -0.36278739720748587 -0.22937453583313699 0 -0.37393716339703942 -0.23401667981853819 0 -0.37306962678156358 -0.22430756502184571 0 -0.36278739720748587 -0.22937453583313699 0 -0.37393716339703942 -0.23401667981853819 0 -0.36594725961251939 -0.23889039006825119 0 -0.37273312771996808 -0.21396345107145709 0 -0.36460053442081081 -0.21946742083422599 0 -0.37306962678156358 -0.22430756502184571 0 -0.37393540655460039 -0.25504906339868932 0 -0.37362469669529808 -0.24416340610428999 0 -0.363557814049559 -0.2486896754833777 0 -0.37362469669529808 -0.24416340610428999 0 -0.36594725961251939 -0.23889039006825119 0 -0.363557814049559 -0.2486896754833777 0 -0.37393716339703942 -0.23401667981853819 0 -0.37362469669529808 -0.24416340610428999 0 -0.36594725961251939 -0.23889039006825119 0 -0.36278739720748587 -0.22937453583313699 0 -0.36594725961251939 -0.23889039006825119 0 -0.35743223323550471 -0.2390192939344549 0 -0.36594725961251939 -0.23889039006825119 0 -0.363557814049559 -0.2486896754833777 0 -0.35743223323550471 -0.2390192939344549 0 -0.363557814049559 -0.2486896754833777 0 -0.35255150303394622 -0.24812522560144931 0 -0.35743223323550471 -0.2390192939344549 0 -0.35311939258201253 -0.23120947699362049 0 -0.35743223323550471 -0.2390192939344549 0 -0.3466300329275056 -0.23782645962689411 0 -0.35255150303394622 -0.24812522560144931 0 -0.35743223323550471 -0.2390192939344549 0 -0.3466300329275056 -0.23782645962689411 0 -0.35255150303394622 -0.24812522560144931 0 -0.3466300329275056 -0.23782645962689411 0 -0.3420777495351906 -0.24844208584564559 0 -0.33131030172746923 -0.25321851497678438 0 -0.33373364759712132 -0.2373308373461466 0 -0.32202724095639168 -0.2495658441092535 0 -0.33131030172746923 -0.25321851497678438 0 -0.33373364759712132 -0.2373308373461466 0 -0.33131030172746923 -0.25321851497678438 0 -0.3420777495351906 -0.24844208584564559 0 -0.33373364759712132 -0.2373308373461466 0 -0.3466300329275056 -0.23782645962689411 0 -0.3420777495351906 -0.24844208584564559 0 -0.33373364759712132 -0.2373308373461466 0 -0.3448729074691318 -0.22568858673477191 0 -0.33373364759712132 -0.2373308373461466 0 -0.33513500532203722 -0.22814340766163391 0 -0.3448729074691318 -0.22568858673477191 0 -0.33373364759712132 -0.2373308373461466 0 -0.3448729074691318 -0.22568858673477191 0 -0.3466300329275056 -0.23782645962689411 0 -0.33373364759712132 -0.2373308373461466 0 -0.3362922079916828 -0.22587923687089109 0 -0.33513500532203722 -0.22814340766163391 0 -0.31547147842988582 -0.2330670094454039 0 -0.3448729074691318 -0.22568858673477191 0 -0.3362922079916828 -0.22587923687089109 0 -0.33513500532203722 -0.22814340766163391 0 -0.3448729074691318 -0.22568858673477191 0 -0.3403652740897718 -0.22150288532491411 0 -0.3362922079916828 -0.22587923687089109 0 -0.3403652740897718 -0.22150288532491411 0 -0.3362922079916828 -0.22587923687089109 0 -0.33596699493009807 -0.21993263715474329 0 -0.32870803705144969 -0.21844997174213321 0 -0.3362922079916828 -0.22587923687089109 0 -0.33596699493009807 -0.21993263715474329 0 -0.33373364759712132 -0.2373308373461466 0 -0.33513500532203722 -0.22814340766163391 0 -0.31790591229007997 -0.21133065133653661 0 -0.32870803705144969 -0.21844997174213321 0 -0.31547147842988582 -0.2330670094454039 0 -0.3362922079916828 -0.22587923687089109 0 -0.31547147842988582 -0.2330670094454039 0 -0.32870803705144969 -0.21844997174213321 0 -0.3362922079916828 -0.22587923687089109 0 -0.31547147842988582 -0.2330670094454039 0 -0.33373364759712132 -0.2373308373461466 0 -0.33513500532203722 -0.22814340766163391 0 -0.31547147842988582 -0.2330670094454039 0 -0.33373364759712132 -0.2373308373461466 0 -0.31547147842988582 -0.2330670094454039 0 -0.32202724095639168 -0.2495658441092535 0 -0.31283906540333922 -0.25031215033235238 0 -0.31547147842988582 -0.2330670094454039 0 -0.32202724095639168 -0.2495658441092535 0 -0.33373364759712132 -0.2373308373461466 0 -0.32202724095639168 -0.2495658441092535 0 -0.42931567121415071 -0.25028064732030619 0 -0.41974440223132548 -0.2277223948390894 0 -0.42931567121415071 -0.25028064732030619 0 -0.43665732485841618 -0.24137016429136929 0 -0.41974440223132548 -0.2277223948390894 0 -0.43487007995442373 -0.25384069753834382 0 -0.42931567121415071 -0.25028064732030619 0 -0.43665732485841618 -0.24137016429136929 0 -0.43665732485841618 -0.24137016429136929 0 -0.41974440223132548 -0.2277223948390894 0 -0.44277641758923081 -0.23102430468348881 0 -0.43377720402095787 -0.21991138490827611 0 -0.41974440223132548 -0.2277223948390894 0 -0.44277641758923081 -0.23102430468348881 0 -0.43377720402095787 -0.21991138490827611 0 -0.41974440223132548 -0.2277223948390894 0 -0.42075205755079043 -0.21398522646416529 0 -0.41974440223132548 -0.2277223948390894 0 -0.40847937369743209 -0.24258689873782929 0 -0.40379864078896821 -0.22147517947459039 0 -0.42931567121415071 -0.25028064732030619 0 -0.41974440223132548 -0.2277223948390894 0 -0.40847937369743209 -0.24258689873782929 0 -0.3945867816951415 -0.25828321704239809 0 -0.40847937369743209 -0.24258689873782929 0 -0.3933004523496676 -0.24484402304582939 0 -0.40847937369743209 -0.24258689873782929 0 -0.3933004523496676 -0.24484402304582939 0 -0.39478669289115392 -0.23309544567896751 0 -0.3933004523496676 -0.24484402304582939 0 -0.38349803953804651 -0.2389949919606586 0 -0.38258347849844832 -0.24967798674395081 0 -0.3933004523496676 -0.24484402304582939 0 -0.38349803953804651 -0.2389949919606586 0 -0.39478669289115392 -0.23309544567896751 0 -0.37393716339703942 -0.23401667981853819 0 -0.37362469669529808 -0.24416340610428999 0 -0.38349803953804651 -0.2389949919606586 0 -0.37393540655460039 -0.25504906339868932 0 -0.37362469669529808 -0.24416340610428999 0 -0.38258347849844832 -0.24967798674395081 0 -0.37362469669529808 -0.24416340610428999 0 -0.38349803953804651 -0.2389949919606586 0 -0.38258347849844832 -0.24967798674395081 0 -0.37306962678156358 -0.22430756502184571 0 -0.38469596054732291 -0.22836918992304631 0 -0.38295547739377761 -0.21861943378263729 0 -0.37273312771996808 -0.21396345107145709 0 -0.37306962678156358 -0.22430756502184571 0 -0.38295547739377761 -0.21861943378263729 0 -0.37393716339703942 -0.23401667981853819 0 -0.38349803953804651 -0.2389949919606586 0 -0.38469596054732291 -0.22836918992304631 0 -0.37393716339703942 -0.23401667981853819 0 -0.37306962678156358 -0.22430756502184571 0 -0.38469596054732291 -0.22836918992304631 0 -0.38349803953804651 -0.2389949919606586 0 -0.38469596054732291 -0.22836918992304631 0 -0.39478669289115392 -0.23309544567896751 0 -0.38469596054732291 -0.22836918992304631 0 -0.39264909581396568 -0.2229573829789786 0 -0.38295547739377761 -0.21861943378263729 0 -0.39264909581396568 -0.2229573829789786 0 -0.39478669289115392 -0.23309544567896751 0 -0.40379864078896821 -0.22147517947459039 0 -0.40847937369743209 -0.24258689873782929 0 -0.39478669289115392 -0.23309544567896751 0 -0.40379864078896821 -0.22147517947459039 0 -0.40847937369743209 -0.24258689873782929 0 -0.40379864078896821 -0.22147517947459039 0 -0.39264909581396568 -0.2229573829789786 0 -0.40379864078896821 -0.22147517947459039 0 -0.39247153470499518 -0.2129117927155128 0 -0.38469596054732291 -0.22836918992304631 0 -0.39264909581396568 -0.2229573829789786 0 -0.39478669289115392 -0.23309544567896751 0 -0.40379864078896821 -0.22147517947459039 0 -0.39911790788050461 -0.2003634602113514 0 -0.40379864078896821 -0.22147517947459039 0 -0.39247153470499518 -0.2129117927155128 0 -0.39911790788050461 -0.2003634602113514 0 -0.40379864078896821 -0.22147517947459039 0 -0.40520524043689871 -0.20626505254016059 0 -0.39911790788050461 -0.2003634602113514 0 -0.40520524043689871 -0.20626505254016059 0 -0.39911790788050461 -0.2003634602113514 0 -0.41017313324850019 -0.2051641423578727 0 -0.40520524043689871 -0.20626505254016059 0 -0.39911790788050461 -0.2003634602113514 0 -0.39247153470499518 -0.2129117927155128 0 -0.38971867217429529 -0.20303686442097379 0 -0.39911790788050461 -0.2003634602113514 0 -0.39247153470499518 -0.2129117927155128 0 -0.38295547739377761 -0.21861943378263729 0 -0.38211351879485039 -0.2092072209849834 0 -0.39264909581396568 -0.2229573829789786 0 -0.39247153470499518 -0.2129117927155128 0 -0.38295547739377761 -0.21861943378263729 0 -0.38211351879485039 -0.2092072209849834 0 -0.38151862494823319 -0.19996558655041019 0 -0.38971867217429529 -0.20303686442097379 0 -0.39247153470499518 -0.2129117927155128 0 -0.38211351879485039 -0.2092072209849834 0 -0.38971867217429529 -0.20303686442097379 0 -0.37273312771996808 -0.21396345107145709 0 -0.37301156641091737 -0.20337184000283479 0 -0.38211351879485039 -0.2092072209849834 0 -0.37301156641091737 -0.20337184000283479 0 -0.38211351879485039 -0.2092072209849834 0 -0.38151862494823319 -0.19996558655041019 0 -0.37273312771996808 -0.21396345107145709 0 -0.38295547739377761 -0.21861943378263729 0 -0.38211351879485039 -0.2092072209849834 0 -0.36802329911298681 -0.18587483615006681 0 -0.37438048369549509 -0.19384422148204511 0 -0.38452179946839471 -0.1862127167391712 0 -0.38151862494823319 -0.19996558655041019 0 -0.38971867217429529 -0.20303686442097379 0 -0.38452179946839471 -0.1862127167391712 0 -0.37438048369549509 -0.19384422148204511 0 -0.38151862494823319 -0.19996558655041019 0 -0.38452179946839471 -0.1862127167391712 0 -0.37438048369549509 -0.19384422148204511 0 -0.37301156641091737 -0.20337184000283479 0 -0.38151862494823319 -0.19996558655041019 0 -0.39911790788050461 -0.2003634602113514 0 -0.39550730918059213 -0.18407841519480589 0 -0.38452179946839471 -0.1862127167391712 0 -0.39911790788050461 -0.2003634602113514 0 -0.40135005364381798 -0.19305297691017151 0 -0.39550730918059213 -0.18407841519480589 0 -0.39911790788050461 -0.2003634602113514 0 -0.39550730918059213 -0.18407841519480589 0 -0.38971867217429529 -0.20303686442097379 0 -0.39911790788050461 -0.2003634602113514 0 -0.38452179946839471 -0.1862127167391712 0 -0.41017313324850019 -0.2051641423578727 0 -0.40060186426567512 -0.18260588987665591 0 -0.40135005364381798 -0.19305297691017151 0 -0.41017313324850019 -0.2051641423578727 0 -0.40060186426567512 -0.18260588987665591 0 -0.39911790788050461 -0.2003634602113514 0 -0.38452179946839471 -0.1862127167391712 0 -0.39911790788050461 -0.2003634602113514 0 -0.40135005364381798 -0.19305297691017151 0 -0.41017313324850019 -0.2051641423578727 0 -0.40882722491020068 -0.19324634934951379 0 -0.40670914653930851 -0.1871811045826946 0 -0.40060186426567512 -0.18260588987665591 0 -0.40882722491020068 -0.19324634934951379 0 -0.41182634361573828 -0.18846823012601879 0 -0.40670914653930851 -0.1871811045826946 0 -0.40882722491020068 -0.19324634934951379 0 -0.41017313324850019 -0.2051641423578727 0 -0.40060186426567512 -0.18260588987665591 0 -0.40882722491020068 -0.19324634934951379 0 -0.41332632127240471 -0.19520135196246871 0 -0.41182634361573828 -0.18846823012601879 0 -0.41182634361573828 -0.18846823012601879 0 -0.42015528071935893 -0.19373976728588371 0 -0.42086010939994178 -0.18624419393877539 0 -0.41332632127240471 -0.19520135196246871 0 -0.41182634361573828 -0.18846823012601879 0 -0.42015528071935893 -0.19373976728588371 0 -0.42015528071935893 -0.19373976728588371 0 -0.41596892406105851 -0.2005599774501266 0 -0.4250272884910265 -0.2012921483654643 0 -0.41596892406105851 -0.2005599774501266 0 -0.41798035083784391 -0.20525037365940721 0 -0.4250272884910265 -0.2012921483654643 0 -0.41332632127240471 -0.19520135196246871 0 -0.42015528071935893 -0.19373976728588371 0 -0.41596892406105851 -0.2005599774501266 0 -0.41596892406105851 -0.2005599774501266 0 -0.41190905555667651 -0.19876129696974801 0 -0.41017313324850019 -0.2051641423578727 0 -0.40882722491020068 -0.19324634934951379 0 -0.41190905555667651 -0.19876129696974801 0 -0.41017313324850019 -0.2051641423578727 0 -0.40882722491020068 -0.19324634934951379 0 -0.41332632127240471 -0.19520135196246871 0 -0.41190905555667651 -0.19876129696974801 0 -0.41332632127240471 -0.19520135196246871 0 -0.41596892406105851 -0.2005599774501266 0 -0.41190905555667651 -0.19876129696974801 0 -0.41974440223132548 -0.2277223948390894 0 -0.40379864078896821 -0.22147517947459039 0 -0.41017313324850019 -0.2051641423578727 0 -0.41974440223132548 -0.2277223948390894 0 -0.41017313324850019 -0.2051641423578727 0 -0.42075205755079043 -0.21398522646416529 0 -0.40379864078896821 -0.22147517947459039 0 -0.40520524043689871 -0.20626505254016059 0 -0.41017313324850019 -0.2051641423578727 0 -0.41974440223132548 -0.2277223948390894 0 -0.41017313324850019 -0.2051641423578727 0 -0.41017313324850019 -0.2051641423578727 0 -0.42075205755079043 -0.21398522646416529 0 -0.41798035083784391 -0.20525037365940721 0 -0.42075205755079043 -0.21398522646416529 0 -0.41798035083784391 -0.20525037365940721 0 -0.4250272884910265 -0.2012921483654643 0 -0.41596892406105851 -0.2005599774501266 0 -0.41017313324850019 -0.2051641423578727 0 -0.41798035083784391 -0.20525037365940721 0 -0.42075205755079043 -0.21398522646416529 0 -0.43601245252430942 -0.20793643678791121 0 -0.4250272884910265 -0.2012921483654643 0 -0.43377720402095787 -0.21991138490827611 0 -0.42075205755079043 -0.21398522646416529 0 -0.43601245252430942 -0.20793643678791121 0 -0.42704416580793209 -0.1915833167308334 0 -0.4250272884910265 -0.2012921483654643 0 -0.43829012180726529 -0.19322062900912909 0 -0.43601245252430942 -0.20793643678791121 0 -0.4250272884910265 -0.2012921483654643 0 -0.43829012180726529 -0.19322062900912909 0 -0.42704416580793209 -0.1915833167308334 0 -0.43088802862206788 -0.18341984505491449 0 -0.43829012180726529 -0.19322062900912909 0 -0.42015528071935893 -0.19373976728588371 0 -0.42704416580793209 -0.1915833167308334 0 -0.42086010939994178 -0.18624419393877539 0 -0.42015528071935893 -0.19373976728588371 0 -0.42704416580793209 -0.1915833167308334 0 -0.4250272884910265 -0.2012921483654643 0 -0.4285734277027195 -0.1734756855885477 0 -0.43088802862206788 -0.18341984505491449 0 -0.41995474680429618 -0.17713819565942951 0 -0.42704416580793209 -0.1915833167308334 0 -0.43088802862206788 -0.18341984505491449 0 -0.42086010939994178 -0.18624419393877539 0 -0.43088802862206788 -0.18341984505491449 0 -0.41995474680429618 -0.17713819565942951 0 -0.42086010939994178 -0.18624419393877539 0 -0.43088802862206788 -0.18341984505491449 0 -0.44104422433457419 -0.1777922577957152 0 -0.43829012180726529 -0.19322062900912909 0 -0.4285734277027195 -0.1734756855885477 0 -0.43088802862206788 -0.18341984505491449 0 -0.44104422433457419 -0.1777922577957152 0 -0.4285734277027195 -0.1734756855885477 0 -0.4344270590450659 -0.1609053943072484 0 -0.44104422433457419 -0.1777922577957152 0 -0.4285734277027195 -0.1734756855885477 0 -0.4344270590450659 -0.1609053943072484 0 -0.4151480566294905 -0.1680004084026471 0 -0.4151480566294905 -0.1680004084026471 0 -0.40323096316088519 -0.16793215078578741 0 -0.41306883257355248 -0.1475019853524365 0 -0.4344270590450659 -0.1609053943072484 0 -0.4151480566294905 -0.1680004084026471 0 -0.41306883257355248 -0.1475019853524365 0 -0.4151480566294905 -0.1680004084026471 0 -0.40690801218449152 -0.1762036959065488 0 -0.40323096316088519 -0.16793215078578741 0 -0.4151480566294905 -0.1680004084026471 0 -0.40690801218449152 -0.1762036959065488 0 -0.4136865446123984 -0.1757543503219206 0 -0.40690801218449152 -0.1762036959065488 0 -0.4136865446123984 -0.1757543503219206 0 -0.41273536283131562 -0.1816751013190569 0 -0.4151480566294905 -0.1680004084026471 0 -0.4136865446123984 -0.1757543503219206 0 -0.41995474680429618 -0.17713819565942951 0 -0.4285734277027195 -0.1734756855885477 0 -0.4151480566294905 -0.1680004084026471 0 -0.41995474680429618 -0.17713819565942951 0 -0.4136865446123984 -0.1757543503219206 0 -0.41995474680429618 -0.17713819565942951 0 -0.41273536283131562 -0.1816751013190569 0 -0.41995474680429618 -0.17713819565942951 0 -0.42086010939994178 -0.18624419393877539 0 -0.41273536283131562 -0.1816751013190569 0 -0.41182634361573828 -0.18846823012601879 0 -0.42086010939994178 -0.18624419393877539 0 -0.41273536283131562 -0.1816751013190569 0 -0.41182634361573828 -0.18846823012601879 0 -0.41273536283131562 -0.1816751013190569 0 -0.4077561458873058 -0.18322680436219499 0 -0.40690801218449152 -0.1762036959065488 0 -0.41273536283131562 -0.1816751013190569 0 -0.4077561458873058 -0.18322680436219499 0 -0.41182634361573828 -0.18846823012601879 0 -0.4077561458873058 -0.18322680436219499 0 -0.40670914653930851 -0.1871811045826946 0 -0.39550730918059213 -0.18407841519480589 0 -0.38736231178750308 -0.177259124355894 0 -0.39189671048067998 -0.1677933701782604 0 -0.40135005364381798 -0.19305297691017151 0 -0.40060186426567512 -0.18260588987665591 0 -0.39550730918059213 -0.18407841519480589 0 -0.4077561458873058 -0.18322680436219499 0 -0.40670914653930851 -0.1871811045826946 0 -0.40060186426567512 -0.18260588987665591 0 -0.39550730918059213 -0.18407841519480589 0 -0.39189671048067998 -0.1677933701782604 0 -0.40060186426567512 -0.18260588987665591 0 -0.39550730918059213 -0.18407841519480589 0 -0.39189671048067998 -0.1677933701782604 0 -0.40690801218449152 -0.1762036959065488 0 -0.4077561458873058 -0.18322680436219499 0 -0.40060186426567512 -0.18260588987665591 0 -0.40690801218449152 -0.1762036959065488 0 -0.40060186426567512 -0.18260588987665591 0 -0.40323096316088519 -0.16793215078578741 0 -0.36992569105628492 -0.1720619732669908 0 -0.38736231178750308 -0.177259124355894 0 -0.39189671048067998 -0.1677933701782604 0 -0.36992569105628492 -0.1720619732669908 0 -0.38452179946839471 -0.1862127167391712 0 -0.38736231178750308 -0.177259124355894 0 -0.39550730918059213 -0.18407841519480589 0 -0.38452179946839471 -0.1862127167391712 0 -0.38736231178750308 -0.177259124355894 0 -0.36992569105628492 -0.1720619732669908 0 -0.38452179946839471 -0.1862127167391712 0 -0.36992569105628492 -0.1720619732669908 0 -0.37692746124962329 -0.16011968929401549 0 -0.39103059528285172 -0.16004763739543851 0 -0.36992569105628492 -0.1720619732669908 0 -0.39189671048067998 -0.1677933701782604 0 -0.39103059528285172 -0.16004763739543851 0 -0.36992569105628492 -0.1720619732669908 0 -0.39103059528285172 -0.16004763739543851 0 -0.37692746124962329 -0.16011968929401549 0 -0.39103059528285172 -0.16004763739543851 0 -0.38828980922767731 -0.15358795645443499 0 -0.39103059528285172 -0.16004763739543851 0 -0.38828980922767731 -0.15358795645443499 0 -0.40060186426567512 -0.18260588987665591 0 -0.39103059528285172 -0.16004763739543851 0 -0.40323096316088519 -0.16793215078578741 0 -0.40060186426567512 -0.18260588987665591 0 -0.39189671048067998 -0.1677933701782604 0 -0.39103059528285172 -0.16004763739543851 0 -0.40060186426567512 -0.18260588987665591 0 -0.39103059528285172 -0.16004763739543851 0 -0.39103059528285172 -0.16004763739543851 0 -0.40323096316088519 -0.16793215078578741 0 -0.41306883257355248 -0.1475019853524365 0 -0.39103059528285172 -0.16004763739543851 0 -0.39795981207507403 -0.14502431583870179 0 -0.41306883257355248 -0.1475019853524365 0 -0.39795981207507403 -0.14502431583870179 0 -0.40633267592073652 -0.13102661860532899 0 -0.41306883257355248 -0.1475019853524365 0 -0.39103059528285172 -0.16004763739543851 0 -0.41306883257355248 -0.1475019853524365 0 -0.39103059528285172 -0.16004763739543851 0 -0.39795981207507403 -0.14502431583870179 0 -0.38828980922767731 -0.15358795645443499 0 -0.39795981207507403 -0.14502431583870179 0 -0.38828980922767731 -0.15358795645443499 0 -0.38190833683646341 -0.1417380771930716 0 -0.38828980922767731 -0.15358795645443499 0 -0.38190833683646341 -0.1417380771930716 0 -0.37945525551812698 -0.15104483685056111 0 -0.37069541475874412 -0.1487336244607225 0 -0.38190833683646341 -0.1417380771930716 0 -0.37945525551812698 -0.15104483685056111 0 -0.37692746124962329 -0.16011968929401549 0 -0.38828980922767731 -0.15358795645443499 0 -0.37945525551812698 -0.15104483685056111 0 -0.37069541475874412 -0.1487336244607225 0 -0.37692746124962329 -0.16011968929401549 0 -0.37945525551812698 -0.15104483685056111 0 -0.37152802352755399 -0.13164580699010159 0 -0.38190833683646341 -0.1417380771930716 0 -0.38235470820745771 -0.123978498660336 0 -0.38190833683646341 -0.1417380771930716 0 -0.39228294530364349 -0.13316426080004001 0 -0.38235470820745771 -0.123978498660336 0 -0.39228294530364349 -0.13316426080004001 0 -0.40633267592073652 -0.13102661860532899 0 -0.39306930808202878 -0.1142539450673672 0 -0.39795981207507403 -0.14502431583870179 0 -0.38190833683646341 -0.1417380771930716 0 -0.39228294530364349 -0.13316426080004001 0 -0.39795981207507403 -0.14502431583870179 0 -0.39228294530364349 -0.13316426080004001 0 -0.40633267592073652 -0.13102661860532899 0 -0.40633267592073652 -0.13102661860532899 0 -0.42371591628165239 -0.12841039464220819 0 -0.41294233195137359 -0.116724400289887 0 -0.40633267592073652 -0.13102661860532899 0 -0.41306883257355248 -0.1475019853524365 0 -0.42371591628165239 -0.12841039464220819 0 -0.4344270590450659 -0.1609053943072484 0 -0.41306883257355248 -0.1475019853524365 0 -0.43782831476482847 -0.1415704877041897 0 -0.41306883257355248 -0.1475019853524365 0 -0.42371591628165239 -0.12841039464220819 0 -0.43782831476482847 -0.1415704877041897 0 -0.42371591628165239 -0.12841039464220819 0 -0.43782831476482847 -0.1415704877041897 0 -0.44295770465017009 -0.12292285668534771 0 -0.43782831476482847 -0.1415704877041897 0 -0.45407528277834919 -0.1346042898317954 0 -0.44295770465017009 -0.12292285668534771 0 -0.43782831476482847 -0.1415704877041897 0 -0.45305184803309972 -0.15210272433296521 0 -0.45407528277834919 -0.1346042898317954 0 -0.4344270590450659 -0.1609053943072484 0 -0.43782831476482847 -0.1415704877041897 0 -0.45305184803309972 -0.15210272433296521 0 -0.45305184803309972 -0.15210272433296521 0 -0.45407528277834919 -0.1346042898317954 0 -0.47213782278640881 -0.13623393318828281 0 -0.45305184803309972 -0.15210272433296521 0 -0.47213782278640881 -0.13623393318828281 0 -0.46702369577757719 -0.16066454859793791 0 -0.45407528277834919 -0.1346042898317954 0 -0.47213782278640881 -0.13623393318828281 0 -0.46296805171726468 -0.11640170438458371 0 -0.47213782278640881 -0.13623393318828281 0 -0.5 -0.14556247672259531 0 -0.48245330698995931 -0.121898764666846 0 -0.5 -0.14556247672259531 0 -0.48245330698995931 -0.121898764666846 0 -0.50000000000000089 -0.1198938119733675 0 -0.47213782278640881 -0.13623393318828281 0 -0.5 -0.14556247672259531 0 -0.48142521519093828 -0.15645589086587239 0 -0.47213782278640881 -0.13623393318828281 0 -0.48142521519093828 -0.15645589086587239 0 -0.47213782278640881 -0.13623393318828281 0 -0.48142521519093828 -0.15645589086587239 0 -0.46702369577757719 -0.16066454859793791 0 -0.48142521519093828 -0.15645589086587239 0 -0.47632052375980027 -0.17461649056753861 0 -0.46702369577757719 -0.16066454859793791 0 -0.48142521519093828 -0.15645589086587239 0 -0.49071260759546798 -0.17667784854346191 0 -0.47632052375980027 -0.17461649056753861 0 -0.47632052375980027 -0.17461649056753861 0 -0.46570520523623959 -0.1757931846103527 0 -0.46702369577757719 -0.16066454859793791 0 -0.48142521519093828 -0.15645589086587239 0 -0.49071260759546798 -0.17667784854346191 0 -0.5 -0.14556247672259531 0 -0.48142521519093828 -0.15645589086587239 0 -0.5 -0.17123114147182319 0 -0.48142521519093828 -0.15645589086587239 0 -0.5 -0.17123114147182319 0 -0.49071260759546798 -0.17667784854346191 0 -0.49071260759546798 -0.17667784854346191 0 -0.49999999999999861 -0.19689980622105099 0 -0.5 -0.17123114147182319 0 -0.49071260759546798 -0.17667784854346191 0 -0.49999999999999861 -0.19689980622105099 0 -0.49071260759546798 -0.17667784854346191 0 -0.47632052375980027 -0.17461649056753861 0 -0.47993034859498662 -0.18922987045237161 0 -0.47632052375980027 -0.17461649056753861 0 -0.46763136520864318 -0.18653340036078911 0 -0.46570520523623959 -0.1757931846103527 0 -0.47632052375980027 -0.17461649056753861 0 -0.46763136520864318 -0.18653340036078911 0 -0.47993034859498662 -0.18922987045237161 0 -0.46570520523623959 -0.1757931846103527 0 -0.45350155965897682 -0.1687850680226157 0 -0.45596312027128949 -0.18794868189772959 0 -0.46763136520864318 -0.18653340036078911 0 -0.46570520523623959 -0.1757931846103527 0 -0.45596312027128949 -0.18794868189772959 0 -0.45305184803309972 -0.15210272433296521 0 -0.46702369577757719 -0.16066454859793791 0 -0.45350155965897682 -0.1687850680226157 0 -0.46570520523623959 -0.1757931846103527 0 -0.46702369577757719 -0.16066454859793791 0 -0.45350155965897682 -0.1687850680226157 0 -0.4344270590450659 -0.1609053943072484 0 -0.45305184803309972 -0.15210272433296521 0 -0.45350155965897682 -0.1687850680226157 0 -0.4344270590450659 -0.1609053943072484 0 -0.45350155965897682 -0.1687850680226157 0 -0.44104422433457419 -0.1777922577957152 0 -0.45350155965897682 -0.1687850680226157 0 -0.44104422433457419 -0.1777922577957152 0 -0.45596312027128949 -0.18794868189772959 0 -0.44104422433457419 -0.1777922577957152 0 -0.43829012180726529 -0.19322062900912909 0 -0.45596312027128949 -0.18794868189772959 0 -0.45013906333809789 -0.2009404811944836 0 -0.43829012180726529 -0.19322062900912909 0 -0.45596312027128949 -0.18794868189772959 0 -0.43601245252430942 -0.20793643678791121 0 -0.45013906333809789 -0.2009404811944836 0 -0.43829012180726529 -0.19322062900912909 0 -0.43377720402095787 -0.21991138490827611 0 -0.43601245252430942 -0.20793643678791121 0 -0.45297794936819918 -0.2159919965998246 0 -0.43601245252430942 -0.20793643678791121 0 -0.45013906333809789 -0.2009404811944836 0 -0.45297794936819918 -0.2159919965998246 0 -0.45013906333809789 -0.2009404811944836 0 -0.45297794936819918 -0.2159919965998246 0 -0.46745167271942573 -0.1996046616778234 0 -0.45297794936819918 -0.2159919965998246 0 -0.46745167271942573 -0.1996046616778234 0 -0.46956062781061803 -0.21704188818370149 0 -0.45013906333809789 -0.2009404811944836 0 -0.46745167271942573 -0.1996046616778234 0 -0.45596312027128949 -0.18794868189772959 0 -0.46763136520864318 -0.18653340036078911 0 -0.46745167271942573 -0.1996046616778234 0 -0.45596312027128949 -0.18794868189772959 0 -0.46745167271942573 -0.1996046616778234 0 -0.47993034859498662 -0.18922987045237161 0 -0.48475058775642699 -0.21058337118561141 0 -0.46763136520864318 -0.18653340036078911 0 -0.46745167271942573 -0.1996046616778234 0 -0.47993034859498662 -0.18922987045237161 0 -0.47993034859498662 -0.18922987045237161 0 -0.49999999999999861 -0.19689980622105099 0 -0.48475058775642699 -0.21058337118561141 0 -0.49071260759546798 -0.17667784854346191 0 -0.47993034859498662 -0.18922987045237161 0 -0.49999999999999861 -0.19689980622105099 0 -0.49999999999999861 -0.19689980622105099 0 -0.48475058775642699 -0.21058337118561141 0 -0.50000000000000355 -0.22426693615016591 0 -0.46745167271942573 -0.1996046616778234 0 -0.48475058775642699 -0.21058337118561141 0 -0.46956062781061803 -0.21704188818370149 0 -0.46956062781061803 -0.21704188818370149 0 -0.47829002665147741 -0.2341248566128927 0 -0.46279731583591321 -0.22891002208815581 0 -0.48475058775642699 -0.21058337118561141 0 -0.46956062781061803 -0.21704188818370149 0 -0.47829002665147741 -0.2341248566128927 0 -0.47829002665147741 -0.2341248566128927 0 -0.49757451855253881 -0.23053548086278239 0 -0.50000000000000355 -0.22426693615016591 0 -0.48475058775642699 -0.21058337118561141 0 -0.47829002665147741 -0.2341248566128927 0 -0.50000000000000355 -0.22426693615016591 0 -0.47829002665147741 -0.2341248566128927 0 -0.50000000000000355 -0.22426693615016591 0 -0.47829002665147741 -0.2341248566128927 0 -0.49757451855253881 -0.23053548086278239 0 -0.47793059070477772 -0.24540990329775009 0 -0.5 -0.25006354863638108 0 -0.49757451855253881 -0.23053548086278239 0 -0.49068252501969761 -0.24549971615663649 0 -0.49757451855253881 -0.23053548086278239 0 -0.49068252501969761 -0.24549971615663649 0 -0.47793059070477772 -0.24540990329775009 0 -0.49757451855253881 -0.23053548086278239 0 -0.47793059070477772 -0.24540990329775009 0 -0.5 -0.25006354863638108 0 -0.49757451855253881 -0.23053548086278239 0 -0.50000000000000355 -0.22426693615016591 0 -0.4872249908214738 -0.25598993182963242 0 -0.49068252501969761 -0.24549971615663649 0 -0.47793059070477772 -0.24540990329775009 0 -0.47829002665147741 -0.2341248566128927 0 -0.47793059070477772 -0.24540990329775009 0 -0.45658005330295048 -0.2439827770756183 0 -0.45658005330295048 -0.2439827770756183 0 -0.46279731583591321 -0.22891002208815581 0 -0.44277641758923081 -0.23102430468348881 0 -0.47829002665147741 -0.2341248566128927 0 -0.45658005330295048 -0.2439827770756183 0 -0.45828666285701658 -0.26028432573271792 0 -0.47793059070477772 -0.24540990329775009 0 -0.45658005330295048 -0.2439827770756183 0 -0.47829002665147741 -0.2341248566128927 0 -0.45658005330295048 -0.2439827770756183 0 -0.46279731583591321 -0.22891002208815581 0 -0.45297794936819918 -0.2159919965998246 0 -0.46956062781061803 -0.21704188818370149 0 -0.46279731583591321 -0.22891002208815581 0 -0.45297794936819918 -0.2159919965998246 0 -0.46279731583591321 -0.22891002208815581 0 -0.44277641758923081 -0.23102430468348881 0 -0.43377720402095787 -0.21991138490827611 0 -0.45297794936819918 -0.2159919965998246 0 -0.44277641758923081 -0.23102430468348881 0 -0.43487007995442373 -0.25384069753834382 0 -0.45658005330295048 -0.2439827770756183 0 -0.43487007995442373 -0.25384069753834382 0 -0.43665732485841618 -0.24137016429136929 0 -0.45658005330295048 -0.2439827770756183 0 -0.43665732485841618 -0.24137016429136929 0 -0.45658005330295048 -0.2439827770756183 0 -0.44277641758923081 -0.23102430468348881 0 -0.42837915354319411 -0.040827216461995969 0 -0.4199205163048339 -0.024265820886729 0 -0.40528095782104068 -0.044243292517360297 0 -0.42343463197652342 -0.05874232933513765 0 -0.42837915354319411 -0.040827216461995969 0 -0.40528095782104068 -0.044243292517360297 0 -0.42343463197652342 -0.05874232933513765 0 -0.40528095782104068 -0.044243292517360297 0 -0.42343463197652342 -0.05874232933513765 0 -0.40528095782104068 -0.044243292517360297 0 -0.40670414160736479 -0.063195666982337848 0 -0.42343463197652342 -0.05874232933513765 0 -0.42837915354319411 -0.040827216461995969 0 -0.44094154444346079 -0.04995238034171972 0 -0.42343463197652342 -0.05874232933513765 0 -0.44158830613200611 -0.073241366152915127 0 -0.44094154444346079 -0.04995238034171972 0 -0.42837915354319411 -0.040827216461995969 0 -0.4342900889778567 -0.026770694848987801 0 -0.4453801544960031 -0.037531923181514312 0 -0.4342900889778567 -0.026770694848987801 0 -0.43033724725149269 -0.0037964727450953309 0 -0.4199205163048339 -0.024265820886729 0 -0.4342900889778567 -0.026770694848987801 0 -0.43033724725149269 -0.0037964727450953309 0 -0.44743337329375982 -0.027432040969604381 0 -0.42837915354319411 -0.040827216461995969 0 -0.4342900889778567 -0.026770694848987801 0 -0.4199205163048339 -0.024265820886729 0 -0.43033724725149269 -0.0037964727450953309 0 -0.4131572459017161 -0.004875649818797438 0 -0.4199205163048339 -0.024265820886729 0 -0.4131572459017161 -0.004875649818797438 0 -0.4199205163048339 -0.024265820886729 0 -0.40195427741026962 -0.018113178269922089 0 -0.4199205163048339 -0.024265820886729 0 -0.40195427741026962 -0.018113178269922089 0 -0.40528095782104068 -0.044243292517360297 0 -0.40195427741026962 -0.018113178269922089 0 -0.38465333842141641 -0.0066435457767305304 0 -0.38712728366555788 -0.02974425569958293 0 -0.40195427741026962 -0.018113178269922089 0 -0.38712728366555788 -0.02974425569958293 0 -0.40528095782104068 -0.044243292517360297 0 -0.40195427741026962 -0.018113178269922089 0 -0.38465333842141641 -0.0066435457767305304 0 -0.40033306733275759 0.0019581273283447299 0 -0.4131572459017161 -0.004875649818797438 0 -0.40195427741026962 -0.018113178269922089 0 -0.40033306733275759 0.0019581273283447299 0 -0.38465333842141641 -0.0066435457767305304 0 -0.40033306733275759 0.0019581273283447299 0 -0.36897360951007507 -0.015245218881805699 0 -0.38465333842141641 -0.0066435457767305304 0 -0.36897360951007507 -0.015245218881805699 0 -0.38465333842141641 -0.0066435457767305304 0 -0.38712728366555788 -0.02974425569958293 0 -0.36897360951007507 -0.015245218881805699 0 -0.38712728366555788 -0.02974425569958293 0 -0.37357085562444819 -0.050327950541553881 0 -0.38712728366555788 -0.02974425569958293 0 -0.39147992867528753 -0.058279446621744307 0 -0.38712728366555788 -0.02974425569958293 0 -0.40528095782104068 -0.044243292517360297 0 -0.38712728366555788 -0.02974425569958293 0 -0.40528095782104068 -0.044243292517360297 0 -0.39147992867528753 -0.058279446621744307 0 -0.40528095782104068 -0.044243292517360297 0 -0.39147992867528753 -0.058279446621744307 0 -0.40670414160736479 -0.063195666982337848 0 -0.37357085562444819 -0.050327950541553881 0 -0.39147992867528753 -0.058279446621744307 0 -0.37513495807632252 -0.068027960422620465 0 -0.39147992867528753 -0.058279446621744307 0 -0.37513495807632252 -0.068027960422620465 0 -0.3944429598887787 -0.078419500118194568 0 -0.37347114863240299 -0.089088331268139143 0 -0.37513495807632252 -0.068027960422620465 0 -0.3944429598887787 -0.078419500118194568 0 -0.37347114863240299 -0.089088331268139143 0 -0.3944429598887787 -0.078419500118194568 0 -0.38844874713165228 -0.097169733216879689 0 -0.3944429598887787 -0.078419500118194568 0 -0.38844874713165228 -0.097169733216879689 0 -0.40907098738890341 -0.097978282768044114 0 -0.39147992867528753 -0.058279446621744307 0 -0.3944429598887787 -0.078419500118194568 0 -0.40670414160736479 -0.063195666982337848 0 -0.3944429598887787 -0.078419500118194568 0 -0.41749625226094061 -0.077358517460495352 0 -0.40670414160736479 -0.063195666982337848 0 -0.39228294530364349 -0.13316426080004001 0 -0.38235470820745771 -0.123978498660336 0 -0.39306930808202878 -0.1142539450673672 0 -0.36980343247362518 -0.1100922289949047 0 -0.38235470820745771 -0.123978498660336 0 -0.39306930808202878 -0.1142539450673672 0 -0.36980343247362518 -0.1100922289949047 0 -0.37347114863240299 -0.089088331268139143 0 -0.38844874713165228 -0.097169733216879689 0 -0.36980343247362518 -0.1100922289949047 0 -0.38844874713165228 -0.097169733216879689 0 -0.39306930808202878 -0.1142539450673672 0 -0.38844874713165228 -0.097169733216879689 0 -0.39306930808202878 -0.1142539450673672 0 -0.40907098738890341 -0.097978282768044114 0 -0.39306930808202878 -0.1142539450673672 0 -0.41294233195137359 -0.116724400289887 0 -0.40907098738890341 -0.097978282768044114 0 -0.40633267592073652 -0.13102661860532899 0 -0.39306930808202878 -0.1142539450673672 0 -0.41294233195137359 -0.116724400289887 0 -0.41294233195137359 -0.116724400289887 0 -0.40907098738890341 -0.097978282768044114 0 -0.42916563782925382 -0.1107160192160596 0 -0.42916563782925382 -0.1107160192160596 0 -0.42904349786494111 -0.093106334976964328 0 -0.44668080241849201 -0.10304266906569499 0 -0.40907098738890341 -0.097978282768044114 0 -0.42916563782925382 -0.1107160192160596 0 -0.42904349786494111 -0.093106334976964328 0 -0.42371591628165239 -0.12841039464220819 0 -0.42916563782925382 -0.1107160192160596 0 -0.44295770465017009 -0.12292285668534771 0 -0.42371591628165239 -0.12841039464220819 0 -0.41294233195137359 -0.116724400289887 0 -0.42916563782925382 -0.1107160192160596 0 -0.42343463197652342 -0.05874232933513765 0 -0.41749625226094061 -0.077358517460495352 0 -0.40670414160736479 -0.063195666982337848 0 -0.40907098738890341 -0.097978282768044114 0 -0.41749625226094061 -0.077358517460495352 0 -0.42904349786494111 -0.093106334976964328 0 -0.3944429598887787 -0.078419500118194568 0 -0.40907098738890341 -0.097978282768044114 0 -0.41749625226094061 -0.077358517460495352 0 -0.41749625226094061 -0.077358517460495352 0 -0.42904349786494111 -0.093106334976964328 0 -0.44158830613200611 -0.073241366152915127 0 -0.42904349786494111 -0.093106334976964328 0 -0.44158830613200611 -0.073241366152915127 0 -0.42343463197652342 -0.05874232933513765 0 -0.44158830613200611 -0.073241366152915127 0 -0.42343463197652342 -0.05874232933513765 0 -0.41749625226094061 -0.077358517460495352 0 -0.44158830613200611 -0.073241366152915127 0 -0.44158830613200611 -0.073241366152915127 0 -0.46118581313569179 -0.071431252447136412 0 -0.45067286806919349 -0.058855770468984832 0 -0.44158830613200611 -0.073241366152915127 0 -0.45067286806919349 -0.058855770468984832 0 -0.44158830613200611 -0.073241366152915127 0 -0.44459286929252761 -0.089545637905493386 0 -0.46105887075467122 -0.088792181426399025 0 -0.42904349786494111 -0.093106334976964328 0 -0.44158830613200611 -0.073241366152915127 0 -0.44459286929252761 -0.089545637905493386 0 -0.44158830613200611 -0.073241366152915127 0 -0.46105887075467122 -0.088792181426399025 0 -0.46105887075467122 -0.088792181426399025 0 -0.46118581313569179 -0.071431252447136412 0 -0.48115195350555812 -0.076249636056848105 0 -0.44158830613200611 -0.073241366152915127 0 -0.46105887075467122 -0.088792181426399025 0 -0.46118581313569179 -0.071431252447136412 0 -0.44295770465017009 -0.12292285668534771 0 -0.44668080241849201 -0.10304266906569499 0 -0.46296805171726468 -0.11640170438458371 0 -0.42916563782925382 -0.1107160192160596 0 -0.44295770465017009 -0.12292285668534771 0 -0.44668080241849201 -0.10304266906569499 0 -0.44459286929252761 -0.089545637905493386 0 -0.46105887075467122 -0.088792181426399025 0 -0.44668080241849201 -0.10304266906569499 0 -0.42904349786494111 -0.093106334976964328 0 -0.44459286929252761 -0.089545637905493386 0 -0.44668080241849201 -0.10304266906569499 0 -0.46105887075467122 -0.088792181426399025 0 -0.46296805171726468 -0.11640170438458371 0 -0.48052943537733628 -0.1043429966998831 0 -0.46105887075467122 -0.088792181426399025 0 -0.44668080241849201 -0.10304266906569499 0 -0.46296805171726468 -0.11640170438458371 0 -0.45407528277834919 -0.1346042898317954 0 -0.44295770465017009 -0.12292285668534771 0 -0.46296805171726468 -0.11640170438458371 0 -0.46296805171726468 -0.11640170438458371 0 -0.48245330698995931 -0.121898764666846 0 -0.48052943537733628 -0.1043429966998831 0 -0.47213782278640881 -0.13623393318828281 0 -0.46296805171726468 -0.11640170438458371 0 -0.48245330698995931 -0.121898764666846 0 -0.46105887075467122 -0.088792181426399025 0 -0.48052943537733628 -0.1043429966998831 0 -0.48052943537733628 -0.1043429966998831 0 -0.50000000000000089 -0.1198938119733675 0 -0.5 -0.090898883536528308 0 -0.48245330698995931 -0.121898764666846 0 -0.48052943537733628 -0.1043429966998831 0 -0.50000000000000089 -0.1198938119733675 0 -0.48052943537733628 -0.1043429966998831 0 -0.50000000000000089 -0.1198938119733675 0 -0.46118581313569179 -0.071431252447136412 0 -0.48115195350555812 -0.076249636056848105 0 -0.46833584839527592 -0.05632992550213807 0 -0.48115195350555812 -0.076249636056848105 0 -0.48490864188954641 -0.055044389119401932 0 -0.46833584839527592 -0.05632992550213807 0 -0.46105887075467122 -0.088792181426399025 0 -0.48052943537733628 -0.1043429966998831 0 -0.48115195350555812 -0.076249636056848105 0 -0.48052943537733628 -0.1043429966998831 0 -0.48115195350555812 -0.076249636056848105 0 -0.5 -0.090898883536528308 0 -0.48115195350555812 -0.076249636056848105 0 -0.5 -0.090898883536528308 0 -0.5 -0.061903955099689163 0 -0.48115195350555812 -0.076249636056848105 0 -0.5 -0.061903955099689163 0 -0.48490864188954641 -0.055044389119401932 0 -0.5 -0.061903955099689163 0 -0.48490864188954641 -0.055044389119401932 0 -0.5 -0.032909026662849998 0 -0.48490864188954641 -0.055044389119401932 0 -0.5 -0.032909026662849998 0 -0.47623700986288742 -0.042296174380792313 0 -0.47623700986288742 -0.042296174380792313 0 -0.45975743000638192 -0.044470174785055258 0 -0.47133789178420182 -0.026132268992706809 0 -0.5 -0.032909026662849998 0 -0.47623700986288742 -0.042296174380792313 0 -0.47133789178420182 -0.026132268992706809 0 -0.48490864188954641 -0.055044389119401932 0 -0.47623700986288742 -0.042296174380792313 0 -0.46833584839527592 -0.05632992550213807 0 -0.46118581313569179 -0.071431252447136412 0 -0.46833584839527592 -0.05632992550213807 0 -0.45067286806919349 -0.058855770468984832 0 -0.47623700986288742 -0.042296174380792313 0 -0.46833584839527592 -0.05632992550213807 0 -0.45975743000638192 -0.044470174785055258 0 -0.46833584839527592 -0.05632992550213807 0 -0.45975743000638192 -0.044470174785055258 0 -0.45067286806919349 -0.058855770468984832 0 -0.45975743000638192 -0.044470174785055258 0 -0.45067286806919349 -0.058855770468984832 0 -0.46833584839527592 -0.05632992550213807 0 -0.45975743000638192 -0.044470174785055258 0 -0.45964620516156041 -0.031574428691672249 0 -0.45975743000638192 -0.044470174785055258 0 -0.44743337329375982 -0.027432040969604381 0 -0.45975743000638192 -0.044470174785055258 0 -0.44743337329375982 -0.027432040969604381 0 -0.45975743000638192 -0.044470174785055258 0 -0.47133789178420182 -0.026132268992706809 0 -0.45964620516156041 -0.031574428691672249 0 -0.45975743000638192 -0.044470174785055258 0 -0.47133789178420182 -0.026132268992706809 0 -0.45975743000638192 -0.044470174785055258 0 -0.4453801544960031 -0.037531923181514312 0 -0.44743337329375982 -0.027432040969604381 0 -0.45975743000638192 -0.044470174785055258 0 -0.4453801544960031 -0.037531923181514312 0 -0.44094154444346079 -0.04995238034171972 0 -0.42837915354319411 -0.040827216461995969 0 -0.4453801544960031 -0.037531923181514312 0 -0.44094154444346079 -0.04995238034171972 0 -0.4453801544960031 -0.037531923181514312 0 -0.44743337329375982 -0.027432040969604381 0 -0.44158830613200611 -0.073241366152915127 0 -0.44094154444346079 -0.04995238034171972 0 -0.45067286806919349 -0.058855770468984832 0 -0.45975743000638192 -0.044470174785055258 0 -0.44094154444346079 -0.04995238034171972 0 -0.45067286806919349 -0.058855770468984832 0 -0.43033724725149269 -0.0037964727450953309 0 -0.45268467479845531 -0.00160063580491273 0 -0.44743337329375982 -0.027432040969604381 0 -0.45268467479845531 -0.00160063580491273 0 -0.44743337329375982 -0.027432040969604381 0 -0.43033724725149269 -0.0037964727450953309 0 -0.44743337329375982 -0.027432040969604381 0 -0.4342900889778567 -0.026770694848987801 0 -0.4453801544960031 -0.037531923181514312 0 -0.44743337329375982 -0.027432040969604381 0 -0.45964620516156041 -0.031574428691672249 0 -0.44743337329375982 -0.027432040969604381 0 -0.46065164258955998 -0.015998841515816709 0 -0.45964620516156041 -0.031574428691672249 0 -0.46065164258955998 -0.015998841515816709 0 -0.47133789178420182 -0.026132268992706809 0 -0.45268467479845531 -0.00160063580491273 0 -0.46065164258955998 -0.015998841515816709 0 -0.47044579822050858 0.003730308873902122 0 -0.45268467479845531 -0.00160063580491273 0 -0.44743337329375982 -0.027432040969604381 0 -0.46065164258955998 -0.015998841515816709 0 -0.46065164258955998 -0.015998841515816709 0 -0.48291835356202167 -0.0077943632003582772 0 -0.47044579822050858 0.003730308873902122 0 -0.46065164258955998 -0.015998841515816709 0 -0.48291835356202167 -0.0077943632003582772 0 -0.47133789178420182 -0.026132268992706809 0 -0.48291835356202167 -0.0077943632003582772 0 -0.47133789178420182 -0.026132268992706809 0 -0.5 -0.032909026662849998 0 -0.48291835356202167 -0.0077943632003582772 0 -0.47133789178420182 -0.026132268992706809 0 -0.5 -0.032909026662849998 0 -0.48291835356202167 -0.0077943632003582772 0 -0.5 -0.0039140982260107426 0 -0.48291835356202167 -0.0077943632003582772 0 -0.5 -0.0039140982260107426 0 -0.48656778433615411 0.0071434676601368312 0 -0.5 -0.0039140982260107426 0 -0.48656778433615411 0.0071434676601368312 0 -0.5 0.02508083021082835 0 -0.5 0.02508083021082835 0 -0.47947476989823978 0.0186146606423227 0 -0.48053744464613157 0.038241937480116027 0 -0.48656778433615411 0.0071434676601368312 0 -0.5 0.02508083021082835 0 -0.47947476989823978 0.0186146606423227 0 -0.47947476989823978 0.0186146606423227 0 -0.48053744464613157 0.038241937480116027 0 -0.45793597630314969 0.024230769359779091 0 -0.48656778433615411 0.0071434676601368312 0 -0.47947476989823978 0.0186146606423227 0 -0.47044579822050858 0.003730308873902122 0 -0.48291835356202167 -0.0077943632003582772 0 -0.48656778433615411 0.0071434676601368312 0 -0.47044579822050858 0.003730308873902122 0 -0.47947476989823978 0.0186146606423227 0 -0.47044579822050858 0.003730308873902122 0 -0.45793597630314969 0.024230769359779091 0 -0.5 0.05407575864766756 0 -0.48053744464613157 0.038241937480116027 0 -0.48160115767747708 0.06010989829645641 0 -0.5 0.02508083021082835 0 -0.5 0.05407575864766756 0 -0.48053744464613157 0.038241937480116027 0 -0.48053744464613157 0.038241937480116027 0 -0.48160115767747708 0.06010989829645641 0 -0.4631872778078443 0.050062174524471058 0 -0.48160115767747708 0.06010989829645641 0 -0.4631872778078443 0.050062174524471058 0 -0.46843857931253879 0.07589357968916309 0 -0.4631872778078443 0.050062174524471058 0 -0.4467001814262947 0.061097152827744368 0 -0.46843857931253879 0.07589357968916309 0 -0.48053744464613157 0.038241937480116027 0 -0.4631872778078443 0.050062174524471058 0 -0.45793597630314969 0.024230769359779091 0 -0.4631872778078443 0.050062174524471058 0 -0.45793597630314969 0.024230769359779091 0 -0.4631872778078443 0.050062174524471058 0 -0.44755765064800451 0.039790068000500847 0 -0.45793597630314969 0.024230769359779091 0 -0.44755765064800451 0.039790068000500847 0 -0.43523671041618939 0.023434885238954581 0 -0.43070758581248142 0.047053180835022322 0 -0.4631872778078443 0.050062174524471058 0 -0.44755765064800451 0.039790068000500847 0 -0.4467001814262947 0.061097152827744368 0 -0.44755765064800451 0.039790068000500847 0 -0.4467001814262947 0.061097152827744368 0 -0.43070758581248142 0.047053180835022322 0 -0.45268467479845531 -0.00160063580491273 0 -0.45793597630314969 0.024230769359779091 0 -0.45268467479845531 -0.00160063580491273 0 -0.47044579822050858 0.003730308873902122 0 -0.45793597630314969 0.024230769359779091 0 -0.44755765064800451 0.039790068000500847 0 -0.45793597630314969 0.024230769359779091 0 -0.43523671041618939 0.023434885238954581 0 -0.45268467479845531 -0.00160063580491273 0 -0.45793597630314969 0.024230769359779091 0 -0.43523671041618939 0.023434885238954581 0 -0.43033724725149269 -0.0037964727450953309 0 -0.45268467479845531 -0.00160063580491273 0 -0.43523671041618939 0.023434885238954581 0 -0.43033724725149269 -0.0037964727450953309 0 -0.41324112120922679 0.019839095479414509 0 -0.43523671041618939 0.023434885238954581 0 -0.4131572459017161 -0.004875649818797438 0 -0.41324112120922679 0.019839095479414509 0 -0.40033306733275759 0.0019581273283447299 0 -0.43033724725149269 -0.0037964727450953309 0 -0.4131572459017161 -0.004875649818797438 0 -0.41324112120922679 0.019839095479414509 0 -0.43033724725149269 -0.0037964727450953309 0 -0.41324112120922679 0.019839095479414509 0 -0.41324112120922679 0.019839095479414509 0 -0.43523671041618939 0.023434885238954581 0 -0.4159879611894004 0.038538653043845933 0 -0.43523671041618939 0.023434885238954581 0 -0.43070758581248142 0.047053180835022322 0 -0.4159879611894004 0.038538653043845933 0 -0.4467001814262947 0.061097152827744368 0 -0.43070758581248142 0.047053180835022322 0 -0.43187545736445182 0.065921103617004775 0 -0.43070758581248142 0.047053180835022322 0 -0.41322656597679058 0.058941655142102069 0 -0.43187545736445182 0.065921103617004775 0 -0.43070758581248142 0.047053180835022322 0 -0.41322656597679058 0.058941655142102069 0 -0.4159879611894004 0.038538653043845933 0 -0.41322656597679058 0.058941655142102069 0 -0.4159879611894004 0.038538653043845933 0 -0.39614499516696089 0.04347466370392436 0 -0.41324112120922679 0.019839095479414509 0 -0.4159879611894004 0.038538653043845933 0 -0.39614499516696089 0.04347466370392436 0 -0.41324112120922679 0.019839095479414509 0 -0.39614499516696089 0.04347466370392436 0 -0.39614499516696089 0.04347466370392436 0 -0.37904886912469499 0.067110231928434197 0 -0.39695674231957478 0.074929810419583368 0 -0.41322656597679058 0.058941655142102069 0 -0.39614499516696089 0.04347466370392436 0 -0.39695674231957478 0.074929810419583368 0 -0.39614499516696089 0.04347466370392436 0 -0.37904886912469499 0.067110231928434197 0 -0.39614499516696089 0.04347466370392436 0 -0.37830855690199738 0.048851891747440382 0 -0.37904886912469499 0.067110231928434197 0 -0.37830855690199738 0.048851891747440382 0 -0.37904886912469499 0.067110231928434197 0 -0.37119345183321822 0.058853827639881867 0 -0.39614499516696089 0.04347466370392436 0 -0.37753126207020948 0.034899308803226177 0 -0.39262774316901877 0.02112007510405265 0 -0.39614499516696089 0.04347466370392436 0 -0.37830855690199738 0.048851891747440382 0 -0.37753126207020948 0.034899308803226177 0 -0.38389636562500351 0.0078670615218947963 0 -0.39262774316901877 0.02112007510405265 0 -0.37274578052696178 0.01868977009819147 0 -0.37753126207020948 0.034899308803226177 0 -0.39262774316901877 0.02112007510405265 0 -0.37274578052696178 0.01868977009819147 0 -0.38465333842141641 -0.0066435457767305304 0 -0.38389636562500351 0.0078670615218947963 0 -0.40033306733275759 0.0019581273283447299 0 -0.38389636562500351 0.0078670615218947963 0 -0.37274578052696178 0.01868977009819147 0 -0.36979036210562988 0.0025511841975563729 0 -0.38465333842141641 -0.0066435457767305304 0 -0.38389636562500351 0.0078670615218947963 0 -0.36979036210562988 0.0025511841975563729 0 -0.38389636562500351 0.0078670615218947963 0 -0.40033306733275759 0.0019581273283447299 0 -0.39262774316901877 0.02112007510405265 0 -0.41324112120922679 0.019839095479414509 0 -0.40033306733275759 0.0019581273283447299 0 -0.39262774316901877 0.02112007510405265 0 -0.41324112120922679 0.019839095479414509 0 -0.39614499516696089 0.04347466370392436 0 -0.39262774316901877 0.02112007510405265 0 -0.38940712396436111 0.098535478259042519 0 -0.39976920250104669 0.086913075381088473 0 -0.40655062222011962 0.096340958868671334 0 -0.39063101314785642 0.1199442217017349 0 -0.40655062222011962 0.096340958868671334 0 -0.40795026737523371 0.1101441825861223 0 -0.39063101314785642 0.1199442217017349 0 -0.38940712396436111 0.098535478259042519 0 -0.40655062222011962 0.096340958868671334 0 -0.39063101314785642 0.1199442217017349 0 -0.40655062222011962 0.096340958868671334 0 -0.39063101314785642 0.1199442217017349 0 -0.40795026737523371 0.1101441825861223 0 -0.40406865080306442 0.1250183431131778 0 -0.39063101314785642 0.1199442217017349 0 -0.37896648635229202 0.10715504183998489 0 -0.36716541190589658 0.118616890008602 0 -0.39063101314785642 0.1199442217017349 0 -0.37896648635229202 0.10715504183998489 0 -0.38940712396436111 0.098535478259042519 0 -0.37896648635229202 0.10715504183998489 0 -0.38940712396436111 0.098535478259042519 0 -0.37643332436138899 0.09558572737664002 0 -0.38119130922167832 0.078766060501995444 0 -0.3856317933390121 0.08567132342606161 0 -0.39695674231957478 0.074929810419583368 0 -0.37643332436138899 0.09558572737664002 0 -0.3856317933390121 0.08567132342606161 0 -0.37016311523106599 0.083751267223082917 0 -0.38119130922167832 0.078766060501995444 0 -0.3856317933390121 0.08567132342606161 0 -0.37016311523106599 0.083751267223082917 0 -0.38940712396436111 0.098535478259042519 0 -0.37643332436138899 0.09558572737664002 0 -0.3856317933390121 0.08567132342606161 0 -0.39695674231957478 0.074929810419583368 0 -0.37201358599706058 0.070711840939253895 0 -0.38119130922167832 0.078766060501995444 0 -0.39695674231957478 0.074929810419583368 0 -0.37201358599706058 0.070711840939253895 0 -0.37904886912469499 0.067110231928434197 0 -0.39695674231957478 0.074929810419583368 0 -0.37201358599706058 0.070711840939253895 0 -0.39695674231957478 0.074929810419583368 0 -0.39976920250104669 0.086913075381088473 0 -0.42189989864208899 0.079147779899912826 0 -0.38940712396436111 0.098535478259042519 0 -0.3856317933390121 0.08567132342606161 0 -0.39976920250104669 0.086913075381088473 0 -0.3856317933390121 0.08567132342606161 0 -0.39695674231957478 0.074929810419583368 0 -0.39976920250104669 0.086913075381088473 0 -0.42189989864208899 0.079147779899912826 0 -0.41823283762125668 0.10021421029095 0 -0.40655062222011962 0.096340958868671334 0 -0.39976920250104669 0.086913075381088473 0 -0.42189989864208899 0.079147779899912826 0 -0.40655062222011962 0.096340958868671334 0 -0.39695674231957478 0.074929810419583368 0 -0.42189989864208899 0.079147779899912826 0 -0.41322656597679058 0.058941655142102069 0 -0.39695674231957478 0.074929810419583368 0 -0.42189989864208899 0.079147779899912826 0 -0.43187545736445182 0.065921103617004775 0 -0.42189989864208899 0.079147779899912826 0 -0.44684305496460319 0.083365749380242285 0 -0.41322656597679058 0.058941655142102069 0 -0.43187545736445182 0.065921103617004775 0 -0.42189989864208899 0.079147779899912826 0 -0.42189989864208899 0.079147779899912826 0 -0.43230900050581528 0.10074033507248679 0 -0.44684305496460319 0.083365749380242285 0 -0.42189989864208899 0.079147779899912826 0 -0.43230900050581528 0.10074033507248679 0 -0.41823283762125668 0.10021421029095 0 -0.42189989864208899 0.079147779899912826 0 -0.44684305496460319 0.083365749380242285 0 -0.43230900050581528 0.10074033507248679 0 -0.41823283762125668 0.10021421029095 0 -0.42245439936302609 0.1146977950275566 0 -0.41823283762125668 0.10021421029095 0 -0.40795026737523371 0.1101441825861223 0 -0.42245439936302609 0.1146977950275566 0 -0.41823283762125668 0.10021421029095 0 -0.40655062222011962 0.096340958868671334 0 -0.40795026737523371 0.1101441825861223 0 -0.40795026737523371 0.1101441825861223 0 -0.42245439936302609 0.1146977950275566 0 -0.41854804079657681 0.1335618185962307 0 -0.40795026737523371 0.1101441825861223 0 -0.41854804079657681 0.1335618185962307 0 -0.40795026737523371 0.1101441825861223 0 -0.41854804079657681 0.1335618185962307 0 -0.40406865080306442 0.1250183431131778 0 -0.4361514068569779 0.1212930370016405 0 -0.42245439936302609 0.1146977950275566 0 -0.41854804079657681 0.1335618185962307 0 -0.43230900050581528 0.10074033507248679 0 -0.4361514068569779 0.1212930370016405 0 -0.42245439936302609 0.1146977950275566 0 -0.4361514068569779 0.1212930370016405 0 -0.45131059104818438 0.10389771754541841 0 -0.45603072582896947 0.12415654782577901 0 -0.43230900050581528 0.10074033507248679 0 -0.4361514068569779 0.1212930370016405 0 -0.45131059104818438 0.10389771754541841 0 -0.43230900050581528 0.10074033507248679 0 -0.45131059104818438 0.10389771754541841 0 -0.44684305496460319 0.083365749380242285 0 -0.45131059104818438 0.10389771754541841 0 -0.46040635620489312 0.091287960740373597 0 -0.47503319949424611 0.10199479634667059 0 -0.45131059104818438 0.10389771754541841 0 -0.45603072582896947 0.12415654782577901 0 -0.47503319949424611 0.10199479634667059 0 -0.4467001814262947 0.061097152827744368 0 -0.43187545736445182 0.065921103617004775 0 -0.44684305496460319 0.083365749380242285 0 -0.45131059104818438 0.10389771754541841 0 -0.44684305496460319 0.083365749380242285 0 -0.46040635620489312 0.091287960740373597 0 -0.46040635620489312 0.091287960740373597 0 -0.46843857931253879 0.07589357968916309 0 -0.47503319949424611 0.10199479634667059 0 -0.44684305496460319 0.083365749380242285 0 -0.46040635620489312 0.091287960740373597 0 -0.46843857931253879 0.07589357968916309 0 -0.4631872778078443 0.050062174524471058 0 -0.46843857931253879 0.07589357968916309 0 -0.4467001814262947 0.061097152827744368 0 -0.44684305496460319 0.083365749380242285 0 -0.46843857931253879 0.07589357968916309 0 -0.48160115767747708 0.06010989829645641 0 -0.46843857931253879 0.07589357968916309 0 -0.5 0.083070687084506711 0 -0.46843857931253879 0.07589357968916309 0 -0.5 0.083070687084506711 0 -0.47503319949424611 0.10199479634667059 0 -0.5 0.05407575864766756 0 -0.48160115767747708 0.06010989829645641 0 -0.5 0.083070687084506711 0 -0.45603072582896947 0.12415654782577901 0 -0.47503319949424611 0.10199479634667059 0 -0.47840746745339868 0.1318715347448986 0 -0.5 0.083070687084506711 0 -0.47503319949424611 0.10199479634667059 0 -0.5 0.11206561552134579 0 -0.47503319949424611 0.10199479634667059 0 -0.5 0.11206561552134579 0 -0.47840746745339868 0.1318715347448986 0 -0.5 0.11206561552134579 0 -0.47840746745339868 0.1318715347448986 0 -0.5 0.14106054395818479 0 -0.47840746745339868 0.1318715347448986 0 -0.4813713775429343 0.15534342778339541 0 -0.45584990199199521 0.14839652371063539 0 -0.47840746745339868 0.1318715347448986 0 -0.4813713775429343 0.15534342778339541 0 -0.5 0.14106054395818479 0 -0.4813713775429343 0.15534342778339541 0 -0.5 0.14106054395818479 0 -0.5 0.17005547239502389 0 -0.4813713775429343 0.15534342778339541 0 -0.5 0.17005547239502389 0 -0.47888983910924399 0.1833910978263659 0 -0.5 0.17005547239502389 0 -0.47888983910924399 0.1833910978263659 0 -0.49999999999999639 0.19905040083186301 0 -0.4813713775429343 0.15534342778339541 0 -0.47888983910924399 0.1833910978263659 0 -0.46013732273498392 0.17116473448995881 0 -0.4813713775429343 0.15534342778339541 0 -0.47888983910924399 0.1833910978263659 0 -0.4813713775429343 0.15534342778339541 0 -0.46013732273498392 0.17116473448995881 0 -0.45584990199199521 0.14839652371063539 0 -0.47888983910924399 0.1833910978263659 0 -0.46013732273498392 0.17116473448995881 0 -0.4553652866229031 0.19812390853730849 0 -0.46013732273498392 0.17116473448995881 0 -0.43974358763926291 0.18039709061644729 0 -0.4553652866229031 0.19812390853730849 0 -0.46013732273498392 0.17116473448995881 0 -0.45584990199199521 0.14839652371063539 0 -0.42914581421791992 0.156979454606339 0 -0.46013732273498392 0.17116473448995881 0 -0.43974358763926291 0.18039709061644729 0 -0.42914581421791992 0.156979454606339 0 -0.43890233478009338 0.1378395493323826 0 -0.45584990199199521 0.14839652371063539 0 -0.42914581421791992 0.156979454606339 0 -0.4361514068569779 0.1212930370016405 0 -0.45603072582896947 0.12415654782577901 0 -0.43890233478009338 0.1378395493323826 0 -0.45603072582896947 0.12415654782577901 0 -0.43890233478009338 0.1378395493323826 0 -0.45584990199199521 0.14839652371063539 0 -0.45603072582896947 0.12415654782577901 0 -0.47840746745339868 0.1318715347448986 0 -0.45584990199199521 0.14839652371063539 0 -0.48510068849613291 0.2464952989699998 0 -0.5 0.22952651967534751 0 -0.5 0.27058277969487637 0 -0.48510068849613291 0.2464952989699998 0 -0.47450648191078398 0.23293413722231679 0 -0.4662317729600568 0.24711617116125539 0 -0.48510068849613291 0.2464952989699998 0 -0.5 0.22952651967534751 0 -0.47450648191078398 0.23293413722231679 0 -0.5 0.22952651967534751 0 -0.47450648191078398 0.23293413722231679 0 -0.47640830067555312 0.21143876786933641 0 -0.47450648191078398 0.23293413722231679 0 -0.47640830067555312 0.21143876786933641 0 -0.47640830067555312 0.21143876786933641 0 -0.49999999999999639 0.19905040083186301 0 -0.5 0.22952651967534751 0 -0.47640830067555312 0.21143876786933641 0 -0.49999999999999639 0.19905040083186301 0 -0.47888983910924399 0.1833910978263659 0 -0.47640830067555312 0.21143876786933641 0 -0.49999999999999639 0.19905040083186301 0 -0.47888983910924399 0.1833910978263659 0 -0.47640830067555312 0.21143876786933641 0 -0.47888983910924399 0.1833910978263659 0 -0.47640830067555312 0.21143876786933641 0 -0.4553652866229031 0.19812390853730849 0 -0.43974358763926291 0.18039709061644729 0 -0.4553652866229031 0.19812390853730849 0 -0.43067986422853077 0.20940139548392031 0 -0.4553652866229031 0.19812390853730849 0 -0.45283971357182312 0.22381499832142371 0 -0.43067986422853077 0.20940139548392031 0 -0.47640830067555312 0.21143876786933641 0 -0.4553652866229031 0.19812390853730849 0 -0.45283971357182312 0.22381499832142371 0 -0.47640830067555312 0.21143876786933641 0 -0.45283971357182312 0.22381499832142371 0 -0.47450648191078398 0.23293413722231679 0 -0.45283971357182312 0.22381499832142371 0 -0.45078000859246359 0.24156244513336969 0 -0.47450648191078398 0.23293413722231679 0 -0.47640830067555312 0.21143876786933641 0 -0.45283971357182312 0.22381499832142371 0 -0.45283971357182312 0.22381499832142371 0 -0.43294786837480398 0.2404538296894207 0 -0.42927112646809362 0.23619122877351181 0 -0.45283971357182312 0.22381499832142371 0 -0.42927112646809362 0.23619122877351181 0 -0.45283971357182312 0.22381499832142371 0 -0.42927112646809362 0.23619122877351181 0 -0.43067986422853077 0.20940139548392031 0 -0.45283971357182312 0.22381499832142371 0 -0.45078000859246359 0.24156244513336969 0 -0.43294786837480398 0.2404538296894207 0 -0.43294786837480398 0.2404538296894207 0 -0.44957601688056159 0.25938839971938082 0 -0.45078000859246359 0.24156244513336969 0 -0.43294786837480398 0.2404538296894207 0 -0.44957601688056159 0.25938839971938082 0 -0.45078000859246359 0.24156244513336969 0 -0.4662317729600568 0.24711617116125539 0 -0.44957601688056159 0.25938839971938082 0 -0.47450648191078398 0.23293413722231679 0 -0.45078000859246359 0.24156244513336969 0 -0.4662317729600568 0.24711617116125539 0 -0.42927112646809362 0.23619122877351181 0 -0.40439403923729561 0.237116777479636 0 -0.40570253936436479 0.24856745922560119 0 -0.42927112646809362 0.23619122877351181 0 -0.40570253936436479 0.24856745922560119 0 -0.43294786837480398 0.2404538296894207 0 -0.42927112646809362 0.23619122877351181 0 -0.40570253936436479 0.24856745922560119 0 -0.42927112646809362 0.23619122877351181 0 -0.41099867150134572 0.22378265931279079 0 -0.43067986422853077 0.20940139548392031 0 -0.42927112646809362 0.23619122877351181 0 -0.41099867150134572 0.22378265931279079 0 -0.40439403923729561 0.237116777479636 0 -0.40693149157881192 0.20854646138297669 0 -0.43067986422853077 0.20940139548392031 0 -0.41468845130467291 0.19268004053423909 0 -0.41099867150134572 0.22378265931279079 0 -0.40693149157881192 0.20854646138297669 0 -0.43067986422853077 0.20940139548392031 0 -0.43974358763926291 0.18039709061644729 0 -0.43067986422853077 0.20940139548392031 0 -0.41468845130467291 0.19268004053423909 0 -0.40693149157881192 0.20854646138297669 0 -0.41468845130467291 0.19268004053423909 0 -0.3971577940731173 0.19827573187671929 0 -0.41468845130467291 0.19268004053423909 0 -0.3971577940731173 0.19827573187671929 0 -0.39721082993519219 0.18448993107768991 0 -0.3971577940731173 0.19827573187671929 0 -0.38589476142810619 0.19424352100093389 0 -0.39721082993519219 0.18448993107768991 0 -0.38589476142810619 0.19424352100093389 0 -0.37633455857784293 0.18261391494179069 0 -0.37360736010814782 0.20134128663860251 0 -0.38589476142810619 0.19424352100093389 0 -0.388204088430469 0.2080493245121296 0 -0.37360736010814782 0.20134128663860251 0 -0.3971577940731173 0.19827573187671929 0 -0.38589476142810619 0.19424352100093389 0 -0.388204088430469 0.2080493245121296 0 -0.388204088430469 0.2080493245121296 0 -0.37752279527241261 0.21261086987475841 0 -0.37360736010814782 0.20134128663860251 0 -0.388204088430469 0.2080493245121296 0 -0.39698893960476778 0.22105750592270679 0 -0.38334950790794681 0.2216260941536595 0 -0.388204088430469 0.2080493245121296 0 -0.37752279527241261 0.21261086987475841 0 -0.38334950790794681 0.2216260941536595 0 -0.40693149157881192 0.20854646138297669 0 -0.3971577940731173 0.19827573187671929 0 -0.388204088430469 0.2080493245121296 0 -0.40693149157881192 0.20854646138297669 0 -0.388204088430469 0.2080493245121296 0 -0.39698893960476778 0.22105750592270679 0 -0.41099867150134572 0.22378265931279079 0 -0.40693149157881192 0.20854646138297669 0 -0.39698893960476778 0.22105750592270679 0 -0.41099867150134572 0.22378265931279079 0 -0.39817935363044121 0.2307605800777236 0 -0.39698893960476778 0.22105750592270679 0 -0.41099867150134572 0.22378265931279079 0 -0.39817935363044121 0.2307605800777236 0 -0.40439403923729561 0.237116777479636 0 -0.39817935363044121 0.2307605800777236 0 -0.39698893960476778 0.22105750592270679 0 -0.38938082192181989 0.23429513208400299 0 -0.39698893960476778 0.22105750592270679 0 -0.38334950790794681 0.2216260941536595 0 -0.38938082192181989 0.23429513208400299 0 -0.37752279527241261 0.21261086987475841 0 -0.38334950790794681 0.2216260941536595 0 -0.37349668708843092 0.2226496950895116 0 -0.38334950790794681 0.2216260941536595 0 -0.37780308712422273 0.23309721308500589 0 -0.37349668708843092 0.2226496950895116 0 -0.38334950790794681 0.2216260941536595 0 -0.37780308712422273 0.23309721308500589 0 -0.38938082192181989 0.23429513208400299 0 -0.37780308712422273 0.23309721308500589 0 -0.38938082192181989 0.23429513208400299 0 -0.38455494932564349 0.24416718140159829 0 -0.38938082192181989 0.23429513208400299 0 -0.38455494932564349 0.24416718140159829 0 -0.39556747567899392 0.24292135359640349 0 -0.37780308712422273 0.23309721308500589 0 -0.37552267705158737 0.2431978490864326 0 -0.38455494932564349 0.24416718140159829 0 -0.37552267705158737 0.2431978490864326 0 -0.38455494932564349 0.24416718140159829 0 -0.37675611103540763 0.25409865512553548 0 -0.38455494932564349 0.24416718140159829 0 -0.39556747567899392 0.24292135359640349 0 -0.38900306751682168 0.25733661077056619 0 -0.39556747567899392 0.24292135359640349 0 -0.40570253936436479 0.24856745922560119 0 -0.38900306751682168 0.25733661077056619 0 -0.39817935363044121 0.2307605800777236 0 -0.38938082192181989 0.23429513208400299 0 -0.39556747567899392 0.24292135359640349 0 -0.39817935363044121 0.2307605800777236 0 -0.39556747567899392 0.24292135359640349 0 -0.40439403923729561 0.237116777479636 0 -0.39556747567899392 0.24292135359640349 0 -0.40439403923729561 0.237116777479636 0 -0.40570253936436479 0.24856745922560119 0 -0.40439403923729561 0.237116777479636 0 -0.40570253936436479 0.24856745922560119 0 -0.41854804079657681 0.1335618185962307 0 -0.42914581421791992 0.156979454606339 0 -0.40043471814444209 0.15516303321545699 0 -0.41854804079657681 0.1335618185962307 0 -0.39914528189259102 0.13642314956862331 0 -0.40406865080306442 0.1250183431131778 0 -0.4361514068569779 0.1212930370016405 0 -0.43890233478009338 0.1378395493323826 0 -0.41854804079657681 0.1335618185962307 0 -0.41854804079657681 0.1335618185962307 0 -0.42914581421791992 0.156979454606339 0 -0.43890233478009338 0.1378395493323826 0 -0.41854804079657681 0.1335618185962307 0 -0.42914581421791992 0.156979454606339 0 -0.43974358763926291 0.18039709061644729 0 -0.42914581421791992 0.156979454606339 0 -0.43974358763926291 0.18039709061644729 0 -0.42914581421791992 0.156979454606339 0 -0.41320507520050959 0.17295104721716609 0 -0.43974358763926291 0.18039709061644729 0 -0.41468845130467291 0.19268004053423909 0 -0.41320507520050959 0.17295104721716609 0 -0.41468845130467291 0.19268004053423909 0 -0.41320507520050959 0.17295104721716609 0 -0.39721082993519219 0.18448993107768991 0 -0.42914581421791992 0.156979454606339 0 -0.41320507520050959 0.17295104721716609 0 -0.40043471814444209 0.15516303321545699 0 -0.41320507520050959 0.17295104721716609 0 -0.39020731289493082 0.17075062011690681 0 -0.40043471814444209 0.15516303321545699 0 -0.41320507520050959 0.17295104721716609 0 -0.39721082993519219 0.18448993107768991 0 -0.39020731289493082 0.17075062011690681 0 -0.38589476142810619 0.19424352100093389 0 -0.39721082993519219 0.18448993107768991 0 -0.37633455857784293 0.18261391494179069 0 -0.39721082993519219 0.18448993107768991 0 -0.37633455857784293 0.18261391494179069 0 -0.39020731289493082 0.17075062011690681 0 -0.37604315808934557 0.1616159605326225 0 -0.39020731289493082 0.17075062011690681 0 -0.40043471814444209 0.15516303321545699 0 -0.37633455857784293 0.18261391494179069 0 -0.37604315808934557 0.1616159605326225 0 -0.39020731289493082 0.17075062011690681 0 -0.37604315808934557 0.1616159605326225 0 -0.40043471814444209 0.15516303321545699 0 -0.37471140407559322 0.1435474845347986 0 -0.40043471814444209 0.15516303321545699 0 -0.39914528189259102 0.13642314956862331 0 -0.37471140407559322 0.1435474845347986 0 -0.41854804079657681 0.1335618185962307 0 -0.40043471814444209 0.15516303321545699 0 -0.39914528189259102 0.13642314956862331 0 -0.39063101314785642 0.1199442217017349 0 -0.39914528189259102 0.13642314956862331 0 -0.40406865080306442 0.1250183431131778 0 -0.39063101314785642 0.1199442217017349 0 -0.37471140407559322 0.1435474845347986 0 -0.39063101314785642 0.1199442217017349 0 -0.39914528189259102 0.13642314956862331 0 -0.37471140407559322 0.1435474845347986 0 -0.39063101314785642 0.1199442217017349 0 -0.37471140407559322 0.1435474845347986 0 -0.36716541190589658 0.118616890008602 0 -0.35994195951422209 0.1344452768815545 0 -0.37471140407559322 0.1435474845347986 0 -0.36716541190589658 0.118616890008602 0 -0.35994195951422209 0.1344452768815545 0 -0.36716541190589658 0.118616890008602 0 -0.35352278934268327 0.12307152153672141 0 -0.34641309729257957 0.13731862859844601 0 -0.34013489564456101 0.1359120708212119 0 -0.34492978578452338 0.1096826786703838 0 -0.35994195951422209 0.1344452768815545 0 -0.34641309729257957 0.13731862859844601 0 -0.35352278934268327 0.12307152153672141 0 -0.35994195951422209 0.1344452768815545 0 -0.34641309729257957 0.13731862859844601 0 -0.35789709495435779 0.14967185972920441 0 -0.34641309729257957 0.13731862859844601 0 -0.34789640880063583 0.16495457852650819 0 -0.34475730797662613 0.16425129963789131 0 -0.34641309729257957 0.13731862859844601 0 -0.34789640880063583 0.16495457852650819 0 -0.34641309729257957 0.13731862859844601 0 -0.35789709495435779 0.14967185972920441 0 -0.34789640880063583 0.16495457852650819 0 -0.34641309729257957 0.13731862859844601 0 -0.34475730797662613 0.16425129963789131 0 -0.34013489564456101 0.1359120708212119 0 -0.35994195951422209 0.1344452768815545 0 -0.35789709495435779 0.14967185972920441 0 -0.37471140407559322 0.1435474845347986 0 -0.37471140407559322 0.1435474845347986 0 -0.35879179500333003 0.16715074736786231 0 -0.35789709495435779 0.14967185972920441 0 -0.37471140407559322 0.1435474845347986 0 -0.35879179500333003 0.16715074736786231 0 -0.37604315808934557 0.1616159605326225 0 -0.37471140407559322 0.1435474845347986 0 -0.35879179500333003 0.16715074736786231 0 -0.37604315808934557 0.1616159605326225 0 -0.36770080355277779 0.17295393471821821 0 -0.35879179500333003 0.16715074736786231 0 -0.37633455857784293 0.18261391494179069 0 -0.37604315808934557 0.1616159605326225 0 -0.36770080355277779 0.17295393471821821 0 -0.37633455857784293 0.18261391494179069 0 -0.36024484160731629 0.17922248672973989 0 -0.36412185028301147 0.19234279238731111 0 -0.37633455857784293 0.18261391494179069 0 -0.36770080355277779 0.17295393471821821 0 -0.36024484160731629 0.17922248672973989 0 -0.36770080355277779 0.17295393471821821 0 -0.36024484160731629 0.17922248672973989 0 -0.35879179500333003 0.16715074736786231 0 -0.34475730797662613 0.16425129963789131 0 -0.34937972030869158 0.1925905284545705 0 -0.34475730797662613 0.16425129963789131 0 -0.33955964773429331 0.17429409395644799 0 -0.34937972030869158 0.1925905284545705 0 -0.34789640880063583 0.16495457852650819 0 -0.34937972030869158 0.1925905284545705 0 -0.36024484160731629 0.17922248672973989 0 -0.34789640880063583 0.16495457852650819 0 -0.34937972030869158 0.1925905284545705 0 -0.34789640880063583 0.16495457852650819 0 -0.34475730797662613 0.16425129963789131 0 -0.34937972030869158 0.1925905284545705 0 -0.35789709495435779 0.14967185972920441 0 -0.35879179500333003 0.16715074736786231 0 -0.34789640880063583 0.16495457852650819 0 -0.36024484160731629 0.17922248672973989 0 -0.35879179500333003 0.16715074736786231 0 -0.34789640880063583 0.16495457852650819 0 -0.34475730797662613 0.16425129963789131 0 -0.33718479128260948 0.15937809544746401 0 -0.33738994680948231 0.15124435901621999 0 -0.34475730797662613 0.16425129963789131 0 -0.33718479128260948 0.15937809544746401 0 -0.33813633189250208 0.16634522180797001 0 -0.34475730797662613 0.16425129963789131 0 -0.33813633189250208 0.16634522180797001 0 -0.33955964773429331 0.17429409395644799 0 -0.33813633189250208 0.16634522180797001 0 -0.33104358057647992 0.16745739819007679 0 -0.33955964773429331 0.17429409395644799 0 -0.33718479128260948 0.15937809544746401 0 -0.33813633189250208 0.16634522180797001 0 -0.33104358057647992 0.16745739819007679 0 -0.33718479128260948 0.15937809544746401 0 -0.33104358057647992 0.16745739819007679 0 -0.33026858376101731 0.15190637449176561 0 -0.33104358057647992 0.16745739819007679 0 -0.33403331992976748 0.18227938602527921 0 -0.31962491903722229 0.18594758427241961 0 -0.33955964773429331 0.17429409395644799 0 -0.33403331992976748 0.18227938602527921 0 -0.34937972030869158 0.1925905284545705 0 -0.33104358057647992 0.16745739819007679 0 -0.33955964773429331 0.17429409395644799 0 -0.33403331992976748 0.18227938602527921 0 -0.31962491903722229 0.18594758427241961 0 -0.31796283648197832 0.1633337389314328 0 -0.30596240671843039 0.18080678990447141 0 -0.31962491903722229 0.18594758427241961 0 -0.31796283648197832 0.1633337389314328 0 -0.33104358057647992 0.16745739819007679 0 -0.31962491903722229 0.18594758427241961 0 -0.31796283648197832 0.1633337389314328 0 -0.33104358057647992 0.16745739819007679 0 -0.31796283648197832 0.1633337389314328 0 -0.33026858376101731 0.15190637449176561 0 -0.31796283648197832 0.1633337389314328 0 -0.31630075392673418 0.14071989359044609 0 -0.31796283648197832 0.1633337389314328 0 -0.31630075392673418 0.14071989359044609 0 -0.33026858376101731 0.15190637449176561 0 -0.31630075392673418 0.14071989359044609 0 -0.32855297285770901 0.13997743418302819 0 -0.33026858376101731 0.15190637449176561 0 -0.31630075392673418 0.14071989359044609 0 -0.30835875028686138 0.12836861128214669 0 -0.32196666651361477 0.12487749701900901 0 -0.31630075392673418 0.14071989359044609 0 -0.32855297285770901 0.13997743418302819 0 -0.32196666651361477 0.12487749701900901 0 -0.32855297285770901 0.13997743418302819 0 -0.33106980320980312 0.1246503866679774 0 -0.32196666651361477 0.12487749701900901 0 -0.32855297285770901 0.13997743418302819 0 -0.34013489564456101 0.1359120708212119 0 -0.3346041553825978 0.14477395468276741 0 -0.32855297285770901 0.13997743418302819 0 -0.34013489564456101 0.1359120708212119 0 -0.33106980320980312 0.1246503866679774 0 -0.34475730797662613 0.16425129963789131 0 -0.34013489564456101 0.1359120708212119 0 -0.34013489564456101 0.1359120708212119 0 -0.33738994680948231 0.15124435901621999 0 -0.3346041553825978 0.14477395468276741 0 -0.34475730797662613 0.16425129963789131 0 -0.34013489564456101 0.1359120708212119 0 -0.33738994680948231 0.15124435901621999 0 -0.33718479128260948 0.15937809544746401 0 -0.33738994680948231 0.15124435901621999 0 -0.33026858376101731 0.15190637449176561 0 -0.33738994680948231 0.15124435901621999 0 -0.33026858376101731 0.15190637449176561 0 -0.3346041553825978 0.14477395468276741 0 -0.32855297285770901 0.13997743418302819 0 -0.33026858376101731 0.15190637449176561 0 -0.3346041553825978 0.14477395468276741 0 -0.35208907389890948 0.24306917690434299 0 -0.33787454055877381 0.24529314191448051 0 -0.34142207509263922 0.25572960106260723 0 -0.35208907389890948 0.24306917690434299 0 -0.34508884738596168 0.2342440782649087 0 -0.33787454055877381 0.24529314191448051 0 -0.35689366634974828 0.23865726176967661 0 -0.35926376548055328 0.2486735779402334 0 -0.35208907389890948 0.24306917690434299 0 -0.35926376548055328 0.2486735779402334 0 -0.36665925593476811 0.2402392529692276 0 -0.36723308052532222 0.25309369692869038 0 -0.35689366634974828 0.23865726176967661 0 -0.35926376548055328 0.2486735779402334 0 -0.36665925593476811 0.2402392529692276 0 -0.37552267705158737 0.2431978490864326 0 -0.36665925593476811 0.2402392529692276 0 -0.36723308052532222 0.25309369692869038 0 -0.37780308712422273 0.23309721308500589 0 -0.37552267705158737 0.2431978490864326 0 -0.36665925593476811 0.2402392529692276 0 -0.37780308712422273 0.23309721308500589 0 -0.36665925593476811 0.2402392529692276 0 -0.36843053074319038 0.2307028505946831 0 -0.3637449320256837 0.23462317477255459 0 -0.36665925593476811 0.2402392529692276 0 -0.36843053074319038 0.2307028505946831 0 -0.35689366634974828 0.23865726176967661 0 -0.3637449320256837 0.23462317477255459 0 -0.36304404037139409 0.23042929735762199 0 -0.35689366634974828 0.23865726176967661 0 -0.3637449320256837 0.23462317477255459 0 -0.36665925593476811 0.2402392529692276 0 -0.35689366634974828 0.23865726176967661 0 -0.36304404037139409 0.23042929735762199 0 -0.36041387714694573 0.22521835140317789 0 -0.36304404037139409 0.23042929735762199 0 -0.36843053074319038 0.2307028505946831 0 -0.36573719559140289 0.222944848248018 0 -0.3637449320256837 0.23462317477255459 0 -0.36304404037139409 0.23042929735762199 0 -0.36843053074319038 0.2307028505946831 0 -0.37780308712422273 0.23309721308500589 0 -0.36843053074319038 0.2307028505946831 0 -0.37349668708843092 0.2226496950895116 0 -0.36843053074319038 0.2307028505946831 0 -0.37349668708843092 0.2226496950895116 0 -0.36573719559140289 0.222944848248018 0 -0.37349668708843092 0.2226496950895116 0 -0.36573719559140289 0.222944848248018 0 -0.36813700589141007 0.21491629458094519 0 -0.36304404037139409 0.23042929735762199 0 -0.36573719559140289 0.222944848248018 0 -0.36041387714694573 0.22521835140317789 0 -0.36573719559140289 0.222944848248018 0 -0.36041387714694573 0.22521835140317789 0 -0.36096209089537368 0.21759825830877291 0 -0.36041387714694573 0.22521835140317789 0 -0.35785158193032179 0.22427444164843771 0 -0.36096209089537368 0.21759825830877291 0 -0.35689366634974828 0.23865726176967661 0 -0.35785158193032179 0.22427444164843771 0 -0.35313669332921982 0.21562389511212349 0 -0.35785158193032179 0.22427444164843771 0 -0.35313669332921982 0.21562389511212349 0 -0.36096209089537368 0.21759825830877291 0 -0.35689366634974828 0.23865726176967661 0 -0.35313669332921982 0.21562389511212349 0 -0.35208907389890948 0.24306917690434299 0 -0.34508884738596168 0.2342440782649087 0 -0.35073439710380072 0.2178298526794567 0 -0.34508884738596168 0.2342440782649087 0 -0.35073439710380072 0.2178298526794567 0 -0.33965737798236312 0.2307841415613546 0 -0.35208907389890948 0.24306917690434299 0 -0.35073439710380072 0.2178298526794567 0 -0.35689366634974828 0.23865726176967661 0 -0.35073439710380072 0.2178298526794567 0 -0.35313669332921982 0.21562389511212349 0 -0.35689366634974828 0.23865726176967661 0 -0.35208907389890948 0.24306917690434299 0 -0.35073439710380072 0.2178298526794567 0 -0.35689366634974828 0.23865726176967661 0 -0.36041387714694573 0.22521835140317789 0 -0.35785158193032179 0.22427444164843771 0 -0.35073439710380072 0.2178298526794567 0 -0.34937972030869158 0.1925905284545705 0 -0.35313669332921982 0.21562389511212349 0 -0.36104277081305908 0.20594574517185199 0 -0.34937972030869158 0.1925905284545705 0 -0.35073439710380072 0.2178298526794567 0 -0.35313669332921982 0.21562389511212349 0 -0.34937972030869158 0.1925905284545705 0 -0.35313669332921982 0.21562389511212349 0 -0.34937972030869158 0.1925905284545705 0 -0.35073439710380072 0.2178298526794567 0 -0.34937972030869158 0.1925905284545705 0 -0.34310613959102931 0.2055031457500841 0 -0.35073439710380072 0.2178298526794567 0 -0.34310613959102931 0.2055031457500841 0 -0.34102096872395049 0.21330790674795511 0 -0.35073439710380072 0.2178298526794567 0 -0.34102096872395049 0.21330790674795511 0 -0.34050958406480097 0.2204489809667724 0 -0.35313669332921982 0.21562389511212349 0 -0.36096209089537368 0.21759825830877291 0 -0.36104277081305908 0.20594574517185199 0 -0.36573719559140289 0.222944848248018 0 -0.36096209089537368 0.21759825830877291 0 -0.36813700589141007 0.21491629458094519 0 -0.36096209089537368 0.21759825830877291 0 -0.36813700589141007 0.21491629458094519 0 -0.36104277081305908 0.20594574517185199 0 -0.37752279527241261 0.21261086987475841 0 -0.37349668708843092 0.2226496950895116 0 -0.36813700589141007 0.21491629458094519 0 -0.37752279527241261 0.21261086987475841 0 -0.36813700589141007 0.21491629458094519 0 -0.37360736010814782 0.20134128663860251 0 -0.36813700589141007 0.21491629458094519 0 -0.36104277081305908 0.20594574517185199 0 -0.37360736010814782 0.20134128663860251 0 -0.37633455857784293 0.18261391494179069 0 -0.37360736010814782 0.20134128663860251 0 -0.36412185028301147 0.19234279238731111 0 -0.36104277081305908 0.20594574517185199 0 -0.37360736010814782 0.20134128663860251 0 -0.36412185028301147 0.19234279238731111 0 -0.36024484160731629 0.17922248672973989 0 -0.36412185028301147 0.19234279238731111 0 -0.34937972030869158 0.1925905284545705 0 -0.36104277081305908 0.20594574517185199 0 -0.36412185028301147 0.19234279238731111 0 -0.34937972030869158 0.1925905284545705 0 -0.33403331992976748 0.18227938602527921 0 -0.34937972030869158 0.1925905284545705 0 -0.33132558757267788 0.19645560619981381 0 -0.34937972030869158 0.1925905284545705 0 -0.33132558757267788 0.19645560619981381 0 -0.34310613959102931 0.2055031457500841 0 -0.33132558757267788 0.19645560619981381 0 -0.33206760714527173 0.20694684499318661 0 -0.34310613959102931 0.2055031457500841 0 -0.33403331992976748 0.18227938602527921 0 -0.31962491903722229 0.18594758427241961 0 -0.33132558757267788 0.19645560619981381 0 -0.31962491903722229 0.18594758427241961 0 -0.33132558757267788 0.19645560619981381 0 -0.32128700159246643 0.2085614296134064 0 -0.31962491903722229 0.18594758427241961 0 -0.32128700159246643 0.2085614296134064 0 -0.31094130810426679 0.20146887601233149 0 -0.31962491903722229 0.18594758427241961 0 -0.32128700159246643 0.2085614296134064 0 -0.32128700159246643 0.2085614296134064 0 -0.30991457648112369 0.2265504040794763 0 -0.30833129431909739 0.21334832502430981 0 -0.32128700159246643 0.2085614296134064 0 -0.30833129431909739 0.21334832502430981 0 -0.31094130810426679 0.20146887601233149 0 -0.32128700159246643 0.2085614296134064 0 -0.334517009846864 0.21514148884522391 0 -0.33414886994078158 0.22469785659874761 0 -0.334517009846864 0.21514148884522391 0 -0.33206760714527173 0.20694684499318661 0 -0.34102096872395049 0.21330790674795511 0 -0.33132558757267788 0.19645560619981381 0 -0.32128700159246643 0.2085614296134064 0 -0.33206760714527173 0.20694684499318661 0 -0.32128700159246643 0.2085614296134064 0 -0.334517009846864 0.21514148884522391 0 -0.33206760714527173 0.20694684499318661 0 -0.33206760714527173 0.20694684499318661 0 -0.34310613959102931 0.2055031457500841 0 -0.34102096872395049 0.21330790674795511 0 -0.334517009846864 0.21514148884522391 0 -0.34102096872395049 0.21330790674795511 0 -0.34050958406480097 0.2204489809667724 0 -0.33965737798236312 0.2307841415613546 0 -0.33414886994078158 0.22469785659874761 0 -0.32294908414771051 0.231175274954393 0 -0.34050958406480097 0.2204489809667724 0 -0.33965737798236312 0.2307841415613546 0 -0.33414886994078158 0.22469785659874761 0 -0.334517009846864 0.21514148884522391 0 -0.34050958406480097 0.2204489809667724 0 -0.33414886994078158 0.22469785659874761 0 -0.35073439710380072 0.2178298526794567 0 -0.34050958406480097 0.2204489809667724 0 -0.33965737798236312 0.2307841415613546 0 -0.32128700159246643 0.2085614296134064 0 -0.33414886994078158 0.22469785659874761 0 -0.32294908414771051 0.231175274954393 0 -0.32128700159246643 0.2085614296134064 0 -0.32294908414771051 0.231175274954393 0 -0.32128700159246643 0.2085614296134064 0 -0.32294908414771051 0.231175274954393 0 -0.30991457648112369 0.2265504040794763 0 -0.32294908414771051 0.231175274954393 0 -0.30659471691689572 0.242716670786389 0 -0.30991457648112369 0.2265504040794763 0 -0.32294908414771051 0.231175274954393 0 -0.30659471691689572 0.242716670786389 0 -0.32493898666941562 0.25370598596143412 0 -0.33965737798236312 0.2307841415613546 0 -0.32294908414771051 0.231175274954393 0 -0.33787454055877381 0.24529314191448051 0 -0.32294908414771051 0.231175274954393 0 -0.33787454055877381 0.24529314191448051 0 -0.32493898666941562 0.25370598596143412 0 -0.34508884738596168 0.2342440782649087 0 -0.33965737798236312 0.2307841415613546 0 -0.33787454055877381 0.24529314191448051 0 -0.28392805579818597 0.24584677119781029 0 -0.30659471691689572 0.242716670786389 0 -0.29475597619187288 0.23283261746471121 0 -0.28392805579818597 0.24584677119781029 0 -0.29475597619187288 0.23283261746471121 0 -0.28109078806307641 0.23123665432302171 0 -0.30991457648112369 0.2265504040794763 0 -0.2995127007984647 0.22240216811521779 0 -0.29475597619187288 0.23283261746471121 0 -0.30659471691689572 0.242716670786389 0 -0.30991457648112369 0.2265504040794763 0 -0.29475597619187288 0.23283261746471121 0 -0.30991457648112369 0.2265504040794763 0 -0.2995127007984647 0.22240216811521779 0 -0.30833129431909739 0.21334832502430981 0 -0.2995127007984647 0.22240216811521779 0 -0.29475597619187288 0.23283261746471121 0 -0.28658767146556752 0.2208426317688808 0 -0.29475597619187288 0.23283261746471121 0 -0.28658767146556752 0.2208426317688808 0 -0.28109078806307641 0.23123665432302171 0 -0.28658767146556752 0.2208426317688808 0 -0.28549164962408852 0.20589081089837991 0 -0.27599235506858921 0.213338138612501 0 -0.2995127007984647 0.22240216811521779 0 -0.28658767146556752 0.2208426317688808 0 -0.29782091388006071 0.2077851852193662 0 -0.28658767146556752 0.2208426317688808 0 -0.28549164962408852 0.20589081089837991 0 -0.29782091388006071 0.2077851852193662 0 -0.2995127007984647 0.22240216811521779 0 -0.30833129431909739 0.21334832502430981 0 -0.29782091388006071 0.2077851852193662 0 -0.30833129431909739 0.21334832502430981 0 -0.29782091388006071 0.2077851852193662 0 -0.31094130810426679 0.20146887601233149 0 -0.31094130810426679 0.20146887601233149 0 -0.28918285092023371 0.18809301854234381 0 -0.30596240671843039 0.18080678990447141 0 -0.31094130810426679 0.20146887601233149 0 -0.28918285092023371 0.18809301854234381 0 -0.31962491903722229 0.18594758427241961 0 -0.31094130810426679 0.20146887601233149 0 -0.30596240671843039 0.18080678990447141 0 -0.29782091388006071 0.2077851852193662 0 -0.31094130810426679 0.20146887601233149 0 -0.28918285092023371 0.18809301854234381 0 -0.28549164962408852 0.20589081089837991 0 -0.28918285092023371 0.18809301854234381 0 -0.27469451239495962 0.19856643751398209 0 -0.28549164962408852 0.20589081089837991 0 -0.29782091388006071 0.2077851852193662 0 -0.28918285092023371 0.18809301854234381 0 -0.27469451239495962 0.19856643751398209 0 -0.25846339158769432 0.19477026040294029 0 -0.26742439373620053 0.1747171610723561 0 -0.27469451239495962 0.19856643751398209 0 -0.25846339158769432 0.19477026040294029 0 -0.26373521695980739 0.20854805576629271 0 -0.25846339158769432 0.19477026040294029 0 -0.25264776582176801 0.2054066783297176 0 -0.24512564856919611 0.1966003761625241 0 -0.25846339158769432 0.19477026040294029 0 -0.26373521695980739 0.20854805576629271 0 -0.25264776582176801 0.2054066783297176 0 -0.26373521695980739 0.20854805576629271 0 -0.25264776582176801 0.2054066783297176 0 -0.25326648915379463 0.21765104414027969 0 -0.26373521695980739 0.20854805576629271 0 -0.25326648915379463 0.21765104414027969 0 -0.26696116117740232 0.2188897629996385 0 -0.26373521695980739 0.20854805576629271 0 -0.27599235506858921 0.213338138612501 0 -0.26696116117740232 0.2188897629996385 0 -0.27469451239495962 0.19856643751398209 0 -0.26373521695980739 0.20854805576629271 0 -0.27599235506858921 0.213338138612501 0 -0.28549164962408852 0.20589081089837991 0 -0.27469451239495962 0.19856643751398209 0 -0.27599235506858921 0.213338138612501 0 -0.28658767146556752 0.2208426317688808 0 -0.27599235506858921 0.213338138612501 0 -0.27366575233363138 0.22408994750137051 0 -0.28658767146556752 0.2208426317688808 0 -0.27366575233363138 0.22408994750137051 0 -0.28109078806307641 0.23123665432302171 0 -0.27366575233363138 0.22408994750137051 0 -0.28109078806307641 0.23123665432302171 0 -0.26613842301448931 0.22948780180005629 0 -0.27366575233363138 0.22408994750137051 0 -0.26613842301448931 0.22948780180005629 0 -0.27599235506858921 0.213338138612501 0 -0.27366575233363138 0.22408994750137051 0 -0.26696116117740232 0.2188897629996385 0 -0.27366575233363138 0.22408994750137051 0 -0.26613842301448931 0.22948780180005629 0 -0.26696116117740232 0.2188897629996385 0 -0.25326648915379463 0.21765104414027969 0 -0.26613842301448931 0.22948780180005629 0 -0.25326648915379463 0.21765104414027969 0 -0.26613842301448931 0.22948780180005629 0 -0.26696116117740232 0.2188897629996385 0 -0.26613842301448931 0.22948780180005629 0 -0.25250373055295899 0.22903132158689779 0 -0.2468893326351202 0.24329134098969171 0 -0.25326648915379463 0.21765104414027969 0 -0.26613842301448931 0.22948780180005629 0 -0.25250373055295899 0.22903132158689779 0 -0.26613842301448931 0.22948780180005629 0 -0.2468893326351202 0.24329134098969171 0 -0.26613842301448931 0.22948780180005629 0 -0.26514282027817931 0.24842266601513599 0 -0.2468893326351202 0.24329134098969171 0 -0.28392805579818597 0.24584677119781029 0 -0.26613842301448931 0.22948780180005629 0 -0.26514282027817931 0.24842266601513599 0 -0.28392805579818597 0.24584677119781029 0 -0.26613842301448931 0.22948780180005629 0 -0.28392805579818597 0.24584677119781029 0 -0.28109078806307641 0.23123665432302171 0 -0.26613842301448931 0.22948780180005629 0 -0.29674228528268098 0.14167201189203629 0 -0.29210011904845101 0.16519073176382951 0 -0.2788144627000812 0.14703818685698561 0 -0.29674228528268098 0.14167201189203629 0 -0.2788144627000812 0.14703818685698561 0 -0.2804226891664876 0.12940513594623221 0 -0.29674228528268098 0.14167201189203629 0 -0.2804226891664876 0.12940513594623221 0 -0.29563289833704792 0.1211109261551389 0 -0.29674228528268098 0.14167201189203629 0 -0.30835875028686138 0.12836861128214669 0 -0.29563289833704792 0.1211109261551389 0 -0.31630075392673418 0.14071989359044609 0 -0.29674228528268098 0.14167201189203629 0 -0.30835875028686138 0.12836861128214669 0 -0.31796283648197832 0.1633337389314328 0 -0.31630075392673418 0.14071989359044609 0 -0.29674228528268098 0.14167201189203629 0 -0.31796283648197832 0.1633337389314328 0 -0.30596240671843039 0.18080678990447141 0 -0.29210011904845101 0.16519073176382951 0 -0.31796283648197832 0.1633337389314328 0 -0.29674228528268098 0.14167201189203629 0 -0.29210011904845101 0.16519073176382951 0 -0.28918285092023371 0.18809301854234381 0 -0.30596240671843039 0.18080678990447141 0 -0.29210011904845101 0.16519073176382951 0 -0.28918285092023371 0.18809301854234381 0 -0.29210011904845101 0.16519073176382951 0 -0.26742439373620053 0.1747171610723561 0 -0.29210011904845101 0.16519073176382951 0 -0.26645859331151961 0.15770478106228089 0 -0.2788144627000812 0.14703818685698561 0 -0.29210011904845101 0.16519073176382951 0 -0.26645859331151961 0.15770478106228089 0 -0.26742439373620053 0.1747171610723561 0 -0.28918285092023371 0.18809301854234381 0 -0.27469451239495962 0.19856643751398209 0 -0.26742439373620053 0.1747171610723561 0 -0.28918285092023371 0.18809301854234381 0 -0.26742439373620053 0.1747171610723561 0 -0.25846339158769432 0.19477026040294029 0 -0.26742439373620053 0.1747171610723561 0 -0.2425545525554833 0.18325607046718431 0 -0.26742439373620053 0.1747171610723561 0 -0.24566593655216731 0.1613413036023684 0 -0.2425545525554833 0.18325607046718431 0 -0.26742439373620053 0.1747171610723561 0 -0.24566593655216731 0.1613413036023684 0 -0.26645859331151961 0.15770478106228089 0 -0.26742439373620053 0.1747171610723561 0 -0.24566593655216731 0.1613413036023684 0 -0.26645859331151961 0.15770478106228089 0 -0.26077588748637798 0.14053443996503889 0 -0.24566593655216731 0.1613413036023684 0 -0.26645859331151961 0.15770478106228089 0 -0.2788144627000812 0.14703818685698561 0 -0.26077588748637798 0.14053443996503889 0 -0.2788144627000812 0.14703818685698561 0 -0.2804226891664876 0.12940513594623221 0 -0.26077588748637798 0.14053443996503889 0 -0.2804226891664876 0.12940513594623221 0 -0.26077588748637798 0.14053443996503889 0 -0.26620622488190782 0.1187168322113534 0 -0.26077588748637798 0.14053443996503889 0 -0.25033803458298193 0.12914144363467839 0 -0.2394413917758374 0.14053574488666021 0 -0.26077588748637798 0.14053443996503889 0 -0.25033803458298193 0.12914144363467839 0 -0.26620622488190782 0.1187168322113534 0 -0.25033803458298193 0.12914144363467839 0 -0.25364395357421121 0.10678394025260531 0 -0.26620622488190782 0.1187168322113534 0 -0.25364395357421121 0.10678394025260531 0 -0.26910496068450029 0.10059928658519129 0 -0.26340159681891351 0.087305486383429762 0 -0.25364395357421121 0.10678394025260531 0 -0.26910496068450029 0.10059928658519129 0 -0.26620622488190782 0.1187168322113534 0 -0.26910496068450029 0.10059928658519129 0 -0.28436437631082973 0.10735841859683989 0 -0.28176033911896858 0.090840469038767704 0 -0.26910496068450029 0.10059928658519129 0 -0.26620622488190782 0.1187168322113534 0 -0.28436437631082973 0.10735841859683989 0 -0.2804226891664876 0.12940513594623221 0 -0.26620622488190782 0.1187168322113534 0 -0.28436437631082973 0.10735841859683989 0 -0.2804226891664876 0.12940513594623221 0 -0.29563289833704792 0.1211109261551389 0 -0.28436437631082973 0.10735841859683989 0 -0.29563289833704792 0.1211109261551389 0 -0.28436437631082973 0.10735841859683989 0 -0.30333203744139958 0.1018092028156232 0 -0.28436437631082973 0.10735841859683989 0 -0.30333203744139958 0.1018092028156232 0 -0.29505738772415852 0.092466809089677027 0 -0.28436437631082973 0.10735841859683989 0 -0.29505738772415852 0.092466809089677027 0 -0.28176033911896858 0.090840469038767704 0 -0.30333203744139958 0.1018092028156232 0 -0.31115114737422961 0.1134627277541034 0 -0.31621893882499519 0.096173217231134644 0 -0.29563289833704792 0.1211109261551389 0 -0.30333203744139958 0.1018092028156232 0 -0.31115114737422961 0.1134627277541034 0 -0.30835875028686138 0.12836861128214669 0 -0.29563289833704792 0.1211109261551389 0 -0.31115114737422961 0.1134627277541034 0 -0.2988364877494265 0.069896585727329402 0 -0.3095990562077543 0.082833834969606807 0 -0.31708477734686968 0.066938799678275263 0 -0.2988364877494265 0.069896585727329402 0 -0.30266664287706341 0.054708362279179482 0 -0.31708477734686968 0.066938799678275263 0 -0.2988364877494265 0.069896585727329402 0 -0.28935545939309398 0.062964548691125152 0 -0.30266664287706341 0.054708362279179482 0 -0.30333203744139958 0.1018092028156232 0 -0.3095990562077543 0.082833834969606807 0 -0.31621893882499519 0.096173217231134644 0 -0.30333203744139958 0.1018092028156232 0 -0.3095990562077543 0.082833834969606807 0 -0.29505738772415852 0.092466809089677027 0 -0.3095990562077543 0.082833834969606807 0 -0.29687345717375091 0.081902945336330912 0 -0.29505738772415852 0.092466809089677027 0 -0.2988364877494265 0.069896585727329402 0 -0.3095990562077543 0.082833834969606807 0 -0.29687345717375091 0.081902945336330912 0 -0.29687345717375091 0.081902945336330912 0 -0.28176033911896858 0.090840469038767704 0 -0.2804463735768567 0.075556206852953223 0 -0.29687345717375091 0.081902945336330912 0 -0.29505738772415852 0.092466809089677027 0 -0.28176033911896858 0.090840469038767704 0 -0.2988364877494265 0.069896585727329402 0 -0.28935545939309398 0.062964548691125152 0 -0.2804463735768567 0.075556206852953223 0 -0.2988364877494265 0.069896585727329402 0 -0.29687345717375091 0.081902945336330912 0 -0.2804463735768567 0.075556206852953223 0 -0.28935545939309398 0.062964548691125152 0 -0.28020443427428848 0.065937434716272045 0 -0.28232948387749679 0.060243429622273227 0 -0.28935545939309398 0.062964548691125152 0 -0.28020443427428848 0.065937434716272045 0 -0.2804463735768567 0.075556206852953223 0 -0.2804463735768567 0.075556206852953223 0 -0.26340159681891351 0.087305486383429762 0 -0.26195798501385009 0.070226375813507561 0 -0.28020443427428848 0.065937434716272045 0 -0.26195798501385009 0.070226375813507561 0 -0.2800946942601637 0.055740888585776333 0 -0.28020443427428848 0.065937434716272045 0 -0.2804463735768567 0.075556206852953223 0 -0.26195798501385009 0.070226375813507561 0 -0.26195798501385009 0.070226375813507561 0 -0.2800946942601637 0.055740888585776333 0 -0.26910496068450029 0.10059928658519129 0 -0.28176033911896858 0.090840469038767704 0 -0.26340159681891351 0.087305486383429762 0 -0.28176033911896858 0.090840469038767704 0 -0.2804463735768567 0.075556206852953223 0 -0.26340159681891351 0.087305486383429762 0 -0.26340159681891351 0.087305486383429762 0 -0.26195798501385009 0.070226375813507561 0 -0.24382127576753621 0.084711863041238192 0 -0.25364395357421121 0.10678394025260531 0 -0.26340159681891351 0.087305486383429762 0 -0.24382127576753621 0.084711863041238192 0 -0.26195798501385009 0.070226375813507561 0 -0.24382127576753621 0.084711863041238192 0 -0.26195798501385009 0.070226375813507561 0 -0.26253060434091768 0.04486583530805522 0 -0.24534917185526489 0.049526218608574313 0 -0.26253060434091768 0.04486583530805522 0 -0.25642639863326749 0.02710060176493858 0 -0.24534917185526489 0.049526218608574313 0 -0.26253060434091768 0.04486583530805522 0 -0.27431483662099609 0.037465275048419483 0 -0.25642639863326749 0.02710060176493858 0 -0.26253060434091768 0.04486583530805522 0 -0.27431483662099609 0.037465275048419483 0 -0.2800946942601637 0.055740888585776333 0 -0.26195798501385009 0.070226375813507561 0 -0.26253060434091768 0.04486583530805522 0 -0.2800946942601637 0.055740888585776333 0 -0.28020443427428848 0.065937434716272045 0 -0.2800946942601637 0.055740888585776333 0 -0.28232948387749679 0.060243429622273227 0 -0.26431478179583978 -0.01186883573312463 0 -0.25132042997239518 0.0027134119798401068 0 -0.26646431581863778 0.01029557754540468 0 -0.25132042997239518 0.0027134119798401068 0 -0.25642639863326749 0.02710060176493858 0 -0.26646431581863778 0.01029557754540468 0 -0.27431483662099609 0.037465275048419483 0 -0.25642639863326749 0.02710060176493858 0 -0.27962863155723588 0.021383722316491719 0 -0.25642639863326749 0.02710060176493858 0 -0.27962863155723588 0.021383722316491719 0 -0.26646431581863778 0.01029557754540468 0 -0.2820771903446922 -0.0013122005201030101 0 -0.27962863155723588 0.021383722316491719 0 -0.26646431581863778 0.01029557754540468 0 -0.2820771903446922 -0.0013122005201030101 0 -0.30047775033007851 -0.00039401612408775783 0 -0.29196914664965867 0.01010181790504874 0 -0.2820771903446922 -0.0013122005201030101 0 -0.27962863155723588 0.021383722316491719 0 -0.29196914664965867 0.01010181790504874 0 -0.27962863155723588 0.021383722316491719 0 -0.29196914664965867 0.01010181790504874 0 -0.3056930143666281 0.020729765947894 0 -0.27962863155723588 0.021383722316491719 0 -0.3056930143666281 0.020729765947894 0 -0.2928938543133956 0.038235327266834943 0 -0.3056930143666281 0.020729765947894 0 -0.2928938543133956 0.038235327266834943 0 -0.3056930143666281 0.020729765947894 0 -0.30086997028822832 0.039148022070134687 0 -0.32164524631629432 0.022555155554494829 0 -0.30086997028822832 0.039148022070134687 0 -0.32164524631629432 0.022555155554494829 0 -0.3056930143666281 0.020729765947894 0 -0.31849217441985911 0.0032242046289520012 0 -0.30047775033007851 -0.00039401612408775783 0 -0.3056930143666281 0.020729765947894 0 -0.31849217441985911 0.0032242046289520012 0 -0.30047775033007851 -0.00039401612408775783 0 -0.29196914664965867 0.01010181790504874 0 -0.3056930143666281 0.020729765947894 0 -0.2800946942601637 0.055740888585776333 0 -0.30086997028822832 0.039148022070134687 0 -0.28935545939309398 0.062964548691125152 0 -0.2800946942601637 0.055740888585776333 0 -0.30266664287706341 0.054708362279179482 0 -0.2800946942601637 0.055740888585776333 0 -0.2928938543133956 0.038235327266834943 0 -0.2800946942601637 0.055740888585776333 0 -0.30086997028822832 0.039148022070134687 0 -0.30266664287706341 0.054708362279179482 0 -0.28935545939309398 0.062964548691125152 0 -0.2800946942601637 0.055740888585776333 0 -0.28232948387749679 0.060243429622273227 0 -0.2800946942601637 0.055740888585776333 0 -0.2928938543133956 0.038235327266834943 0 -0.30086997028822832 0.039148022070134687 0 -0.27431483662099609 0.037465275048419483 0 -0.27962863155723588 0.021383722316491719 0 -0.2928938543133956 0.038235327266834943 0 -0.27431483662099609 0.037465275048419483 0 -0.2800946942601637 0.055740888585776333 0 -0.2928938543133956 0.038235327266834943 0 -0.3056930143666281 0.020729765947894 0 -0.2928938543133956 0.038235327266834943 0 -0.30086997028822832 0.039148022070134687 0 -0.30086997028822832 0.039148022070134687 0 -0.30266664287706341 0.054708362279179482 0 -0.3262676586483656 0.050894384371173287 0 -0.30266664287706341 0.054708362279179482 0 -0.3262676586483656 0.050894384371173287 0 -0.31708477734686968 0.066938799678275263 0 -0.3262676586483656 0.050894384371173287 0 -0.32164524631629432 0.022555155554494829 0 -0.30086997028822832 0.039148022070134687 0 -0.3262676586483656 0.050894384371173287 0 -0.32164524631629432 0.022555155554494829 0 -0.3262676586483656 0.050894384371173287 0 -0.32164524631629432 0.022555155554494829 0 -0.34047985126035502 0.026774828886197279 0 -0.3419631627684111 0.054410778814259472 0 -0.34047985126035502 0.026774828886197279 0 -0.3262676586483656 0.050894384371173287 0 -0.3419631627684111 0.054410778814259472 0 -0.34047985126035502 0.026774828886197279 0 -0.3262676586483656 0.050894384371173287 0 -0.3419631627684111 0.054410778814259472 0 -0.33089007098043072 0.079233613187852742 0 -0.3056930143666281 0.020729765947894 0 -0.31849217441985911 0.0032242046289520012 0 -0.32164524631629432 0.022555155554494829 0 -0.31849217441985911 0.0032242046289520012 0 -0.32164524631629432 0.022555155554494829 0 -0.33742136738088668 0.0099550307423931228 0 -0.31849217441985911 0.0032242046289520012 0 -0.32164524631629432 0.022555155554494829 0 -0.32164524631629432 0.022555155554494829 0 -0.33742136738088668 0.0099550307423931228 0 -0.32164524631629432 0.022555155554494829 0 -0.34047985126035502 0.026774828886197279 0 -0.33742136738088668 0.0099550307423931228 0 -0.35319748844548088 -0.0026450940697062141 0 -0.33742136738088668 0.0099550307423931228 0 -0.35319748844548088 -0.0026450940697062141 0 -0.33742136738088668 0.0099550307423931228 0 -0.35568472126330458 0.01398178967161531 0 -0.34047985126035502 0.026774828886197279 0 -0.35568472126330458 0.01398178967161531 0 -0.36050468596179641 0.029201478886372499 0 -0.34047985126035502 0.026774828886197279 0 -0.33742136738088668 0.0099550307423931228 0 -0.35568472126330458 0.01398178967161531 0 -0.35568472126330458 0.01398178967161531 0 -0.36050468596179641 0.029201478886372499 0 -0.37274578052696178 0.01868977009819147 0 -0.37753126207020948 0.034899308803226177 0 -0.36050468596179641 0.029201478886372499 0 -0.37274578052696178 0.01868977009819147 0 -0.35319748844548088 -0.0026450940697062141 0 -0.35568472126330458 0.01398178967161531 0 -0.36979036210562988 0.0025511841975563729 0 -0.35568472126330458 0.01398178967161531 0 -0.37274578052696178 0.01868977009819147 0 -0.36979036210562988 0.0025511841975563729 0 -0.35367539322405089 0.052192583201526178 0 -0.35229578078182711 0.042127528613546239 0 -0.36485581069452189 0.048057973279375742 0 -0.35367539322405089 0.052192583201526178 0 -0.36174043644781612 0.059537200304905107 0 -0.34707042967454638 0.066493871458924422 0 -0.3419631627684111 0.054410778814259472 0 -0.35367539322405089 0.052192583201526178 0 -0.34707042967454638 0.066493871458924422 0 -0.3419631627684111 0.054410778814259472 0 -0.35367539322405089 0.052192583201526178 0 -0.35229578078182711 0.042127528613546239 0 -0.34047985126035502 0.026774828886197279 0 -0.36050468596179641 0.029201478886372499 0 -0.35229578078182711 0.042127528613546239 0 -0.3419631627684111 0.054410778814259472 0 -0.34047985126035502 0.026774828886197279 0 -0.35229578078182711 0.042127528613546239 0 -0.36050468596179641 0.029201478886372499 0 -0.35229578078182711 0.042127528613546239 0 -0.36485581069452189 0.048057973279375742 0 -0.37753126207020948 0.034899308803226177 0 -0.36050468596179641 0.029201478886372499 0 -0.36485581069452189 0.048057973279375742 0 -0.37830855690199738 0.048851891747440382 0 -0.37753126207020948 0.034899308803226177 0 -0.36485581069452189 0.048057973279375742 0 -0.37830855690199738 0.048851891747440382 0 -0.36485581069452189 0.048057973279375742 0 -0.37119345183321822 0.058853827639881867 0 -0.35367539322405089 0.052192583201526178 0 -0.36485581069452189 0.048057973279375742 0 -0.36174043644781612 0.059537200304905107 0 -0.36485581069452189 0.048057973279375742 0 -0.36174043644781612 0.059537200304905107 0 -0.37119345183321822 0.058853827639881867 0 -0.37201358599706058 0.070711840939253895 0 -0.36026946930678239 0.075913175113325196 0 -0.34707042967454638 0.066493871458924422 0 -0.37904886912469499 0.067110231928434197 0 -0.37119345183321822 0.058853827639881867 0 -0.37201358599706058 0.070711840939253895 0 -0.37201358599706058 0.070711840939253895 0 -0.34707042967454638 0.066493871458924422 0 -0.36174043644781612 0.059537200304905107 0 -0.37119345183321822 0.058853827639881867 0 -0.37201358599706058 0.070711840939253895 0 -0.36174043644781612 0.059537200304905107 0 -0.37201358599706058 0.070711840939253895 0 -0.34707042967454638 0.066493871458924422 0 -0.37201358599706058 0.070711840939253895 0 -0.36026946930678239 0.075913175113325196 0 -0.37016311523106599 0.083751267223082917 0 -0.38119130922167832 0.078766060501995444 0 -0.37201358599706058 0.070711840939253895 0 -0.37016311523106599 0.083751267223082917 0 -0.3419631627684111 0.054410778814259472 0 -0.34707042967454638 0.066493871458924422 0 -0.34344647427646718 0.082046728742321648 0 -0.36026946930678239 0.075913175113325196 0 -0.35274187612612162 0.077211514003190262 0 -0.34707042967454638 0.066493871458924422 0 -0.35274187612612162 0.077211514003190262 0 -0.34707042967454638 0.066493871458924422 0 -0.34344647427646718 0.082046728742321648 0 -0.35295667425925747 0.085123838591775802 0 -0.35001973748798287 0.095551702326820934 0 -0.34344647427646718 0.082046728742321648 0 -0.35274187612612162 0.077211514003190262 0 -0.35295667425925747 0.085123838591775802 0 -0.34344647427646718 0.082046728742321648 0 -0.35274187612612162 0.077211514003190262 0 -0.35295667425925747 0.085123838591775802 0 -0.35935833950511731 0.08139738194217451 0 -0.35295667425925747 0.085123838591775802 0 -0.35935833950511731 0.08139738194217451 0 -0.35921694390059838 0.089411865944371699 0 -0.36026946930678239 0.075913175113325196 0 -0.35274187612612162 0.077211514003190262 0 -0.35935833950511731 0.08139738194217451 0 -0.35295667425925747 0.085123838591775802 0 -0.35921694390059838 0.089411865944371699 0 -0.35001973748798287 0.095551702326820934 0 -0.35921694390059838 0.089411865944371699 0 -0.37016311523106599 0.083751267223082917 0 -0.36611800641667808 0.094109198156665408 0 -0.36026946930678239 0.075913175113325196 0 -0.35935833950511731 0.08139738194217451 0 -0.37016311523106599 0.083751267223082917 0 -0.35935833950511731 0.08139738194217451 0 -0.35921694390059838 0.089411865944371699 0 -0.37016311523106599 0.083751267223082917 0 -0.37643332436138899 0.09558572737664002 0 -0.37016311523106599 0.083751267223082917 0 -0.36611800641667808 0.094109198156665408 0 -0.37643332436138899 0.09558572737664002 0 -0.36831342086492491 0.1042920553550029 0 -0.36611800641667808 0.094109198156665408 0 -0.37896648635229202 0.10715504183998489 0 -0.37643332436138899 0.09558572737664002 0 -0.36831342086492491 0.1042920553550029 0 -0.36831342086492491 0.1042920553550029 0 -0.35948680904503588 0.10793893666500461 0 -0.35938862515943509 0.099383552161339872 0 -0.35921694390059838 0.089411865944371699 0 -0.35938862515943509 0.099383552161339872 0 -0.36611800641667808 0.094109198156665408 0 -0.36831342086492491 0.1042920553550029 0 -0.35938862515943509 0.099383552161339872 0 -0.36611800641667808 0.094109198156665408 0 -0.37896648635229202 0.10715504183998489 0 -0.36831342086492491 0.1042920553550029 0 -0.36716541190589658 0.118616890008602 0 -0.36831342086492491 0.1042920553550029 0 -0.35948680904503588 0.10793893666500461 0 -0.36716541190589658 0.118616890008602 0 -0.35948680904503588 0.10793893666500461 0 -0.36716541190589658 0.118616890008602 0 -0.35375916145188291 0.11350041634001019 0 -0.34641309729257957 0.13731862859844601 0 -0.34492978578452338 0.1096826786703838 0 -0.34641309729257957 0.13731862859844601 0 -0.35352278934268327 0.12307152153672141 0 -0.34492978578452338 0.1096826786703838 0 -0.36716541190589658 0.118616890008602 0 -0.35352278934268327 0.12307152153672141 0 -0.35375916145188291 0.11350041634001019 0 -0.35375916145188291 0.11350041634001019 0 -0.34492978578452338 0.1096826786703838 0 -0.35317683324139082 0.10499755452017361 0 -0.35352278934268327 0.12307152153672141 0 -0.35375916145188291 0.11350041634001019 0 -0.34492978578452338 0.1096826786703838 0 -0.34492978578452338 0.1096826786703838 0 -0.35001973748798287 0.095551702326820934 0 -0.34344647427646718 0.082046728742321648 0 -0.34492978578452338 0.1096826786703838 0 -0.34344647427646718 0.082046728742321648 0 -0.35921694390059838 0.089411865944371699 0 -0.35938862515943509 0.099383552161339872 0 -0.35001973748798287 0.095551702326820934 0 -0.35938862515943509 0.099383552161339872 0 -0.35317683324139082 0.10499755452017361 0 -0.35001973748798287 0.095551702326820934 0 -0.35948680904503588 0.10793893666500461 0 -0.35938862515943509 0.099383552161339872 0 -0.35317683324139082 0.10499755452017361 0 -0.35948680904503588 0.10793893666500461 0 -0.35375916145188291 0.11350041634001019 0 -0.35317683324139082 0.10499755452017361 0 -0.34492978578452338 0.1096826786703838 0 -0.35317683324139082 0.10499755452017361 0 -0.35001973748798287 0.095551702326820934 0 -0.33551248331249578 0.10757284200453231 0 -0.32636827877939262 0.096437598311714251 0 -0.33089007098043072 0.079233613187852742 0 -0.34492978578452338 0.1096826786703838 0 -0.33551248331249578 0.10757284200453231 0 -0.34344647427646718 0.082046728742321648 0 -0.34013489564456101 0.1359120708212119 0 -0.33551248331249578 0.10757284200453231 0 -0.33106980320980312 0.1246503866679774 0 -0.33551248331249578 0.10757284200453231 0 -0.33106980320980312 0.1246503866679774 0 -0.3276422557938925 0.11637059862038419 0 -0.34013489564456101 0.1359120708212119 0 -0.33551248331249578 0.10757284200453231 0 -0.34013489564456101 0.1359120708212119 0 -0.34492978578452338 0.1096826786703838 0 -0.33551248331249578 0.10757284200453231 0 -0.33551248331249578 0.10757284200453231 0 -0.3276422557938925 0.11637059862038419 0 -0.32202007013965611 0.108381668790018 0 -0.31115114737422961 0.1134627277541034 0 -0.32196666651361477 0.12487749701900901 0 -0.32202007013965611 0.108381668790018 0 -0.32196666651361477 0.12487749701900901 0 -0.3276422557938925 0.11637059862038419 0 -0.32202007013965611 0.108381668790018 0 -0.33106980320980312 0.1246503866679774 0 -0.32196666651361477 0.12487749701900901 0 -0.3276422557938925 0.11637059862038419 0 -0.30835875028686138 0.12836861128214669 0 -0.31115114737422961 0.1134627277541034 0 -0.32196666651361477 0.12487749701900901 0 -0.31115114737422961 0.1134627277541034 0 -0.32202007013965611 0.108381668790018 0 -0.31621893882499519 0.096173217231134644 0 -0.32636827877939262 0.096437598311714251 0 -0.32202007013965611 0.108381668790018 0 -0.31621893882499519 0.096173217231134644 0 -0.33551248331249578 0.10757284200453231 0 -0.32636827877939262 0.096437598311714251 0 -0.32202007013965611 0.108381668790018 0 -0.32636827877939262 0.096437598311714251 0 -0.3206518095107353 0.086423961441370711 0 -0.33089007098043072 0.079233613187852742 0 -0.3095990562077543 0.082833834969606807 0 -0.31621893882499519 0.096173217231134644 0 -0.3206518095107353 0.086423961441370711 0 -0.32636827877939262 0.096437598311714251 0 -0.31621893882499519 0.096173217231134644 0 -0.3206518095107353 0.086423961441370711 0 -0.3206518095107353 0.086423961441370711 0 -0.3195564285114475 0.078857552319276381 0 -0.33089007098043072 0.079233613187852742 0 -0.3095990562077543 0.082833834969606807 0 -0.3206518095107353 0.086423961441370711 0 -0.3195564285114475 0.078857552319276381 0 -0.3095990562077543 0.082833834969606807 0 -0.3195564285114475 0.078857552319276381 0 -0.31708477734686968 0.066938799678275263 0 -0.3262676586483656 0.050894384371173287 0 -0.31708477734686968 0.066938799678275263 0 -0.33089007098043072 0.079233613187852742 0 -0.3195564285114475 0.078857552319276381 0 -0.31708477734686968 0.066938799678275263 0 -0.33089007098043072 0.079233613187852742 0 -0.3262676586483656 0.050894384371173287 0 -0.33089007098043072 0.079233613187852742 0 -0.3419631627684111 0.054410778814259472 0 -0.34344647427646718 0.082046728742321648 0 -0.3419631627684111 0.054410778814259472 0 -0.34344647427646718 0.082046728742321648 0 -0.33089007098043072 0.079233613187852742 0 -0.33551248331249578 0.10757284200453231 0 -0.34344647427646718 0.082046728742321648 0 -0.33089007098043072 0.079233613187852742 0 -0.33551248331249578 0.10757284200453231 0 -0.33089007098043072 0.079233613187852742 0 -0.38413367002432852 0.48466820949397371 0 -0.39197467039505129 0.46611734068214988 0 -0.41460981883164078 0.48516798004791117 0 -0.3981750166650535 0.50000000000000056 0 -0.38413367002432852 0.48466820949397371 0 -0.41460981883164078 0.48516798004791117 0 -0.3981750166650535 0.50000000000000056 0 -0.38413367002432852 0.48466820949397371 0 -0.37107410569903487 0.5 0 -0.39197467039505129 0.46611734068214988 0 -0.36482960672615539 0.47476559140937902 0 -0.38413367002432852 0.48466820949397371 0 -0.39197467039505129 0.46611734068214988 0 -0.36580706476392733 0.47631646954851292 0 -0.38785270990024268 0.44600589254376838 0 -0.39197467039505129 0.46611734068214988 0 -0.37006527051019528 0.45259743283909409 0 -0.39197467039505129 0.46611734068214988 0 -0.37006527051019528 0.45259743283909409 0 -0.36482960672615539 0.47476559140937902 0 -0.38785270990024268 0.44600589254376838 0 -0.37388199021079188 0.43349662060099697 0 -0.37006527051019528 0.45259743283909409 0 -0.38785270990024268 0.44600589254376838 0 -0.40320620376676342 0.45007503942677379 0 -0.39595691431975 0.42995942871021692 0 -0.38785270990024268 0.44600589254376838 0 -0.40320620376676342 0.45007503942677379 0 -0.39197467039505129 0.46611734068214988 0 -0.40320620376676342 0.45007503942677379 0 -0.39197467039505129 0.46611734068214988 0 -0.41277096383307582 0.46532813801804862 0 -0.40320620376676342 0.45007503942677379 0 -0.42781315099835598 0.44205737320498029 0 -0.39595691431975 0.42995942871021692 0 -0.40320620376676342 0.45007503942677379 0 -0.41277096383307582 0.46532813801804862 0 -0.42781315099835598 0.44205737320498029 0 -0.42781315099835598 0.44205737320498029 0 -0.43466730821188831 0.46706657063262308 0 -0.44460389203804629 0.44806533343805571 0 -0.42781315099835598 0.44205737320498029 0 -0.4310446209982266 0.47033596009582029 0 -0.42781315099835598 0.44205737320498029 0 -0.43466730821188831 0.46706657063262308 0 -0.4310446209982266 0.47033596009582029 0 -0.41277096383307582 0.46532813801804862 0 -0.42781315099835598 0.44205737320498029 0 -0.4310446209982266 0.47033596009582029 0 -0.43466730821188831 0.46706657063262308 0 -0.4310446209982266 0.47033596009582029 0 -0.4310446209982266 0.47033596009582029 0 -0.43443441043131342 0.50000000000000755 0 -0.4447827686264566 0.47926022536349122 0 -0.4310446209982266 0.47033596009582029 0 -0.41460981883164078 0.48516798004791117 0 -0.4310446209982266 0.47033596009582029 0 -0.41460981883164078 0.48516798004791117 0 -0.42409839095234109 0.48887598503593521 0 -0.43466730821188831 0.46706657063262308 0 -0.4310446209982266 0.47033596009582029 0 -0.4447827686264566 0.47926022536349122 0 -0.39197467039505129 0.46611734068214988 0 -0.41277096383307582 0.46532813801804862 0 -0.41460981883164078 0.48516798004791117 0 -0.41277096383307582 0.46532813801804862 0 -0.4310446209982266 0.47033596009582029 0 -0.41460981883164078 0.48516798004791117 0 -0.3981750166650535 0.50000000000000056 0 -0.41460981883164078 0.48516798004791117 0 -0.3981750166650535 0.50000000000000056 0 -0.41460981883164078 0.48516798004791117 0 -0.41630471354818338 0.5 0 -0.41460981883164078 0.48516798004791117 0 -0.41630471354818338 0.5 0 -0.42409839095234109 0.48887598503593521 0 -0.41630471354818338 0.5 0 -0.43443441043131342 0.50000000000000755 0 -0.42409839095234109 0.48887598503593521 0 -0.4310446209982266 0.47033596009582029 0 -0.43443441043131342 0.50000000000000755 0 -0.4310446209982266 0.47033596009582029 0 -0.43443441043131342 0.50000000000000755 0 -0.42409839095234109 0.48887598503593521 0 -0.43443441043131342 0.50000000000000755 0 -0.4447827686264566 0.47926022536349122 0 -0.4595127163698095 0.50000000000000022 0 -0.5 0.5 0 -0.47335596745111108 0.44169355163120572 0 -0.5 0.40038011321019712 0 -0.43466730821188831 0.46706657063262308 0 -0.4447827686264566 0.47926022536349122 0 -0.44899911668232212 0.46303481381032341 0 -0.4447827686264566 0.47926022536349122 0 -0.46015144363500948 0.47359397987248231 0 -0.44899911668232212 0.46303481381032341 0 -0.4447827686264566 0.47926022536349122 0 -0.46015144363500948 0.47359397987248231 0 -0.4595127163698095 0.50000000000000022 0 -0.46015144363500948 0.47359397987248231 0 -0.4595127163698095 0.50000000000000022 0 -0.46015144363500948 0.47359397987248231 0 -0.4595127163698095 0.50000000000000022 0 -0.5 0.5 0 -0.46015144363500948 0.47359397987248231 0 -0.5 0.5 0 -0.47335596745111108 0.44169355163120572 0 -0.46015144363500948 0.47359397987248231 0 -0.47335596745111108 0.44169355163120572 0 -0.46079017090020952 0.44718795974496428 0 -0.46079017090020952 0.44718795974496428 0 -0.44460389203804629 0.44806533343805571 0 -0.45590269758544211 0.43346995798949911 0 -0.47335596745111108 0.44169355163120572 0 -0.46079017090020952 0.44718795974496428 0 -0.45590269758544211 0.43346995798949911 0 -0.46015144363500948 0.47359397987248231 0 -0.46079017090020952 0.44718795974496428 0 -0.44899911668232212 0.46303481381032341 0 -0.46015144363500948 0.47359397987248231 0 -0.46079017090020952 0.44718795974496428 0 -0.43466730821188831 0.46706657063262308 0 -0.44899911668232212 0.46303481381032341 0 -0.44460389203804629 0.44806533343805571 0 -0.42781315099835598 0.44205737320498029 0 -0.44460389203804629 0.44806533343805571 0 -0.44268906624812487 0.42665452579602331 0 -0.46079017090020952 0.44718795974496428 0 -0.44899911668232212 0.46303481381032341 0 -0.44460389203804629 0.44806533343805571 0 -0.44460389203804629 0.44806533343805571 0 -0.44268906624812487 0.42665452579602331 0 -0.45590269758544211 0.43346995798949911 0 -0.44268906624812487 0.42665452579602331 0 -0.45186506472241439 0.42144574071262142 0 -0.45590269758544211 0.43346995798949911 0 -0.44268906624812487 0.42665452579602331 0 -0.45186506472241439 0.42144574071262142 0 -0.44576315445017062 0.40546276927260178 0 -0.44268906624812487 0.42665452579602331 0 -0.44576315445017062 0.40546276927260178 0 -0.42458168099848842 0.41377878631413989 0 -0.46310534060592018 0.42019570979236182 0 -0.47346151536459102 0.41731684507507272 0 -0.46374026742882618 0.39151162716981691 0 -0.45186506472241439 0.42144574071262142 0 -0.46310534060592018 0.42019570979236182 0 -0.44576315445017062 0.40546276927260178 0 -0.47335596745111108 0.44169355163120572 0 -0.46310534060592018 0.42019570979236182 0 -0.45590269758544211 0.43346995798949911 0 -0.45186506472241439 0.42144574071262142 0 -0.46310534060592018 0.42019570979236182 0 -0.45590269758544211 0.43346995798949911 0 -0.47335596745111108 0.44169355163120572 0 -0.46310534060592018 0.42019570979236182 0 -0.47346151536459102 0.41731684507507272 0 -0.47335596745111108 0.44169355163120572 0 -0.47346151536459102 0.41731684507507272 0 -0.5 0.40038011321019712 0 -0.47346151536459102 0.41731684507507272 0 -0.5 0.40038011321019712 0 -0.47533567507008778 0.39330498401591851 0 -0.47346151536459102 0.41731684507507272 0 -0.47533567507008778 0.39330498401591851 0 -0.47346151536459102 0.41731684507507272 0 -0.47533567507008778 0.39330498401591851 0 -0.46374026742882618 0.39151162716981691 0 -0.5 0.40038011321019712 0 -0.47533567507008778 0.39330498401591851 0 -0.47720983477558448 0.36929312295676431 0 -0.47533567507008778 0.39330498401591851 0 -0.47720983477558448 0.36929312295676431 0 -0.47533567507008778 0.39330498401591851 0 -0.46374026742882618 0.39151162716981691 0 -0.47720983477558448 0.36929312295676431 0 -0.46374026742882618 0.39151162716981691 0 -0.45297946443592813 0.37787116286410599 0 -0.46437519425173218 0.36282754454727217 0 -0.46374026742882618 0.39151162716981691 0 -0.45297946443592813 0.37787116286410599 0 -0.44807155782876301 0.39051600802545461 0 -0.46374026742882618 0.39151162716981691 0 -0.46437519425173218 0.36282754454727217 0 -0.46310534060592018 0.42019570979236182 0 -0.46374026742882618 0.39151162716981691 0 -0.46310534060592018 0.42019570979236182 0 -0.46374026742882618 0.39151162716981691 0 -0.44576315445017062 0.40546276927260178 0 -0.46374026742882618 0.39151162716981691 0 -0.44576315445017062 0.40546276927260178 0 -0.44807155782876301 0.39051600802545461 0 -0.44576315445017062 0.40546276927260178 0 -0.44807155782876301 0.39051600802545461 0 -0.43603237714897469 0.39502180629923989 0 -0.45297946443592813 0.37787116286410599 0 -0.44807155782876301 0.39051600802545461 0 -0.44039528146883089 0.37985126846070372 0 -0.44807155782876301 0.39051600802545461 0 -0.44039528146883089 0.37985126846070372 0 -0.43603237714897469 0.39502180629923989 0 -0.44039528146883089 0.37985126846070372 0 -0.42135021099862069 0.38550019942329938 0 -0.43603237714897469 0.39502180629923989 0 -0.44039528146883089 0.37985126846070372 0 -0.42135021099862069 0.38550019942329938 0 -0.43330693618304927 0.36743111704715392 0 -0.42135021099862069 0.38550019942329938 0 -0.3928737426436214 0.38288862872844909 0 -0.41811874099875312 0.35722161253245888 0 -0.42135021099862069 0.38550019942329938 0 -0.42458168099848842 0.41377878631413989 0 -0.40302940150938782 0.40252809503019821 0 -0.44576315445017062 0.40546276927260178 0 -0.43603237714897469 0.39502180629923989 0 -0.42458168099848842 0.41377878631413989 0 -0.42135021099862069 0.38550019942329938 0 -0.42458168099848842 0.41377878631413989 0 -0.42135021099862069 0.38550019942329938 0 -0.43603237714897469 0.39502180629923989 0 -0.42458168099848842 0.41377878631413989 0 -0.42781315099835598 0.44205737320498029 0 -0.42458168099848842 0.41377878631413989 0 -0.39595691431975 0.42995942871021692 0 -0.42781315099835598 0.44205737320498029 0 -0.44268906624812487 0.42665452579602331 0 -0.42458168099848842 0.41377878631413989 0 -0.42781315099835598 0.44205737320498029 0 -0.42458168099848842 0.41377878631413989 0 -0.42458168099848842 0.41377878631413989 0 -0.39595691431975 0.42995942871021692 0 -0.40302940150938782 0.40252809503019821 0 -0.39595691431975 0.42995942871021692 0 -0.38133644129271771 0.41060795377957438 0 -0.40302940150938782 0.40252809503019821 0 -0.39595691431975 0.42995942871021692 0 -0.38133644129271771 0.41060795377957438 0 -0.37388199021079188 0.43349662060099697 0 -0.38785270990024268 0.44600589254376838 0 -0.39595691431975 0.42995942871021692 0 -0.37388199021079188 0.43349662060099697 0 -0.39595691431975 0.42995942871021692 0 -0.38133644129271771 0.41060795377957438 0 -0.38133644129271771 0.41060795377957438 0 -0.3928737426436214 0.38288862872844909 0 -0.36671596826568531 0.39125647884893172 0 -0.3928737426436214 0.38288862872844909 0 -0.37126589511329411 0.37377724987418581 0 -0.36671596826568531 0.39125647884893172 0 -0.42135021099862069 0.38550019942329938 0 -0.3928737426436214 0.38288862872844909 0 -0.40302940150938782 0.40252809503019821 0 -0.38133644129271771 0.41060795377957438 0 -0.3928737426436214 0.38288862872844909 0 -0.40302940150938782 0.40252809503019821 0 -0.39068435811404417 0.36093702398180222 0 -0.39395667907880888 0.34326368506717603 0 -0.41811874099875312 0.35722161253245888 0 -0.3928737426436214 0.38288862872844909 0 -0.39068435811404417 0.36093702398180222 0 -0.41811874099875312 0.35722161253245888 0 -0.3928737426436214 0.38288862872844909 0 -0.39068435811404417 0.36093702398180222 0 -0.37126589511329411 0.37377724987418581 0 -0.39068435811404417 0.36093702398180222 0 -0.37302608715873109 0.35758434449273291 0 -0.37126589511329411 0.37377724987418581 0 -0.39395667907880888 0.34326368506717603 0 -0.37302608715873109 0.35758434449273291 0 -0.39068435811404417 0.36093702398180222 0 -0.39395667907880888 0.34326368506717603 0 -0.37302608715873109 0.35758434449273291 0 -0.37563375498023588 0.33893957100260502 0 -0.39395667907880888 0.34326368506717603 0 -0.37302608715873109 0.35758434449273291 0 -0.37563375498023588 0.33893957100260502 0 -0.3809584867257152 0.31995934924364311 0 -0.39395667907880888 0.34326368506717603 0 -0.3809584867257152 0.31995934924364311 0 -0.40019053093036899 0.31727751782089808 0 -0.39395667907880888 0.34326368506717603 0 -0.40019053093036899 0.31727751782089808 0 -0.39395667907880888 0.34326368506717603 0 -0.414887270998886 0.32894302564161831 0 -0.39395667907880888 0.34326368506717603 0 -0.414887270998886 0.32894302564161831 0 -0.414887270998886 0.32894302564161831 0 -0.41811874099875312 0.35722161253245888 0 -0.39395667907880888 0.34326368506717603 0 -0.414887270998886 0.32894302564161831 0 -0.41811874099875312 0.35722161253245888 0 -0.414887270998886 0.32894302564161831 0 -0.4287524947490482 0.33739992334137159 0 -0.41811874099875312 0.35722161253245888 0 -0.414887270998886 0.32894302564161831 0 -0.42784370751339318 0.3200782636988328 0 -0.41182569378737999 0.30215117016961263 0 -0.414887270998886 0.32894302564161831 0 -0.41182569378737999 0.30215117016961263 0 -0.40019053093036899 0.31727751782089808 0 -0.414887270998886 0.32894302564161831 0 -0.41182569378737999 0.30215117016961263 0 -0.414887270998886 0.32894302564161831 0 -0.42784370751339318 0.3200782636988328 0 -0.42784370751339318 0.3200782636988328 0 -0.44080014402789969 0.3112135017560464 0 -0.414887270998886 0.32894302564161831 0 -0.42784370751339318 0.3200782636988328 0 -0.4287524947490482 0.33739992334137159 0 -0.42784370751339318 0.3200782636988328 0 -0.4287524947490482 0.33739992334137159 0 -0.44455732798665581 0.33082357613192309 0 -0.4287524947490482 0.33739992334137159 0 -0.43835542624755341 0.34993313870202492 0 -0.44455732798665581 0.33082357613192309 0 -0.4287524947490482 0.33739992334137159 0 -0.41811874099875312 0.35722161253245888 0 -0.43835542624755341 0.34993313870202492 0 -0.41811874099875312 0.35722161253245888 0 -0.43330693618304927 0.36743111704715392 0 -0.43835542624755341 0.34993313870202492 0 -0.42135021099862069 0.38550019942329938 0 -0.41811874099875312 0.35722161253245888 0 -0.42135021099862069 0.38550019942329938 0 -0.41811874099875312 0.35722161253245888 0 -0.43330693618304927 0.36743111704715392 0 -0.44039528146883089 0.37985126846070372 0 -0.43330693618304927 0.36743111704715392 0 -0.44831502120148831 0.36464936611728249 0 -0.5 0.40038011321019712 0 -0.47720983477558448 0.36929312295676431 0 -0.5 0.32588146503443682 0 -0.43330693618304927 0.36743111704715392 0 -0.44831502120148831 0.36464936611728249 0 -0.43835542624755341 0.34993313870202492 0 -0.45297946443592813 0.37787116286410599 0 -0.44039528146883089 0.37985126846070372 0 -0.44831502120148831 0.36464936611728249 0 -0.44831502120148831 0.36464936611728249 0 -0.45212261815241361 0.34847541748464589 0 -0.43835542624755341 0.34993313870202492 0 -0.46437519425173218 0.36282754454727217 0 -0.46501012107463818 0.3341434619247271 0 -0.45212261815241361 0.34847541748464589 0 -0.46437519425173218 0.36282754454727217 0 -0.46501012107463818 0.3341434619247271 0 -0.44831502120148831 0.36464936611728249 0 -0.45212261815241361 0.34847541748464589 0 -0.46437519425173218 0.36282754454727217 0 -0.45297946443592813 0.37787116286410599 0 -0.44831502120148831 0.36464936611728249 0 -0.46437519425173218 0.36282754454727217 0 -0.46374026742882618 0.39151162716981691 0 -0.46437519425173218 0.36282754454727217 0 -0.47720983477558448 0.36929312295676431 0 -0.47720983477558448 0.36929312295676431 0 -0.4790839944810813 0.34528126189761021 0 -0.5 0.32588146503443682 0 -0.46437519425173218 0.36282754454727217 0 -0.47720983477558448 0.36929312295676431 0 -0.4790839944810813 0.34528126189761021 0 -0.46437519425173218 0.36282754454727217 0 -0.4790839944810813 0.34528126189761021 0 -0.46501012107463818 0.3341434619247271 0 -0.47720983477558448 0.36929312295676431 0 -0.4790839944810813 0.34528126189761021 0 -0.5 0.32588146503443682 0 -0.48095815418657811 0.32126940083845601 0 -0.48438341280173691 0.2990237851864897 0 -0.4790839944810813 0.34528126189761021 0 -0.5 0.32588146503443682 0 -0.48095815418657811 0.32126940083845601 0 -0.4790839944810813 0.34528126189761021 0 -0.48095815418657811 0.32126940083845601 0 -0.4790839944810813 0.34528126189761021 0 -0.48095815418657811 0.32126940083845601 0 -0.46501012107463818 0.3341434619247271 0 -0.48095815418657811 0.32126940083845601 0 -0.46501012107463818 0.3341434619247271 0 -0.46564504789754418 0.30545937930218209 0 -0.46501012107463818 0.3341434619247271 0 -0.46564504789754418 0.30545937930218209 0 -0.45334860311094782 0.31584311053598302 0 -0.46501012107463818 0.3341434619247271 0 -0.44455732798665581 0.33082357613192309 0 -0.45334860311094782 0.31584311053598302 0 -0.46501012107463818 0.3341434619247271 0 -0.46564504789754418 0.30545937930218209 0 -0.45212261815241361 0.34847541748464589 0 -0.46501012107463818 0.3341434619247271 0 -0.44455732798665581 0.33082357613192309 0 -0.45212261815241361 0.34847541748464589 0 -0.43835542624755341 0.34993313870202492 0 -0.44455732798665581 0.33082357613192309 0 -0.45334860311094782 0.31584311053598302 0 -0.44455732798665581 0.33082357613192309 0 -0.44080014402789969 0.3112135017560464 0 -0.42784370751339318 0.3200782636988328 0 -0.44455732798665581 0.33082357613192309 0 -0.44080014402789969 0.3112135017560464 0 -0.45334860311094782 0.31584311053598302 0 -0.44080014402789969 0.3112135017560464 0 -0.45212090372732222 0.29751224224269018 0 -0.44080014402789969 0.3112135017560464 0 -0.45212090372732222 0.29751224224269018 0 -0.43098419661848369 0.29848737705662681 0 -0.45212090372732222 0.29751224224269018 0 -0.44106680473088589 0.27968718865599468 0 -0.43098419661848369 0.29848737705662681 0 -0.45212090372732222 0.29751224224269018 0 -0.46878861662768212 0.293945894508436 0 -0.46620416538631942 0.27832296974934079 0 -0.45212090372732222 0.29751224224269018 0 -0.46620416538631942 0.27832296974934079 0 -0.44106680473088589 0.27968718865599468 0 -0.45334860311094782 0.31584311053598302 0 -0.45212090372732222 0.29751224224269018 0 -0.46564504789754418 0.30545937930218209 0 -0.45212090372732222 0.29751224224269018 0 -0.46564504789754418 0.30545937930218209 0 -0.46878861662768212 0.293945894508436 0 -0.48095815418657811 0.32126940083845601 0 -0.46564504789754418 0.30545937930218209 0 -0.47422271850004488 0.30257989257828583 0 -0.48095815418657811 0.32126940083845601 0 -0.48283231389207593 0.29725753977930192 0 -0.48095815418657811 0.32126940083845601 0 -0.48283231389207593 0.29725753977930192 0 -0.48438341280173691 0.2990237851864897 0 -0.48095815418657811 0.32126940083845601 0 -0.48283231389207593 0.29725753977930192 0 -0.47422271850004488 0.30257989257828583 0 -0.5 0.32588146503443682 0 -0.48438341280173691 0.2990237851864897 0 -0.5 0.27058277969487637 0 -0.48283231389207593 0.29725753977930192 0 -0.48438341280173691 0.2990237851864897 0 -0.48283231389207593 0.29725753977930192 0 -0.47422271850004488 0.30257989257828583 0 -0.46878861662768212 0.293945894508436 0 -0.46564504789754418 0.30545937930218209 0 -0.47422271850004488 0.30257989257828583 0 -0.46878861662768212 0.293945894508436 0 -0.48283231389207593 0.29725753977930192 0 -0.46620416538631942 0.27832296974934079 0 -0.4832665619079245 0.29169392479429618 0 -0.48272378290968532 0.2745465744653578 0 -0.46620416538631942 0.27832296974934079 0 -0.48283231389207593 0.29725753977930192 0 -0.46878861662768212 0.293945894508436 0 -0.46620416538631942 0.27832296974934079 0 -0.48283231389207593 0.29725753977930192 0 -0.4832665619079245 0.29169392479429618 0 -0.46620416538631942 0.27832296974934079 0 -0.48283231389207593 0.29725753977930192 0 -0.4832665619079245 0.29169392479429618 0 -0.48438341280173691 0.2990237851864897 0 -0.48283231389207593 0.29725753977930192 0 -0.4832665619079245 0.29169392479429618 0 -0.4832665619079245 0.29169392479429618 0 -0.48438341280173691 0.2990237851864897 0 -0.5 0.27058277969487637 0 -0.48510068849613291 0.2464952989699998 0 -0.5 0.27058277969487637 0 -0.47736829551405641 0.25971614189080378 0 -0.4832665619079245 0.29169392479429618 0 -0.5 0.27058277969487637 0 -0.48272378290968532 0.2745465744653578 0 -0.5 0.27058277969487637 0 -0.48272378290968532 0.2745465744653578 0 -0.47736829551405641 0.25971614189080378 0 -0.48272378290968532 0.2745465744653578 0 -0.47736829551405641 0.25971614189080378 0 -0.46620416538631942 0.27832296974934079 0 -0.48510068849613291 0.2464952989699998 0 -0.4662317729600568 0.24711617116125539 0 -0.47736829551405641 0.25971614189080378 0 -0.4662317729600568 0.24711617116125539 0 -0.47736829551405641 0.25971614189080378 0 -0.44957601688056159 0.25938839971938082 0 -0.47736829551405641 0.25971614189080378 0 -0.46620416538631942 0.27832296974934079 0 -0.44957601688056159 0.25938839971938082 0 -0.46620416538631942 0.27832296974934079 0 -0.44957601688056159 0.25938839971938082 0 -0.46620416538631942 0.27832296974934079 0 -0.44106680473088589 0.27968718865599468 0 -0.44957601688056159 0.25938839971938082 0 -0.44106680473088589 0.27968718865599468 0 -0.44957601688056159 0.25938839971938082 0 -0.42702456861835142 0.26373592368695459 0 -0.43294786837480398 0.2404538296894207 0 -0.44957601688056159 0.25938839971938082 0 -0.42702456861835142 0.26373592368695459 0 -0.43294786837480398 0.2404538296894207 0 -0.40570253936436479 0.24856745922560119 0 -0.42702456861835142 0.26373592368695459 0 -0.40570253936436479 0.24856745922560119 0 -0.40876411657587441 0.27535931469760672 0 -0.40570253936436479 0.24856745922560119 0 -0.42702456861835142 0.26373592368695459 0 -0.40876411657587441 0.27535931469760672 0 -0.42702456861835142 0.26373592368695459 0 -0.40876411657587441 0.27535931469760672 0 -0.42393307606619501 0.28388419485335897 0 -0.44106680473088589 0.27968718865599468 0 -0.42702456861835142 0.26373592368695459 0 -0.42393307606619501 0.28388419485335897 0 -0.44106680473088589 0.27968718865599468 0 -0.42393307606619501 0.28388419485335897 0 -0.43098419661848369 0.29848737705662681 0 -0.42393307606619501 0.28388419485335897 0 -0.43098419661848369 0.29848737705662681 0 -0.41182569378737999 0.30215117016961263 0 -0.42784370751339318 0.3200782636988328 0 -0.44080014402789969 0.3112135017560464 0 -0.43098419661848369 0.29848737705662681 0 -0.42784370751339318 0.3200782636988328 0 -0.43098419661848369 0.29848737705662681 0 -0.41182569378737999 0.30215117016961263 0 -0.40876411657587441 0.27535931469760672 0 -0.42393307606619501 0.28388419485335897 0 -0.41182569378737999 0.30215117016961263 0 -0.40876411657587441 0.27535931469760672 0 -0.41182569378737999 0.30215117016961263 0 -0.40876411657587441 0.27535931469760672 0 -0.41182569378737999 0.30215117016961263 0 -0.38942632587964537 0.29641120061531351 0 -0.40876411657587441 0.27535931469760672 0 -0.38942632587964537 0.29641120061531351 0 -0.38778179087320769 0.27529621765694001 0 -0.40019053093036899 0.31727751782089808 0 -0.41182569378737999 0.30215117016961263 0 -0.38942632587964537 0.29641120061531351 0 -0.3809584867257152 0.31995934924364311 0 -0.38942632587964537 0.29641120061531351 0 -0.36990774782730562 0.30465198401604282 0 -0.3809584867257152 0.31995934924364311 0 -0.40019053093036899 0.31727751782089808 0 -0.38942632587964537 0.29641120061531351 0 -0.38942632587964537 0.29641120061531351 0 -0.38778179087320769 0.27529621765694001 0 -0.37124129201382 0.2841753332327091 0 -0.38942632587964537 0.29641120061531351 0 -0.37124129201382 0.2841753332327091 0 -0.36990774782730562 0.30465198401604282 0 -0.38778179087320769 0.27529621765694001 0 -0.37230359566927929 0.26610576231553251 0 -0.37124129201382 0.2841753332327091 0 -0.38778179087320769 0.27529621765694001 0 -0.38900306751682168 0.25733661077056619 0 -0.37230359566927929 0.26610576231553251 0 -0.38900306751682168 0.25733661077056619 0 -0.37230359566927929 0.26610576231553251 0 -0.37675611103540763 0.25409865512553548 0 -0.38900306751682168 0.25733661077056619 0 -0.37230359566927929 0.26610576231553251 0 -0.38455494932564349 0.24416718140159829 0 -0.37675611103540763 0.25409865512553548 0 -0.38900306751682168 0.25733661077056619 0 -0.40570253936436479 0.24856745922560119 0 -0.40876411657587441 0.27535931469760672 0 -0.38900306751682168 0.25733661077056619 0 -0.40570253936436479 0.24856745922560119 0 -0.38900306751682168 0.25733661077056619 0 -0.40876411657587441 0.27535931469760672 0 -0.38778179087320769 0.27529621765694001 0 -0.38900306751682168 0.25733661077056619 0 -0.35344375069401829 0.26830850112922933 0 -0.35479842748912699 0.29354782535411539 0 -0.33783775680192157 0.27023153782616838 0 -0.35344375069401829 0.26830850112922933 0 -0.35479842748912699 0.29354782535411539 0 -0.35926376548055328 0.2486735779402334 0 -0.35208907389890948 0.24306917690434299 0 -0.35344375069401829 0.26830850112922933 0 -0.35208907389890948 0.24306917690434299 0 -0.35344375069401829 0.26830850112922933 0 -0.34142207509263922 0.25572960106260723 0 -0.35208907389890948 0.24306917690434299 0 -0.35344375069401829 0.26830850112922933 0 -0.35344375069401829 0.26830850112922933 0 -0.33783775680192157 0.27023153782616838 0 -0.34142207509263922 0.25572960106260723 0 -0.35344375069401829 0.26830850112922933 0 -0.36723308052532222 0.25309369692869038 0 -0.37230359566927929 0.26610576231553251 0 -0.35926376548055328 0.2486735779402334 0 -0.35344375069401829 0.26830850112922933 0 -0.36723308052532222 0.25309369692869038 0 -0.37552267705158737 0.2431978490864326 0 -0.37675611103540763 0.25409865512553548 0 -0.36723308052532222 0.25309369692869038 0 -0.37675611103540763 0.25409865512553548 0 -0.36723308052532222 0.25309369692869038 0 -0.37230359566927929 0.26610576231553251 0 -0.35344375069401829 0.26830850112922933 0 -0.37230359566927929 0.26610576231553251 0 -0.37124129201382 0.2841753332327091 0 -0.37124129201382 0.2841753332327091 0 -0.36990774782730562 0.30465198401604282 0 -0.35479842748912699 0.29354782535411539 0 -0.35344375069401829 0.26830850112922933 0 -0.37124129201382 0.2841753332327091 0 -0.35479842748912699 0.29354782535411539 0 -0.36990774782730562 0.30465198401604282 0 -0.35479842748912699 0.29354782535411539 0 -0.35615310428423591 0.31878714957900162 0 -0.35479842748912699 0.29354782535411539 0 -0.35615310428423591 0.31878714957900162 0 -0.35479842748912699 0.29354782535411539 0 -0.33790089425573833 0.30106400074382289 0 -0.35615310428423591 0.31878714957900162 0 -0.35479842748912699 0.29354782535411539 0 -0.32994760687178648 0.28429515218691809 0 -0.33783775680192157 0.27023153782616838 0 -0.35479842748912699 0.29354782535411539 0 -0.32994760687178648 0.28429515218691809 0 -0.33790089425573833 0.30106400074382289 0 -0.33790089425573833 0.30106400074382289 0 -0.31376474629655843 0.30225304786416751 0 -0.33257481532433891 0.31836647764434117 0 -0.32994760687178648 0.28429515218691809 0 -0.33790089425573833 0.30106400074382289 0 -0.31376474629655843 0.30225304786416751 0 -0.32994760687178648 0.28429515218691809 0 -0.31376474629655843 0.30225304786416751 0 -0.30745975664346697 0.28108303278283259 0 -0.32994760687178648 0.28429515218691809 0 -0.32025265357816562 0.27050697347699348 0 -0.30745975664346697 0.28108303278283259 0 -0.32994760687178648 0.28429515218691809 0 -0.32025265357816562 0.27050697347699348 0 -0.33783775680192157 0.27023153782616838 0 -0.33783775680192157 0.27023153782616838 0 -0.34142207509263922 0.25572960106260723 0 -0.32493898666941562 0.25370598596143412 0 -0.33787454055877381 0.24529314191448051 0 -0.34142207509263922 0.25572960106260723 0 -0.32493898666941562 0.25370598596143412 0 -0.32025265357816562 0.27050697347699348 0 -0.32493898666941562 0.25370598596143412 0 -0.3017176885818823 0.26220574059556451 0 -0.32025265357816562 0.27050697347699348 0 -0.33783775680192157 0.27023153782616838 0 -0.32493898666941562 0.25370598596143412 0 -0.28392805579818597 0.24584677119781029 0 -0.30659471691689572 0.242716670786389 0 -0.3017176885818823 0.26220574059556451 0 -0.30659471691689572 0.242716670786389 0 -0.32493898666941562 0.25370598596143412 0 -0.3017176885818823 0.26220574059556451 0 -0.32025265357816562 0.27050697347699348 0 -0.3017176885818823 0.26220574059556451 0 -0.30745975664346697 0.28108303278283259 0 -0.3017176885818823 0.26220574059556451 0 -0.30745975664346697 0.28108303278283259 0 -0.28581088023419748 0.27213864639403801 0 -0.28392805579818597 0.24584677119781029 0 -0.3017176885818823 0.26220574059556451 0 -0.28392805579818597 0.24584677119781029 0 -0.3017176885818823 0.26220574059556451 0 -0.28581088023419748 0.27213864639403801 0 -0.28392805579818597 0.24584677119781029 0 -0.28581088023419748 0.27213864639403801 0 -0.26655259030946182 0.26726307071448002 0 -0.28392805579818597 0.24584677119781029 0 -0.26514282027817931 0.24842266601513599 0 -0.26655259030946182 0.26726307071448002 0 -0.28581088023419748 0.27213864639403801 0 -0.26655259030946182 0.26726307071448002 0 -0.26709784128719349 0.28662765883125513 0 -0.26655259030946182 0.26726307071448002 0 -0.26709784128719349 0.28662765883125513 0 -0.24190471242523851 0.27972751922608308 0 -0.26655259030946182 0.26726307071448002 0 -0.24943129659764751 0.26000894523212309 0 -0.24190471242523851 0.27972751922608308 0 -0.26514282027817931 0.24842266601513599 0 -0.26655259030946182 0.26726307071448002 0 -0.24943129659764751 0.26000894523212309 0 -0.26514282027817931 0.24842266601513599 0 -0.24943129659764751 0.26000894523212309 0 -0.2468893326351202 0.24329134098969171 0 -0.25616918259472732 0.30236015827283808 0 -0.26709784128719349 0.28662765883125513 0 -0.24190471242523851 0.27972751922608308 0 -0.28581088023419748 0.27213864639403801 0 -0.26709784128719349 0.28662765883125513 0 -0.29016097772449478 0.2935014559625142 0 -0.26709784128719349 0.28662765883125513 0 -0.27491611994182802 0.30516871221215541 0 -0.29016097772449478 0.2935014559625142 0 -0.25616918259472732 0.30236015827283808 0 -0.27491611994182802 0.30516871221215541 0 -0.27043365276421599 0.32499279731959319 0 -0.25616918259472732 0.30236015827283808 0 -0.26709784128719349 0.28662765883125513 0 -0.27491611994182802 0.30516871221215541 0 -0.27491611994182802 0.30516871221215541 0 -0.29016097772449478 0.2935014559625142 0 -0.29169578744288521 0.31398791816734961 0 -0.30745975664346697 0.28108303278283259 0 -0.28581088023419748 0.27213864639403801 0 -0.29016097772449478 0.2935014559625142 0 -0.31376474629655843 0.30225304786416751 0 -0.30745975664346697 0.28108303278283259 0 -0.29016097772449478 0.2935014559625142 0 -0.31376474629655843 0.30225304786416751 0 -0.29016097772449478 0.2935014559625142 0 -0.29169578744288521 0.31398791816734961 0 -0.31376474629655843 0.30225304786416751 0 -0.31074538478735791 0.32738191455196902 0 -0.29169578744288521 0.31398791816734961 0 -0.31074538478735791 0.32738191455196902 0 -0.29170910681836448 0.3316805874579164 0 -0.29169578744288521 0.31398791816734961 0 -0.31074538478735791 0.32738191455196902 0 -0.30097258616365841 0.34441487088432199 0 -0.31556783578130437 0.34561409599239279 0 -0.31074538478735791 0.32738191455196902 0 -0.29170910681836448 0.3316805874579164 0 -0.30097258616365841 0.34441487088432199 0 -0.29170910681836448 0.3316805874579164 0 -0.28469812293370489 0.34762543636634829 0 -0.30097258616365841 0.34441487088432199 0 -0.29170910681836448 0.3316805874579164 0 -0.27043365276421599 0.32499279731959319 0 -0.28469812293370489 0.34762543636634829 0 -0.29170910681836448 0.3316805874579164 0 -0.29169578744288521 0.31398791816734961 0 -0.27043365276421599 0.32499279731959319 0 -0.27491611994182802 0.30516871221215541 0 -0.29169578744288521 0.31398791816734961 0 -0.27043365276421599 0.32499279731959319 0 -0.27043365276421599 0.32499279731959319 0 -0.26243222306204511 0.35090504016953772 0 -0.28469812293370489 0.34762543636634829 0 -0.27043365276421599 0.32499279731959319 0 -0.28469812293370489 0.34762543636634829 0 -0.27043365276421599 0.32499279731959319 0 -0.25002058798003007 0.3320526588471332 0 -0.26243222306204511 0.35090504016953772 0 -0.25616918259472732 0.30236015827283808 0 -0.27043365276421599 0.32499279731959319 0 -0.25616918259472732 0.30236015827283808 0 -0.27043365276421599 0.32499279731959319 0 -0.25002058798003007 0.3320526588471332 0 -0.25717133997193298 0.37426095615225607 0 -0.26243222306204511 0.35090504016953772 0 -0.27169383631612543 0.36953364855257259 0 -0.25717133997193298 0.37426095615225607 0 -0.26243222306204511 0.35090504016953772 0 -0.24481421723968019 0.36490975255658048 0 -0.27524778858216448 0.35766291394235578 0 -0.28324842690769031 0.36508823660180101 0 -0.28469812293370489 0.34762543636634829 0 -0.26243222306204511 0.35090504016953772 0 -0.27524778858216448 0.35766291394235578 0 -0.27169383631612543 0.36953364855257259 0 -0.26243222306204511 0.35090504016953772 0 -0.27524778858216448 0.35766291394235578 0 -0.28469812293370489 0.34762543636634829 0 -0.27524778858216448 0.35766291394235578 0 -0.27169383631612543 0.36953364855257259 0 -0.28324842690769031 0.36508823660180101 0 -0.27169383631612543 0.36953364855257259 0 -0.28324842690769031 0.36508823660180101 0 -0.28209338532393202 0.38222600668133688 0 -0.28324842690769031 0.36508823660180101 0 -0.28469812293370489 0.34762543636634829 0 -0.29896259310319367 0.37025807541310352 0 -0.28324842690769031 0.36508823660180101 0 -0.29896259310319367 0.37025807541310352 0 -0.28209338532393202 0.38222600668133688 0 -0.28469812293370489 0.34762543636634829 0 -0.29896259310319367 0.37025807541310352 0 -0.28469812293370489 0.34762543636634829 0 -0.30097258616365841 0.34441487088432199 0 -0.29896259310319367 0.37025807541310352 0 -0.30097258616365841 0.34441487088432199 0 -0.30971140611047582 0.35873879640362499 0 -0.29896259310319367 0.37025807541310352 0 -0.30097258616365841 0.34441487088432199 0 -0.29896259310319367 0.37025807541310352 0 -0.30097258616365841 0.34441487088432199 0 -0.30971140611047582 0.35873879640362499 0 -0.31556783578130437 0.34561409599239279 0 -0.30971140611047582 0.35873879640362499 0 -0.29896259310319367 0.37025807541310352 0 -0.31229554397435733 0.37005867265250031 0 -0.29896259310319367 0.37025807541310352 0 -0.31229554397435733 0.37005867265250031 0 -0.30732872976294823 0.38353215772995369 0 -0.31229554397435733 0.37005867265250031 0 -0.32118050234516199 0.36201264788746418 0 -0.32091897818789411 0.37757395005697603 0 -0.30971140611047582 0.35873879640362499 0 -0.31229554397435733 0.37005867265250031 0 -0.32118050234516199 0.36201264788746418 0 -0.32118050234516199 0.36201264788746418 0 -0.33508210951592582 0.36870163953731322 0 -0.32091897818789411 0.37757395005697603 0 -0.33508210951592582 0.36870163953731322 0 -0.35209549523865291 0.37190500391828912 0 -0.33393211710626841 0.38433234248782061 0 -0.32118050234516199 0.36201264788746418 0 -0.33508210951592582 0.36870163953731322 0 -0.33321476088078839 0.35466849371962073 0 -0.33508210951592582 0.36870163953731322 0 -0.33321476088078839 0.35466849371962073 0 -0.34577529297467657 0.36353966338233001 0 -0.33321476088078839 0.35466849371962073 0 -0.34577529297467657 0.36353966338233001 0 -0.34447532111727192 0.34884924989517158 0 -0.33321476088078839 0.35466849371962073 0 -0.33003563329740881 0.33925758124412497 0 -0.34447532111727192 0.34884924989517158 0 -0.32118050234516199 0.36201264788746418 0 -0.33321476088078839 0.35466849371962073 0 -0.31556783578130437 0.34561409599239279 0 -0.30971140611047582 0.35873879640362499 0 -0.32118050234516199 0.36201264788746418 0 -0.31556783578130437 0.34561409599239279 0 -0.33321476088078839 0.35466849371962073 0 -0.31556783578130437 0.34561409599239279 0 -0.33003563329740881 0.33925758124412497 0 -0.31074538478735791 0.32738191455196902 0 -0.33257481532433891 0.31836647764434117 0 -0.33003563329740881 0.33925758124412497 0 -0.31074538478735791 0.32738191455196902 0 -0.31556783578130437 0.34561409599239279 0 -0.33003563329740881 0.33925758124412497 0 -0.31376474629655843 0.30225304786416751 0 -0.31074538478735791 0.32738191455196902 0 -0.33257481532433891 0.31836647764434117 0 -0.33790089425573833 0.30106400074382289 0 -0.33257481532433891 0.31836647764434117 0 -0.35615310428423591 0.31878714957900162 0 -0.33257481532433891 0.31836647764434117 0 -0.33003563329740881 0.33925758124412497 0 -0.34490357793898208 0.33379293979876401 0 -0.33003563329740881 0.33925758124412497 0 -0.34490357793898208 0.33379293979876401 0 -0.34447532111727192 0.34884924989517158 0 -0.34490357793898208 0.33379293979876401 0 -0.34447532111727192 0.34884924989517158 0 -0.35750778107934472 0.34402647380388779 0 -0.35615310428423591 0.31878714957900162 0 -0.35750778107934472 0.34402647380388779 0 -0.34490357793898208 0.33379293979876401 0 -0.35615310428423591 0.31878714957900162 0 -0.35750778107934472 0.34402647380388779 0 -0.33257481532433891 0.31836647764434117 0 -0.34490357793898208 0.33379293979876401 0 -0.35615310428423591 0.31878714957900162 0 -0.3809584867257152 0.31995934924364311 0 -0.36990774782730562 0.30465198401604282 0 -0.35615310428423591 0.31878714957900162 0 -0.37563375498023588 0.33893957100260502 0 -0.3809584867257152 0.31995934924364311 0 -0.35615310428423591 0.31878714957900162 0 -0.37563375498023588 0.33893957100260502 0 -0.35615310428423591 0.31878714957900162 0 -0.35750778107934472 0.34402647380388779 0 -0.37563375498023588 0.33893957100260502 0 -0.37302608715873109 0.35758434449273291 0 -0.35750778107934472 0.34402647380388779 0 -0.37302608715873109 0.35758434449273291 0 -0.35750778107934472 0.34402647380388779 0 -0.35541488053243109 0.35781034742230239 0 -0.37302608715873109 0.35758434449273291 0 -0.35209549523865291 0.37190500391828912 0 -0.35541488053243109 0.35781034742230239 0 -0.37302608715873109 0.35758434449273291 0 -0.37126589511329411 0.37377724987418581 0 -0.35209549523865291 0.37190500391828912 0 -0.37302608715873109 0.35758434449273291 0 -0.35209549523865291 0.37190500391828912 0 -0.33508210951592582 0.36870163953731322 0 -0.35209549523865291 0.37190500391828912 0 -0.34577529297467657 0.36353966338233001 0 -0.35209549523865291 0.37190500391828912 0 -0.34577529297467657 0.36353966338233001 0 -0.35209549523865291 0.37190500391828912 0 -0.34577529297467657 0.36353966338233001 0 -0.35541488053243109 0.35781034742230239 0 -0.34577529297467657 0.36353966338233001 0 -0.34447532111727192 0.34884924989517158 0 -0.35541488053243109 0.35781034742230239 0 -0.34447532111727192 0.34884924989517158 0 -0.35750778107934472 0.34402647380388779 0 -0.35541488053243109 0.35781034742230239 0 -0.35026082972236822 0.40458613969335172 0 -0.34862050747833878 0.38874946299455448 0 -0.33552343261133938 0.40009846525415782 0 -0.35026082972236822 0.40458613969335172 0 -0.34862050747833878 0.38874946299455448 0 -0.36671596826568531 0.39125647884893172 0 -0.35209549523865291 0.37190500391828912 0 -0.34862050747833878 0.38874946299455448 0 -0.33393211710626841 0.38433234248782061 0 -0.35209549523865291 0.37190500391828912 0 -0.34862050747833878 0.38874946299455448 0 -0.36671596826568531 0.39125647884893172 0 -0.35209549523865291 0.37190500391828912 0 -0.36671596826568531 0.39125647884893172 0 -0.37126589511329411 0.37377724987418581 0 -0.35209549523865291 0.37190500391828912 0 -0.36671596826568531 0.39125647884893172 0 -0.38133644129271771 0.41060795377957438 0 -0.36671596826568531 0.39125647884893172 0 -0.35026082972236822 0.40458613969335172 0 -0.36671596826568531 0.39125647884893172 0 -0.36333227490387549 0.41594406858258898 0 -0.38133644129271771 0.41060795377957438 0 -0.36671596826568531 0.39125647884893172 0 -0.36333227490387549 0.41594406858258898 0 -0.38133644129271771 0.41060795377957438 0 -0.36333227490387549 0.41594406858258898 0 -0.37388199021079188 0.43349662060099697 0 -0.36333227490387549 0.41594406858258898 0 -0.37388199021079188 0.43349662060099697 0 -0.35906691460358248 0.43302642702751659 0 -0.36333227490387549 0.41594406858258898 0 -0.35906691460358248 0.43302642702751659 0 -0.35160825139420282 0.41805423523185442 0 -0.35906691460358248 0.43302642702751659 0 -0.34586475289765162 0.42738691828786168 0 -0.34964894770477822 0.45067928662270329 0 -0.35906691460358248 0.43302642702751659 0 -0.34586475289765162 0.42738691828786168 0 -0.35160825139420282 0.41805423523185442 0 -0.35026082972236822 0.40458613969335172 0 -0.36333227490387549 0.41594406858258898 0 -0.35160825139420282 0.41805423523185442 0 -0.34586475289765162 0.42738691828786168 0 -0.35160825139420282 0.41805423523185442 0 -0.33955069738530769 0.4144169953609998 0 -0.35026082972236822 0.40458613969335172 0 -0.35160825139420282 0.41805423523185442 0 -0.33955069738530769 0.4144169953609998 0 -0.35026082972236822 0.40458613969335172 0 -0.33955069738530769 0.4144169953609998 0 -0.33552343261133938 0.40009846525415782 0 -0.33446828868340289 0.42659298183602629 0 -0.325081577553051 0.41169961094141633 0 -0.33955069738530769 0.4144169953609998 0 -0.33446828868340289 0.42659298183602629 0 -0.325081577553051 0.41169961094141633 0 -0.33955069738530769 0.4144169953609998 0 -0.325081577553051 0.41169961094141633 0 -0.33552343261133938 0.40009846525415782 0 -0.33446828868340289 0.42659298183602629 0 -0.32353211865850812 0.43458959004027897 0 -0.33054677899099522 0.44587833955602901 0 -0.34586475289765162 0.42738691828786168 0 -0.33446828868340289 0.42659298183602629 0 -0.34964894770477822 0.45067928662270329 0 -0.34586475289765162 0.42738691828786168 0 -0.33446828868340289 0.42659298183602629 0 -0.34586475289765162 0.42738691828786168 0 -0.33955069738530769 0.4144169953609998 0 -0.33446828868340289 0.42659298183602629 0 -0.33446828868340289 0.42659298183602629 0 -0.31463215430362917 0.42521109444957261 0 -0.33446828868340289 0.42659298183602629 0 -0.31463215430362917 0.42521109444957261 0 -0.32353211865850812 0.43458959004027897 0 -0.31463215430362917 0.42521109444957261 0 -0.32353211865850812 0.43458959004027897 0 -0.30632691414132052 0.4383163993433048 0 -0.325081577553051 0.41169961094141633 0 -0.31576873897388319 0.39675968105735149 0 -0.30808160252936673 0.4121977433748496 0 -0.31463215430362917 0.42521109444957261 0 -0.325081577553051 0.41169961094141633 0 -0.30808160252936673 0.4121977433748496 0 -0.33446828868340289 0.42659298183602629 0 -0.31463215430362917 0.42521109444957261 0 -0.325081577553051 0.41169961094141633 0 -0.325081577553051 0.41169961094141633 0 -0.31576873897388319 0.39675968105735149 0 -0.33552343261133938 0.40009846525415782 0 -0.325081577553051 0.41169961094141633 0 -0.31576873897388319 0.39675968105735149 0 -0.34862050747833878 0.38874946299455448 0 -0.33552343261133938 0.40009846525415782 0 -0.33393211710626841 0.38433234248782061 0 -0.31576873897388319 0.39675968105735149 0 -0.33552343261133938 0.40009846525415782 0 -0.33393211710626841 0.38433234248782061 0 -0.35209549523865291 0.37190500391828912 0 -0.33393211710626841 0.38433234248782061 0 -0.33508210951592582 0.36870163953731322 0 -0.33393211710626841 0.38433234248782061 0 -0.32091897818789411 0.37757395005697603 0 -0.31576873897388319 0.39675968105735149 0 -0.32091897818789411 0.37757395005697603 0 -0.30732872976294823 0.38353215772995369 0 -0.31576873897388319 0.39675968105735149 0 -0.33393211710626841 0.38433234248782061 0 -0.31576873897388319 0.39675968105735149 0 -0.33393211710626841 0.38433234248782061 0 -0.32091897818789411 0.37757395005697603 0 -0.31229554397435733 0.37005867265250031 0 -0.32091897818789411 0.37757395005697603 0 -0.30732872976294823 0.38353215772995369 0 -0.29896259310319367 0.37025807541310352 0 -0.30732872976294823 0.38353215772995369 0 -0.29700674132229032 0.39540516601558717 0 -0.29896259310319367 0.37025807541310352 0 -0.29700674132229032 0.39540516601558717 0 -0.31576873897388319 0.39675968105735149 0 -0.30732872976294823 0.38353215772995369 0 -0.29896259310319367 0.37025807541310352 0 -0.30732872976294823 0.38353215772995369 0 -0.29700674132229032 0.39540516601558717 0 -0.30259284054109448 0.40478096048040529 0 -0.29641605771867308 0.41403951143914192 0 -0.31576873897388319 0.39675968105735149 0 -0.29700674132229032 0.39540516601558717 0 -0.30259284054109448 0.40478096048040529 0 -0.31576873897388319 0.39675968105735149 0 -0.30732872976294823 0.38353215772995369 0 -0.29700674132229032 0.39540516601558717 0 -0.31576873897388319 0.39675968105735149 0 -0.30259284054109448 0.40478096048040529 0 -0.30808160252936673 0.4121977433748496 0 -0.29700674132229032 0.39540516601558717 0 -0.28209338532393202 0.38222600668133688 0 -0.27839968129949771 0.4031848713431353 0 -0.29896259310319367 0.37025807541310352 0 -0.29700674132229032 0.39540516601558717 0 -0.28209338532393202 0.38222600668133688 0 -0.27169383631612543 0.36953364855257259 0 -0.28209338532393202 0.38222600668133688 0 -0.26324903299479457 0.38988604216182182 0 -0.27839968129949771 0.4031848713431353 0 -0.26324903299479457 0.38988604216182182 0 -0.26044543261494202 0.40722350202507612 0 -0.28209338532393202 0.38222600668133688 0 -0.27839968129949771 0.4031848713431353 0 -0.26324903299479457 0.38988604216182182 0 -0.26324903299479457 0.38988604216182182 0 -0.26044543261494202 0.40722350202507612 0 -0.24448809762487089 0.40050868906775772 0 -0.25717133997193298 0.37426095615225607 0 -0.26324903299479457 0.38988604216182182 0 -0.24074374520667241 0.38242687998337299 0 -0.25717133997193298 0.37426095615225607 0 -0.27169383631612543 0.36953364855257259 0 -0.26324903299479457 0.38988604216182182 0 -0.25382358621835049 0.43542260228310259 0 -0.27015352040741047 0.42211248350195679 0 -0.2459368307481366 0.42042542405070832 0 -0.27015352040741047 0.42211248350195679 0 -0.2459368307481366 0.42042542405070832 0 -0.26044543261494202 0.40722350202507612 0 -0.2459368307481366 0.42042542405070832 0 -0.24448809762487089 0.40050868906775772 0 -0.26044543261494202 0.40722350202507612 0 -0.27015352040741047 0.42211248350195679 0 -0.2459368307481366 0.42042542405070832 0 -0.27839968129949771 0.4031848713431353 0 -0.26044543261494202 0.40722350202507612 0 -0.27015352040741047 0.42211248350195679 0 -0.27839968129949771 0.4031848713431353 0 -0.27015352040741047 0.42211248350195679 0 -0.2950508895413867 0.42055225661807089 0 -0.25382358621835049 0.43542260228310259 0 -0.27015352040741047 0.42211248350195679 0 -0.27451598641054692 0.44016370142941202 0 -0.27015352040741047 0.42211248350195679 0 -0.28251112199335982 0.43211478794536817 0 -0.27451598641054692 0.44016370142941202 0 -0.28251112199335982 0.43211478794536817 0 -0.29479601992385501 0.42382920706312738 0 -0.29069111349206073 0.44135124015641658 0 -0.29479601992385501 0.42382920706312738 0 -0.29069111349206073 0.44135124015641658 0 -0.27015352040741047 0.42211248350195679 0 -0.28251112199335982 0.43211478794536817 0 -0.29479601992385501 0.42382920706312738 0 -0.27015352040741047 0.42211248350195679 0 -0.29479601992385501 0.42382920706312738 0 -0.27015352040741047 0.42211248350195679 0 -0.29479601992385501 0.42382920706312738 0 -0.2950508895413867 0.42055225661807089 0 -0.29479601992385501 0.42382920706312738 0 -0.2950508895413867 0.42055225661807089 0 -0.29700674132229032 0.39540516601558717 0 -0.2950508895413867 0.42055225661807089 0 -0.29641605771867308 0.41403951143914192 0 -0.29700674132229032 0.39540516601558717 0 -0.27839968129949771 0.4031848713431353 0 -0.2950508895413867 0.42055225661807089 0 -0.29700674132229032 0.39540516601558717 0 -0.2950508895413867 0.42055225661807089 0 -0.2950508895413867 0.42055225661807089 0 -0.29641605771867308 0.41403951143914192 0 -0.31463215430362917 0.42521109444957261 0 -0.2950508895413867 0.42055225661807089 0 -0.30808160252936673 0.4121977433748496 0 -0.30259284054109448 0.40478096048040529 0 -0.29641605771867308 0.41403951143914192 0 -0.30808160252936673 0.4121977433748496 0 -0.2950508895413867 0.42055225661807089 0 -0.29641605771867308 0.41403951143914192 0 -0.30808160252936673 0.4121977433748496 0 -0.31463215430362917 0.42521109444957261 0 -0.29479601992385501 0.42382920706312738 0 -0.2950508895413867 0.42055225661807089 0 -0.31463215430362917 0.42521109444957261 0 -0.29479601992385501 0.42382920706312738 0 -0.30632691414132052 0.4383163993433048 0 -0.29479601992385501 0.42382920706312738 0 -0.30632691414132052 0.4383163993433048 0 -0.29069111349206073 0.44135124015641658 0 -0.31463215430362917 0.42521109444957261 0 -0.29479601992385501 0.42382920706312738 0 -0.30632691414132052 0.4383163993433048 0 -0.3106014077299023 0.45452137664490028 0 -0.31918078655937843 0.44538174228416588 0 -0.30632691414132052 0.4383163993433048 0 -0.29796494780926752 0.45236230629258078 0 -0.3106014077299023 0.45452137664490028 0 -0.30632691414132052 0.4383163993433048 0 -0.29796494780926752 0.45236230629258078 0 -0.29069111349206073 0.44135124015641658 0 -0.3106014077299023 0.45452137664490028 0 -0.30192672627001949 0.46374394226332799 0 -0.31684143562260331 0.46858494716702748 0 -0.30192672627001949 0.46374394226332799 0 -0.31684143562260331 0.46858494716702748 0 -0.29796494780926752 0.45236230629258078 0 -0.3106014077299023 0.45452137664490028 0 -0.30192672627001949 0.46374394226332799 0 -0.28701201691743577 0.45890293735962839 0 -0.28352738281579593 0.4755269213664215 0 -0.30192672627001949 0.46374394226332799 0 -0.28701201691743577 0.45890293735962839 0 -0.30030559437380339 0.47420586516231239 0 -0.30192672627001949 0.46374394226332799 0 -0.28701201691743577 0.45890293735962839 0 -0.29796494780926752 0.45236230629258078 0 -0.30192672627001949 0.46374394226332799 0 -0.28701201691743577 0.45890293735962839 0 -0.28701201691743577 0.45890293735962839 0 -0.29069111349206073 0.44135124015641658 0 -0.28701201691743577 0.45890293735962839 0 -0.29069111349206073 0.44135124015641658 0 -0.27451598641054692 0.44016370142941202 0 -0.29796494780926752 0.45236230629258078 0 -0.28701201691743577 0.45890293735962839 0 -0.29069111349206073 0.44135124015641658 0 -0.28251112199335982 0.43211478794536817 0 -0.29069111349206073 0.44135124015641658 0 -0.27451598641054692 0.44016370142941202 0 -0.28701201691743577 0.45890293735962839 0 -0.27451598641054692 0.44016370142941202 0 -0.2629045594346644 0.45107815732999917 0 -0.28701201691743577 0.45890293735962839 0 -0.2629045594346644 0.45107815732999917 0 -0.28701201691743577 0.45890293735962839 0 -0.27023974482395158 0.46466667776273851 0 -0.28352738281579593 0.4755269213664215 0 -0.28701201691743577 0.45890293735962839 0 -0.27023974482395158 0.46466667776273851 0 -0.2629045594346644 0.45107815732999917 0 -0.27023974482395158 0.46466667776273851 0 -0.2629045594346644 0.45107815732999917 0 -0.2489120775907421 0.45611132706247232 0 -0.27023974482395158 0.46466667776273851 0 -0.24576275637927339 0.47027392540463459 0 -0.2489120775907421 0.45611132706247232 0 -0.25382358621835049 0.43542260228310259 0 -0.2629045594346644 0.45107815732999917 0 -0.2387971019518931 0.44325337730036979 0 -0.2629045594346644 0.45107815732999917 0 -0.2387971019518931 0.44325337730036979 0 -0.2629045594346644 0.45107815732999917 0 -0.2387971019518931 0.44325337730036979 0 -0.2489120775907421 0.45611132706247232 0 -0.25382358621835049 0.43542260228310259 0 -0.27451598641054692 0.44016370142941202 0 -0.2629045594346644 0.45107815732999917 0 -0.26267046183496029 0.5 0 -0.26550391405888962 0.48189416376756322 0 -0.24740973726578031 0.48747235416832729 0 -0.26550391405888962 0.48189416376756322 0 -0.24576275637927339 0.47027392540463459 0 -0.24740973726578031 0.48747235416832729 0 -0.27023974482395158 0.46466667776273851 0 -0.26550391405888962 0.48189416376756322 0 -0.24576275637927339 0.47027392540463459 0 -0.27023974482395158 0.46466667776273851 0 -0.26550391405888962 0.48189416376756322 0 -0.28352738281579593 0.4755269213664215 0 -0.26550391405888962 0.48189416376756322 0 -0.28004274871415491 0.49215090537321432 0 -0.28352738281579593 0.4755269213664215 0 -0.26267046183496029 0.5 0 -0.26550391405888962 0.48189416376756322 0 -0.28004274871415491 0.49215090537321432 0 -0.26267046183496029 0.5 0 -0.28004274871415491 0.49215090537321432 0 -0.28977137280097909 0.5 0 -0.28004274871415491 0.49215090537321432 0 -0.29422506909847679 0.48481709335143458 0 -0.28977137280097909 0.5 0 -0.29422506909847679 0.48481709335143458 0 -0.28977137280097909 0.5 0 -0.30059562840125281 0.49523014277448563 0 -0.29422506909847679 0.48481709335143458 0 -0.28352738281579593 0.4755269213664215 0 -0.30030559437380339 0.47420586516231239 0 -0.28004274871415491 0.49215090537321432 0 -0.29422506909847679 0.48481709335143458 0 -0.28352738281579593 0.4755269213664215 0 -0.28701201691743577 0.45890293735962839 0 -0.28352738281579593 0.4755269213664215 0 -0.30030559437380339 0.47420586516231239 0 -0.28004274871415491 0.49215090537321432 0 -0.28352738281579593 0.4755269213664215 0 -0.30192672627001949 0.46374394226332799 0 -0.30030559437380339 0.47420586516231239 0 -0.31684143562260331 0.46858494716702748 0 -0.30030559437380339 0.47420586516231239 0 -0.3087338265938282 0.48140676030859753 0 -0.31684143562260331 0.46858494716702748 0 -0.29422506909847679 0.48481709335143458 0 -0.30030559437380339 0.47420586516231239 0 -0.3087338265938282 0.48140676030859753 0 -0.28977137280097909 0.5 0 -0.30059562840125281 0.49523014277448563 0 -0.31687228376699761 0.5 0 -0.3087338265938282 0.48140676030859753 0 -0.30059562840125281 0.49523014277448563 0 -0.32200695450955369 0.48840862565278359 0 -0.30059562840125281 0.49523014277448563 0 -0.32200695450955369 0.48840862565278359 0 -0.29422506909847679 0.48481709335143458 0 -0.3087338265938282 0.48140676030859753 0 -0.30059562840125281 0.49523014277448563 0 -0.30059562840125281 0.49523014277448563 0 -0.31687228376699761 0.5 0 -0.32200695450955369 0.48840862565278359 0 -0.31687228376699761 0.5 0 -0.32200695450955369 0.48840862565278359 0 -0.33307541777069588 0.49179723018598798 0 -0.32200695450955369 0.48840862565278359 0 -0.34341828061785462 0.48158710853108161 0 -0.32200695450955369 0.48840862565278359 0 -0.33307541777069588 0.49179723018598798 0 -0.34341828061785462 0.48158710853108161 0 -0.33307541777069588 0.49179723018598798 0 -0.34341828061785462 0.48158710853108161 0 -0.34397319473301619 0.5 0 -0.31687228376699761 0.5 0 -0.33307541777069588 0.49179723018598798 0 -0.34397319473301619 0.5 0 -0.32200695450955369 0.48840862565278359 0 -0.34341828061785462 0.48158710853108161 0 -0.32987443399239552 0.47516769423785971 0 -0.34341828061785462 0.48158710853108161 0 -0.32987443399239552 0.47516769423785971 0 -0.34602126269748001 0.46829680282094799 0 -0.32987443399239552 0.47516769423785971 0 -0.31870391104731738 0.47862303310617538 0 -0.31684143562260331 0.46858494716702748 0 -0.32200695450955369 0.48840862565278359 0 -0.32987443399239552 0.47516769423785971 0 -0.31870391104731738 0.47862303310617538 0 -0.3087338265938282 0.48140676030859753 0 -0.32200695450955369 0.48840862565278359 0 -0.31870391104731738 0.47862303310617538 0 -0.3087338265938282 0.48140676030859753 0 -0.31870391104731738 0.47862303310617538 0 -0.31684143562260331 0.46858494716702748 0 -0.31684143562260331 0.46858494716702748 0 -0.32297313966047753 0.4563916054492167 0 -0.33347739267942988 0.46163483110378051 0 -0.32987443399239552 0.47516769423785971 0 -0.31684143562260331 0.46858494716702748 0 -0.33347739267942988 0.46163483110378051 0 -0.3106014077299023 0.45452137664490028 0 -0.31684143562260331 0.46858494716702748 0 -0.32297313966047753 0.4563916054492167 0 -0.32353211865850812 0.43458959004027897 0 -0.30632691414132052 0.4383163993433048 0 -0.31918078655937843 0.44538174228416588 0 -0.3106014077299023 0.45452137664490028 0 -0.32297313966047753 0.4563916054492167 0 -0.31918078655937843 0.44538174228416588 0 -0.32297313966047753 0.4563916054492167 0 -0.31918078655937843 0.44538174228416588 0 -0.33054677899099522 0.44587833955602901 0 -0.32353211865850812 0.43458959004027897 0 -0.31918078655937843 0.44538174228416588 0 -0.33054677899099522 0.44587833955602901 0 -0.33054677899099522 0.44587833955602901 0 -0.33347739267942988 0.46163483110378051 0 -0.34964894770477822 0.45067928662270329 0 -0.33446828868340289 0.42659298183602629 0 -0.34964894770477822 0.45067928662270329 0 -0.33446828868340289 0.42659298183602629 0 -0.33054677899099522 0.44587833955602901 0 -0.34964894770477822 0.45067928662270329 0 -0.32297313966047753 0.4563916054492167 0 -0.33054677899099522 0.44587833955602901 0 -0.33347739267942988 0.46163483110378051 0 -0.33347739267942988 0.46163483110378051 0 -0.34602126269748001 0.46829680282094799 0 -0.34964894770477822 0.45067928662270329 0 -0.32987443399239552 0.47516769423785971 0 -0.33347739267942988 0.46163483110378051 0 -0.34602126269748001 0.46829680282094799 0 -0.34964894770477822 0.45067928662270329 0 -0.36482960672615539 0.47476559140937902 0 -0.34602126269748001 0.46829680282094799 0 -0.34964894770477822 0.45067928662270329 0 -0.36482960672615539 0.47476559140937902 0 -0.37388199021079188 0.43349662060099697 0 -0.35906691460358248 0.43302642702751659 0 -0.37006527051019528 0.45259743283909409 0 -0.35906691460358248 0.43302642702751659 0 -0.34964894770477822 0.45067928662270329 0 -0.37006527051019528 0.45259743283909409 0 -0.34964894770477822 0.45067928662270329 0 -0.37006527051019528 0.45259743283909409 0 -0.36482960672615539 0.47476559140937902 0 -0.39197467039505129 0.46611734068214988 0 -0.36580706476392733 0.47631646954851292 0 -0.36482960672615539 0.47476559140937902 0 -0.38413367002432852 0.48466820949397371 0 -0.36580706476392733 0.47631646954851292 0 -0.36922226322768142 0.48798439540463678 0 -0.36580706476392733 0.47631646954851292 0 -0.36482960672615539 0.47476559140937902 0 -0.36580706476392733 0.47631646954851292 0 -0.36011621247549508 0.48220740160321018 0 -0.36922226322768142 0.48798439540463678 0 -0.36580706476392733 0.47631646954851292 0 -0.36482960672615539 0.47476559140937902 0 -0.36011621247549508 0.48220740160321018 0 -0.38413367002432852 0.48466820949397371 0 -0.36922226322768142 0.48798439540463678 0 -0.37107410569903487 0.5 0 -0.36922226322768142 0.48798439540463678 0 -0.37107410569903487 0.5 0 -0.35730384704185653 0.49038344312244059 0 -0.36011621247549508 0.48220740160321018 0 -0.36922226322768142 0.48798439540463678 0 -0.35730384704185653 0.49038344312244059 0 -0.34341828061785462 0.48158710853108161 0 -0.36011621247549508 0.48220740160321018 0 -0.35730384704185653 0.49038344312244059 0 -0.37107410569903487 0.5 0 -0.35730384704185653 0.49038344312244059 0 -0.34397319473301619 0.5 0 -0.34341828061785462 0.48158710853108161 0 -0.35730384704185653 0.49038344312244059 0 -0.34397319473301619 0.5 0 -0.34341828061785462 0.48158710853108161 0 -0.36482960672615539 0.47476559140937902 0 -0.36011621247549508 0.48220740160321018 0 -0.34341828061785462 0.48158710853108161 0 -0.34602126269748001 0.46829680282094799 0 -0.36482960672615539 0.47476559140937902 0 -0.34341828061785462 0.48158710853108161 0 -0.36482960672615539 0.47476559140937902 0 -0.14108182703901029 0.47856052106912539 0 -0.15218575011213231 0.48928026053456308 0 -0.15838645381207381 0.47784012782054008 0 -0.14108182703901029 0.47856052106912539 0 -0.15141758041572639 0.46790752156545012 0 -0.15838645381207381 0.47784012782054008 0 -0.14108182703901029 0.47856052106912539 0 -0.15218575011213231 0.48928026053456308 0 -0.14103512141071931 0.48261116844817892 0 -0.14108182703901029 0.47856052106912539 0 -0.15218575011213231 0.48928026053456308 0 -0.14103512141071931 0.48261116844817892 0 -0.14108182703901029 0.47856052106912539 0 -0.15218575011213231 0.48928026053456308 0 -0.14247376316698551 0.5 0 -0.1632896731852537 0.50000000000000155 0 -0.15218575011213231 0.48928026053456308 0 -0.14247376316698551 0.5 0 -0.14194011071192181 0.49099964735320722 0 -0.14103512141071931 0.48261116844817892 0 -0.15218575011213231 0.48928026053456308 0 -0.14194011071192181 0.49099964735320722 0 -0.14247376316698551 0.5 0 -0.13206580815784999 0.49210716043008701 0 -0.1216578531487173 0.50000000000000155 0 -0.13206580815784999 0.49210716043008701 0 -0.1215246548466888 0.48036061179670092 0 -0.1216578531487173 0.50000000000000155 0 -0.14103512141071931 0.48261116844817892 0 -0.13206580815784999 0.49210716043008701 0 -0.1215246548466888 0.48036061179670092 0 -0.14103512141071931 0.48261116844817892 0 -0.14194011071192181 0.49099964735320722 0 -0.13206580815784999 0.49210716043008701 0 -0.14247376316698551 0.5 0 -0.14194011071192181 0.49099964735320722 0 -0.13206580815784999 0.49210716043008701 0 -0.14103512141071931 0.48261116844817892 0 -0.14108182703901029 0.47856052106912539 0 -0.1215246548466888 0.48036061179670092 0 -0.14108182703901029 0.47856052106912539 0 -0.11987972175203609 0.45809198546251739 0 -0.1215246548466888 0.48036061179670092 0 -0.14108182703901029 0.47856052106912539 0 -0.14131813266979709 0.45806640035822538 0 -0.11987972175203609 0.45809198546251739 0 -0.14108182703901029 0.47856052106912539 0 -0.11987972175203609 0.45809198546251739 0 -0.12509104342100061 0.44188941827772182 0 -0.14131813266979709 0.45806640035822538 0 -0.11987972175203609 0.45809198546251739 0 -0.12509104342100061 0.44188941827772182 0 -0.14155443830058789 0.43757227964732542 0 -0.14131813266979709 0.45806640035822538 0 -0.14155443830058789 0.43757227964732542 0 -0.1590732886589914 0.44456462379371309 0 -0.14157918638415079 0.43542594817740249 0 -0.1590732886589914 0.44456462379371309 0 -0.1665175895587078 0.4467511244817659 0 -0.14157918638415079 0.43542594817740249 0 -0.1665175895587078 0.4467511244817659 0 -0.15486041744653839 0.43233395996053492 0 -0.14157918638415079 0.43542594817740249 0 -0.14155443830058789 0.43757227964732542 0 -0.14890115189103559 0.44846787442591368 0 -0.1590732886589914 0.44456462379371309 0 -0.1665175895587078 0.4467511244817659 0 -0.14157918638415079 0.43542594817740249 0 -0.14155443830058789 0.43757227964732542 0 -0.14890115189103559 0.44846787442591368 0 -0.14131813266979709 0.45806640035822538 0 -0.14155443830058789 0.43757227964732542 0 -0.1590732886589914 0.44456462379371309 0 -0.14155443830058789 0.43757227964732542 0 -0.14131813266979709 0.45806640035822538 0 -0.14890115189103559 0.44846787442591368 0 -0.15489186999573309 0.45643812449532861 0 -0.1590732886589914 0.44456462379371309 0 -0.14108182703901029 0.47856052106912539 0 -0.14131813266979709 0.45806640035822538 0 -0.14108182703901029 0.47856052106912539 0 -0.14131813266979709 0.45806640035822538 0 -0.15141758041572639 0.46790752156545012 0 -0.14890115189103559 0.44846787442591368 0 -0.14131813266979709 0.45806640035822538 0 -0.15489186999573309 0.45643812449532861 0 -0.14131813266979709 0.45806640035822538 0 -0.15489186999573309 0.45643812449532861 0 -0.15141758041572639 0.46790752156545012 0 -0.15489186999573309 0.45643812449532861 0 -0.15141758041572639 0.46790752156545012 0 -0.1637083375647361 0.46571847743475431 0 -0.15489186999573309 0.45643812449532861 0 -0.1637083375647361 0.46571847743475431 0 -0.16576602081972819 0.45650349861697093 0 -0.1637083375647361 0.46571847743475431 0 -0.1745644688617857 0.46423929942095737 0 -0.17520348646433229 0.47613194070040032 0 -0.1637083375647361 0.46571847743475431 0 -0.16576602081972819 0.45650349861697093 0 -0.1745644688617857 0.46423929942095737 0 -0.1590732886589914 0.44456462379371309 0 -0.17659213901739471 0.45155696794010108 0 -0.1590732886589914 0.44456462379371309 0 -0.1665175895587078 0.4467511244817659 0 -0.17659213901739471 0.45155696794010108 0 -0.16576602081972819 0.45650349861697093 0 -0.1590732886589914 0.44456462379371309 0 -0.17659213901739471 0.45155696794010108 0 -0.1665175895587078 0.4467511244817659 0 -0.1659354897241099 0.43449929542802312 0 -0.15486041744653839 0.43233395996053492 0 -0.15489186999573309 0.45643812449532861 0 -0.16576602081972819 0.45650349861697093 0 -0.1590732886589914 0.44456462379371309 0 -0.1665175895587078 0.4467511244817659 0 -0.1740586998674569 0.43899754936367941 0 -0.1659354897241099 0.43449929542802312 0 -0.1740586998674569 0.43899754936367941 0 -0.17659213901739471 0.45155696794010108 0 -0.1868590329817707 0.43357197228301869 0 -0.1665175895587078 0.4467511244817659 0 -0.1740586998674569 0.43899754936367941 0 -0.17659213901739471 0.45155696794010108 0 -0.1745644688617857 0.46423929942095737 0 -0.18738907724301901 0.4651958722260251 0 -0.17520348646433229 0.47613194070040032 0 -0.17659213901739471 0.45155696794010108 0 -0.1745644688617857 0.46423929942095737 0 -0.18738907724301901 0.4651958722260251 0 -0.16576602081972819 0.45650349861697093 0 -0.17659213901739471 0.45155696794010108 0 -0.1745644688617857 0.46423929942095737 0 -0.17520348646433229 0.47613194070040032 0 -0.17737148462513211 0.4885994124146576 0 -0.1949767913905355 0.48049775525153071 0 -0.18738907724301901 0.4651958722260251 0 -0.17520348646433229 0.47613194070040032 0 -0.1949767913905355 0.48049775525153071 0 -0.17520348646433229 0.47613194070040032 0 -0.1660045063390565 0.48636736612135473 0 -0.17737148462513211 0.4885994124146576 0 -0.17520348646433229 0.47613194070040032 0 -0.15838645381207381 0.47784012782054008 0 -0.1660045063390565 0.48636736612135473 0 -0.1637083375647361 0.46571847743475431 0 -0.17520348646433229 0.47613194070040032 0 -0.15838645381207381 0.47784012782054008 0 -0.15141758041572639 0.46790752156545012 0 -0.1637083375647361 0.46571847743475431 0 -0.15838645381207381 0.47784012782054008 0 -0.15218575011213231 0.48928026053456308 0 -0.1632896731852537 0.50000000000000155 0 -0.15218575011213231 0.48928026053456308 0 -0.15838645381207381 0.47784012782054008 0 -0.1660045063390565 0.48636736612135473 0 -0.15218575011213231 0.48928026053456308 0 -0.1632896731852537 0.50000000000000155 0 -0.1660045063390565 0.48636736612135473 0 -0.1632896731852537 0.50000000000000155 0 -0.1660045063390565 0.48636736612135473 0 -0.17737148462513211 0.4885994124146576 0 -0.1632896731852537 0.50000000000000155 0 -0.18738296574648311 0.5 0 -0.17737148462513211 0.4885994124146576 0 -0.18738296574648311 0.5 0 -0.17737148462513211 0.4885994124146576 0 -0.1949767913905355 0.48049775525153071 0 -0.18738296574648311 0.5 0 -0.1949767913905355 0.48049775525153071 0 -0.21147625830771241 0.5 0 -0.1949767913905355 0.48049775525153071 0 -0.2193327115732171 0.47785732409434201 0 -0.2030958722774939 0.45571464818868052 0 -0.1949767913905355 0.48049775525153071 0 -0.21147625830771241 0.5 0 -0.2193327115732171 0.47785732409434201 0 -0.21147625830771241 0.5 0 -0.2193327115732171 0.47785732409434201 0 -0.23556955086894171 0.50000000000000278 0 -0.2193327115732171 0.47785732409434201 0 -0.24740973726578031 0.48747235416832729 0 -0.23556955086894171 0.50000000000000278 0 -0.2193327115732171 0.47785732409434201 0 -0.23556955086894171 0.50000000000000278 0 -0.2193327115732171 0.47785732409434201 0 -0.24576275637927339 0.47027392540463459 0 -0.24740973726578031 0.48747235416832729 0 -0.26267046183496029 0.5 0 -0.24740973726578031 0.48747235416832729 0 -0.23556955086894171 0.50000000000000278 0 -0.2387971019518931 0.44325337730036979 0 -0.2489120775907421 0.45611132706247232 0 -0.22784244863720851 0.45419089524536999 0 -0.24576275637927339 0.47027392540463459 0 -0.2489120775907421 0.45611132706247232 0 -0.22784244863720851 0.45419089524536999 0 -0.2193327115732171 0.47785732409434201 0 -0.24576275637927339 0.47027392540463459 0 -0.22784244863720851 0.45419089524536999 0 -0.2387971019518931 0.44325337730036979 0 -0.22784244863720851 0.45419089524536999 0 -0.22695118484456259 0.43760496865691229 0 -0.22784244863720851 0.45419089524536999 0 -0.22695118484456259 0.43760496865691229 0 -0.21077827595677989 0.43843038173964088 0 -0.2387971019518931 0.44325337730036979 0 -0.22695118484456259 0.43760496865691229 0 -0.23717077667227929 0.4322920750106754 0 -0.22784244863720851 0.45419089524536999 0 -0.21077827595677989 0.43843038173964088 0 -0.2030958722774939 0.45571464818868052 0 -0.2193327115732171 0.47785732409434201 0 -0.22784244863720851 0.45419089524536999 0 -0.2030958722774939 0.45571464818868052 0 -0.2193327115732171 0.47785732409434201 0 -0.2030958722774939 0.45571464818868052 0 -0.18738907724301901 0.4651958722260251 0 -0.1949767913905355 0.48049775525153071 0 -0.2030958722774939 0.45571464818868052 0 -0.17659213901739471 0.45155696794010108 0 -0.18738907724301901 0.4651958722260251 0 -0.2030958722774939 0.45571464818868052 0 -0.17659213901739471 0.45155696794010108 0 -0.2030958722774939 0.45571464818868052 0 -0.1868590329817707 0.43357197228301869 0 -0.21077827595677989 0.43843038173964088 0 -0.2030958722774939 0.45571464818868052 0 -0.1868590329817707 0.43357197228301869 0 -0.2030958722774939 0.45571464818868052 0 -0.1868590329817707 0.43357197228301869 0 -0.21077827595677989 0.43843038173964088 0 -0.20038953475864499 0.42285930103310698 0 -0.1868590329817707 0.43357197228301869 0 -0.20038953475864499 0.42285930103310698 0 -0.18865851951403981 0.41114723081592358 0 -0.1868590329817707 0.43357197228301869 0 -0.20038953475864499 0.42285930103310698 0 -0.18865851951403981 0.41114723081592358 0 -0.20316386533702549 0.40742415296633488 0 -0.20038953475864499 0.42285930103310698 0 -0.20316386533702549 0.40742415296633488 0 -0.22016732100465239 0.41985811398850509 0 -0.20316386533702549 0.40742415296633488 0 -0.22016732100465239 0.41985811398850509 0 -0.21769018938602511 0.40540249138439582 0 -0.20316386533702549 0.40742415296633488 0 -0.22016732100465239 0.41985811398850509 0 -0.21077827595677989 0.43843038173964088 0 -0.20038953475864499 0.42285930103310698 0 -0.22016732100465239 0.41985811398850509 0 -0.22695118484456259 0.43760496865691229 0 -0.22016732100465239 0.41985811398850509 0 -0.23717077667227929 0.4322920750106754 0 -0.22695118484456259 0.43760496865691229 0 -0.21077827595677989 0.43843038173964088 0 -0.22016732100465239 0.41985811398850509 0 -0.22016732100465239 0.41985811398850509 0 -0.23358788463652869 0.41983625247023992 0 -0.23717077667227929 0.4322920750106754 0 -0.22016732100465239 0.41985811398850509 0 -0.23717077667227929 0.4322920750106754 0 -0.22016732100465239 0.41985811398850509 0 -0.23115288141678619 0.40759276862782062 0 -0.21769018938602511 0.40540249138439582 0 -0.22016732100465239 0.41985811398850509 0 -0.23115288141678619 0.40759276862782062 0 -0.23358788463652869 0.41983625247023992 0 -0.23115288141678619 0.40759276862782062 0 -0.2459368307481366 0.42042542405070832 0 -0.24448809762487089 0.40050868906775772 0 -0.23115288141678619 0.40759276862782062 0 -0.23358788463652869 0.41983625247023992 0 -0.2459368307481366 0.42042542405070832 0 -0.25382358621835049 0.43542260228310259 0 -0.2459368307481366 0.42042542405070832 0 -0.23717077667227929 0.4322920750106754 0 -0.25382358621835049 0.43542260228310259 0 -0.2387971019518931 0.44325337730036979 0 -0.23717077667227929 0.4322920750106754 0 -0.23358788463652869 0.41983625247023992 0 -0.2459368307481366 0.42042542405070832 0 -0.23717077667227929 0.4322920750106754 0 -0.26324903299479457 0.38988604216182182 0 -0.24074374520667241 0.38242687998337299 0 -0.24448809762487089 0.40050868906775772 0 -0.24074374520667241 0.38242687998337299 0 -0.24448809762487089 0.40050868906775772 0 -0.22634736018434309 0.39356380059118778 0 -0.23115288141678619 0.40759276862782062 0 -0.24448809762487089 0.40050868906775772 0 -0.22634736018434309 0.39356380059118778 0 -0.23115288141678619 0.40759276862782062 0 -0.22634736018434309 0.39356380059118778 0 -0.21769018938602511 0.40540249138439582 0 -0.24074374520667241 0.38242687998337299 0 -0.22634736018434309 0.39356380059118778 0 -0.21798062289891881 0.38062313327343511 0 -0.24074374520667241 0.38242687998337299 0 -0.21798062289891881 0.38062313327343511 0 -0.22441740966967141 0.36662202833489849 0 -0.21798062289891881 0.38062313327343511 0 -0.2053182195646632 0.38898911660535768 0 -0.20402060209966261 0.36833430411321649 0 -0.22634736018434309 0.39356380059118778 0 -0.21798062289891881 0.38062313327343511 0 -0.2053182195646632 0.38898911660535768 0 -0.22634736018434309 0.39356380059118778 0 -0.2053182195646632 0.38898911660535768 0 -0.21769018938602511 0.40540249138439582 0 -0.20316386533702549 0.40742415296633488 0 -0.2053182195646632 0.38898911660535768 0 -0.21769018938602511 0.40540249138439582 0 -0.20316386533702549 0.40742415296633488 0 -0.2053182195646632 0.38898911660535768 0 -0.18616040966939809 0.39499019194416529 0 -0.20316386533702549 0.40742415296633488 0 -0.18616040966939809 0.39499019194416529 0 -0.18865851951403981 0.41114723081592358 0 -0.20316386533702549 0.40742415296633488 0 -0.18616040966939809 0.39499019194416529 0 -0.2053182195646632 0.38898911660535768 0 -0.1927326532436788 0.38193994064591369 0 -0.18616040966939809 0.39499019194416529 0 -0.2053182195646632 0.38898911660535768 0 -0.1927326532436788 0.38193994064591369 0 -0.20402060209966261 0.36833430411321649 0 -0.1927326532436788 0.38193994064591369 0 -0.18374665136976759 0.37937871402705908 0 -0.18616040966939809 0.39499019194416529 0 -0.1744309637910503 0.37769149803556362 0 -0.1642142843906749 0.3789418502636645 0 -0.1838985270783616 0.39091510453828221 0 -0.1642142843906749 0.3789418502636645 0 -0.18616040966939809 0.39499019194416529 0 -0.1838985270783616 0.39091510453828221 0 -0.1927326532436788 0.38193994064591369 0 -0.18374665136976759 0.37937871402705908 0 -0.18362379452965399 0.37004657989153639 0 -0.18374665136976759 0.37937871402705908 0 -0.1744309637910503 0.37769149803556362 0 -0.1838985270783616 0.39091510453828221 0 -0.1642142843906749 0.3789418502636645 0 -0.18616040966939809 0.39499019194416529 0 -0.18374665136976759 0.37937871402705908 0 -0.1744309637910503 0.37769149803556362 0 -0.18362379452965399 0.37004657989153639 0 -0.18374665136976759 0.37937871402705908 0 -0.18616040966939809 0.39499019194416529 0 -0.18374665136976759 0.37937871402705908 0 -0.1838985270783616 0.39091510453828221 0 -0.18374665136976759 0.37937871402705908 0 -0.18616040966939809 0.39499019194416529 0 -0.1838985270783616 0.39091510453828221 0 -0.1642142843906749 0.3789418502636645 0 -0.1639919076143399 0.3974747808383628 0 -0.1489802686125267 0.38257497248127392 0 -0.1642142843906749 0.3789418502636645 0 -0.1639919076143399 0.3974747808383628 0 -0.18616040966939809 0.39499019194416529 0 -0.1744309637910503 0.37769149803556362 0 -0.1642142843906749 0.3789418502636645 0 -0.15874130784498061 0.37213542046662212 0 -0.1639919076143399 0.3974747808383628 0 -0.17750104491285451 0.40432040146684922 0 -0.17119334285363949 0.41366940226894577 0 -0.18865851951403981 0.41114723081592358 0 -0.18616040966939809 0.39499019194416529 0 -0.18865851951403981 0.41114723081592358 0 -0.17750104491285451 0.40432040146684922 0 -0.18616040966939809 0.39499019194416529 0 -0.1639919076143399 0.3974747808383628 0 -0.17750104491285451 0.40432040146684922 0 -0.18616040966939809 0.39499019194416529 0 -0.18865851951403981 0.41114723081592358 0 -0.17750104491285451 0.40432040146684922 0 -0.17119334285363949 0.41366940226894577 0 -0.18865851951403981 0.41114723081592358 0 -0.17459283461559361 0.42601523789076512 0 -0.17119334285363949 0.41366940226894577 0 -0.18865851951403981 0.41114723081592358 0 -0.1868590329817707 0.43357197228301869 0 -0.17459283461559361 0.42601523789076512 0 -0.1740586998674569 0.43899754936367941 0 -0.1868590329817707 0.43357197228301869 0 -0.17459283461559361 0.42601523789076512 0 -0.1740586998674569 0.43899754936367941 0 -0.17459283461559361 0.42601523789076512 0 -0.1659354897241099 0.43449929542802312 0 -0.17459283461559361 0.42601523789076512 0 -0.1659354897241099 0.43449929542802312 0 -0.16085192275254509 0.42420597718500008 0 -0.1659354897241099 0.43449929542802312 0 -0.16085192275254509 0.42420597718500008 0 -0.15486041744653839 0.43233395996053492 0 -0.1639919076143399 0.3974747808383628 0 -0.17119334285363949 0.41366940226894577 0 -0.1558060921739825 0.41026488178479492 0 -0.17459283461559361 0.42601523789076512 0 -0.16085192275254509 0.42420597718500008 0 -0.17119334285363949 0.41366940226894577 0 -0.16085192275254509 0.42420597718500008 0 -0.17119334285363949 0.41366940226894577 0 -0.1558060921739825 0.41026488178479492 0 -0.1558060921739825 0.41026488178479492 0 -0.1418117271851779 0.41525834053060801 0 -0.14204426798620681 0.39509073288381358 0 -0.16085192275254509 0.42420597718500008 0 -0.1558060921739825 0.41026488178479492 0 -0.1418117271851779 0.41525834053060801 0 -0.1418117271851779 0.41525834053060801 0 -0.14157918638415079 0.43542594817740249 0 -0.16085192275254509 0.42420597718500008 0 -0.1418117271851779 0.41525834053060801 0 -0.15486041744653839 0.43233395996053492 0 -0.1418117271851779 0.41525834053060801 0 -0.15486041744653839 0.43233395996053492 0 -0.14157918638415079 0.43542594817740249 0 -0.14155443830058789 0.43757227964732542 0 -0.14157918638415079 0.43542594817740249 0 -0.14155443830058789 0.43757227964732542 0 -0.14157918638415079 0.43542594817740249 0 -0.12025274126089 0.42574105579372712 0 -0.14155443830058789 0.43757227964732542 0 -0.1161249595423428 0.42742254588607831 0 -0.14157918638415079 0.43542594817740249 0 -0.12025274126089 0.42574105579372712 0 -0.1418117271851779 0.41525834053060801 0 -0.14157918638415079 0.43542594817740249 0 -0.12025274126089 0.42574105579372712 0 -0.14155443830058789 0.43757227964732542 0 -0.12025274126089 0.42574105579372712 0 -0.1161249595423428 0.42742254588607831 0 -0.12509104342100061 0.44188941827772182 0 -0.14155443830058789 0.43757227964732542 0 -0.1161249595423428 0.42742254588607831 0 -0.1418117271851779 0.41525834053060801 0 -0.1277268958593005 0.40709158096490278 0 -0.12025274126089 0.42574105579372712 0 -0.1418117271851779 0.41525834053060801 0 -0.1277268958593005 0.40709158096490278 0 -0.14204426798620681 0.39509073288381358 0 -0.1277268958593005 0.40709158096490278 0 -0.14204426798620681 0.39509073288381358 0 -0.1224972888069677 0.39405447109156733 0 -0.13238272395945991 0.37847398983736519 0 -0.1224972888069677 0.39405447109156733 0 -0.13238272395945991 0.37847398983736519 0 -0.14204426798620681 0.39509073288381358 0 -0.1224972888069677 0.39405447109156733 0 -0.13238272395945991 0.37847398983736519 0 -0.1489802686125267 0.38257497248127392 0 -0.14204426798620681 0.39509073288381358 0 -0.1639919076143399 0.3974747808383628 0 -0.1558060921739825 0.41026488178479492 0 -0.14204426798620681 0.39509073288381358 0 -0.1639919076143399 0.3974747808383628 0 -0.1489802686125267 0.38257497248127392 0 -0.14204426798620681 0.39509073288381358 0 -0.1418117271851779 0.41525834053060801 0 -0.14204426798620681 0.39509073288381358 0 -0.15552397359905151 0.35856797270850038 0 -0.1422681591119519 0.36289350858316322 0 -0.15574239997404821 0.34165669361972989 0 -0.1422681591119519 0.36289350858316322 0 -0.15574239997404821 0.34165669361972989 0 -0.13774544015442541 0.3595862213862932 0 -0.1344905665345571 0.34689990383467079 0 -0.15574239997404821 0.34165669361972989 0 -0.1422681591119519 0.36289350858316322 0 -0.13774544015442541 0.3595862213862932 0 -0.15574239997404821 0.34165669361972989 0 -0.1642142843906749 0.3789418502636645 0 -0.1422681591119519 0.36289350858316322 0 -0.13238272395945991 0.37847398983736519 0 -0.1489802686125267 0.38257497248127392 0 -0.1422681591119519 0.36289350858316322 0 -0.1642142843906749 0.3789418502636645 0 -0.1422681591119519 0.36289350858316322 0 -0.15874130784498061 0.37213542046662212 0 -0.1642142843906749 0.3789418502636645 0 -0.1489802686125267 0.38257497248127392 0 -0.1422681591119519 0.36289350858316322 0 -0.15552397359905151 0.35856797270850038 0 -0.1422681591119519 0.36289350858316322 0 -0.15874130784498061 0.37213542046662212 0 -0.1422681591119519 0.36289350858316322 0 -0.13774544015442541 0.3595862213862932 0 -0.12881796099468981 0.36725667352730101 0 -0.13238272395945991 0.37847398983736519 0 -0.12881796099468981 0.36725667352730101 0 -0.114951385737499 0.37611001703161828 0 -0.1422681591119519 0.36289350858316322 0 -0.13774544015442541 0.3595862213862932 0 -0.13238272395945991 0.37847398983736519 0 -0.1422681591119519 0.36289350858316322 0 -0.13238272395945991 0.37847398983736519 0 -0.1422681591119519 0.36289350858316322 0 -0.12881796099468981 0.36725667352730101 0 -0.13774544015442541 0.3595862213862932 0 -0.12881796099468981 0.36725667352730101 0 -0.13085154266849261 0.35745626259395852 0 -0.12881796099468981 0.36725667352730101 0 -0.13085154266849261 0.35745626259395852 0 -0.1223522029902982 0.35608225162756879 0 -0.13085154266849261 0.35745626259395852 0 -0.1344905665345571 0.34689990383467079 0 -0.1223522029902982 0.35608225162756879 0 -0.1344905665345571 0.34689990383467079 0 -0.1215793900664241 0.33965542352680428 0 -0.1223522029902982 0.35608225162756879 0 -0.13774544015442541 0.3595862213862932 0 -0.13085154266849261 0.35745626259395852 0 -0.1344905665345571 0.34689990383467079 0 -0.13871584827508379 0.32805163350527011 0 -0.1213981112161233 0.32606083512094008 0 -0.1215793900664241 0.33965542352680428 0 -0.1344905665345571 0.34689990383467079 0 -0.13871584827508379 0.32805163350527011 0 -0.1215793900664241 0.33965542352680428 0 -0.13871584827508379 0.32805163350527011 0 -0.122665507124936 0.30739316482981133 0 -0.1213981112161233 0.32606083512094008 0 -0.13871584827508379 0.32805163350527011 0 -0.1433184724342442 0.30536206331891741 0 -0.122665507124936 0.30739316482981133 0 -0.13871584827508379 0.32805163350527011 0 -0.1692166408361446 0.32041987865629651 0 -0.1433184724342442 0.30536206331891741 0 -0.1344905665345571 0.34689990383467079 0 -0.13871584827508379 0.32805163350527011 0 -0.15574239997404821 0.34165669361972989 0 -0.13871584827508379 0.32805163350527011 0 -0.15574239997404821 0.34165669361972989 0 -0.1692166408361446 0.32041987865629651 0 -0.15574239997404821 0.34165669361972989 0 -0.16882657531294051 0.33343050367394028 0 -0.16727942812343491 0.34541839291957183 0 -0.16882657531294051 0.33343050367394028 0 -0.1740652221397718 0.31676208059972089 0 -0.17253785706623809 0.33742704001517521 0 -0.15574239997404821 0.34165669361972989 0 -0.1692166408361446 0.32041987865629651 0 -0.15574239997404821 0.34165669361972989 0 -0.16882657531294051 0.33343050367394028 0 -0.1692166408361446 0.32041987865629651 0 -0.17253785706623809 0.33742704001517521 0 -0.17248005025835489 0.34536210115862542 0 -0.16727942812343491 0.34541839291957183 0 -0.16882657531294051 0.33343050367394028 0 -0.17253785706623809 0.33742704001517521 0 -0.16727942812343491 0.34541839291957183 0 -0.16882657531294051 0.33343050367394028 0 -0.1692166408361446 0.32041987865629651 0 -0.1740652221397718 0.31676208059972089 0 -0.18300185264204469 0.32280423575908729 0 -0.1740652221397718 0.31676208059972089 0 -0.17819295282042311 0.34345902717413063 0 -0.18300185264204469 0.32280423575908729 0 -0.1740652221397718 0.31676208059972089 0 -0.18269088169824049 0.29918306369286279 0 -0.18300185264204469 0.32280423575908729 0 -0.17819295282042311 0.34345902717413063 0 -0.18331282358584941 0.34642540782531189 0 -0.1740652221397718 0.31676208059972089 0 -0.17819295282042311 0.34345902717413063 0 -0.1740652221397718 0.31676208059972089 0 -0.17253785706623809 0.33742704001517521 0 -0.17819295282042311 0.34345902717413063 0 -0.18300185264204469 0.32280423575908729 0 -0.18331282358584941 0.34642540782531189 0 -0.17253785706623809 0.33742704001517521 0 -0.17819295282042311 0.34345902717413063 0 -0.17248005025835489 0.34536210115862542 0 -0.17819295282042311 0.34345902717413063 0 -0.17266476351591969 0.35237730914779941 0 -0.18362379452965399 0.37004657989153639 0 -0.17819295282042311 0.34345902717413063 0 -0.18331282358584941 0.34642540782531189 0 -0.18362379452965399 0.37004657989153639 0 -0.17819295282042311 0.34345902717413063 0 -0.18362379452965399 0.37004657989153639 0 -0.18331282358584941 0.34642540782531189 0 -0.18362379452965399 0.37004657989153639 0 -0.19396205315185269 0.35773027909378607 0 -0.18331282358584941 0.34642540782531189 0 -0.18362379452965399 0.37004657989153639 0 -0.17819295282042311 0.34345902717413063 0 -0.17266476351591969 0.35237730914779941 0 -0.17248005025835489 0.34536210115862542 0 -0.17266476351591969 0.35237730914779941 0 -0.16727942812343491 0.34541839291957183 0 -0.16404697378228 0.35342911006401911 0 -0.15552397359905151 0.35856797270850038 0 -0.15574239997404821 0.34165669361972989 0 -0.16404697378228 0.35342911006401911 0 -0.17266476351591969 0.35237730914779941 0 -0.17248005025835489 0.34536210115862542 0 -0.16727942812343491 0.34541839291957183 0 -0.17266476351591969 0.35237730914779941 0 -0.1697011683865553 0.35883091161224728 0 -0.16404697378228 0.35342911006401911 0 -0.1697011683865553 0.35883091161224728 0 -0.16404697378228 0.35342911006401911 0 -0.1633701090946704 0.36372338037626623 0 -0.15552397359905151 0.35856797270850038 0 -0.16404697378228 0.35342911006401911 0 -0.1633701090946704 0.36372338037626623 0 -0.15574239997404821 0.34165669361972989 0 -0.16727942812343491 0.34541839291957183 0 -0.16404697378228 0.35342911006401911 0 -0.15874130784498061 0.37213542046662212 0 -0.18362379452965399 0.37004657989153639 0 -0.15874130784498061 0.37213542046662212 0 -0.1633701090946704 0.36372338037626623 0 -0.18362379452965399 0.37004657989153639 0 -0.15552397359905151 0.35856797270850038 0 -0.15874130784498061 0.37213542046662212 0 -0.1633701090946704 0.36372338037626623 0 -0.17266476351591969 0.35237730914779941 0 -0.1697011683865553 0.35883091161224728 0 -0.18362379452965399 0.37004657989153639 0 -0.1697011683865553 0.35883091161224728 0 -0.1633701090946704 0.36372338037626623 0 -0.18362379452965399 0.37004657989153639 0 -0.1744309637910503 0.37769149803556362 0 -0.15874130784498061 0.37213542046662212 0 -0.18362379452965399 0.37004657989153639 0 -0.18374665136976759 0.37937871402705908 0 -0.18362379452965399 0.37004657989153639 0 -0.1927326532436788 0.38193994064591369 0 -0.18362379452965399 0.37004657989153639 0 -0.20402060209966261 0.36833430411321649 0 -0.18362379452965399 0.37004657989153639 0 -0.20402060209966261 0.36833430411321649 0 -0.18362379452965399 0.37004657989153639 0 -0.19396205315185269 0.35773027909378607 0 -0.20402060209966261 0.36833430411321649 0 -0.19396205315185269 0.35773027909378607 0 -0.208999317395312 0.3446492875548014 0 -0.20402060209966261 0.36833430411321649 0 -0.18331282358584941 0.34642540782531189 0 -0.19396205315185269 0.35773027909378607 0 -0.208999317395312 0.3446492875548014 0 -0.208999317395312 0.3446492875548014 0 -0.20402060209966261 0.36833430411321649 0 -0.22441740966967141 0.36662202833489849 0 -0.20402060209966261 0.36833430411321649 0 -0.22441740966967141 0.36662202833489849 0 -0.21798062289891881 0.38062313327343511 0 -0.20402060209966261 0.36833430411321649 0 -0.22441740966967141 0.36662202833489849 0 -0.208999317395312 0.3446492875548014 0 -0.23479591562654789 0.35148704487088239 0 -0.2313273246892763 0.33558392302215828 0 -0.208999317395312 0.3446492875548014 0 -0.22441740966967141 0.36662202833489849 0 -0.23479591562654789 0.35148704487088239 0 -0.25002058798003007 0.3320526588471332 0 -0.26243222306204511 0.35090504016953772 0 -0.23479591562654789 0.35148704487088239 0 -0.26243222306204511 0.35090504016953772 0 -0.23479591562654789 0.35148704487088239 0 -0.24481421723968019 0.36490975255658048 0 -0.22441740966967141 0.36662202833489849 0 -0.24481421723968019 0.36490975255658048 0 -0.24074374520667241 0.38242687998337299 0 -0.22441740966967141 0.36662202833489849 0 -0.24481421723968019 0.36490975255658048 0 -0.22441740966967141 0.36662202833489849 0 -0.23479591562654789 0.35148704487088239 0 -0.24481421723968019 0.36490975255658048 0 -0.25717133997193298 0.37426095615225607 0 -0.24074374520667241 0.38242687998337299 0 -0.24481421723968019 0.36490975255658048 0 -0.25616918259472732 0.30236015827283808 0 -0.25002058798003007 0.3320526588471332 0 -0.23403114015321011 0.31709209002172778 0 -0.25002058798003007 0.3320526588471332 0 -0.23479591562654789 0.35148704487088239 0 -0.2313273246892763 0.33558392302215828 0 -0.25002058798003007 0.3320526588471332 0 -0.2313273246892763 0.33558392302215828 0 -0.23403114015321011 0.31709209002172778 0 -0.208999317395312 0.3446492875548014 0 -0.2313273246892763 0.33558392302215828 0 -0.21850591254547599 0.32628872173457818 0 -0.23403114015321011 0.31709209002172778 0 -0.21850591254547599 0.32628872173457818 0 -0.21603293622121081 0.30879617143541382 0 -0.2313273246892763 0.33558392302215828 0 -0.23403114015321011 0.31709209002172778 0 -0.21850591254547599 0.32628872173457818 0 -0.21850591254547599 0.32628872173457818 0 -0.20213884426837089 0.32532213663878978 0 -0.21603293622121081 0.30879617143541382 0 -0.20213884426837089 0.32532213663878978 0 -0.19725183072938909 0.30509230858372249 0 -0.21603293622121081 0.30879617143541382 0 -0.208999317395312 0.3446492875548014 0 -0.21850591254547599 0.32628872173457818 0 -0.20213884426837089 0.32532213663878978 0 -0.18331282358584941 0.34642540782531189 0 -0.208999317395312 0.3446492875548014 0 -0.20213884426837089 0.32532213663878978 0 -0.18300185264204469 0.32280423575908729 0 -0.18331282358584941 0.34642540782531189 0 -0.20213884426837089 0.32532213663878978 0 -0.18300185264204469 0.32280423575908729 0 -0.20213884426837089 0.32532213663878978 0 -0.19725183072938909 0.30509230858372249 0 -0.19725183072938909 0.30509230858372249 0 -0.1906964717749009 0.28656541518329992 0 -0.18269088169824049 0.29918306369286279 0 -0.18300185264204469 0.32280423575908729 0 -0.19725183072938909 0.30509230858372249 0 -0.18269088169824049 0.29918306369286279 0 -0.19725183072938909 0.30509230858372249 0 -0.1906964717749009 0.28656541518329992 0 -0.20894999777156681 0.28788282879288141 0 -0.1906964717749009 0.28656541518329992 0 -0.20894999777156681 0.28788282879288141 0 -0.19560748054403571 0.27391850694798181 0 -0.19725183072938909 0.30509230858372249 0 -0.20894999777156681 0.28788282879288141 0 -0.21603293622121081 0.30879617143541382 0 -0.20894999777156681 0.28788282879288141 0 -0.21603293622121081 0.30879617143541382 0 -0.23010937568771669 0.29589673977315029 0 -0.23403114015321011 0.31709209002172778 0 -0.21603293622121081 0.30879617143541382 0 -0.23010937568771669 0.29589673977315029 0 -0.20894999777156681 0.28788282879288141 0 -0.23010937568771669 0.29589673977315029 0 -0.2234747025956966 0.27824585991597089 0 -0.23010937568771669 0.29589673977315029 0 -0.24190471242523851 0.27972751922608308 0 -0.2234747025956966 0.27824585991597089 0 -0.25616918259472732 0.30236015827283808 0 -0.24190471242523851 0.27972751922608308 0 -0.25616918259472732 0.30236015827283808 0 -0.23010937568771669 0.29589673977315029 0 -0.24190471242523851 0.27972751922608308 0 -0.25616918259472732 0.30236015827283808 0 -0.23403114015321011 0.31709209002172778 0 -0.23010937568771669 0.29589673977315029 0 -0.24943129659764751 0.26000894523212309 0 -0.24190471242523851 0.27972751922608308 0 -0.22764024225575111 0.25709488017932702 0 -0.22764024225575111 0.25709488017932702 0 -0.2468893326351202 0.24329134098969171 0 -0.24943129659764751 0.26000894523212309 0 -0.22764024225575111 0.25709488017932702 0 -0.2468893326351202 0.24329134098969171 0 -0.24190471242523851 0.27972751922608308 0 -0.22764024225575111 0.25709488017932702 0 -0.24190471242523851 0.27972751922608308 0 -0.2234747025956966 0.27824585991597089 0 -0.22764024225575111 0.25709488017932702 0 -0.2234747025956966 0.27824585991597089 0 -0.22764024225575111 0.25709488017932702 0 -0.20876918483820989 0.27062733160841262 0 -0.22764024225575111 0.25709488017932702 0 -0.21239874098331929 0.25437807278244762 0 -0.20876918483820989 0.27062733160841262 0 -0.22764024225575111 0.25709488017932702 0 -0.20876918483820989 0.27062733160841262 0 -0.21239874098331929 0.25437807278244762 0 -0.20876918483820989 0.27062733160841262 0 -0.2025020270240801 0.26019521754276942 0 -0.21239874098331929 0.25437807278244762 0 -0.2025020270240801 0.26019521754276942 0 -0.2046840695697589 0.2451395929661444 0 -0.20894999777156681 0.28788282879288141 0 -0.2234747025956966 0.27824585991597089 0 -0.20876918483820989 0.27062733160841262 0 -0.20894999777156681 0.28788282879288141 0 -0.20876918483820989 0.27062733160841262 0 -0.19560748054403571 0.27391850694798181 0 -0.19560748054403571 0.27391850694798181 0 -0.18940688912330481 0.25610334311205268 0 -0.18232207730982461 0.27116889680334472 0 -0.20876918483820989 0.27062733160841262 0 -0.19560748054403571 0.27391850694798181 0 -0.2025020270240801 0.26019521754276942 0 -0.1906964717749009 0.28656541518329992 0 -0.19560748054403571 0.27391850694798181 0 -0.18232207730982461 0.27116889680334472 0 -0.19560748054403571 0.27391850694798181 0 -0.2025020270240801 0.26019521754276942 0 -0.18940688912330481 0.25610334311205268 0 -0.2025020270240801 0.26019521754276942 0 -0.18940688912330481 0.25610334311205268 0 -0.2046840695697589 0.2451395929661444 0 -0.18940688912330481 0.25610334311205268 0 -0.17508206900779469 0.25918785244088571 0 -0.18195408303730121 0.23534357450296481 0 -0.18940688912330481 0.25610334311205268 0 -0.17508206900779469 0.25918785244088571 0 -0.18232207730982461 0.27116889680334472 0 -0.16225317791305921 0.25358582624422438 0 -0.1601147340924314 0.27132493958040771 0 -0.14746997276257359 0.25293699741112718 0 -0.17508206900779469 0.25918785244088571 0 -0.16225317791305921 0.25358582624422438 0 -0.1601147340924314 0.27132493958040771 0 -0.1601147340924314 0.27132493958040771 0 -0.18232207730982461 0.27116889680334472 0 -0.1715163911286523 0.28419500503467149 0 -0.17508206900779469 0.25918785244088571 0 -0.1601147340924314 0.27132493958040771 0 -0.18232207730982461 0.27116889680334472 0 -0.1906964717749009 0.28656541518329992 0 -0.18232207730982461 0.27116889680334472 0 -0.18269088169824049 0.29918306369286279 0 -0.18232207730982461 0.27116889680334472 0 -0.18269088169824049 0.29918306369286279 0 -0.1715163911286523 0.28419500503467149 0 -0.18232207730982461 0.27116889680334472 0 -0.18269088169824049 0.29918306369286279 0 -0.1906964717749009 0.28656541518329992 0 -0.18269088169824049 0.29918306369286279 0 -0.18300185264204469 0.32280423575908729 0 -0.18269088169824049 0.29918306369286279 0 -0.1692166408361446 0.32041987865629651 0 -0.18269088169824049 0.29918306369286279 0 -0.1692166408361446 0.32041987865629651 0 -0.1740652221397718 0.31676208059972089 0 -0.18269088169824049 0.29918306369286279 0 -0.1692166408361446 0.32041987865629651 0 -0.16093787141411231 0.2951031200620709 0 -0.1433184724342442 0.30536206331891741 0 -0.1692166408361446 0.32041987865629651 0 -0.18269088169824049 0.29918306369286279 0 -0.16093787141411231 0.2951031200620709 0 -0.18269088169824049 0.29918306369286279 0 -0.1715163911286523 0.28419500503467149 0 -0.16093787141411231 0.2951031200620709 0 -0.1601147340924314 0.27132493958040771 0 -0.1715163911286523 0.28419500503467149 0 -0.16093787141411231 0.2951031200620709 0 -0.1601147340924314 0.27132493958040771 0 -0.16093787141411231 0.2951031200620709 0 -0.140940242444347 0.28770890845956881 0 -0.16093787141411231 0.2951031200620709 0 -0.140940242444347 0.28770890845956881 0 -0.16093787141411231 0.2951031200620709 0 -0.140940242444347 0.28770890845956881 0 -0.1433184724342442 0.30536206331891741 0 -0.1433184724342442 0.30536206331891741 0 -0.12743472451084159 0.29349567440048657 0 -0.122665507124936 0.30739316482981133 0 -0.140940242444347 0.28770890845956881 0 -0.1433184724342442 0.30536206331891741 0 -0.12743472451084159 0.29349567440048657 0 -0.140940242444347 0.28770890845956881 0 -0.1209426134745812 0.28031469685706822 0 -0.140940242444347 0.28770890845956881 0 -0.12743472451084159 0.29349567440048657 0 -0.1209426134745812 0.28031469685706822 0 -0.140940242444347 0.28770890845956881 0 -0.12748957136376979 0.2697364722205553 0 -0.1209426134745812 0.28031469685706822 0 -0.140940242444347 0.28770890845956881 0 -0.1385418352730507 0.26582091200169278 0 -0.12748957136376979 0.2697364722205553 0 -0.1385418352730507 0.26582091200169278 0 -0.1252623291810667 0.25912953992318971 0 -0.13357218109292621 0.2499317644564327 0 -0.1385418352730507 0.26582091200169278 0 -0.14746997276257359 0.25293699741112718 0 -0.13357218109292621 0.2499317644564327 0 -0.1385418352730507 0.26582091200169278 0 -0.12748957136376979 0.2697364722205553 0 -0.1252623291810667 0.25912953992318971 0 -0.1252623291810667 0.25912953992318971 0 -0.13357218109292621 0.2499317644564327 0 -0.1213089330464012 0.24626659804535689 0 -0.1601147340924314 0.27132493958040771 0 -0.1385418352730507 0.26582091200169278 0 -0.14746997276257359 0.25293699741112718 0 -0.1601147340924314 0.27132493958040771 0 -0.140940242444347 0.28770890845956881 0 -0.1385418352730507 0.26582091200169278 0 -0.095230237001734636 0.27080743213428882 0 -0.101831548476812 0.26048951589785008 0 -0.1165241005361865 0.26558405137515151 0 -0.095230237001734636 0.27080743213428882 0 -0.1209426134745812 0.28031469685706822 0 -0.095230237001734636 0.27080743213428882 0 -0.101831548476812 0.26048951589785008 0 -0.101831548476812 0.26048951589785008 0 -0.112097455783086 0.24444379951602521 0 -0.096974545082976191 0.25880538532589209 0 -0.101831548476812 0.26048951589785008 0 -0.112097455783086 0.24444379951602521 0 -0.095230237001734636 0.27080743213428882 0 -0.096974545082976191 0.25880538532589209 0 -0.101831548476812 0.26048951589785008 0 -0.096974545082976191 0.25880538532589209 0 -0.101831548476812 0.26048951589785008 0 -0.101831548476812 0.26048951589785008 0 -0.1165241005361865 0.26558405137515151 0 -0.101831548476812 0.26048951589785008 0 -0.11521273165378559 0.25497892835963998 0 -0.112097455783086 0.24444379951602521 0 -0.101831548476812 0.26048951589785008 0 -0.1165241005361865 0.26558405137515151 0 -0.11521273165378559 0.25497892835963998 0 -0.1252623291810667 0.25912953992318971 0 -0.11521273165378559 0.25497892835963998 0 -0.1213089330464012 0.24626659804535689 0 -0.12748957136376979 0.2697364722205553 0 -0.1252623291810667 0.25912953992318971 0 -0.1165241005361865 0.26558405137515151 0 -0.1252623291810667 0.25912953992318971 0 -0.1165241005361865 0.26558405137515151 0 -0.11521273165378559 0.25497892835963998 0 -0.12748957136376979 0.2697364722205553 0 -0.1165241005361865 0.26558405137515151 0 -0.11826192468166601 0.27279143104315778 0 -0.095230237001734636 0.27080743213428882 0 -0.1165241005361865 0.26558405137515151 0 -0.11826192468166601 0.27279143104315778 0 -0.095230237001734636 0.27080743213428882 0 -0.11826192468166601 0.27279143104315778 0 -0.1209426134745812 0.28031469685706822 0 -0.12748957136376979 0.2697364722205553 0 -0.11826192468166601 0.27279143104315778 0 -0.1209426134745812 0.28031469685706822 0 -0.1209426134745812 0.28031469685706822 0 -0.099156256926613839 0.29556062278638268 0 -0.12743472451084159 0.29349567440048657 0 -0.1209426134745812 0.28031469685706822 0 -0.099156256926613839 0.29556062278638268 0 -0.12743472451084159 0.29349567440048657 0 -0.122665507124936 0.30739316482981133 0 -0.099156256926613839 0.29556062278638268 0 -0.1041414057358224 0.31201579539373148 0 -0.099156256926613839 0.29556062278638268 0 -0.091673901452025128 0.31746800270450398 0 -0.122665507124936 0.30739316482981133 0 -0.1041414057358224 0.31201579539373148 0 -0.099156256926613839 0.29556062278638268 0 -0.095230237001734636 0.27080743213428882 0 -0.1209426134745812 0.28031469685706822 0 -0.099156256926613839 0.29556062278638268 0 -0.081993310338176556 0.29149688165626692 0 -0.071574905525993715 0.28647654560898889 0 -0.088307373389434785 0.26824767274871397 0 -0.095230237001734636 0.27080743213428882 0 -0.099156256926613839 0.29556062278638268 0 -0.081993310338176556 0.29149688165626692 0 -0.099156256926613839 0.29556062278638268 0 -0.0773699003786468 0.31080654871569757 0 -0.091673901452025128 0.31746800270450398 0 -0.099156256926613839 0.29556062278638268 0 -0.0773699003786468 0.31080654871569757 0 -0.081993310338176556 0.29149688165626692 0 -0.0773699003786468 0.31080654871569757 0 -0.099156256926613839 0.29556062278638268 0 -0.081993310338176556 0.29149688165626692 0 -0.0773699003786468 0.31080654871569757 0 -0.081993310338176556 0.29149688165626692 0 -0.0773699003786468 0.31080654871569757 0 -0.07000108740115632 0.31024084673351238 0 -0.081993310338176556 0.29149688165626692 0 -0.07000108740115632 0.31024084673351238 0 -0.07082691849754412 0.29686868922251758 0 -0.081993310338176556 0.29149688165626692 0 -0.07000108740115632 0.31024084673351238 0 -0.06406362287003417 0.30105685935529619 0 -0.07000108740115632 0.31024084673351238 0 -0.07082691849754412 0.29686868922251758 0 -0.06406362287003417 0.30105685935529619 0 -0.07000108740115632 0.31024084673351238 0 -0.05903493703298672 0.30842013861035528 0 -0.081993310338176556 0.29149688165626692 0 -0.071574905525993715 0.28647654560898889 0 -0.07082691849754412 0.29686868922251758 0 -0.071574905525993715 0.28647654560898889 0 -0.07082691849754412 0.29686868922251758 0 -0.064150197611200194 0.29028153745804169 0 -0.06406362287003417 0.30105685935529619 0 -0.07082691849754412 0.29686868922251758 0 -0.064150197611200194 0.29028153745804169 0 -0.071574905525993715 0.28647654560898889 0 -0.064150197611200194 0.29028153745804169 0 -0.066272470786091969 0.27951596978905408 0 -0.066272470786091969 0.27951596978905408 0 -0.064867048676514966 0.26815492676469338 0 -0.075116873927680253 0.27479103085629453 0 -0.066272470786091969 0.27951596978905408 0 -0.064867048676514966 0.26815492676469338 0 -0.056753075498150757 0.28085207326825551 0 -0.064867048676514966 0.26815492676469338 0 -0.075116873927680253 0.27479103085629453 0 -0.074399806026204385 0.26466482186588819 0 -0.075116873927680253 0.27479103085629453 0 -0.079975847673146208 0.26885948770409202 0 -0.074399806026204385 0.26466482186588819 0 -0.071574905525993715 0.28647654560898889 0 -0.066272470786091969 0.27951596978905408 0 -0.075116873927680253 0.27479103085629453 0 -0.095230237001734636 0.27080743213428882 0 -0.081993310338176556 0.29149688165626692 0 -0.095230237001734636 0.27080743213428882 0 -0.081993310338176556 0.29149688165626692 0 -0.088307373389434785 0.26824767274871397 0 -0.071574905525993715 0.28647654560898889 0 -0.088307373389434785 0.26824767274871397 0 -0.071574905525993715 0.28647654560898889 0 -0.075116873927680253 0.27479103085629453 0 -0.088307373389434785 0.26824767274871397 0 -0.079975847673146208 0.26885948770409202 0 -0.084329260359261832 0.26677674789216088 0 -0.074399806026204385 0.26466482186588819 0 -0.075116873927680253 0.27479103085629453 0 -0.079975847673146208 0.26885948770409202 0 -0.088307373389434785 0.26824767274871397 0 -0.079975847673146208 0.26885948770409202 0 -0.084329260359261832 0.26677674789216088 0 -0.088307373389434785 0.26824767274871397 0 -0.095230237001734636 0.27080743213428882 0 -0.096974545082976191 0.25880538532589209 0 -0.088307373389434785 0.26824767274871397 0 -0.084329260359261832 0.26677674789216088 0 -0.088307373389434785 0.26824767274871397 0 -0.095230237001734636 0.27080743213428882 0 -0.088307373389434785 0.26824767274871397 0 -0.096974545082976191 0.25880538532589209 0 -0.073553522625709841 0.25068431627396631 0 -0.088715331182393942 0.2449718195011524 0 -0.096974545082976191 0.25880538532589209 0 -0.084329260359261832 0.26677674789216088 0 -0.073553522625709841 0.25068431627396631 0 -0.096974545082976191 0.25880538532589209 0 -0.073553522625709841 0.25068431627396631 0 -0.096974545082976191 0.25880538532589209 0 -0.088307373389434785 0.26824767274871397 0 -0.096974545082976191 0.25880538532589209 0 -0.084329260359261832 0.26677674789216088 0 -0.088307373389434785 0.26824767274871397 0 -0.084329260359261832 0.26677674789216088 0 -0.073553522625709841 0.25068431627396631 0 -0.074399806026204385 0.26466482186588819 0 -0.064867048676514966 0.26815492676469338 0 -0.073553522625709841 0.25068431627396631 0 -0.050450936449665702 0.26047062327699849 0 -0.064867048676514966 0.26815492676469338 0 -0.073553522625709841 0.25068431627396631 0 -0.074399806026204385 0.26466482186588819 0 -0.073553522625709841 0.25068431627396631 0 -0.050450936449665702 0.26047062327699849 0 -0.050132500168443887 0.2425632472220397 0 -0.064867048676514966 0.26815492676469338 0 -0.050450936449665702 0.26047062327699849 0 -0.056753075498150757 0.28085207326825551 0 -0.050450936449665702 0.26047062327699849 0 -0.056753075498150757 0.28085207326825551 0 -0.041567118232982071 0.28155035039042642 0 -0.050450936449665702 0.26047062327699849 0 -0.032664289439585513 0.26886008103247921 0 -0.041567118232982071 0.28155035039042642 0 -0.032664289439585513 0.26886008103247921 0 -0.025724023578003428 0.28484302527062832 0 -0.041567118232982071 0.28155035039042642 0 -0.050450936449665702 0.26047062327699849 0 -0.032664289439585513 0.26886008103247921 0 -0.029881977245259539 0.25372898958001938 0 -0.050450936449665702 0.26047062327699849 0 -0.029881977245259539 0.25372898958001938 0 -0.050132500168443887 0.2425632472220397 0 -0.029881977245259539 0.25372898958001938 0 -0.019473314891880141 0.26767922737850353 0 -0.0082457657602449386 0.25246627485226031 0 -0.032664289439585513 0.26886008103247921 0 -0.029881977245259539 0.25372898958001938 0 -0.019473314891880141 0.26767922737850353 0 -0.019473314891880141 0.26767922737850353 0 -0.0042610585373493576 0.2771562680236046 0 -0.025724023578003428 0.28484302527062832 0 -0.032664289439585513 0.26886008103247921 0 -0.019473314891880141 0.26767922737850353 0 -0.025724023578003428 0.28484302527062832 0 -0.019473314891880141 0.26767922737850353 0 -0.0042610585373493576 0.2771562680236046 0 -0.0082457657602449386 0.25246627485226031 0 -0.0042610585373493576 0.2771562680236046 0 -0.0082457657602449386 0.25246627485226031 0 0.0071094060709509964 0.26564087220093879 0 -0.0069555348311276686 0.31079851600377723 0 -0.00058836015198596755 0.32088344941533808 0 0.0054341821912287152 0.30403492879740468 0 -0.013098506886936411 0.29875518722530359 0 -0.0069555348311276686 0.31079851600377723 0 0.0054341821912287152 0.30403492879740468 0 -0.013098506886936411 0.29875518722530359 0 -0.0069555348311276686 0.31079851600377723 0 -0.020687787070248039 0.31403805852116051 0 -0.0042610585373493576 0.2771562680236046 0 -0.013098506886936411 0.29875518722530359 0 -0.025724023578003428 0.28484302527062832 0 -0.0042610585373493576 0.2771562680236046 0 -0.013098506886936411 0.29875518722530359 0 0.0054341821912287152 0.30403492879740468 0 -0.013098506886936411 0.29875518722530359 0 -0.025724023578003428 0.28484302527062832 0 -0.02904570801181227 0.30414560716861699 0 -0.013098506886936411 0.29875518722530359 0 -0.02904570801181227 0.30414560716861699 0 -0.020687787070248039 0.31403805852116051 0 -0.02904570801181227 0.30414560716861699 0 -0.034308890996313193 0.31619803717231232 0 -0.020687787070248039 0.31403805852116051 0 -0.02904570801181227 0.30414560716861699 0 -0.04581664775108537 0.30961879620062571 0 -0.039958169045478269 0.29575445567546388 0 -0.02904570801181227 0.30414560716861699 0 -0.04581664775108537 0.30961879620062571 0 -0.034308890996313193 0.31619803717231232 0 -0.025724023578003428 0.28484302527062832 0 -0.02904570801181227 0.30414560716861699 0 -0.039958169045478269 0.29575445567546388 0 -0.025724023578003428 0.28484302527062832 0 -0.039958169045478269 0.29575445567546388 0 -0.041567118232982071 0.28155035039042642 0 -0.039958169045478269 0.29575445567546388 0 -0.041567118232982071 0.28155035039042642 0 -0.055410192489386563 0.29691908750413831 0 -0.056753075498150757 0.28085207326825551 0 -0.041567118232982071 0.28155035039042642 0 -0.055410192489386563 0.29691908750413831 0 -0.064150197611200194 0.29028153745804169 0 -0.056753075498150757 0.28085207326825551 0 -0.055410192489386563 0.29691908750413831 0 -0.06406362287003417 0.30105685935529619 0 -0.064150197611200194 0.29028153745804169 0 -0.055410192489386563 0.29691908750413831 0 -0.064150197611200194 0.29028153745804169 0 -0.066272470786091969 0.27951596978905408 0 -0.056753075498150757 0.28085207326825551 0 -0.04581664775108537 0.30961879620062571 0 -0.055410192489386563 0.29691908750413831 0 -0.05903493703298672 0.30842013861035528 0 -0.04581664775108537 0.30961879620062571 0 -0.039958169045478269 0.29575445567546388 0 -0.055410192489386563 0.29691908750413831 0 -0.06406362287003417 0.30105685935529619 0 -0.055410192489386563 0.29691908750413831 0 -0.05903493703298672 0.30842013861035528 0 -0.04581664775108537 0.30961879620062571 0 -0.05999398685661865 0.32296608029812152 0 -0.042756171354298787 0.3224483405388896 0 -0.05999398685661865 0.32296608029812152 0 -0.04261807333459134 0.33512561188054663 0 -0.042756171354298787 0.3224483405388896 0 -0.04581664775108537 0.30961879620062571 0 -0.05903493703298672 0.30842013861035528 0 -0.05999398685661865 0.32296608029812152 0 -0.05999398685661865 0.32296608029812152 0 -0.056804034856699187 0.33429177223338907 0 -0.04261807333459134 0.33512561188054663 0 -0.056804034856699187 0.33429177223338907 0 -0.046192251460743447 0.34598703554363702 0 -0.071259793987160716 0.33632540193228971 0 -0.046192251460743447 0.34598703554363702 0 -0.071259793987160716 0.33632540193228971 0 -0.05999398685661865 0.32296608029812152 0 -0.04261807333459134 0.33512561188054663 0 -0.05999398685661865 0.32296608029812152 0 -0.056804034856699187 0.33429177223338907 0 -0.064831017760781137 0.32924814232959693 0 -0.056804034856699187 0.33429177223338907 0 -0.04261807333459134 0.33512561188054663 0 -0.046192251460743447 0.34598703554363702 0 -0.04261807333459134 0.33512561188054663 0 -0.034276320251641283 0.34282206612864702 0 -0.046192251460743447 0.34598703554363702 0 -0.04261807333459134 0.33512561188054663 0 -0.034276320251641283 0.34282206612864702 0 -0.031043257832885369 0.32833317714284199 0 -0.04261807333459134 0.33512561188054663 0 -0.042756171354298787 0.3224483405388896 0 -0.031043257832885369 0.32833317714284199 0 -0.04581664775108537 0.30961879620062571 0 -0.042756171354298787 0.3224483405388896 0 -0.034308890996313193 0.31619803717231232 0 -0.042756171354298787 0.3224483405388896 0 -0.034308890996313193 0.31619803717231232 0 -0.031043257832885369 0.32833317714284199 0 -0.020687787070248039 0.31403805852116051 0 -0.031043257832885369 0.32833317714284199 0 -0.01426308592107553 0.32709781564023149 0 -0.034308890996313193 0.31619803717231232 0 -0.020687787070248039 0.31403805852116051 0 -0.031043257832885369 0.32833317714284199 0 -0.025032962324117471 0.33875149869244531 0 -0.01426308592107553 0.32709781564023149 0 -0.014716180493599089 0.34442071988127893 0 -0.031043257832885369 0.32833317714284199 0 -0.025032962324117471 0.33875149869244531 0 -0.01426308592107553 0.32709781564023149 0 -0.034276320251641283 0.34282206612864702 0 -0.025032962324117471 0.33875149869244531 0 -0.023787543000920942 0.34541073846433867 0 -0.034276320251641283 0.34282206612864702 0 -0.031043257832885369 0.32833317714284199 0 -0.025032962324117471 0.33875149869244531 0 -0.025032962324117471 0.33875149869244531 0 -0.014716180493599089 0.34442071988127893 0 -0.023787543000920942 0.34541073846433867 0 -0.0025616559074486049 0.3329031852911295 0 -0.01426308592107553 0.32709781564023149 0 -0.014716180493599089 0.34442071988127893 0 -0.0025616559074486049 0.3329031852911295 0 -0.002583240235104544 0.34489224502179239 0 -0.014716180493599089 0.34442071988127893 0 -0.0069555348311276686 0.31079851600377723 0 -0.020687787070248039 0.31403805852116051 0 -0.01426308592107553 0.32709781564023149 0 -0.0025616559074486049 0.3329031852911295 0 -0.00058836015198596755 0.32088344941533808 0 -0.01426308592107553 0.32709781564023149 0 -0.0069555348311276686 0.31079851600377723 0 -0.00058836015198596755 0.32088344941533808 0 -0.01426308592107553 0.32709781564023149 0 -0.012102714267097759 0.36590539057294968 0 -0.001064505034491721 0.37161458349227261 0 0.0039428335920915006 0.36531030276633031 0 -0.021124708934325921 0.35564866915498361 0 0.0039428335920915006 0.36531030276633031 0 -0.001064505034491721 0.37161458349227261 0 -0.017677659244944521 0.37122807787390621 0 -0.017803283764421592 0.37921609746689411 0 -0.012102714267097759 0.36590539057294968 0 -0.001064505034491721 0.37161458349227261 0 -0.017677659244944521 0.37122807787390621 0 -0.012102714267097759 0.36590539057294968 0 -0.021124708934325921 0.35564866915498361 0 0.0039428335920915006 0.36531030276633031 0 -0.0064988099748367559 0.35299106404641623 0 -0.021124708934325921 0.35564866915498361 0 0.0039428335920915006 0.36531030276633031 0 -0.0064988099748367559 0.35299106404641623 0 -0.002583240235104544 0.34489224502179239 0 0.0032447233134405931 0.35422125060834359 0 -0.0064988099748367559 0.35299106404641623 0 -0.002583240235104544 0.34489224502179239 0 -0.014716180493599089 0.34442071988127893 0 -0.0064988099748367559 0.35299106404641623 0 -0.014716180493599089 0.34442071988127893 0 -0.021124708934325921 0.35564866915498361 0 -0.021124708934325921 0.35564866915498361 0 -0.03312405361854439 0.36059385714354403 0 -0.039104805720823227 0.35618275869992938 0 -0.014716180493599089 0.34442071988127893 0 -0.021124708934325921 0.35564866915498361 0 -0.023787543000920942 0.34541073846433867 0 -0.034276320251641283 0.34282206612864702 0 -0.021124708934325921 0.35564866915498361 0 -0.023787543000920942 0.34541073846433867 0 -0.021124708934325921 0.35564866915498361 0 -0.0246585823330631 0.36616539344166837 0 -0.03312405361854439 0.36059385714354403 0 -0.0246585823330631 0.36616539344166837 0 -0.033447590357386023 0.36570071259042941 0 -0.03312405361854439 0.36059385714354403 0 -0.012102714267097759 0.36590539057294968 0 -0.021124708934325921 0.35564866915498361 0 -0.0246585823330631 0.36616539344166837 0 -0.017677659244944521 0.37122807787390621 0 -0.032897312064139907 0.37411907212457252 0 -0.017803283764421592 0.37921609746689411 0 -0.012102714267097759 0.36590539057294968 0 -0.0246585823330631 0.36616539344166837 0 -0.017677659244944521 0.37122807787390621 0 -0.0246585823330631 0.36616539344166837 0 -0.017677659244944521 0.37122807787390621 0 -0.032897312064139907 0.37411907212457252 0 -0.0246585823330631 0.36616539344166837 0 -0.032897312064139907 0.37411907212457252 0 -0.0246585823330631 0.36616539344166837 0 -0.032897312064139907 0.37411907212457252 0 -0.033447590357386023 0.36570071259042941 0 -0.032897312064139907 0.37411907212457252 0 -0.059723517795068168 0.36506026769318489 0 -0.032897312064139907 0.37411907212457252 0 -0.033447590357386023 0.36570071259042941 0 -0.04311041341379776 0.36192452765193173 0 -0.032897312064139907 0.37411907212457252 0 -0.046925961112427347 0.36446589286881009 0 -0.059723517795068168 0.36506026769318489 0 -0.032897312064139907 0.37411907212457252 0 -0.049098878804771373 0.3725140996878949 0 -0.043775979817191349 0.37615739516056462 0 -0.03312405361854439 0.36059385714354403 0 -0.04311041341379776 0.36192452765193173 0 -0.039104805720823227 0.35618275869992938 0 -0.033447590357386023 0.36570071259042941 0 -0.03312405361854439 0.36059385714354403 0 -0.04311041341379776 0.36192452765193173 0 -0.032897312064139907 0.37411907212457252 0 -0.04311041341379776 0.36192452765193173 0 -0.046925961112427347 0.36446589286881009 0 -0.034276320251641283 0.34282206612864702 0 -0.021124708934325921 0.35564866915498361 0 -0.046192251460743447 0.34598703554363702 0 -0.021124708934325921 0.35564866915498361 0 -0.039104805720823227 0.35618275869992938 0 -0.046192251460743447 0.34598703554363702 0 -0.021124708934325921 0.35564866915498361 0 -0.046192251460743447 0.34598703554363702 0 -0.039104805720823227 0.35618275869992938 0 -0.046192251460743447 0.34598703554363702 0 -0.051972601176704672 0.35675970400555063 0 -0.04311041341379776 0.36192452765193173 0 -0.039104805720823227 0.35618275869992938 0 -0.051972601176704672 0.35675970400555063 0 -0.046192251460743447 0.34598703554363702 0 -0.066911938965716039 0.35448421406914471 0 -0.071259793987160716 0.33632540193228971 0 -0.046192251460743447 0.34598703554363702 0 -0.051972601176704672 0.35675970400555063 0 -0.066911938965716039 0.35448421406914471 0 -0.051972601176704672 0.35675970400555063 0 -0.059723517795068168 0.36506026769318489 0 -0.066911938965716039 0.35448421406914471 0 -0.032897312064139907 0.37411907212457252 0 -0.049098878804771373 0.3725140996878949 0 -0.059723517795068168 0.36506026769318489 0 -0.049098878804771373 0.3725140996878949 0 -0.056089193364373929 0.37273715424054699 0 -0.050724207312953518 0.37700173675436199 0 -0.051972601176704672 0.35675970400555063 0 -0.046925961112427347 0.36446589286881009 0 -0.059723517795068168 0.36506026769318489 0 -0.04311041341379776 0.36192452765193173 0 -0.051972601176704672 0.35675970400555063 0 -0.046925961112427347 0.36446589286881009 0 -0.049098878804771373 0.3725140996878949 0 -0.059723517795068168 0.36506026769318489 0 -0.056089193364373929 0.37273715424054699 0 -0.059723517795068168 0.36506026769318489 0 -0.056089193364373929 0.37273715424054699 0 -0.062564083944274151 0.37264302620600032 0 -0.062075486208271788 0.37468365416042188 0 -0.062564083944274151 0.37264302620600032 0 -0.062075486208271788 0.37468365416042188 0 -0.062564083944274151 0.37264302620600032 0 -0.064607287490063475 0.3752877934920828 0 -0.069626031180744216 0.37451783031500979 0 -0.079039419043354958 0.3748493973737258 0 -0.082597891671162132 0.35089307241393791 0 -0.062564083944274151 0.37264302620600032 0 -0.066911938965716039 0.35448421406914471 0 -0.062564083944274151 0.37264302620600032 0 -0.069626031180744216 0.37451783031500979 0 -0.064607287490063475 0.3752877934920828 0 -0.062564083944274151 0.37264302620600032 0 -0.069626031180744216 0.37451783031500979 0 -0.082597891671162132 0.35089307241393791 0 -0.062564083944274151 0.37264302620600032 0 -0.082597891671162132 0.35089307241393791 0 -0.059723517795068168 0.36506026769318489 0 -0.062564083944274151 0.37264302620600032 0 -0.066911938965716039 0.35448421406914471 0 -0.090941745129797052 0.36956363188929697 0 -0.082597891671162132 0.35089307241393791 0 -0.097939085056313616 0.35825468271447503 0 -0.079039419043354958 0.3748493973737258 0 -0.090941745129797052 0.36956363188929697 0 -0.082597891671162132 0.35089307241393791 0 -0.082597891671162132 0.35089307241393791 0 -0.097939085056313616 0.35825468271447503 0 -0.099795521962392192 0.34663223796478099 0 -0.066911938965716039 0.35448421406914471 0 -0.071259793987160716 0.33632540193228971 0 -0.082597891671162132 0.35089307241393791 0 -0.066911938965716039 0.35448421406914471 0 -0.079003984513522238 0.34200566120660753 0 -0.066911938965716039 0.35448421406914471 0 -0.071259793987160716 0.33632540193228971 0 -0.079003984513522238 0.34200566120660753 0 -0.062564083944274151 0.37264302620600032 0 -0.082597891671162132 0.35089307241393791 0 -0.066911938965716039 0.35448421406914471 0 -0.056804034856699187 0.33429177223338907 0 -0.064831017760781137 0.32924814232959693 0 -0.071259793987160716 0.33632540193228971 0 -0.071259793987160716 0.33632540193228971 0 -0.079659291821908368 0.33308803351003258 0 -0.071259793987160716 0.33632540193228971 0 -0.079003984513522238 0.34200566120660753 0 -0.079659291821908368 0.33308803351003258 0 -0.0773699003786468 0.31080654871569757 0 -0.07000108740115632 0.31024084673351238 0 -0.05999398685661865 0.32296608029812152 0 -0.0773699003786468 0.31080654871569757 0 -0.071259793987160716 0.33632540193228971 0 -0.0773699003786468 0.31080654871569757 0 -0.071259793987160716 0.33632540193228971 0 -0.079659291821908368 0.33308803351003258 0 -0.0773699003786468 0.31080654871569757 0 -0.05999398685661865 0.32296608029812152 0 -0.0773699003786468 0.31080654871569757 0 -0.064831017760781137 0.32924814232959693 0 -0.071259793987160716 0.33632540193228971 0 -0.0773699003786468 0.31080654871569757 0 -0.05999398685661865 0.32296608029812152 0 -0.064831017760781137 0.32924814232959693 0 -0.07000108740115632 0.31024084673351238 0 -0.05903493703298672 0.30842013861035528 0 -0.05999398685661865 0.32296608029812152 0 -0.091673901452025128 0.31746800270450398 0 -0.079659291821908368 0.33308803351003258 0 -0.1026316993980491 0.32914311862187462 0 -0.0773699003786468 0.31080654871569757 0 -0.091673901452025128 0.31746800270450398 0 -0.079659291821908368 0.33308803351003258 0 -0.082597891671162132 0.35089307241393791 0 -0.1026316993980491 0.32914311862187462 0 -0.082597891671162132 0.35089307241393791 0 -0.079003984513522238 0.34200566120660753 0 -0.1026316993980491 0.32914311862187462 0 -0.079003984513522238 0.34200566120660753 0 -0.079659291821908368 0.33308803351003258 0 -0.1026316993980491 0.32914311862187462 0 -0.082597891671162132 0.35089307241393791 0 -0.1026316993980491 0.32914311862187462 0 -0.099795521962392192 0.34663223796478099 0 -0.1026316993980491 0.32914311862187462 0 -0.11309959964963499 0.35023802862820708 0 -0.099795521962392192 0.34663223796478099 0 -0.1041414057358224 0.31201579539373148 0 -0.091673901452025128 0.31746800270450398 0 -0.1026316993980491 0.32914311862187462 0 -0.122665507124936 0.30739316482981133 0 -0.1041414057358224 0.31201579539373148 0 -0.1026316993980491 0.32914311862187462 0 -0.122665507124936 0.30739316482981133 0 -0.1026316993980491 0.32914311862187462 0 -0.1213981112161233 0.32606083512094008 0 -0.122665507124936 0.30739316482981133 0 -0.1026316993980491 0.32914311862187462 0 -0.1026316993980491 0.32914311862187462 0 -0.1215793900664241 0.33965542352680428 0 -0.11309959964963499 0.35023802862820708 0 -0.1026316993980491 0.32914311862187462 0 -0.1213981112161233 0.32606083512094008 0 -0.1215793900664241 0.33965542352680428 0 -0.1215793900664241 0.33965542352680428 0 -0.11309959964963499 0.35023802862820708 0 -0.1223522029902982 0.35608225162756879 0 -0.11309959964963499 0.35023802862820708 0 -0.1223522029902982 0.35608225162756879 0 -0.1091573093543224 0.361674516205302 0 -0.12881796099468981 0.36725667352730101 0 -0.1223522029902982 0.35608225162756879 0 -0.11881971476920231 0.36528086459794751 0 -0.12881796099468981 0.36725667352730101 0 -0.11881971476920231 0.36528086459794751 0 -0.114951385737499 0.37611001703161828 0 -0.11881971476920231 0.36528086459794751 0 -0.1091573093543224 0.361674516205302 0 -0.114951385737499 0.37611001703161828 0 -0.1223522029902982 0.35608225162756879 0 -0.11881971476920231 0.36528086459794751 0 -0.1091573093543224 0.361674516205302 0 -0.1091573093543224 0.361674516205302 0 -0.1012990589455684 0.36953412384373102 0 -0.097939085056313616 0.35825468271447503 0 -0.1091573093543224 0.361674516205302 0 -0.1012990589455684 0.36953412384373102 0 -0.114951385737499 0.37611001703161828 0 -0.090941745129797052 0.36956363188929697 0 -0.1012990589455684 0.36953412384373102 0 -0.098890550417286477 0.38099249480062602 0 -0.090941745129797052 0.36956363188929697 0 -0.1012990589455684 0.36953412384373102 0 -0.097939085056313616 0.35825468271447503 0 -0.11309959964963499 0.35023802862820708 0 -0.097939085056313616 0.35825468271447503 0 -0.099795521962392192 0.34663223796478099 0 -0.11309959964963499 0.35023802862820708 0 -0.1091573093543224 0.361674516205302 0 -0.097939085056313616 0.35825468271447503 0 -0.094424665366596924 0.39634464281418252 0 -0.11202845405726 0.40531330452479791 0 -0.098926296137628822 0.41605616341005208 0 -0.1085605322944487 0.39079571404043828 0 -0.094424665366596924 0.39634464281418252 0 -0.11202845405726 0.40531330452479791 0 -0.1085605322944487 0.39079571404043828 0 -0.098890550417286477 0.38099249480062602 0 -0.114951385737499 0.37611001703161828 0 -0.1085605322944487 0.39079571404043828 0 -0.094424665366596924 0.39634464281418252 0 -0.098890550417286477 0.38099249480062602 0 -0.1012990589455684 0.36953412384373102 0 -0.098890550417286477 0.38099249480062602 0 -0.114951385737499 0.37611001703161828 0 -0.1085605322944487 0.39079571404043828 0 -0.114951385737499 0.37611001703161828 0 -0.1224972888069677 0.39405447109156733 0 -0.13238272395945991 0.37847398983736519 0 -0.114951385737499 0.37611001703161828 0 -0.1224972888069677 0.39405447109156733 0 -0.1277268958593005 0.40709158096490278 0 -0.1224972888069677 0.39405447109156733 0 -0.11202845405726 0.40531330452479791 0 -0.1085605322944487 0.39079571404043828 0 -0.1224972888069677 0.39405447109156733 0 -0.11202845405726 0.40531330452479791 0 -0.11202845405726 0.40531330452479791 0 -0.12025274126089 0.42574105579372712 0 -0.098926296137628822 0.41605616341005208 0 -0.12025274126089 0.42574105579372712 0 -0.098926296137628822 0.41605616341005208 0 -0.1277268958593005 0.40709158096490278 0 -0.11202845405726 0.40531330452479791 0 -0.12025274126089 0.42574105579372712 0 -0.12025274126089 0.42574105579372712 0 -0.1161249595423428 0.42742254588607831 0 -0.098926296137628822 0.41605616341005208 0 -0.12509104342100061 0.44188941827772182 0 -0.1161249595423428 0.42742254588607831 0 -0.098677616465060528 0.43762344985591101 0 -0.1161249595423428 0.42742254588607831 0 -0.090695480784097504 0.41727281212483158 0 -0.1161249595423428 0.42742254588607831 0 -0.090695480784097504 0.41727281212483158 0 -0.098677616465060528 0.43762344985591101 0 -0.1161249595423428 0.42742254588607831 0 -0.098926296137628822 0.41605616341005208 0 -0.090695480784097504 0.41727281212483158 0 -0.098926296137628822 0.41605616341005208 0 -0.077599851014367602 0.40637127102637732 0 -0.094424665366596924 0.39634464281418252 0 -0.098926296137628822 0.41605616341005208 0 -0.077599851014367602 0.40637127102637732 0 -0.098926296137628822 0.41605616341005208 0 -0.090695480784097504 0.41727281212483158 0 -0.077599851014367602 0.40637127102637732 0 -0.090695480784097504 0.41727281212483158 0 -0.077599851014367602 0.40637127102637732 0 -0.077475511178084946 0.4171549142493044 0 -0.077475511178084946 0.4171549142493044 0 -0.098677616465060528 0.43762344985591101 0 -0.090695480784097504 0.41727281212483158 0 -0.077475511178084946 0.4171549142493044 0 -0.098677616465060528 0.43762344985591101 0 -0.077475511178084946 0.4171549142493044 0 -0.078698858269308614 0.44343419105434712 0 -0.098677616465060528 0.43762344985591101 0 -0.077475511178084946 0.4171549142493044 0 -0.059178928229814701 0.4365201208845606 0 -0.055106871557328428 0.42305161159228227 0 -0.077475511178084946 0.4171549142493044 0 -0.059178928229814701 0.4365201208845606 0 -0.078698858269308614 0.44343419105434712 0 -0.077475511178084946 0.4171549142493044 0 -0.056273405891107527 0.39668637864269979 0 -0.077599851014367602 0.40637127102637732 0 -0.077475511178084946 0.4171549142493044 0 -0.056273405891107527 0.39668637864269979 0 -0.077599851014367602 0.40637127102637732 0 -0.056273405891107527 0.39668637864269979 0 -0.077599851014367602 0.40637127102637732 0 -0.078331801269405671 0.3911923311589619 0 -0.056273405891107527 0.39668637864269979 0 -0.094424665366596924 0.39634464281418252 0 -0.077599851014367602 0.40637127102637732 0 -0.078331801269405671 0.3911923311589619 0 -0.094424665366596924 0.39634464281418252 0 -0.078331801269405671 0.3911923311589619 0 -0.087166581823546807 0.38268142547449258 0 -0.079039419043354958 0.3748493973737258 0 -0.078331801269405671 0.3911923311589619 0 -0.087166581823546807 0.38268142547449258 0 -0.090941745129797052 0.36956363188929697 0 -0.098890550417286477 0.38099249480062602 0 -0.087166581823546807 0.38268142547449258 0 -0.094424665366596924 0.39634464281418252 0 -0.098890550417286477 0.38099249480062602 0 -0.087166581823546807 0.38268142547449258 0 -0.079039419043354958 0.3748493973737258 0 -0.090941745129797052 0.36956363188929697 0 -0.087166581823546807 0.38268142547449258 0 -0.078331801269405671 0.3911923311589619 0 -0.070241768304658683 0.38125320512289401 0 -0.062400115896225239 0.38328565763688038 0 -0.078331801269405671 0.3911923311589619 0 -0.047880784994249512 0.38858413326022379 0 -0.069626031180744216 0.37451783031500979 0 -0.079039419043354958 0.3748493973737258 0 -0.070241768304658683 0.38125320512289401 0 -0.078331801269405671 0.3911923311589619 0 -0.062400115896225239 0.38328565763688038 0 -0.047880784994249512 0.38858413326022379 0 -0.079039419043354958 0.3748493973737258 0 -0.078331801269405671 0.3911923311589619 0 -0.070241768304658683 0.38125320512289401 0 -0.070241768304658683 0.38125320512289401 0 -0.064210651178174066 0.37904237845721811 0 -0.062400115896225239 0.38328565763688038 0 -0.069626031180744216 0.37451783031500979 0 -0.070241768304658683 0.38125320512289401 0 -0.064210651178174066 0.37904237845721811 0 -0.069626031180744216 0.37451783031500979 0 -0.064210651178174066 0.37904237845721811 0 -0.064607287490063475 0.3752877934920828 0 -0.062075486208271788 0.37468365416042188 0 -0.064210651178174066 0.37904237845721811 0 -0.064607287490063475 0.3752877934920828 0 -0.062075486208271788 0.37468365416042188 0 -0.064210651178174066 0.37904237845721811 0 -0.059083848751135488 0.37840884602566088 0 -0.059083848751135488 0.37840884602566088 0 -0.062400115896225239 0.38328565763688038 0 -0.054293362626053041 0.38162223819359442 0 -0.062075486208271788 0.37468365416042188 0 -0.062564083944274151 0.37264302620600032 0 -0.059083848751135488 0.37840884602566088 0 -0.062564083944274151 0.37264302620600032 0 -0.054293362626053041 0.38162223819359442 0 -0.062564083944274151 0.37264302620600032 0 -0.059083848751135488 0.37840884602566088 0 -0.054293362626053041 0.38162223819359442 0 -0.056089193364373929 0.37273715424054699 0 -0.062564083944274151 0.37264302620600032 0 -0.054293362626053041 0.38162223819359442 0 -0.059083848751135488 0.37840884602566088 0 -0.054293362626053041 0.38162223819359442 0 -0.064210651178174066 0.37904237845721811 0 -0.059083848751135488 0.37840884602566088 0 -0.062400115896225239 0.38328565763688038 0 -0.062400115896225239 0.38328565763688038 0 -0.047880784994249512 0.38858413326022379 0 -0.054293362626053041 0.38162223819359442 0 -0.047880784994249512 0.38858413326022379 0 -0.054293362626053041 0.38162223819359442 0 -0.047880784994249512 0.38858413326022379 0 -0.054293362626053041 0.38162223819359442 0 -0.046254793771615982 0.3870143995575549 0 -0.047836657145122599 0.38128015361824008 0 -0.054293362626053041 0.38162223819359442 0 -0.046254793771615982 0.3870143995575549 0 -0.054293362626053041 0.38162223819359442 0 -0.046254793771615982 0.3870143995575549 0 -0.047880784994249512 0.38858413326022379 0 -0.046254793771615982 0.3870143995575549 0 -0.056089193364373929 0.37273715424054699 0 -0.050724207312953518 0.37700173675436199 0 -0.054293362626053041 0.38162223819359442 0 -0.049098878804771373 0.3725140996878949 0 -0.050724207312953518 0.37700173675436199 0 -0.043775979817191349 0.37615739516056462 0 -0.047836657145122599 0.38128015361824008 0 -0.050724207312953518 0.37700173675436199 0 -0.043775979817191349 0.37615739516056462 0 -0.047836657145122599 0.38128015361824008 0 -0.050724207312953518 0.37700173675436199 0 -0.054293362626053041 0.38162223819359442 0 -0.078331801269405671 0.3911923311589619 0 -0.047880784994249512 0.38858413326022379 0 -0.056273405891107527 0.39668637864269979 0 -0.047880784994249512 0.38858413326022379 0 -0.056273405891107527 0.39668637864269979 0 -0.045094078598563243 0.39160955589403151 0 -0.056273405891107527 0.39668637864269979 0 -0.048342871606355781 0.40097934792702961 0 -0.045094078598563243 0.39160955589403151 0 -0.047880784994249512 0.38858413326022379 0 -0.056273405891107527 0.39668637864269979 0 -0.056273405891107527 0.39668637864269979 0 -0.045094078598563243 0.39160955589403151 0 -0.056273405891107527 0.39668637864269979 0 -0.048342871606355781 0.40097934792702961 0 -0.051161828253680347 0.40954535298997258 0 -0.04342775431262437 0.39341862168501102 0 -0.028839939204686131 0.40925606551247828 0 -0.042973684961738069 0.41592643291826231 0 -0.048342871606355781 0.40097934792702961 0 -0.04342775431262437 0.39341862168501102 0 -0.042973684961738069 0.41592643291826231 0 -0.041701311968281377 0.39006881248802111 0 -0.02243782954129785 0.40299049140363558 0 -0.041701311968281377 0.39006881248802111 0 -0.03457878247319518 0.38683428693719679 0 -0.02243782954129785 0.40299049140363558 0 -0.04342775431262437 0.39341862168501102 0 -0.041701311968281377 0.39006881248802111 0 -0.02243782954129785 0.40299049140363558 0 -0.04342775431262437 0.39341862168501102 0 -0.028839939204686131 0.40925606551247828 0 -0.04342775431262437 0.39341862168501102 0 -0.042973684961738069 0.41592643291826231 0 -0.04342775431262437 0.39341862168501102 0 -0.02243782954129785 0.40299049140363558 0 -0.028839939204686131 0.40925606551247828 0 -0.048342871606355781 0.40097934792702961 0 -0.04342775431262437 0.39341862168501102 0 -0.045094078598563243 0.39160955589403151 0 -0.04342775431262437 0.39341862168501102 0 -0.045094078598563243 0.39160955589403151 0 -0.043479046219812342 0.39087612776318198 0 -0.04342775431262437 0.39341862168501102 0 -0.043479046219812342 0.39087612776318198 0 -0.045094078598563243 0.39160955589403151 0 -0.043479046219812342 0.39087612776318198 0 -0.045094078598563243 0.39160955589403151 0 -0.043479046219812342 0.39087612776318198 0 -0.045172553619539632 0.38973569244798251 0 -0.04342775431262437 0.39341862168501102 0 -0.045094078598563243 0.39160955589403151 0 -0.04342775431262437 0.39341862168501102 0 -0.043479046219812342 0.39087612776318198 0 -0.041701311968281377 0.39006881248802111 0 -0.047836657145122599 0.38128015361824008 0 -0.043775979817191349 0.37615739516056462 0 -0.043608491196287617 0.38445965616034072 0 -0.043775979817191349 0.37615739516056462 0 -0.043608491196287617 0.38445965616034072 0 -0.032897312064139907 0.37411907212457252 0 -0.043775979817191349 0.37615739516056462 0 -0.043608491196287617 0.38445965616034072 0 -0.047836657145122599 0.38128015361824008 0 -0.043608491196287617 0.38445965616034072 0 -0.046254793771615982 0.3870143995575549 0 -0.043542573639619581 0.38772713043400647 0 -0.041701311968281377 0.39006881248802111 0 -0.03457878247319518 0.38683428693719679 0 -0.043608491196287617 0.38445965616034072 0 -0.043542573639619581 0.38772713043400647 0 -0.03457878247319518 0.38683428693719679 0 -0.043608491196287617 0.38445965616034072 0 -0.046254793771615982 0.3870143995575549 0 -0.043608491196287617 0.38445965616034072 0 -0.046254793771615982 0.3870143995575549 0 -0.043542573639619581 0.38772713043400647 0 -0.043608491196287617 0.38445965616034072 0 -0.043542573639619581 0.38772713043400647 0 -0.047880784994249512 0.38858413326022379 0 -0.045094078598563243 0.39160955589403151 0 -0.047880784994249512 0.38858413326022379 0 -0.045094078598563243 0.39160955589403151 0 -0.045172553619539632 0.38973569244798251 0 -0.047880784994249512 0.38858413326022379 0 -0.045172553619539632 0.38973569244798251 0 -0.046254793771615982 0.3870143995575549 0 -0.045172553619539632 0.38973569244798251 0 -0.046254793771615982 0.3870143995575549 0 -0.043542573639619581 0.38772713043400647 0 -0.046254793771615982 0.3870143995575549 0 -0.043542573639619581 0.38772713043400647 0 -0.043479046219812342 0.39087612776318198 0 -0.045172553619539632 0.38973569244798251 0 -0.043542573639619581 0.38772713043400647 0 -0.043479046219812342 0.39087612776318198 0 -0.043542573639619581 0.38772713043400647 0 -0.043542573639619581 0.38772713043400647 0 -0.041701311968281377 0.39006881248802111 0 -0.043479046219812342 0.39087612776318198 0 -0.043542573639619581 0.38772713043400647 0 -0.041701311968281377 0.39006881248802111 0 -0.043479046219812342 0.39087612776318198 0 -0.041701311968281377 0.39006881248802111 0 -0.043542573639619581 0.38772713043400647 0 -0.03457878247319518 0.38683428693719679 0 -0.041701311968281377 0.39006881248802111 0 -0.03457878247319518 0.38683428693719679 0 -0.032897312064139907 0.37411907212457252 0 -0.043608491196287617 0.38445965616034072 0 -0.032897312064139907 0.37411907212457252 0 -0.043608491196287617 0.38445965616034072 0 -0.03457878247319518 0.38683428693719679 0 -0.03457878247319518 0.38683428693719679 0 -0.017803283764421592 0.37921609746689411 0 -0.03457878247319518 0.38683428693719679 0 -0.017803283764421592 0.37921609746689411 0 -0.019390911734903489 0.38532149046890818 0 -0.032897312064139907 0.37411907212457252 0 -0.017803283764421592 0.37921609746689411 0 -0.032897312064139907 0.37411907212457252 0 -0.03457878247319518 0.38683428693719679 0 -0.017803283764421592 0.37921609746689411 0 -0.03457878247319518 0.38683428693719679 0 -0.019390911734903489 0.38532149046890818 0 -0.019390911734903489 0.38532149046890818 0 -0.02243782954129785 0.40299049140363558 0 -0.0064316016559190746 0.3999483233353413 0 -0.03457878247319518 0.38683428693719679 0 -0.019390911734903489 0.38532149046890818 0 -0.02243782954129785 0.40299049140363558 0 -0.0064316016559190746 0.3999483233353413 0 -0.0042030409966118051 0.38380869400061962 0 0.010437450069317761 0.40463061763750507 0 -0.001064505034491721 0.37161458349227261 0 -0.017803283764421592 0.37921609746689411 0 -0.001064505034491721 0.37161458349227261 0 -0.017803283764421592 0.37921609746689411 0 -0.0042030409966118051 0.38380869400061962 0 -0.019390911734903489 0.38532149046890818 0 -0.0064316016559190746 0.3999483233353413 0 -0.0042030409966118051 0.38380869400061962 0 -0.017803283764421592 0.37921609746689411 0 -0.0042030409966118051 0.38380869400061962 0 -0.017803283764421592 0.37921609746689411 0 -0.019390911734903489 0.38532149046890818 0 -0.0042030409966118051 0.38380869400061962 0 -0.019390911734903489 0.38532149046890818 0 -0.0042030409966118051 0.38380869400061962 0 -0.014252124096747171 0.42509350933994478 0 0.0048617880261327502 0.44584476697033082 0 -0.014252124096747171 0.42509350933994478 0 -0.010454900682288101 0.44126855924159908 0 0.0048617880261327502 0.44584476697033082 0 -0.014252124096747171 0.42509350933994478 0 -0.0026301228576318379 0.42717885202372191 0 0.0048617880261327502 0.44584476697033082 0 -0.014252124096747171 0.42509350933994478 0 -0.0026301228576318379 0.42717885202372191 0 -0.003174347114314008 0.41591217031924949 0 -0.02243782954129785 0.40299049140363558 0 -0.0064316016559190746 0.3999483233353413 0 -0.003174347114314008 0.41591217031924949 0 -0.02243782954129785 0.40299049140363558 0 -0.003174347114314008 0.41591217031924949 0 -0.02243782954129785 0.40299049140363558 0 -0.014252124096747171 0.42509350933994478 0 -0.003174347114314008 0.41591217031924949 0 -0.014252124096747171 0.42509350933994478 0 -0.003174347114314008 0.41591217031924949 0 -0.014252124096747171 0.42509350933994478 0 -0.028839939204686131 0.40925606551247828 0 -0.02243782954129785 0.40299049140363558 0 -0.014252124096747171 0.42509350933994478 0 -0.028839939204686131 0.40925606551247828 0 -0.014252124096747171 0.42509350933994478 0 -0.028839939204686131 0.40925606551247828 0 -0.022470349574322469 0.43190483207895858 0 -0.014252124096747171 0.42509350933994478 0 -0.022470349574322469 0.43190483207895858 0 -0.010454900682288101 0.44126855924159908 0 -0.014252124096747171 0.42509350933994478 0 -0.022470349574322469 0.43190483207895858 0 -0.022470349574322469 0.43190483207895858 0 -0.010454900682288101 0.44126855924159908 0 -0.022470349574322469 0.43190483207895858 0 -0.042646571141636773 0.43214117214318359 0 -0.04231945732153318 0.44835591136810488 0 -0.022470349574322469 0.43190483207895858 0 -0.042646571141636773 0.43214117214318359 0 -0.042973684961738069 0.41592643291826231 0 -0.042646571141636773 0.43214117214318359 0 -0.042973684961738069 0.41592643291826231 0 -0.022470349574322469 0.43190483207895858 0 -0.042973684961738069 0.41592643291826231 0 -0.028839939204686131 0.40925606551247828 0 -0.022470349574322469 0.43190483207895858 0 -0.042973684961738069 0.41592643291826231 0 -0.077475511178084946 0.4171549142493044 0 -0.051161828253680347 0.40954535298997258 0 -0.055106871557328428 0.42305161159228227 0 -0.077475511178084946 0.4171549142493044 0 -0.056273405891107527 0.39668637864269979 0 -0.051161828253680347 0.40954535298997258 0 -0.048342871606355781 0.40097934792702961 0 -0.042973684961738069 0.41592643291826231 0 -0.051161828253680347 0.40954535298997258 0 -0.042973684961738069 0.41592643291826231 0 -0.051161828253680347 0.40954535298997258 0 -0.042973684961738069 0.41592643291826231 0 -0.051161828253680347 0.40954535298997258 0 -0.055106871557328428 0.42305161159228227 0 -0.042646571141636773 0.43214117214318359 0 -0.059178928229814701 0.4365201208845606 0 -0.055106871557328428 0.42305161159228227 0 -0.042646571141636773 0.43214117214318359 0 -0.042973684961738069 0.41592643291826231 0 -0.055106871557328428 0.42305161159228227 0 -0.042646571141636773 0.43214117214318359 0 -0.059178928229814701 0.4365201208845606 0 -0.049245987713513212 0.44319563894678482 0 -0.059178928229814701 0.4365201208845606 0 -0.050742244958162368 0.46439359559444437 0 -0.049245987713513212 0.44319563894678482 0 -0.050742244958162368 0.46439359559444437 0 -0.044608833217136261 0.45025336211807931 0 -0.059178928229814701 0.4365201208845606 0 -0.050742244958162368 0.46439359559444437 0 -0.065484051744298263 0.4513847118260722 0 -0.059178928229814701 0.4365201208845606 0 -0.049245987713513212 0.44319563894678482 0 -0.050742244958162368 0.46439359559444437 0 -0.050742244958162368 0.46439359559444437 0 -0.061707257777874093 0.47273252787991399 0 -0.073231504917427276 0.46237159316971249 0 -0.050742244958162368 0.46439359559444437 0 -0.073231504917427276 0.46237159316971249 0 -0.0419800222431604 0.46518140433549732 0 -0.04231945732153318 0.44835591136810488 0 -0.025697431038521311 0.45487791879973932 0 -0.0419800222431604 0.46518140433549732 0 -0.04231945732153318 0.44835591136810488 0 -0.0419800222431604 0.46518140433549732 0 -0.044608833217136261 0.45025336211807931 0 -0.04231945732153318 0.44835591136810488 0 -0.050742244958162368 0.46439359559444437 0 -0.0419800222431604 0.46518140433549732 0 -0.050742244958162368 0.46439359559444437 0 -0.0419800222431604 0.46518140433549732 0 -0.044608833217136261 0.45025336211807931 0 -0.022470349574322469 0.43190483207895858 0 -0.04231945732153318 0.44835591136810488 0 -0.042646571141636773 0.43214117214318359 0 -0.049245987713513212 0.44319563894678482 0 -0.04231945732153318 0.44835591136810488 0 -0.042646571141636773 0.43214117214318359 0 -0.04231945732153318 0.44835591136810488 0 -0.049245987713513212 0.44319563894678482 0 -0.044608833217136261 0.45025336211807931 0 -0.04231945732153318 0.44835591136810488 0 -0.044608833217136261 0.45025336211807931 0 -0.04231945732153318 0.44835591136810488 0 -0.022470349574322469 0.43190483207895858 0 -0.04231945732153318 0.44835591136810488 0 -0.022362297003099281 0.44511471557515531 0 -0.04231945732153318 0.44835591136810488 0 -0.022362297003099281 0.44511471557515531 0 -0.025697431038521311 0.45487791879973932 0 -0.022470349574322469 0.43190483207895858 0 -0.022362297003099281 0.44511471557515531 0 -0.010454900682288101 0.44126855924159908 0 -0.022362297003099281 0.44511471557515531 0 -0.025697431038521311 0.45487791879973932 0 -0.01311544116488466 0.453963754661173 0 -0.0419800222431604 0.46518140433549732 0 -0.025697431038521311 0.45487791879973932 0 -0.01345201465746383 0.46774634869629322 0 -0.0419800222431604 0.46518140433549732 0 -0.01345201465746383 0.46774634869629322 0 -0.025697431038521311 0.45487791879973932 0 -0.01311544116488466 0.453963754661173 0 -0.01345201465746383 0.46774634869629322 0 -0.0094095992007081283 0.46654139838691122 0 -0.010427957625441169 0.46801824073108461 0 0.0053167838454733218 0.46943384557929257 0 -0.0094095992007081283 0.46654139838691122 0 0.0015605482097463411 0.45063228640423969 0 -0.010427957625441169 0.46801824073108461 0 0.0053167838454733218 0.46943384557929257 0 -0.0094095992007081283 0.46654139838691122 0 0.0080738590363113663 0.46132998490476868 0 -0.01311544116488466 0.453963754661173 0 -0.0094095992007081283 0.46654139838691122 0 0.0015605482097463411 0.45063228640423969 0 -0.01311544116488466 0.453963754661173 0 -0.01345201465746383 0.46774634869629322 0 -0.0094095992007081283 0.46654139838691122 0 -0.01345201465746383 0.46774634869629322 0 -0.010427957625441169 0.46801824073108461 0 -0.01345201465746383 0.46774634869629322 0 -0.0094095992007081283 0.46654139838691122 0 -0.01345201465746383 0.46774634869629322 0 -0.0094095992007081283 0.46654139838691122 0 -0.010427957625441169 0.46801824073108461 0 -0.0094095992007081283 0.46654139838691122 0 -0.010427957625441169 0.46801824073108461 0 -0.01311544116488466 0.453963754661173 0 -0.010454900682288101 0.44126855924159908 0 0.0015605482097463411 0.45063228640423969 0 -0.010454900682288101 0.44126855924159908 0 0.0048617880261327502 0.44584476697033082 0 0.0015605482097463411 0.45063228640423969 0 -0.010454900682288101 0.44126855924159908 0 0.0015605482097463411 0.45063228640423969 0 -0.022362297003099281 0.44511471557515531 0 -0.01311544116488466 0.453963754661173 0 -0.010454900682288101 0.44126855924159908 0 -0.0067005321321746969 0.5 0 -0.003880604538310756 0.48346324919380129 0 -0.021454488019086362 0.48400912036554289 0 -0.01345201465746383 0.46774634869629322 0 -0.010427957625441169 0.46801824073108461 0 -0.021454488019086362 0.48400912036554289 0 -0.010427957625441169 0.46801824073108461 0 -0.003880604538310756 0.48346324919380129 0 -0.021454488019086362 0.48400912036554289 0 -0.010427957625441169 0.46801824073108461 0 -0.001026908195020756 0.47486914558720472 0 0.0053167838454733218 0.46943384557929257 0 -0.010427957625441169 0.46801824073108461 0 -0.003880604538310756 0.48346324919380129 0 -0.001026908195020756 0.47486914558720472 0 -0.010427957625441169 0.46801824073108461 0 -0.021454488019086362 0.48400912036554289 0 -0.01345201465746383 0.46774634869629322 0 -0.021454488019086362 0.48400912036554289 0 -0.032447842195153342 0.48378293317924542 0 -0.01345201465746383 0.46774634869629322 0 -0.032447842195153342 0.48378293317924542 0 -0.041758062999807367 0.47618372532725728 0 -0.01345201465746383 0.46774634869629322 0 -0.041758062999807367 0.47618372532725728 0 -0.021454488019086362 0.48400912036554289 0 -0.032481018412731863 0.50000000000000089 0 -0.033555046977316587 0.49207813668870121 0 -0.021454488019086362 0.48400912036554289 0 -0.032481018412731863 0.50000000000000089 0 -0.021454488019086362 0.48400912036554289 0 -0.033555046977316587 0.49207813668870121 0 -0.032447842195153342 0.48378293317924542 0 -0.0067005321321746969 0.5 0 -0.021454488019086362 0.48400912036554289 0 -0.032481018412731863 0.50000000000000089 0 -0.033555046977316587 0.49207813668870121 0 -0.039964975186860582 0.49999999999999872 0 -0.042139887415076342 0.49281443204190178 0 -0.032481018412731863 0.50000000000000089 0 -0.033555046977316587 0.49207813668870121 0 -0.039964975186860582 0.49999999999999872 0 -0.042139887415076342 0.49281443204190178 0 -0.041758062999807367 0.47618372532725728 0 -0.033555046977316587 0.49207813668870121 0 -0.042139887415076342 0.49281443204190178 0 -0.032447842195153342 0.48378293317924542 0 -0.042139887415076342 0.49281443204190178 0 -0.046725468384182907 0.47766439368476649 0 -0.039964975186860582 0.49999999999999872 0 -0.042139887415076342 0.49281443204190178 0 -0.053580454847170257 0.49193017513362319 0 -0.039964975186860582 0.49999999999999872 0 -0.042139887415076342 0.49281443204190178 0 -0.042139887415076342 0.49281443204190178 0 -0.046725468384182907 0.47766439368476649 0 -0.041758062999807367 0.47618372532725728 0 -0.0419800222431604 0.46518140433549732 0 -0.01345201465746383 0.46774634869629322 0 -0.041758062999807367 0.47618372532725728 0 -0.042139887415076342 0.49281443204190178 0 -0.032447842195153342 0.48378293317924542 0 -0.041758062999807367 0.47618372532725728 0 -0.046725468384182907 0.47766439368476649 0 -0.041758062999807367 0.47618372532725728 0 -0.0419800222431604 0.46518140433549732 0 -0.046725468384182907 0.47766439368476649 0 -0.041758062999807367 0.47618372532725728 0 -0.050742244958162368 0.46439359559444437 0 -0.0419800222431604 0.46518140433549732 0 -0.046725468384182907 0.47766439368476649 0 -0.0419800222431604 0.46518140433549732 0 -0.041758062999807367 0.47618372532725728 0 -0.046725468384182907 0.47766439368476649 0 -0.061707257777874093 0.47273252787991399 0 -0.071702929972361051 0.48510959578984503 0 -0.046725468384182907 0.47766439368476649 0 -0.071702929972361051 0.48510959578984503 0 -0.050742244958162368 0.46439359559444437 0 -0.046725468384182907 0.47766439368476649 0 -0.061707257777874093 0.47273252787991399 0 -0.050742244958162368 0.46439359559444437 0 -0.046725468384182907 0.47766439368476649 0 -0.046725468384182907 0.47766439368476649 0 -0.053580454847170257 0.49193017513362319 0 -0.071702929972361051 0.48510959578984503 0 -0.039964975186860582 0.49999999999999872 0 -0.053580454847170257 0.49193017513362319 0 -0.067195934507479516 0.5 0 -0.042139887415076342 0.49281443204190178 0 -0.046725468384182907 0.47766439368476649 0 -0.053580454847170257 0.49193017513362319 0 -0.053580454847170257 0.49193017513362319 0 -0.067195934507479516 0.5 0 -0.071702929972361051 0.48510959578984503 0 -0.067195934507479516 0.5 0 -0.071702929972361051 0.48510959578984503 0 -0.094426893828098324 0.5 0 -0.071702929972361051 0.48510959578984503 0 -0.096680391560538939 0.49255479789492401 0 -0.071702929972361051 0.48510959578984503 0 -0.094426893828098324 0.5 0 -0.096680391560538939 0.49255479789492401 0 -0.071702929972361051 0.48510959578984503 0 -0.094342239683345888 0.46564946071770819 0 -0.096680391560538939 0.49255479789492401 0 -0.071702929972361051 0.48510959578984503 0 -0.073231504917427276 0.46237159316971249 0 -0.094342239683345888 0.46564946071770819 0 -0.061707257777874093 0.47273252787991399 0 -0.071702929972361051 0.48510959578984503 0 -0.073231504917427276 0.46237159316971249 0 -0.050742244958162368 0.46439359559444437 0 -0.073231504917427276 0.46237159316971249 0 -0.065484051744298263 0.4513847118260722 0 -0.059178928229814701 0.4365201208845606 0 -0.065484051744298263 0.4513847118260722 0 -0.078698858269308614 0.44343419105434712 0 -0.073231504917427276 0.46237159316971249 0 -0.065484051744298263 0.4513847118260722 0 -0.078698858269308614 0.44343419105434712 0 -0.078698858269308614 0.44343419105434712 0 -0.094342239683345888 0.46564946071770819 0 -0.098677616465060528 0.43762344985591101 0 -0.073231504917427276 0.46237159316971249 0 -0.078698858269308614 0.44343419105434712 0 -0.094342239683345888 0.46564946071770819 0 -0.094342239683345888 0.46564946071770819 0 -0.098677616465060528 0.43762344985591101 0 -0.11987972175203609 0.45809198546251739 0 -0.098677616465060528 0.43762344985591101 0 -0.11987972175203609 0.45809198546251739 0 -0.12509104342100061 0.44188941827772182 0 -0.098677616465060528 0.43762344985591101 0 -0.11987972175203609 0.45809198546251739 0 -0.094342239683345888 0.46564946071770819 0 -0.11987972175203609 0.45809198546251739 0 -0.1215246548466888 0.48036061179670092 0 -0.1215246548466888 0.48036061179670092 0 -0.1216578531487173 0.50000000000000155 0 -0.096680391560538939 0.49255479789492401 0 -0.1216578531487173 0.50000000000000155 0 -0.094426893828098324 0.5 0 -0.096680391560538939 0.49255479789492401 0 -0.1216578531487173 0.50000000000000155 0 -0.096680391560538939 0.49255479789492401 0 -0.094342239683345888 0.46564946071770819 0 -0.1215246548466888 0.48036061179670092 0 -0.096680391560538939 0.49255479789492401 0 -0.16310986573530631 0.084156321085019567 0 -0.17544541039362899 0.09436804860009354 0 -0.15783765240444911 0.096274401630791262 0 -0.16310986573530631 0.084156321085019567 0 -0.15783765240444911 0.096274401630791262 0 -0.16310986573530631 0.084156321085019567 0 -0.1657815390990264 0.070802932860687437 0 -0.15463431661472629 0.07014553381523804 0 -0.16310986573530631 0.084156321085019567 0 -0.1657815390990264 0.070802932860687437 0 -0.17966236107341149 0.074300518116336353 0 -0.1657815390990264 0.070802932860687437 0 -0.17966236107341149 0.074300518116336353 0 -0.1657196129726615 0.054609358426155781 0 -0.1657815390990264 0.070802932860687437 0 -0.15463431661472629 0.07014553381523804 0 -0.1657196129726615 0.054609358426155781 0 -0.17966236107341149 0.074300518116336353 0 -0.1657196129726615 0.054609358426155781 0 -0.19326118210642521 0.060262893486061127 0 -0.17966236107341149 0.074300518116336353 0 -0.1657196129726615 0.054609358426155781 0 -0.16310986573530631 0.084156321085019567 0 -0.17966236107341149 0.074300518116336353 0 -0.17544541039362899 0.09436804860009354 0 -0.17966236107341149 0.074300518116336353 0 -0.17544541039362899 0.09436804860009354 0 -0.19360510917416149 0.093991677806516877 0 -0.17966236107341149 0.074300518116336353 0 -0.19360510917416149 0.093991677806516877 0 -0.17544541039362899 0.09436804860009354 0 -0.18934336527218601 0.1087413065502997 0 -0.19360510917416149 0.093991677806516877 0 -0.17544541039362899 0.09436804860009354 0 -0.16911410870225951 0.1087440664115976 0 -0.18934336527218601 0.1087413065502997 0 -0.18039056500006781 0.12121373119240569 0 -0.16911410870225951 0.1087440664115976 0 -0.18934336527218601 0.1087413065502997 0 -0.18039056500006781 0.12121373119240569 0 -0.16911410870225951 0.1087440664115976 0 -0.18039056500006781 0.12121373119240569 0 -0.16911410870225951 0.1087440664115976 0 -0.15507510040999009 0.1056512286087255 0 -0.18039056500006781 0.12121373119240569 0 -0.15507510040999009 0.1056512286087255 0 -0.1628447509754036 0.1248738178506951 0 -0.15507510040999009 0.1056512286087255 0 -0.15358711882774939 0.11801712706942639 0 -0.18039056500006781 0.12121373119240569 0 -0.1628447509754036 0.1248738178506951 0 -0.15507510040999009 0.1056512286087255 0 -0.17544541039362899 0.09436804860009354 0 -0.16911410870225951 0.1087440664115976 0 -0.15783765240444911 0.096274401630791262 0 -0.16911410870225951 0.1087440664115976 0 -0.15783765240444911 0.096274401630791262 0 -0.16911410870225951 0.1087440664115976 0 -0.15783765240444911 0.096274401630791262 0 -0.15507510040999009 0.1056512286087255 0 -0.15783765240444911 0.096274401630791262 0 -0.14455303356647331 0.096744639073681929 0 -0.15139402388202119 0.11108495737684999 0 -0.14455303356647331 0.096744639073681929 0 -0.15139402388202119 0.11108495737684999 0 -0.12991930243541749 0.1020465165188278 0 -0.15783765240444911 0.096274401630791262 0 -0.15507510040999009 0.1056512286087255 0 -0.15139402388202119 0.11108495737684999 0 -0.15783765240444911 0.096274401630791262 0 -0.15139402388202119 0.11108495737684999 0 -0.15139402388202119 0.11108495737684999 0 -0.12991930243541749 0.1020465165188278 0 -0.14495039535959489 0.12589551312290931 0 -0.1628447509754036 0.1248738178506951 0 -0.15358711882774939 0.11801712706942639 0 -0.14495039535959489 0.12589551312290931 0 -0.15358711882774939 0.11801712706942639 0 -0.15139402388202119 0.11108495737684999 0 -0.14495039535959489 0.12589551312290931 0 -0.15507510040999009 0.1056512286087255 0 -0.15358711882774939 0.11801712706942639 0 -0.15139402388202119 0.11108495737684999 0 -0.15139402388202119 0.11108495737684999 0 -0.14495039535959489 0.12589551312290931 0 -0.12991930243541749 0.1020465165188278 0 -0.14495039535959489 0.12589551312290931 0 -0.12991930243541749 0.1020465165188278 0 -0.14495039535959489 0.12589551312290931 0 -0.13028426483969929 0.13221647237215789 0 -0.14455303356647331 0.096744639073681929 0 -0.12991930243541749 0.1020465165188278 0 -0.13683438329036771 0.088098653177494879 0 -0.12991930243541749 0.1020465165188278 0 -0.13683438329036771 0.088098653177494879 0 -0.1248370695698198 0.083226530136874921 0 -0.13683438329036771 0.088098653177494879 0 -0.13729578978526799 0.073558919561796721 0 -0.1248370695698198 0.083226530136874921 0 -0.13683438329036771 0.088098653177494879 0 -0.14756672109485969 0.08491666059629295 0 -0.13729578978526799 0.073558919561796721 0 -0.14455303356647331 0.096744639073681929 0 -0.13683438329036771 0.088098653177494879 0 -0.14756672109485969 0.08491666059629295 0 -0.14756672109485969 0.08491666059629295 0 -0.13729578978526799 0.073558919561796721 0 -0.16310986573530631 0.084156321085019567 0 -0.14756672109485969 0.08491666059629295 0 -0.15463431661472629 0.07014553381523804 0 -0.16310986573530631 0.084156321085019567 0 -0.15783765240444911 0.096274401630791262 0 -0.14756672109485969 0.08491666059629295 0 -0.15783765240444911 0.096274401630791262 0 -0.14756672109485969 0.08491666059629295 0 -0.15783765240444911 0.096274401630791262 0 -0.14455303356647331 0.096744639073681929 0 -0.14756672109485969 0.08491666059629295 0 -0.14756672109485969 0.08491666059629295 0 -0.15463431661472629 0.07014553381523804 0 -0.13729578978526799 0.073558919561796721 0 -0.15463431661472629 0.07014553381523804 0 -0.13729578978526799 0.073558919561796721 0 -0.14428807100988511 0.057223156242914672 0 -0.13729578978526799 0.073558919561796721 0 -0.1311901693420546 0.060374133793646992 0 -0.14428807100988511 0.057223156242914672 0 -0.13729578978526799 0.073558919561796721 0 -0.12498233095038511 0.069533312171706482 0 -0.1248370695698198 0.083226530136874921 0 -0.13729578978526799 0.073558919561796721 0 -0.1311901693420546 0.060374133793646992 0 -0.12498233095038511 0.069533312171706482 0 -0.1311901693420546 0.060374133793646992 0 -0.1304591025064194 0.044551821316570157 0 -0.1169815729820268 0.057446916627697332 0 -0.1311901693420546 0.060374133793646992 0 -0.1304591025064194 0.044551821316570157 0 -0.14428807100988511 0.057223156242914672 0 -0.1304591025064194 0.044551821316570157 0 -0.1338093633065561 0.031702984145267947 0 -0.14718764802187309 0.041237794311798179 0 -0.1304591025064194 0.044551821316570157 0 -0.1338093633065561 0.031702984145267947 0 -0.120950474974805 0.030974477430810402 0 -0.14718764802187309 0.041237794311798179 0 -0.14507935476777459 0.024735833563247479 0 -0.16332082262574071 0.033969476032413119 0 -0.1338093633065561 0.031702984145267947 0 -0.14718764802187309 0.041237794311798179 0 -0.14507935476777459 0.024735833563247479 0 -0.1304591025064194 0.044551821316570157 0 -0.14718764802187309 0.041237794311798179 0 -0.14428807100988511 0.057223156242914672 0 -0.15463431661472629 0.07014553381523804 0 -0.14428807100988511 0.057223156242914672 0 -0.1657196129726615 0.054609358426155781 0 -0.14718764802187309 0.041237794311798179 0 -0.14428807100988511 0.057223156242914672 0 -0.1657196129726615 0.054609358426155781 0 -0.1273771369441013 0.0023450629401116992 0 -0.12537023626190849 0.01701499410391356 0 -0.14358534871595791 0.0085390787577918573 0 -0.14275634286812811 -0.006203461430080404 0 -0.1273771369441013 0.0023450629401116992 0 -0.14358534871595791 0.0085390787577918573 0 -0.1338093633065561 0.031702984145267947 0 -0.12537023626190849 0.01701499410391356 0 -0.14507935476777459 0.024735833563247479 0 -0.12537023626190849 0.01701499410391356 0 -0.14507935476777459 0.024735833563247479 0 -0.14358534871595791 0.0085390787577918573 0 -0.1338093633065561 0.031702984145267947 0 -0.12537023626190849 0.01701499410391356 0 -0.120950474974805 0.030974477430810402 0 -0.14507935476777459 0.024735833563247479 0 -0.14358534871595791 0.0085390787577918573 0 -0.1631610812614456 0.0141265482177085 0 -0.15796117991031841 -0.00029962151665172479 0 -0.14358534871595791 0.0085390787577918573 0 -0.1631610812614456 0.0141265482177085 0 -0.14275634286812811 -0.006203461430080404 0 -0.15796117991031841 -0.00029962151665172479 0 -0.14358534871595791 0.0085390787577918573 0 -0.15796117991031841 -0.00029962151665172479 0 -0.17967452986780849 -0.0030086181600807401 0 -0.1631610812614456 0.0141265482177085 0 -0.1631610812614456 0.0141265482177085 0 -0.18063081477410151 0.02444866588981499 0 -0.16332082262574071 0.033969476032413119 0 -0.14507935476777459 0.024735833563247479 0 -0.1631610812614456 0.0141265482177085 0 -0.16332082262574071 0.033969476032413119 0 -0.17967452986780849 -0.0030086181600807401 0 -0.1631610812614456 0.0141265482177085 0 -0.18063081477410151 0.02444866588981499 0 -0.17967452986780849 -0.0030086181600807401 0 -0.18063081477410151 0.02444866588981499 0 -0.19591489879339791 0.012499298725408061 0 -0.1657196129726615 0.054609358426155781 0 -0.16332082262574071 0.033969476032413119 0 -0.1853408533429271 0.041769259974547668 0 -0.14718764802187309 0.041237794311798179 0 -0.1657196129726615 0.054609358426155781 0 -0.16332082262574071 0.033969476032413119 0 -0.18063081477410151 0.02444866588981499 0 -0.16332082262574071 0.033969476032413119 0 -0.1853408533429271 0.041769259974547668 0 -0.1657196129726615 0.054609358426155781 0 -0.1853408533429271 0.041769259974547668 0 -0.19326118210642521 0.060262893486061127 0 -0.1853408533429271 0.041769259974547668 0 -0.19326118210642521 0.060262893486061127 0 -0.20638984228336041 0.047204147208118788 0 -0.18063081477410151 0.02444866588981499 0 -0.1853408533429271 0.041769259974547668 0 -0.2003712226561333 0.029120430419108619 0 -0.1853408533429271 0.041769259974547668 0 -0.20638984228336041 0.047204147208118788 0 -0.2003712226561333 0.029120430419108619 0 -0.20638984228336041 0.047204147208118788 0 -0.2003712226561333 0.029120430419108619 0 -0.21890969838457369 0.03387481538926377 0 -0.20638984228336041 0.047204147208118788 0 -0.2248274879423891 0.050626958701997932 0 -0.21890969838457369 0.03387481538926377 0 -0.20638984228336041 0.047204147208118788 0 -0.2248274879423891 0.050626958701997932 0 -0.21240822864659401 0.064474545157398255 0 -0.19326118210642521 0.060262893486061127 0 -0.20638984228336041 0.047204147208118788 0 -0.21240822864659401 0.064474545157398255 0 -0.17967452986780849 -0.0030086181600807401 0 -0.20680301002479959 -0.0020434230711429339 0 -0.19591489879339791 0.012499298725408061 0 -0.18063081477410151 0.02444866588981499 0 -0.19591489879339791 0.012499298725408061 0 -0.2003712226561333 0.029120430419108619 0 -0.2003712226561333 0.029120430419108619 0 -0.2150412283584397 0.01492639532749848 0 -0.21890969838457369 0.03387481538926377 0 -0.19591489879339791 0.012499298725408061 0 -0.2003712226561333 0.029120430419108619 0 -0.2150412283584397 0.01492639532749848 0 -0.20680301002479959 -0.0020434230711429339 0 -0.19591489879339791 0.012499298725408061 0 -0.2150412283584397 0.01492639532749848 0 -0.20680301002479959 -0.0020434230711429339 0 -0.2150412283584397 0.01492639532749848 0 -0.22850437187820721 0.00061554774341724197 0 -0.2150412283584397 0.01492639532749848 0 -0.22850437187820721 0.00061554774341724197 0 -0.23416676111704099 0.01917273774715204 0 -0.23416676111704099 0.01917273774715204 0 -0.21890969838457369 0.03387481538926377 0 -0.23451298379830759 0.036058925104307242 0 -0.2150412283584397 0.01492639532749848 0 -0.23416676111704099 0.01917273774715204 0 -0.21890969838457369 0.03387481538926377 0 -0.25132042997239518 0.0027134119798401068 0 -0.25642639863326749 0.02710060176493858 0 -0.23416676111704099 0.01917273774715204 0 -0.25642639863326749 0.02710060176493858 0 -0.23416676111704099 0.01917273774715204 0 -0.23451298379830759 0.036058925104307242 0 -0.25132042997239518 0.0027134119798401068 0 -0.22850437187820721 0.00061554774341724197 0 -0.23416676111704099 0.01917273774715204 0 -0.2248274879423891 0.050626958701997932 0 -0.234130504556473 0.067172247096954504 0 -0.21240822864659401 0.064474545157398255 0 -0.2248274879423891 0.050626958701997932 0 -0.21890969838457369 0.03387481538926377 0 -0.23451298379830759 0.036058925104307242 0 -0.25642639863326749 0.02710060176493858 0 -0.23451298379830759 0.036058925104307242 0 -0.24534917185526489 0.049526218608574313 0 -0.2248274879423891 0.050626958701997932 0 -0.23451298379830759 0.036058925104307242 0 -0.24534917185526489 0.049526218608574313 0 -0.26195798501385009 0.070226375813507561 0 -0.24534917185526489 0.049526218608574313 0 -0.234130504556473 0.067172247096954504 0 -0.2248274879423891 0.050626958701997932 0 -0.24534917185526489 0.049526218608574313 0 -0.234130504556473 0.067172247096954504 0 -0.26195798501385009 0.070226375813507561 0 -0.24382127576753621 0.084711863041238192 0 -0.234130504556473 0.067172247096954504 0 -0.24382127576753621 0.084711863041238192 0 -0.22568456652122221 0.099197350268968809 0 -0.24382127576753621 0.084711863041238192 0 -0.221160002309051 0.081738136999685213 0 -0.22568456652122221 0.099197350268968809 0 -0.221160002309051 0.081738136999685213 0 -0.20949418686790969 0.097522886253834359 0 -0.22568456652122221 0.099197350268968809 0 -0.24382127576753621 0.084711863041238192 0 -0.221160002309051 0.081738136999685213 0 -0.234130504556473 0.067172247096954504 0 -0.221160002309051 0.081738136999685213 0 -0.234130504556473 0.067172247096954504 0 -0.21240822864659401 0.064474545157398255 0 -0.221160002309051 0.081738136999685213 0 -0.21240822864659401 0.064474545157398255 0 -0.19789508720454749 0.077516785054754192 0 -0.221160002309051 0.081738136999685213 0 -0.19789508720454749 0.077516785054754192 0 -0.20949418686790969 0.097522886253834359 0 -0.17966236107341149 0.074300518116336353 0 -0.19789508720454749 0.077516785054754192 0 -0.19360510917416149 0.093991677806516877 0 -0.19789508720454749 0.077516785054754192 0 -0.19360510917416149 0.093991677806516877 0 -0.20949418686790969 0.097522886253834359 0 -0.19326118210642521 0.060262893486061127 0 -0.21240822864659401 0.064474545157398255 0 -0.19789508720454749 0.077516785054754192 0 -0.17966236107341149 0.074300518116336353 0 -0.19326118210642521 0.060262893486061127 0 -0.19789508720454749 0.077516785054754192 0 -0.20040659369392541 0.1193864456313013 0 -0.18934336527218601 0.1087413065502997 0 -0.2075478572749084 0.11368283749669961 0 -0.18039056500006781 0.12121373119240569 0 -0.20040659369392541 0.1193864456313013 0 -0.18934336527218601 0.1087413065502997 0 -0.19360510917416149 0.093991677806516877 0 -0.2075478572749084 0.11368283749669961 0 -0.18934336527218601 0.1087413065502997 0 -0.19360510917416149 0.093991677806516877 0 -0.2075478572749084 0.11368283749669961 0 -0.19360510917416149 0.093991677806516877 0 -0.20949418686790969 0.097522886253834359 0 -0.2075478572749084 0.11368283749669961 0 -0.2075478572749084 0.11368283749669961 0 -0.22568456652122221 0.099197350268968809 0 -0.20949418686790969 0.097522886253834359 0 -0.2075478572749084 0.11368283749669961 0 -0.22568456652122221 0.099197350268968809 0 -0.2075478572749084 0.11368283749669961 0 -0.22488407219564061 0.1186598638475915 0 -0.22370276663374011 0.1364982034250237 0 -0.20040659369392541 0.1193864456313013 0 -0.2075478572749084 0.11368283749669961 0 -0.20214902218410111 0.13458958866239301 0 -0.20040659369392541 0.1193864456313013 0 -0.2075478572749084 0.11368283749669961 0 -0.2075478572749084 0.11368283749669961 0 -0.22488407219564061 0.1186598638475915 0 -0.22568456652122221 0.099197350268968809 0 -0.22488407219564061 0.1186598638475915 0 -0.23975573915859391 0.1186480270080747 0 -0.23562440086935879 0.12869665656040569 0 -0.22488407219564061 0.1186598638475915 0 -0.22568456652122221 0.099197350268968809 0 -0.23888908650362611 0.1045060591559635 0 -0.24382127576753621 0.084711863041238192 0 -0.22568456652122221 0.099197350268968809 0 -0.23888908650362611 0.1045060591559635 0 -0.25364395357421121 0.10678394025260531 0 -0.24382127576753621 0.084711863041238192 0 -0.23888908650362611 0.1045060591559635 0 -0.25033803458298193 0.12914144363467839 0 -0.25364395357421121 0.10678394025260531 0 -0.23975573915859391 0.1186480270080747 0 -0.22488407219564061 0.1186598638475915 0 -0.23888908650362611 0.1045060591559635 0 -0.23975573915859391 0.1186480270080747 0 -0.25364395357421121 0.10678394025260531 0 -0.23888908650362611 0.1045060591559635 0 -0.23975573915859391 0.1186480270080747 0 -0.25033803458298193 0.12914144363467839 0 -0.23975573915859391 0.1186480270080747 0 -0.23562440086935879 0.12869665656040569 0 -0.25033803458298193 0.12914144363467839 0 -0.2394413917758374 0.14053574488666021 0 -0.23562440086935879 0.12869665656040569 0 -0.2394413917758374 0.14053574488666021 0 -0.23562440086935879 0.12869665656040569 0 -0.22370276663374011 0.1364982034250237 0 -0.22488407219564061 0.1186598638475915 0 -0.23562440086935879 0.12869665656040569 0 -0.22370276663374011 0.1364982034250237 0 -0.2394413917758374 0.14053574488666021 0 -0.22370276663374011 0.1364982034250237 0 -0.22390747936813421 0.14796544613238069 0 -0.22390747936813421 0.14796544613238069 0 -0.22774584105848089 0.15976823357977049 0 -0.2168312664826515 0.15850745189495519 0 -0.2394413917758374 0.14053574488666021 0 -0.22390747936813421 0.14796544613238069 0 -0.24566593655216731 0.1613413036023684 0 -0.22390747936813421 0.14796544613238069 0 -0.24566593655216731 0.1613413036023684 0 -0.26077588748637798 0.14053443996503889 0 -0.2394413917758374 0.14053574488666021 0 -0.24566593655216731 0.1613413036023684 0 -0.24566593655216731 0.1613413036023684 0 -0.2425545525554833 0.18325607046718431 0 -0.22457868183097049 0.171258732689378 0 -0.2425545525554833 0.18325607046718431 0 -0.2235130486054053 0.18492553164669809 0 -0.22457868183097049 0.171258732689378 0 -0.2425545525554833 0.18325607046718431 0 -0.2235130486054053 0.18492553164669809 0 -0.2315679775879351 0.19375458513227489 0 -0.2235130486054053 0.18492553164669809 0 -0.22457868183097049 0.171258732689378 0 -0.209750232499154 0.17791844316711489 0 -0.24566593655216731 0.1613413036023684 0 -0.22774584105848089 0.15976823357977049 0 -0.22457868183097049 0.171258732689378 0 -0.22390747936813421 0.14796544613238069 0 -0.24566593655216731 0.1613413036023684 0 -0.22774584105848089 0.15976823357977049 0 -0.22774584105848089 0.15976823357977049 0 -0.22457868183097049 0.171258732689378 0 -0.2168312664826515 0.15850745189495519 0 -0.2168312664826515 0.15850745189495519 0 -0.21186753860838101 0.16733255095299371 0 -0.20758447520558959 0.15683863127083711 0 -0.22457868183097049 0.171258732689378 0 -0.2168312664826515 0.15850745189495519 0 -0.21186753860838101 0.16733255095299371 0 -0.21186753860838101 0.16733255095299371 0 -0.209750232499154 0.17791844316711489 0 -0.20173639765426299 0.1643971743801825 0 -0.21186753860838101 0.16733255095299371 0 -0.20758447520558959 0.15683863127083711 0 -0.20173639765426299 0.1643971743801825 0 -0.20758447520558959 0.15683863127083711 0 -0.20173639765426299 0.1643971743801825 0 -0.20024290349544879 0.15519061181074151 0 -0.22457868183097049 0.171258732689378 0 -0.21186753860838101 0.16733255095299371 0 -0.209750232499154 0.17791844316711489 0 -0.19610042498268601 0.17522502183351021 0 -0.19038698318195549 0.16711234260031069 0 -0.17752183765376101 0.1775748035498933 0 -0.19610042498268601 0.17522502183351021 0 -0.19785886193094021 0.18900131099286041 0 -0.17752183765376101 0.1775748035498933 0 -0.19785886193094021 0.18900131099286041 0 -0.17752183765376101 0.1775748035498933 0 -0.209750232499154 0.17791844316711489 0 -0.19610042498268601 0.17522502183351021 0 -0.19785886193094021 0.18900131099286041 0 -0.209750232499154 0.17791844316711489 0 -0.19610042498268601 0.17522502183351021 0 -0.20173639765426299 0.1643971743801825 0 -0.20173639765426299 0.1643971743801825 0 -0.1927705130470404 0.15866088515044 0 -0.20024290349544879 0.15519061181074151 0 -0.19610042498268601 0.17522502183351021 0 -0.20173639765426299 0.1643971743801825 0 -0.19038698318195549 0.16711234260031069 0 -0.20173639765426299 0.1643971743801825 0 -0.19038698318195549 0.16711234260031069 0 -0.1927705130470404 0.15866088515044 0 -0.19038698318195549 0.16711234260031069 0 -0.1927705130470404 0.15866088515044 0 -0.18413510522225521 0.16259499244525211 0 -0.1927705130470404 0.15866088515044 0 -0.19507878308752141 0.1486405391940768 0 -0.1852646507768699 0.1545619776798173 0 -0.19507878308752141 0.1486405391940768 0 -0.18706065072040501 0.14468661846275019 0 -0.1852646507768699 0.1545619776798173 0 -0.19507878308752141 0.1486405391940768 0 -0.20024290349544879 0.15519061181074151 0 -0.20390252305447459 0.15036513687703029 0 -0.1927705130470404 0.15866088515044 0 -0.19507878308752141 0.1486405391940768 0 -0.20024290349544879 0.15519061181074151 0 -0.19507878308752141 0.1486405391940768 0 -0.202312374299252 0.1441640524023215 0 -0.19563802519160789 0.13807458821396759 0 -0.19507878308752141 0.1486405391940768 0 -0.202312374299252 0.1441640524023215 0 -0.20390252305447459 0.15036513687703029 0 -0.19507878308752141 0.1486405391940768 0 -0.19563802519160789 0.13807458821396759 0 -0.18706065072040501 0.14468661846275019 0 -0.18039056500006781 0.12121373119240569 0 -0.20214902218410111 0.13458958866239301 0 -0.18039056500006781 0.12121373119240569 0 -0.20040659369392541 0.1193864456313013 0 -0.20214902218410111 0.13458958866239301 0 -0.18039056500006781 0.12121373119240569 0 -0.19563802519160789 0.13807458821396759 0 -0.20214902218410111 0.13458958866239301 0 -0.18039056500006781 0.12121373119240569 0 -0.19563802519160789 0.13807458821396759 0 -0.202312374299252 0.1441640524023215 0 -0.19563802519160789 0.13807458821396759 0 -0.20214902218410111 0.13458958866239301 0 -0.2075478572749084 0.11368283749669961 0 -0.22370276663374011 0.1364982034250237 0 -0.20214902218410111 0.13458958866239301 0 -0.2075478572749084 0.11368283749669961 0 -0.22370276663374011 0.1364982034250237 0 -0.22370276663374011 0.1364982034250237 0 -0.22390747936813421 0.14796544613238069 0 -0.20214902218410111 0.13458958866239301 0 -0.22390747936813421 0.14796544613238069 0 -0.20214902218410111 0.13458958866239301 0 -0.22390747936813421 0.14796544613238069 0 -0.20214902218410111 0.13458958866239301 0 -0.20948943058945241 0.14863997276184041 0 -0.22390747936813421 0.14796544613238069 0 -0.2168312664826515 0.15850745189495519 0 -0.20948943058945241 0.14863997276184041 0 -0.2168312664826515 0.15850745189495519 0 -0.20758447520558959 0.15683863127083711 0 -0.20948943058945241 0.14863997276184041 0 -0.20758447520558959 0.15683863127083711 0 -0.20948943058945241 0.14863997276184041 0 -0.20390252305447459 0.15036513687703029 0 -0.20758447520558959 0.15683863127083711 0 -0.20024290349544879 0.15519061181074151 0 -0.20390252305447459 0.15036513687703029 0 -0.202312374299252 0.1441640524023215 0 -0.20214902218410111 0.13458958866239301 0 -0.20948943058945241 0.14863997276184041 0 -0.202312374299252 0.1441640524023215 0 -0.20948943058945241 0.14863997276184041 0 -0.20390252305447459 0.15036513687703029 0 -0.22764024225575111 0.25709488017932702 0 -0.2151106411052526 0.2372148610219694 0 -0.22764024225575111 0.25709488017932702 0 -0.2283272457552897 0.2411225242229286 0 -0.2468893326351202 0.24329134098969171 0 -0.22764024225575111 0.25709488017932702 0 -0.2283272457552897 0.2411225242229286 0 -0.2151106411052526 0.2372148610219694 0 -0.2283272457552897 0.2411225242229286 0 -0.22236430254422471 0.22707510271615991 0 -0.2151106411052526 0.2372148610219694 0 -0.2283272457552897 0.2411225242229286 0 -0.2468893326351202 0.24329134098969171 0 -0.2329273297721271 0.2301735095518313 0 -0.25250373055295899 0.22903132158689779 0 -0.2468893326351202 0.24329134098969171 0 -0.24260825180894061 0.22311859240920151 0 -0.2468893326351202 0.24329134098969171 0 -0.24260825180894061 0.22311859240920151 0 -0.2329273297721271 0.2301735095518313 0 -0.25326648915379463 0.21765104414027969 0 -0.25250373055295899 0.22903132158689779 0 -0.24260825180894061 0.22311859240920151 0 -0.24260825180894061 0.22311859240920151 0 -0.23239639752576971 0.22100751879425451 0 -0.2329273297721271 0.2301735095518313 0 -0.23239639752576971 0.22100751879425451 0 -0.2329273297721271 0.2301735095518313 0 -0.22236430254422471 0.22707510271615991 0 -0.2283272457552897 0.2411225242229286 0 -0.2329273297721271 0.2301735095518313 0 -0.22236430254422471 0.22707510271615991 0 -0.23239639752576971 0.22100751879425451 0 -0.22236430254422471 0.22707510271615991 0 -0.2228431611521535 0.2155973608413651 0 -0.2228431611521535 0.2155973608413651 0 -0.2385329104852989 0.2118543258787943 0 -0.21819588620811961 0.20042781843582741 0 -0.2385329104852989 0.2118543258787943 0 -0.21819588620811961 0.20042781843582741 0 -0.23239639752576971 0.22100751879425451 0 -0.2228431611521535 0.2155973608413651 0 -0.2385329104852989 0.2118543258787943 0 -0.2385329104852989 0.2118543258787943 0 -0.24039455529309961 0.2058142864805034 0 -0.21819588620811961 0.20042781843582741 0 -0.24260825180894061 0.22311859240920151 0 -0.23239639752576971 0.22100751879425451 0 -0.2385329104852989 0.2118543258787943 0 -0.25326648915379463 0.21765104414027969 0 -0.24039455529309961 0.2058142864805034 0 -0.25326648915379463 0.21765104414027969 0 -0.2385329104852989 0.2118543258787943 0 -0.24039455529309961 0.2058142864805034 0 -0.25326648915379463 0.21765104414027969 0 -0.24260825180894061 0.22311859240920151 0 -0.2385329104852989 0.2118543258787943 0 -0.25264776582176801 0.2054066783297176 0 -0.25326648915379463 0.21765104414027969 0 -0.24039455529309961 0.2058142864805034 0 -0.25846339158769432 0.19477026040294029 0 -0.2425545525554833 0.18325607046718431 0 -0.24512564856919611 0.1966003761625241 0 -0.24039455529309961 0.2058142864805034 0 -0.24512564856919611 0.1966003761625241 0 -0.2315679775879351 0.19375458513227489 0 -0.25264776582176801 0.2054066783297176 0 -0.24039455529309961 0.2058142864805034 0 -0.24512564856919611 0.1966003761625241 0 -0.2425545525554833 0.18325607046718431 0 -0.24512564856919611 0.1966003761625241 0 -0.2315679775879351 0.19375458513227489 0 -0.24039455529309961 0.2058142864805034 0 -0.2315679775879351 0.19375458513227489 0 -0.21819588620811961 0.20042781843582741 0 -0.2235130486054053 0.18492553164669809 0 -0.2315679775879351 0.19375458513227489 0 -0.21819588620811961 0.20042781843582741 0 -0.21819588620811961 0.20042781843582741 0 -0.19785886193094021 0.18900131099286041 0 -0.2235130486054053 0.18492553164669809 0 -0.209750232499154 0.17791844316711489 0 -0.21819588620811961 0.20042781843582741 0 -0.209750232499154 0.17791844316711489 0 -0.21819588620811961 0.20042781843582741 0 -0.19785886193094021 0.18900131099286041 0 -0.21819588620811961 0.20042781843582741 0 -0.20376966825666501 0.2022924765927995 0 -0.19785886193094021 0.18900131099286041 0 -0.19785886193094021 0.18900131099286041 0 -0.19005143880425829 0.1974548227072519 0 -0.17752183765376101 0.1775748035498933 0 -0.20376966825666501 0.2022924765927995 0 -0.19785886193094021 0.18900131099286041 0 -0.19005143880425829 0.1974548227072519 0 -0.19005143880425829 0.1974548227072519 0 -0.187650486280975 0.21451757224245291 0 -0.20258103995475549 0.21733484186461069 0 -0.19005143880425829 0.1974548227072519 0 -0.20258103995475549 0.21733484186461069 0 -0.20376966825666501 0.2022924765927995 0 -0.19005143880425829 0.1974548227072519 0 -0.20258103995475549 0.21733484186461069 0 -0.2228431611521535 0.2155973608413651 0 -0.21819588620811961 0.20042781843582741 0 -0.20258103995475549 0.21733484186461069 0 -0.21819588620811961 0.20042781843582741 0 -0.20376966825666501 0.2022924765927995 0 -0.20258103995475549 0.21733484186461069 0 -0.20258103995475549 0.21733484186461069 0 -0.19839606398960871 0.22991008851962841 0 -0.2151106411052526 0.2372148610219694 0 -0.22236430254422471 0.22707510271615991 0 -0.2228431611521535 0.2155973608413651 0 -0.20258103995475549 0.21733484186461069 0 -0.22236430254422471 0.22707510271615991 0 -0.20258103995475549 0.21733484186461069 0 -0.2151106411052526 0.2372148610219694 0 -0.20258103995475549 0.21733484186461069 0 -0.2151106411052526 0.2372148610219694 0 -0.187650486280975 0.21451757224245291 0 -0.20258103995475549 0.21733484186461069 0 -0.19839606398960871 0.22991008851962841 0 -0.187650486280975 0.21451757224245291 0 -0.19839606398960871 0.22991008851962841 0 -0.18195408303730121 0.23534357450296481 0 -0.18940688912330481 0.25610334311205268 0 -0.2046840695697589 0.2451395929661444 0 -0.18195408303730121 0.23534357450296481 0 -0.2046840695697589 0.2451395929661444 0 -0.18195408303730121 0.23534357450296481 0 -0.19839606398960871 0.22991008851962841 0 -0.2046840695697589 0.2451395929661444 0 -0.18195408303730121 0.23534357450296481 0 -0.21239874098331929 0.25437807278244762 0 -0.2046840695697589 0.2451395929661444 0 -0.2151106411052526 0.2372148610219694 0 -0.19839606398960871 0.22991008851962841 0 -0.2046840695697589 0.2451395929661444 0 -0.2151106411052526 0.2372148610219694 0 -0.22764024225575111 0.25709488017932702 0 -0.21239874098331929 0.25437807278244762 0 -0.2151106411052526 0.2372148610219694 0 -0.16225317791305921 0.25358582624422438 0 -0.18195408303730121 0.23534357450296481 0 -0.155242522585569 0.24016045739440639 0 -0.17508206900779469 0.25918785244088571 0 -0.16225317791305921 0.25358582624422438 0 -0.18195408303730121 0.23534357450296481 0 -0.187650486280975 0.21451757224245291 0 -0.18195408303730121 0.23534357450296481 0 -0.17144823439391829 0.2141895330645725 0 -0.18195408303730121 0.23534357450296481 0 -0.15922409650484359 0.2255475560397853 0 -0.18195408303730121 0.23534357450296481 0 -0.15922409650484359 0.2255475560397853 0 -0.155242522585569 0.24016045739440639 0 -0.18195408303730121 0.23534357450296481 0 -0.15922409650484359 0.2255475560397853 0 -0.17144823439391829 0.2141895330645725 0 -0.15922409650484359 0.2255475560397853 0 -0.15900733689739069 0.21062159977010589 0 -0.17144823439391829 0.2141895330645725 0 -0.15900733689739069 0.21062159977010589 0 -0.1653418357915476 0.2018213455952054 0 -0.15361129879784891 0.20139719057542019 0 -0.17144823439391829 0.2141895330645725 0 -0.17723797391968729 0.20390802022475071 0 -0.1653418357915476 0.2018213455952054 0 -0.15900733689739069 0.21062159977010589 0 -0.17144823439391829 0.2141895330645725 0 -0.1653418357915476 0.2018213455952054 0 -0.187650486280975 0.21451757224245291 0 -0.17144823439391829 0.2141895330645725 0 -0.17723797391968729 0.20390802022475071 0 -0.19005143880425829 0.1974548227072519 0 -0.187650486280975 0.21451757224245291 0 -0.17723797391968729 0.20390802022475071 0 -0.19005143880425829 0.1974548227072519 0 -0.17169787432773731 0.19155682751427069 0 -0.17752183765376101 0.1775748035498933 0 -0.19005143880425829 0.1974548227072519 0 -0.17723797391968729 0.20390802022475071 0 -0.17169787432773731 0.19155682751427069 0 -0.19005143880425829 0.1974548227072519 0 -0.17752183765376101 0.1775748035498933 0 -0.17169787432773731 0.19155682751427069 0 -0.1653418357915476 0.2018213455952054 0 -0.15791164184663151 0.19274793286901881 0 -0.17723797391968729 0.20390802022475071 0 -0.17169787432773731 0.19155682751427069 0 -0.1653418357915476 0.2018213455952054 0 -0.1653418357915476 0.2018213455952054 0 -0.15791164184663151 0.19274793286901881 0 -0.15361129879784891 0.20139719057542019 0 -0.17169787432773731 0.19155682751427069 0 -0.15791164184663151 0.19274793286901881 0 -0.16134243263699979 0.18146195783717889 0 -0.15791164184663151 0.19274793286901881 0 -0.15361129879784891 0.20139719057542019 0 -0.14754997702249989 0.19123102061556399 0 -0.15791164184663151 0.19274793286901881 0 -0.14754997702249989 0.19123102061556399 0 -0.15378055215212841 0.1853342336718547 0 -0.15361129879784891 0.20139719057542019 0 -0.144337775963609 0.20069921068637719 0 -0.14754997702249989 0.19123102061556399 0 -0.14754997702249989 0.19123102061556399 0 -0.13411435042981179 0.19106266128805069 0 -0.1463292802833521 0.18023770330257241 0 -0.144337775963609 0.20069921068637719 0 -0.14754997702249989 0.19123102061556399 0 -0.13411435042981179 0.19106266128805069 0 -0.13411435042981179 0.19106266128805069 0 -0.12967955466007261 0.2074258594294596 0 -0.1235431789710726 0.1969801993001162 0 -0.13411435042981179 0.19106266128805069 0 -0.13770187294137159 0.2043383794177894 0 -0.12967955466007261 0.2074258594294596 0 -0.144337775963609 0.20069921068637719 0 -0.13411435042981179 0.19106266128805069 0 -0.13770187294137159 0.2043383794177894 0 -0.13770187294137159 0.2043383794177894 0 -0.13855706597983281 0.21350408889879899 0 -0.14247480998137141 0.20718589651263181 0 -0.1364941099723872 0.21575153757660309 0 -0.120958802369795 0.22183359367242919 0 -0.11894773722242739 0.20818951851535461 0 -0.12967955466007261 0.2074258594294596 0 -0.1364941099723872 0.21575153757660309 0 -0.11894773722242739 0.20818951851535461 0 -0.13770187294137159 0.2043383794177894 0 -0.12967955466007261 0.2074258594294596 0 -0.13855706597983281 0.21350408889879899 0 -0.1364941099723872 0.21575153757660309 0 -0.11894773722242739 0.20818951851535461 0 -0.12967955466007261 0.2074258594294596 0 -0.1364941099723872 0.21575153757660309 0 -0.13855706597983281 0.21350408889879899 0 -0.1364941099723872 0.21575153757660309 0 -0.13855706597983281 0.21350408889879899 0 -0.15922409650484359 0.2255475560397853 0 -0.1364941099723872 0.21575153757660309 0 -0.13855706597983281 0.21350408889879899 0 -0.15922409650484359 0.2255475560397853 0 -0.13855706597983281 0.21350408889879899 0 -0.14930252504067221 0.21020190704756139 0 -0.13855706597983281 0.21350408889879899 0 -0.14247480998137141 0.20718589651263181 0 -0.14930252504067221 0.21020190704756139 0 -0.144337775963609 0.20069921068637719 0 -0.14247480998137141 0.20718589651263181 0 -0.14930252504067221 0.21020190704756139 0 -0.144337775963609 0.20069921068637719 0 -0.13770187294137159 0.2043383794177894 0 -0.14247480998137141 0.20718589651263181 0 -0.15900733689739069 0.21062159977010589 0 -0.15361129879784891 0.20139719057542019 0 -0.14930252504067221 0.21020190704756139 0 -0.15361129879784891 0.20139719057542019 0 -0.144337775963609 0.20069921068637719 0 -0.14930252504067221 0.21020190704756139 0 -0.15922409650484359 0.2255475560397853 0 -0.15900733689739069 0.21062159977010589 0 -0.14930252504067221 0.21020190704756139 0 -0.15922409650484359 0.2255475560397853 0 -0.13635804662702189 0.23039018670563211 0 -0.14207867318260539 0.23889574066385899 0 -0.15922409650484359 0.2255475560397853 0 -0.1364941099723872 0.21575153757660309 0 -0.13635804662702189 0.23039018670563211 0 -0.15922409650484359 0.2255475560397853 0 -0.1364941099723872 0.21575153757660309 0 -0.1364941099723872 0.21575153757660309 0 -0.13635804662702189 0.23039018670563211 0 -0.11673432752768111 0.2372784614512472 0 -0.1364941099723872 0.21575153757660309 0 -0.11673432752768111 0.2372784614512472 0 -0.13635804662702189 0.23039018670563211 0 -0.12961957513534 0.23973743310435161 0 -0.11673432752768111 0.2372784614512472 0 -0.13635804662702189 0.23039018670563211 0 -0.12961957513534 0.23973743310435161 0 -0.14207867318260539 0.23889574066385899 0 -0.12961957513534 0.23973743310435161 0 -0.13357218109292621 0.2499317644564327 0 -0.1213089330464012 0.24626659804535689 0 -0.12961957513534 0.23973743310435161 0 -0.13357218109292621 0.2499317644564327 0 -0.14207867318260539 0.23889574066385899 0 -0.14746997276257359 0.25293699741112718 0 -0.13357218109292621 0.2499317644564327 0 -0.14207867318260539 0.23889574066385899 0 -0.15922409650484359 0.2255475560397853 0 -0.14207867318260539 0.23889574066385899 0 -0.155242522585569 0.24016045739440639 0 -0.14746997276257359 0.25293699741112718 0 -0.14207867318260539 0.23889574066385899 0 -0.155242522585569 0.24016045739440639 0 -0.16225317791305921 0.25358582624422438 0 -0.14746997276257359 0.25293699741112718 0 -0.155242522585569 0.24016045739440639 0 -0.166988808872575 0.14091924592242799 0 -0.1736883691443292 0.1501381655411517 0 -0.1666646902223726 0.16034837340756511 0 -0.166988808872575 0.14091924592242799 0 -0.1666646902223726 0.16034837340756511 0 -0.15580754279098399 0.143121943265237 0 -0.1666646902223726 0.16034837340756511 0 -0.1549726550285947 0.15674585516748279 0 -0.15580754279098399 0.143121943265237 0 -0.1666646902223726 0.16034837340756511 0 -0.15580754279098399 0.143121943265237 0 -0.1628447509754036 0.1248738178506951 0 -0.166988808872575 0.14091924592242799 0 -0.17824709647023271 0.1379937977022469 0 -0.1628447509754036 0.1248738178506951 0 -0.166988808872575 0.14091924592242799 0 -0.15580754279098399 0.143121943265237 0 -0.18039056500006781 0.12121373119240569 0 -0.1628447509754036 0.1248738178506951 0 -0.17824709647023271 0.1379937977022469 0 -0.19563802519160789 0.13807458821396759 0 -0.17824709647023271 0.1379937977022469 0 -0.18706065072040501 0.14468661846275019 0 -0.18039056500006781 0.12121373119240569 0 -0.19563802519160789 0.13807458821396759 0 -0.17824709647023271 0.1379937977022469 0 -0.17824709647023271 0.1379937977022469 0 -0.18706065072040501 0.14468661846275019 0 -0.1811623126986891 0.14793864394101769 0 -0.166988808872575 0.14091924592242799 0 -0.17824709647023271 0.1379937977022469 0 -0.1736883691443292 0.1501381655411517 0 -0.17824709647023271 0.1379937977022469 0 -0.1811623126986891 0.14793864394101769 0 -0.1736883691443292 0.1501381655411517 0 -0.1811623126986891 0.14793864394101769 0 -0.1736883691443292 0.1501381655411517 0 -0.17666515903818969 0.15970684649729899 0 -0.1811623126986891 0.14793864394101769 0 -0.1852646507768699 0.1545619776798173 0 -0.17666515903818969 0.15970684649729899 0 -0.18706065072040501 0.14468661846275019 0 -0.1811623126986891 0.14793864394101769 0 -0.1852646507768699 0.1545619776798173 0 -0.17752183765376101 0.1775748035498933 0 -0.1666646902223726 0.16034837340756511 0 -0.1927705130470404 0.15866088515044 0 -0.1852646507768699 0.1545619776798173 0 -0.18413510522225521 0.16259499244525211 0 -0.17666515903818969 0.15970684649729899 0 -0.17752183765376101 0.1775748035498933 0 -0.1666646902223726 0.16034837340756511 0 -0.1852646507768699 0.1545619776798173 0 -0.18413510522225521 0.16259499244525211 0 -0.17666515903818969 0.15970684649729899 0 -0.18413510522225521 0.16259499244525211 0 -0.17666515903818969 0.15970684649729899 0 -0.17752183765376101 0.1775748035498933 0 -0.19038698318195549 0.16711234260031069 0 -0.18413510522225521 0.16259499244525211 0 -0.17752183765376101 0.1775748035498933 0 -0.1736883691443292 0.1501381655411517 0 -0.17666515903818969 0.15970684649729899 0 -0.1666646902223726 0.16034837340756511 0 -0.17169787432773731 0.19155682751427069 0 -0.17752183765376101 0.1775748035498933 0 -0.16134243263699979 0.18146195783717889 0 -0.17752183765376101 0.1775748035498933 0 -0.160166055014445 0.16782332876165751 0 -0.17752183765376101 0.1775748035498933 0 -0.16134243263699979 0.18146195783717889 0 -0.160166055014445 0.16782332876165751 0 -0.16134243263699979 0.18146195783717889 0 -0.160166055014445 0.16782332876165751 0 -0.1543363168372556 0.17604552304072019 0 -0.16134243263699979 0.18146195783717889 0 -0.15378055215212841 0.1853342336718547 0 -0.1543363168372556 0.17604552304072019 0 -0.15791164184663151 0.19274793286901881 0 -0.16134243263699979 0.18146195783717889 0 -0.15378055215212841 0.1853342336718547 0 -0.17752183765376101 0.1775748035498933 0 -0.1666646902223726 0.16034837340756511 0 -0.160166055014445 0.16782332876165751 0 -0.1666646902223726 0.16034837340756511 0 -0.160166055014445 0.16782332876165751 0 -0.1549726550285947 0.15674585516748279 0 -0.160166055014445 0.16782332876165751 0 -0.1549726550285947 0.15674585516748279 0 -0.14281027237512919 0.15807185397342149 0 -0.160166055014445 0.16782332876165751 0 -0.14281027237512919 0.15807185397342149 0 -0.160166055014445 0.16782332876165751 0 -0.1483000089644074 0.1706867490983929 0 -0.14281027237512919 0.15807185397342149 0 -0.160166055014445 0.16782332876165751 0 -0.1483000089644074 0.1706867490983929 0 -0.1543363168372556 0.17604552304072019 0 -0.1483000089644074 0.1706867490983929 0 -0.14281027237512919 0.15807185397342149 0 -0.13856119746919621 0.1732320213376258 0 -0.14754997702249989 0.19123102061556399 0 -0.15378055215212841 0.1853342336718547 0 -0.1463292802833521 0.18023770330257241 0 -0.15378055215212841 0.1853342336718547 0 -0.1543363168372556 0.17604552304072019 0 -0.1463292802833521 0.18023770330257241 0 -0.1483000089644074 0.1706867490983929 0 -0.1543363168372556 0.17604552304072019 0 -0.1463292802833521 0.18023770330257241 0 -0.1483000089644074 0.1706867490983929 0 -0.1463292802833521 0.18023770330257241 0 -0.13856119746919621 0.1732320213376258 0 -0.13411435042981179 0.19106266128805069 0 -0.13856119746919621 0.1732320213376258 0 -0.12609153575556739 0.16924223779836581 0 -0.13411435042981179 0.19106266128805069 0 -0.12609153575556739 0.16924223779836581 0 -0.1152399272795421 0.1851742901109647 0 -0.13411435042981179 0.19106266128805069 0 -0.1463292802833521 0.18023770330257241 0 -0.13856119746919621 0.1732320213376258 0 -0.14281027237512919 0.15807185397342149 0 -0.12609153575556739 0.16924223779836581 0 -0.135520965557581 0.14756887546063741 0 -0.12609153575556739 0.16924223779836581 0 -0.135520965557581 0.14756887546063741 0 -0.14281027237512919 0.15807185397342149 0 -0.13856119746919621 0.1732320213376258 0 -0.12609153575556739 0.16924223779836581 0 -0.135520965557581 0.14756887546063741 0 -0.13028426483969929 0.13221647237215789 0 -0.1192914655824909 0.15059360814623801 0 -0.12609153575556739 0.16924223779836581 0 -0.135520965557581 0.14756887546063741 0 -0.1192914655824909 0.15059360814623801 0 -0.1549726550285947 0.15674585516748279 0 -0.14281027237512919 0.15807185397342149 0 -0.14652630769324659 0.14708303210739521 0 -0.14281027237512919 0.15807185397342149 0 -0.135520965557581 0.14756887546063741 0 -0.14652630769324659 0.14708303210739521 0 -0.1549726550285947 0.15674585516748279 0 -0.14652630769324659 0.14708303210739521 0 -0.15580754279098399 0.143121943265237 0 -0.1628447509754036 0.1248738178506951 0 -0.15580754279098399 0.143121943265237 0 -0.14495039535959489 0.12589551312290931 0 -0.135520965557581 0.14756887546063741 0 -0.14652630769324659 0.14708303210739521 0 -0.14495039535959489 0.12589551312290931 0 -0.15580754279098399 0.143121943265237 0 -0.14495039535959489 0.12589551312290931 0 -0.14652630769324659 0.14708303210739521 0 -0.15580754279098399 0.143121943265237 0 -0.14495039535959489 0.12589551312290931 0 -0.135520965557581 0.14756887546063741 0 -0.14495039535959489 0.12589551312290931 0 -0.135520965557581 0.14756887546063741 0 -0.14495039535959489 0.12589551312290931 0 -0.13028426483969929 0.13221647237215789 0 -0.13028426483969929 0.13221647237215789 0 -0.1131006250587715 0.12959615498317961 0 -0.1192914655824909 0.15059360814623801 0 -0.1131006250587715 0.12959615498317961 0 -0.10078539792307099 0.15464240809582361 0 -0.092802426943272898 0.12960292979422991 0 -0.1131006250587715 0.12959615498317961 0 -0.10078539792307099 0.15464240809582361 0 -0.1192914655824909 0.15059360814623801 0 -0.10078539792307099 0.15464240809582361 0 -0.1192914655824909 0.15059360814623801 0 -0.10897534263953949 0.16967833346669081 0 -0.12609153575556739 0.16924223779836581 0 -0.1192914655824909 0.15059360814623801 0 -0.10897534263953949 0.16967833346669081 0 -0.12609153575556739 0.16924223779836581 0 -0.1152399272795421 0.1851742901109647 0 -0.10897534263953949 0.16967833346669081 0 -0.1152399272795421 0.1851742901109647 0 -0.098409264142157865 0.1851788001203086 0 -0.10897534263953949 0.16967833346669081 0 -0.098409264142157865 0.1851788001203086 0 -0.10897534263953949 0.16967833346669081 0 -0.082277471490505807 0.17420718144711089 0 -0.10078539792307099 0.15464240809582361 0 -0.10897534263953949 0.16967833346669081 0 -0.082277471490505807 0.17420718144711089 0 -0.10078539792307099 0.15464240809582361 0 -0.082277471490505807 0.17420718144711089 0 -0.082277471490505807 0.17420718144711089 0 -0.065615427061545384 0.16058384892905991 0 -0.074642854581774637 0.14147916649728479 0 -0.10078539792307099 0.15464240809582361 0 -0.082277471490505807 0.17420718144711089 0 -0.074642854581774637 0.14147916649728479 0 -0.098409264142157865 0.1851788001203086 0 -0.082277471490505807 0.17420718144711089 0 -0.084152214828733252 0.19620669612267311 0 -0.082277471490505807 0.17420718144711089 0 -0.063769545057940663 0.19377195479839809 0 -0.082277471490505807 0.17420718144711089 0 -0.063769545057940663 0.19377195479839809 0 -0.051824687549248197 0.17345858692208871 0 -0.082277471490505807 0.17420718144711089 0 -0.065615427061545384 0.16058384892905991 0 -0.051824687549248197 0.17345858692208871 0 -0.074642854581774637 0.14147916649728479 0 -0.055186524828957063 0.1281687789626855 0 -0.07438317581125764 0.1124407737129243 0 -0.074642854581774637 0.14147916649728479 0 -0.092802426943272898 0.12960292979422991 0 -0.07438317581125764 0.1124407737129243 0 -0.10078539792307099 0.15464240809582361 0 -0.074642854581774637 0.14147916649728479 0 -0.092802426943272898 0.12960292979422991 0 -0.10058650277722481 0.24229521027045481 0 -0.11673432752768111 0.2372784614512472 0 -0.1053270170515283 0.2324499666522013 0 -0.096974545082976191 0.25880538532589209 0 -0.10058650277722481 0.24229521027045481 0 -0.088715331182393942 0.2449718195011524 0 -0.096974545082976191 0.25880538532589209 0 -0.10058650277722481 0.24229521027045481 0 -0.11673432752768111 0.2372784614512472 0 -0.096974545082976191 0.25880538532589209 0 -0.112097455783086 0.24444379951602521 0 -0.11673432752768111 0.2372784614512472 0 -0.096974545082976191 0.25880538532589209 0 -0.11673432752768111 0.2372784614512472 0 -0.10058650277722481 0.24229521027045481 0 -0.091983872440322634 0.23323291704093771 0 -0.088715331182393942 0.2449718195011524 0 -0.10058650277722481 0.24229521027045481 0 -0.1053270170515283 0.2324499666522013 0 -0.091983872440322634 0.23323291704093771 0 -0.11521273165378559 0.25497892835963998 0 -0.112097455783086 0.24444379951602521 0 -0.1213089330464012 0.24626659804535689 0 -0.112097455783086 0.24444379951602521 0 -0.1213089330464012 0.24626659804535689 0 -0.11673432752768111 0.2372784614512472 0 -0.12961957513534 0.23973743310435161 0 -0.1213089330464012 0.24626659804535689 0 -0.11673432752768111 0.2372784614512472 0 -0.11673432752768111 0.2372784614512472 0 -0.111977792011399 0.2261119040305537 0 -0.1053270170515283 0.2324499666522013 0 -0.1364941099723872 0.21575153757660309 0 -0.11673432752768111 0.2372784614512472 0 -0.120958802369795 0.22183359367242919 0 -0.11673432752768111 0.2372784614512472 0 -0.120958802369795 0.22183359367242919 0 -0.111977792011399 0.2261119040305537 0 -0.120958802369795 0.22183359367242919 0 -0.111977792011399 0.2261119040305537 0 -0.11263418842693861 0.21654350143059611 0 -0.111977792011399 0.2261119040305537 0 -0.1027476190553803 0.22153268259517769 0 -0.11263418842693861 0.21654350143059611 0 -0.1027476190553803 0.22153268259517769 0 -0.088008266818085573 0.21525264443096179 0 -0.091983872440322634 0.23323291704093771 0 -0.111977792011399 0.2261119040305537 0 -0.1027476190553803 0.22153268259517769 0 -0.1053270170515283 0.2324499666522013 0 -0.1027476190553803 0.22153268259517769 0 -0.1053270170515283 0.2324499666522013 0 -0.091983872440322634 0.23323291704093771 0 -0.1027476190553803 0.22153268259517769 0 -0.1014013644724687 0.20062749945410349 0 -0.088008266818085573 0.21525264443096179 0 -0.1027476190553803 0.22153268259517769 0 -0.11263418842693861 0.21654350143059611 0 -0.1014013644724687 0.20062749945410349 0 -0.11263418842693861 0.21654350143059611 0 -0.11894773722242739 0.20818951851535461 0 -0.1014013644724687 0.20062749945410349 0 -0.11894773722242739 0.20818951851535461 0 -0.1014013644724687 0.20062749945410349 0 -0.120958802369795 0.22183359367242919 0 -0.11263418842693861 0.21654350143059611 0 -0.11894773722242739 0.20818951851535461 0 -0.12967955466007261 0.2074258594294596 0 -0.11894773722242739 0.20818951851535461 0 -0.1235431789710726 0.1969801993001162 0 -0.11894773722242739 0.20818951851535461 0 -0.1235431789710726 0.1969801993001162 0 -0.1014013644724687 0.20062749945410349 0 -0.13411435042981179 0.19106266128805069 0 -0.1152399272795421 0.1851742901109647 0 -0.1235431789710726 0.1969801993001162 0 -0.1152399272795421 0.1851742901109647 0 -0.1235431789710726 0.1969801993001162 0 -0.1014013644724687 0.20062749945410349 0 -0.1152399272795421 0.1851742901109647 0 -0.098409264142157865 0.1851788001203086 0 -0.1014013644724687 0.20062749945410349 0 -0.098409264142157865 0.1851788001203086 0 -0.1014013644724687 0.20062749945410349 0 -0.084152214828733252 0.19620669612267311 0 -0.084152214828733252 0.19620669612267311 0 -0.063769545057940663 0.19377195479839809 0 -0.072142849724606259 0.2099260872470029 0 -0.082277471490505807 0.17420718144711089 0 -0.084152214828733252 0.19620669612267311 0 -0.063769545057940663 0.19377195479839809 0 -0.072142849724606259 0.2099260872470029 0 -0.088008266818085573 0.21525264443096179 0 -0.068407602306599244 0.22780678473085289 0 -0.084152214828733252 0.19620669612267311 0 -0.072142849724606259 0.2099260872470029 0 -0.088008266818085573 0.21525264443096179 0 -0.1014013644724687 0.20062749945410349 0 -0.084152214828733252 0.19620669612267311 0 -0.088008266818085573 0.21525264443096179 0 -0.091983872440322634 0.23323291704093771 0 -0.068407602306599244 0.22780678473085289 0 -0.080478212985736569 0.23984126859451149 0 -0.088008266818085573 0.21525264443096179 0 -0.091983872440322634 0.23323291704093771 0 -0.068407602306599244 0.22780678473085289 0 -0.073553522625709841 0.25068431627396631 0 -0.068407602306599244 0.22780678473085289 0 -0.080478212985736569 0.23984126859451149 0 -0.073553522625709841 0.25068431627396631 0 -0.068407602306599244 0.22780678473085289 0 -0.050132500168443887 0.2425632472220397 0 -0.073553522625709841 0.25068431627396631 0 -0.080478212985736569 0.23984126859451149 0 -0.088715331182393942 0.2449718195011524 0 -0.091983872440322634 0.23323291704093771 0 -0.080478212985736569 0.23984126859451149 0 -0.088715331182393942 0.2449718195011524 0 -0.050132500168443887 0.2425632472220397 0 -0.026711477711177899 0.23444217817011309 0 -0.029881977245259539 0.25372898958001938 0 -0.050132500168443887 0.2425632472220397 0 -0.026711477711177899 0.23444217817011309 0 -0.050132500168443887 0.2425632472220397 0 -0.042100384295285467 0.22888272761933071 0 -0.026711477711177899 0.23444217817011309 0 -0.073553522625709841 0.25068431627396631 0 -0.050132500168443887 0.2425632472220397 0 -0.068407602306599244 0.22780678473085289 0 -0.050132500168443887 0.2425632472220397 0 -0.042100384295285467 0.22888272761933071 0 -0.068407602306599244 0.22780678473085289 0 -0.042100384295285467 0.22888272761933071 0 -0.045261618625375449 0.21333672814968549 0 -0.045261618625375449 0.21333672814968549 0 -0.02675369219281019 0.23290150150097291 0 -0.045261618625375449 0.21333672814968549 0 -0.02772339752401377 0.22169904798743939 0 -0.02675369219281019 0.23290150150097291 0 -0.042100384295285467 0.22888272761933071 0 -0.045261618625375449 0.21333672814968549 0 -0.02675369219281019 0.23290150150097291 0 -0.042100384295285467 0.22888272761933071 0 -0.02675369219281019 0.23290150150097291 0 -0.026711477711177899 0.23444217817011309 0 -0.045261618625375449 0.21333672814968549 0 -0.025983012380334781 0.2115930184476672 0 -0.02772339752401377 0.22169904798743939 0 -0.045261618625375449 0.21333672814968549 0 -0.029252980350323681 0.1977376245802884 0 -0.025983012380334781 0.2115930184476672 0 -0.063769545057940663 0.19377195479839809 0 -0.045261618625375449 0.21333672814968549 0 -0.063769545057940663 0.19377195479839809 0 -0.072142849724606259 0.2099260872470029 0 -0.045261618625375449 0.21333672814968549 0 -0.072142849724606259 0.2099260872470029 0 -0.068407602306599244 0.22780678473085289 0 -0.045261618625375449 0.21333672814968549 0 -0.063769545057940663 0.19377195479839809 0 -0.045261618625375449 0.21333672814968549 0 -0.041349789320347038 0.18749549167170951 0 -0.029252980350323681 0.1977376245802884 0 -0.041349789320347038 0.18749549167170951 0 -0.02440704960050057 0.1813667693045137 0 -0.045261618625375449 0.21333672814968549 0 -0.029252980350323681 0.1977376245802884 0 -0.041349789320347038 0.18749549167170951 0 -0.029252980350323681 0.1977376245802884 0 -0.01949536222664228 0.1923427933584827 0 -0.02440704960050057 0.1813667693045137 0 -0.029252980350323681 0.1977376245802884 0 -0.019383630886315679 0.20246845033521829 0 -0.01949536222664228 0.1923427933584827 0 -0.019383630886315679 0.20246845033521829 0 -0.01949536222664228 0.1923427933584827 0 -0.011799668219416901 0.19617813045667529 0 -0.01949536222664228 0.1923427933584827 0 -0.011799668219416901 0.19617813045667529 0 -0.0099503170468955675 0.185467411183286 0 -0.0047591026019954026 0.19332022418589959 0 -0.011799668219416901 0.19617813045667529 0 -0.0099503170468955675 0.185467411183286 0 -0.0047591026019954026 0.19332022418589959 0 -0.003081975793268537 0.18782002811878001 0 -0.0099503170468955675 0.185467411183286 0 -0.0047591026019954026 0.19332022418589959 0 -2.3422743153838069e-05 0.1988005567515452 0 0.0015327128313205251 0.1915709431207247 0 -0.0047591026019954026 0.19332022418589959 0 -0.003081975793268537 0.18782002811878001 0 0.0015327128313205251 0.1915709431207247 0 -2.3422743153838069e-05 0.1988005567515452 0 -0.0064134676939889088 0.1997865992100484 0 -0.0042090490499692894 0.20625736901624969 0 -0.0047591026019954026 0.19332022418589959 0 -2.3422743153838069e-05 0.1988005567515452 0 -0.0064134676939889088 0.1997865992100484 0 -0.0047591026019954026 0.19332022418589959 0 -0.0064134676939889088 0.1997865992100484 0 -0.011799668219416901 0.19617813045667529 0 -0.019383630886315679 0.20246845033521829 0 -0.011799668219416901 0.19617813045667529 0 -0.01127609585540912 0.20437671563987239 0 -0.0064134676939889088 0.1997865992100484 0 -0.011799668219416901 0.19617813045667529 0 -0.01127609585540912 0.20437671563987239 0 -0.019383630886315679 0.20246845033521829 0 -0.01127609585540912 0.20437671563987239 0 -0.015975625416527989 0.21106072298800291 0 -0.0098363755348389904 0.2097806401996784 0 -0.01127609585540912 0.20437671563987239 0 -0.015975625416527989 0.21106072298800291 0 -0.0098363755348389904 0.2097806401996784 0 -0.01127609585540912 0.20437671563987239 0 -0.0042090490499692894 0.20625736901624969 0 -0.0042090490499692894 0.20625736901624969 0 0.00083142932333707279 0.21381627434491049 0 0.0029581381265264858 0.20519393183106241 0 -0.0064134676939889088 0.1997865992100484 0 -0.01127609585540912 0.20437671563987239 0 -0.0042090490499692894 0.20625736901624969 0 -0.0098363755348389904 0.2097806401996784 0 -0.0042090490499692894 0.20625736901624969 0 -0.0060196598873338584 0.21321125444391051 0 -2.3422743153838069e-05 0.1988005567515452 0 -0.0042090490499692894 0.20625736901624969 0 0.0029581381265264858 0.20519393183106241 0 -0.0055559642639475869 0.21913689448513271 0 0.0001093474821353509 0.22215689039817851 0 0.00083142932333707279 0.21381627434491049 0 -0.0060196598873338584 0.21321125444391051 0 -0.0055559642639475869 0.21913689448513271 0 0.00083142932333707279 0.21381627434491049 0 -0.0042090490499692894 0.20625736901624969 0 -0.0060196598873338584 0.21321125444391051 0 0.00083142932333707279 0.21381627434491049 0 -0.0060196598873338584 0.21321125444391051 0 -0.01091493828254137 0.21625783395607551 0 -0.0055559642639475869 0.21913689448513271 0 -0.01091493828254137 0.21625783395607551 0 -0.015975625416527989 0.21106072298800291 0 -0.017588491814277241 0.22188462813269769 0 -0.0098363755348389904 0.2097806401996784 0 -0.0060196598873338584 0.21321125444391051 0 -0.01091493828254137 0.21625783395607551 0 -0.0098363755348389904 0.2097806401996784 0 -0.01091493828254137 0.21625783395607551 0 -0.015975625416527989 0.21106072298800291 0 -0.015975625416527989 0.21106072298800291 0 -0.025983012380334781 0.2115930184476672 0 -0.017588491814277241 0.22188462813269769 0 -0.019383630886315679 0.20246845033521829 0 -0.015975625416527989 0.21106072298800291 0 -0.025983012380334781 0.2115930184476672 0 -0.029252980350323681 0.1977376245802884 0 -0.019383630886315679 0.20246845033521829 0 -0.025983012380334781 0.2115930184476672 0 -0.025983012380334781 0.2115930184476672 0 -0.02772339752401377 0.22169904798743939 0 -0.017588491814277241 0.22188462813269769 0 -0.02772339752401377 0.22169904798743939 0 -0.02675369219281019 0.23290150150097291 0 -0.022352419066048221 0.22652947853539249 0 -0.02675369219281019 0.23290150150097291 0 -0.017344094733091689 0.22963273652046001 0 -0.01246950101347712 0.23792538229425519 0 -0.02675369219281019 0.23290150150097291 0 -0.017344094733091689 0.22963273652046001 0 -0.022352419066048221 0.22652947853539249 0 -0.017344094733091689 0.22963273652046001 0 -0.017588491814277241 0.22188462813269769 0 -0.01350500053265637 0.2263729039251991 0 -0.017344094733091689 0.22963273652046001 0 -0.022352419066048221 0.22652947853539249 0 -0.017588491814277241 0.22188462813269769 0 -0.02772339752401377 0.22169904798743939 0 -0.022352419066048221 0.22652947853539249 0 -0.017588491814277241 0.22188462813269769 0 -0.01091493828254137 0.21625783395607551 0 -0.017588491814277241 0.22188462813269769 0 -0.01009356448405245 0.2229710377255022 0 -0.017588491814277241 0.22188462813269769 0 -0.01350500053265637 0.2263729039251991 0 -0.01009356448405245 0.2229710377255022 0 -0.01091493828254137 0.21625783395607551 0 -0.01009356448405245 0.2229710377255022 0 -0.0055559642639475869 0.21913689448513271 0 -0.01009356448405245 0.2229710377255022 0 -0.0055559642639475869 0.21913689448513271 0 -0.0046023563546483629 0.22639127835839259 0 -0.0055559642639475869 0.21913689448513271 0 -0.0046023563546483629 0.22639127835839259 0 0.0001093474821353509 0.22215689039817851 0 -0.0046023563546483629 0.22639127835839259 0 0.0010433620948100131 0.23240638127880581 0 0.0001093474821353509 0.22215689039817851 0 -0.0046023563546483629 0.22639127835839259 0 -0.0089938510992040935 0.23100321332213661 0 0.0010433620948100131 0.23240638127880581 0 -0.017344094733091689 0.22963273652046001 0 -0.0089938510992040935 0.23100321332213661 0 -0.01246950101347712 0.23792538229425519 0 -0.01009356448405245 0.2229710377255022 0 -0.0046023563546483629 0.22639127835839259 0 -0.0089938510992040935 0.23100321332213661 0 -0.017344094733091689 0.22963273652046001 0 -0.01350500053265637 0.2263729039251991 0 -0.0089938510992040935 0.23100321332213661 0 -0.01350500053265637 0.2263729039251991 0 -0.01009356448405245 0.2229710377255022 0 -0.0089938510992040935 0.23100321332213661 0 -0.0089938510992040935 0.23100321332213661 0 -0.001965278602122185 0.24182690426762959 0 0.0010433620948100131 0.23240638127880581 0 -0.0089938510992040935 0.23100321332213661 0 -0.01246950101347712 0.23792538229425519 0 -0.001965278602122185 0.24182690426762959 0 -0.0082457657602449386 0.25246627485226031 0 -0.01246950101347712 0.23792538229425519 0 -0.001965278602122185 0.24182690426762959 0 -0.0082457657602449386 0.25246627485226031 0 -0.02675369219281019 0.23290150150097291 0 -0.01246950101347712 0.23792538229425519 0 -0.029881977245259539 0.25372898958001938 0 -0.0082457657602449386 0.25246627485226031 0 -0.026711477711177899 0.23444217817011309 0 -0.0082457657602449386 0.25246627485226031 0 -0.02675369219281019 0.23290150150097291 0 -0.026711477711177899 0.23444217817011309 0 -0.0082457657602449386 0.25246627485226031 0 -0.02675369219281019 0.23290150150097291 0 -0.046893106203257602 0.1507880314475378 0 -0.033582854738693747 0.16530128627528251 0 -0.03096555907766051 0.14775731769023701 0 -0.035508455794597132 0.13046501110523001 0 -0.046893106203257602 0.1507880314475378 0 -0.03096555907766051 0.14775731769023701 0 -0.035508455794597132 0.13046501110523001 0 -0.046893106203257602 0.1507880314475378 0 -0.035508455794597132 0.13046501110523001 0 -0.055186524828957063 0.1281687789626855 0 -0.046893106203257602 0.1507880314475378 0 -0.035508455794597132 0.13046501110523001 0 -0.055186524828957063 0.1281687789626855 0 -0.04045215309894238 0.1165912735558266 0 -0.074642854581774637 0.14147916649728479 0 -0.055186524828957063 0.1281687789626855 0 -0.046893106203257602 0.1507880314475378 0 -0.065615427061545384 0.16058384892905991 0 -0.074642854581774637 0.14147916649728479 0 -0.046893106203257602 0.1507880314475378 0 -0.065615427061545384 0.16058384892905991 0 -0.046893106203257602 0.1507880314475378 0 -0.051824687549248197 0.17345858692208871 0 -0.063769545057940663 0.19377195479839809 0 -0.051824687549248197 0.17345858692208871 0 -0.041349789320347038 0.18749549167170951 0 -0.041349789320347038 0.18749549167170951 0 -0.033582854738693747 0.16530128627528251 0 -0.02440704960050057 0.1813667693045137 0 -0.051824687549248197 0.17345858692208871 0 -0.041349789320347038 0.18749549167170951 0 -0.033582854738693747 0.16530128627528251 0 -0.046893106203257602 0.1507880314475378 0 -0.051824687549248197 0.17345858692208871 0 -0.033582854738693747 0.16530128627528251 0 -0.033582854738693747 0.16530128627528251 0 -0.022139091883514501 0.16815071126606429 0 -0.02440704960050057 0.1813667693045137 0 -0.033582854738693747 0.16530128627528251 0 -0.022139091883514501 0.16815071126606429 0 -0.016648491277264341 0.15771365056650341 0 -0.033582854738693747 0.16530128627528251 0 -0.016648491277264341 0.15771365056650341 0 -0.03096555907766051 0.14775731769023701 0 -0.022139091883514501 0.16815071126606429 0 -0.02440704960050057 0.1813667693045137 0 -0.01283771780100665 0.17547196173435681 0 -0.01949536222664228 0.1923427933584827 0 -0.02440704960050057 0.1813667693045137 0 -0.0099503170468955675 0.185467411183286 0 -0.02440704960050057 0.1813667693045137 0 -0.0099503170468955675 0.185467411183286 0 -0.01283771780100665 0.17547196173435681 0 -0.0099503170468955675 0.185467411183286 0 -0.01283771780100665 0.17547196173435681 0 -0.00450206117857799 0.17688747855202069 0 -0.01283771780100665 0.17547196173435681 0 -0.00450206117857799 0.17688747855202069 0 -0.0026654791677323511 0.16604552865166611 0 -0.00450206117857799 0.17688747855202069 0 -0.0026654791677323511 0.16604552865166611 0 0.0024081860720475369 0.17557227428335351 0 -0.00450206117857799 0.17688747855202069 0 0.00053502205069707774 0.18188021690744111 0 0.0024081860720475369 0.17557227428335351 0 -0.0099503170468955675 0.185467411183286 0 -0.00450206117857799 0.17688747855202069 0 0.00053502205069707774 0.18188021690744111 0 -0.003081975793268537 0.18782002811878001 0 -0.0099503170468955675 0.185467411183286 0 0.00053502205069707774 0.18188021690744111 0 -0.022139091883514501 0.16815071126606429 0 -0.016648491277264341 0.15771365056650341 0 -0.0026654791677323511 0.16604552865166611 0 -0.022139091883514501 0.16815071126606429 0 -0.01283771780100665 0.17547196173435681 0 -0.0026654791677323511 0.16604552865166611 0 -0.016648491277264341 0.15771365056650341 0 -0.0026654791677323511 0.16604552865166611 0 0.00151890392611572 0.15456094484017679 0 -0.016648491277264341 0.15771365056650341 0 -0.0026654791677323511 0.16604552865166611 0 -0.0082797250895681185 0.13474448294352481 0 0.00151890392611572 0.15456094484017679 0 -0.016648491277264341 0.15771365056650341 0 -0.0082797250895681185 0.13474448294352481 0 0.00151890392611572 0.15456094484017679 0 -0.016648491277264341 0.15771365056650341 0 -0.03096555907766051 0.14775731769023701 0 -0.022194887374489752 0.13451860905663129 0 -0.016648491277264341 0.15771365056650341 0 -0.022194887374489752 0.13451860905663129 0 -0.0082797250895681185 0.13474448294352481 0 -0.035508455794597132 0.13046501110523001 0 -0.03096555907766051 0.14775731769023701 0 -0.022194887374489752 0.13451860905663129 0 -0.035508455794597132 0.13046501110523001 0 -0.022194887374489752 0.13451860905663129 0 -0.02222625157844095 0.1227088344756834 0 -0.022194887374489752 0.13451860905663129 0 -0.012678773622269129 0.1213748672570316 0 -0.02222625157844095 0.1227088344756834 0 -0.022194887374489752 0.13451860905663129 0 -0.0082797250895681185 0.13474448294352481 0 -0.012678773622269129 0.1213748672570316 0 -0.0082797250895681185 0.13474448294352481 0 -0.012678773622269129 0.1213748672570316 0 0.0010393500416724941 0.12595831854165979 0 -0.012678773622269129 0.1213748672570316 0 -0.0069683050282923539 0.11495619240176071 0 0.0010393500416724941 0.12595831854165979 0 -0.0069683050282923539 0.11495619240176071 0 0.00039794405216867472 0.112072386291362 0 0.0010393500416724941 0.12595831854165979 0 -0.012678773622269129 0.1213748672570316 0 -0.012248850971573841 0.1125208075020822 0 -0.01744198128355802 0.11503771634109559 0 -0.012678773622269129 0.1213748672570316 0 -0.012248850971573841 0.1125208075020822 0 -0.0069683050282923539 0.11495619240176071 0 -0.012248850971573841 0.1125208075020822 0 -0.0069683050282923539 0.11495619240176071 0 -0.0083997351711877014 0.10895079227570641 0 -0.0069683050282923539 0.11495619240176071 0 -0.0083997351711877014 0.10895079227570641 0 0.00039794405216867472 0.112072386291362 0 -0.011506603279544361 0.087618711973773578 0 0.0058206420146291954 0.1114089238878985 0 0.00039794405216867472 0.112072386291362 0 -0.015837719346710199 0.095350294128549784 0 -0.011506603279544361 0.087618711973773578 0 0.00039794405216867472 0.112072386291362 0 -0.011506603279544361 0.087618711973773578 0 0.0058206420146291954 0.1114089238878985 0 -0.015837719346710199 0.095350294128549784 0 0.00039794405216867472 0.112072386291362 0 -0.0083997351711877014 0.10895079227570641 0 -0.015837719346710199 0.095350294128549784 0 0.00039794405216867472 0.112072386291362 0 -0.011506603279544361 0.087618711973773578 0 0.0017142141577850001 0.096485027642689541 0 0.0058206420146291954 0.1114089238878985 0 -0.0083997351711877014 0.10895079227570641 0 -0.013221823848225379 0.1065091018144344 0 -0.015837719346710199 0.095350294128549784 0 -0.012248850971573841 0.1125208075020822 0 -0.0083997351711877014 0.10895079227570641 0 -0.013221823848225379 0.1065091018144344 0 -0.012248850971573841 0.1125208075020822 0 -0.013221823848225379 0.1065091018144344 0 -0.017997844109414411 0.1087655018954708 0 -0.017997844109414411 0.1087655018954708 0 -0.015837719346710199 0.095350294128549784 0 -0.024123805385937312 0.11014199076292169 0 -0.013221823848225379 0.1065091018144344 0 -0.017997844109414411 0.1087655018954708 0 -0.015837719346710199 0.095350294128549784 0 -0.024123805385937312 0.11014199076292169 0 -0.032300333499350402 0.090057470672271281 0 -0.015837719346710199 0.095350294128549784 0 -0.024123805385937312 0.11014199076292169 0 -0.032300333499350402 0.090057470672271281 0 -0.015837719346710199 0.095350294128549784 0 -0.024123805385937312 0.11014199076292169 0 -0.035508455794597132 0.13046501110523001 0 -0.024123805385937312 0.11014199076292169 0 -0.023307159817290739 0.1121479686184283 0 -0.035508455794597132 0.13046501110523001 0 -0.02222625157844095 0.1227088344756834 0 -0.023307159817290739 0.1121479686184283 0 -0.035508455794597132 0.13046501110523001 0 -0.024123805385937312 0.11014199076292169 0 -0.024123805385937312 0.11014199076292169 0 -0.023307159817290739 0.1121479686184283 0 -0.012678773622269129 0.1213748672570316 0 -0.02222625157844095 0.1227088344756834 0 -0.01744198128355802 0.11503771634109559 0 -0.02222625157844095 0.1227088344756834 0 -0.01744198128355802 0.11503771634109559 0 -0.023307159817290739 0.1121479686184283 0 -0.012248850971573841 0.1125208075020822 0 -0.017997844109414411 0.1087655018954708 0 -0.01744198128355802 0.11503771634109559 0 -0.017997844109414411 0.1087655018954708 0 -0.024123805385937312 0.11014199076292169 0 -0.023307159817290739 0.1121479686184283 0 -0.017997844109414411 0.1087655018954708 0 -0.01744198128355802 0.11503771634109559 0 -0.023307159817290739 0.1121479686184283 0 -0.0046988296279310846 0.075465987257500103 0 -0.004471055932428975 0.061346262570306953 0 0.0079626054049135586 0.052863747179962457 0 -0.0093767874180366029 0.073051079923104223 0 -0.014915188529848109 0.07157527628023079 0 -0.011506603279544361 0.087618711973773578 0 -0.0096267601800840239 0.066065855624376196 0 -0.01690032334888349 0.065021557104339434 0 -0.015766095144715799 0.059221925757037469 0 -0.0096267601800840239 0.066065855624376196 0 -0.014915188529848109 0.07157527628023079 0 -0.01690032334888349 0.065021557104339434 0 -0.0096267601800840239 0.066065855624376196 0 -0.0093767874180366029 0.073051079923104223 0 -0.014915188529848109 0.07157527628023079 0 -0.0096267601800840239 0.066065855624376196 0 -0.0046988296279310846 0.075465987257500103 0 -0.004471055932428975 0.061346262570306953 0 -0.0046988296279310846 0.075465987257500103 0 -0.0093767874180366029 0.073051079923104223 0 -0.0096267601800840239 0.066065855624376196 0 -0.0046988296279310846 0.075465987257500103 0 -0.0093767874180366029 0.073051079923104223 0 -0.0046988296279310846 0.075465987257500103 0 -0.011506603279544361 0.087618711973773578 0 -0.0046988296279310846 0.075465987257500103 0 -0.0093767874180366029 0.073051079923104223 0 -0.011506603279544361 0.087618711973773578 0 -0.0046988296279310846 0.075465987257500103 0 -0.011506603279544361 0.087618711973773578 0 0.00056903788424511365 0.086682396089073327 0 -0.011506603279544361 0.087618711973773578 0 0.00056903788424511365 0.086682396089073327 0 0.0017142141577850001 0.096485027642689541 0 -0.015837719346710199 0.095350294128549784 0 -0.011506603279544361 0.087618711973773578 0 -0.011506603279544361 0.087618711973773578 0 -0.028157290479737571 0.082661622355085798 0 -0.027165468422692102 0.066119176775560506 0 -0.015837719346710199 0.095350294128549784 0 -0.011506603279544361 0.087618711973773578 0 -0.028157290479737571 0.082661622355085798 0 -0.015837719346710199 0.095350294128549784 0 -0.028157290479737571 0.082661622355085798 0 -0.032300333499350402 0.090057470672271281 0 -0.015837719346710199 0.095350294128549784 0 -0.028157290479737571 0.082661622355085798 0 -0.014915188529848109 0.07157527628023079 0 -0.011506603279544361 0.087618711973773578 0 -0.027165468422692102 0.066119176775560506 0 -0.011506603279544361 0.087618711973773578 0 -0.027165468422692102 0.066119176775560506 0 -0.027165468422692102 0.066119176775560506 0 -0.01690032334888349 0.065021557104339434 0 -0.021155304748881689 0.062203044053262727 0 -0.014915188529848109 0.07157527628023079 0 -0.027165468422692102 0.066119176775560506 0 -0.01690032334888349 0.065021557104339434 0 -0.027165468422692102 0.066119176775560506 0 -0.040476861612764189 0.069972950581621118 0 -0.047888547298180387 0.051767161035057033 0 -0.028157290479737571 0.082661622355085798 0 -0.027165468422692102 0.066119176775560506 0 -0.040476861612764189 0.069972950581621118 0 -0.040476861612764189 0.069972950581621118 0 -0.049934811086014087 0.07186746235717667 0 -0.047859912164240369 0.063897566148078455 0 -0.028157290479737571 0.082661622355085798 0 -0.040476861612764189 0.069972950581621118 0 -0.040476861612764189 0.069972950581621118 0 -0.032300333499350402 0.090057470672271281 0 -0.028157290479737571 0.082661622355085798 0 -0.040476861612764189 0.069972950581621118 0 -0.032300333499350402 0.090057470672271281 0 -0.032300333499350402 0.090057470672271281 0 -0.052294403454901703 0.081174947256086191 0 -0.05578440732887191 0.096170589739797752 0 -0.040476861612764189 0.069972950581621118 0 -0.032300333499350402 0.090057470672271281 0 -0.052294403454901703 0.081174947256086191 0 -0.052294403454901703 0.081174947256086191 0 -0.05578440732887191 0.096170589739797752 0 -0.071620526940906107 0.087533684005701329 0 -0.052294403454901703 0.081174947256086191 0 -0.071620526940906107 0.087533684005701329 0 -0.062515526400001881 0.068377579792855414 0 -0.040476861612764189 0.069972950581621118 0 -0.052294403454901703 0.081174947256086191 0 -0.049934811086014087 0.07186746235717667 0 -0.052294403454901703 0.081174947256086191 0 -0.049934811086014087 0.07186746235717667 0 -0.062515526400001881 0.068377579792855414 0 -0.049934811086014087 0.07186746235717667 0 -0.052204780428632629 0.062945341387988421 0 -0.062515526400001881 0.068377579792855414 0 -0.052204780428632629 0.062945341387988421 0 -0.062515526400001881 0.068377579792855414 0 -0.055379183454653792 0.058514889464143828 0 -0.049934811086014087 0.07186746235717667 0 -0.052204780428632629 0.062945341387988421 0 -0.047859912164240369 0.063897566148078455 0 -0.024123805385937312 0.11014199076292169 0 -0.04045215309894238 0.1165912735558266 0 -0.041170092212669533 0.1046411265361262 0 -0.035508455794597132 0.13046501110523001 0 -0.024123805385937312 0.11014199076292169 0 -0.04045215309894238 0.1165912735558266 0 -0.04045215309894238 0.1165912735558266 0 -0.041170092212669533 0.1046411265361262 0 -0.052159737415513489 0.1112025467171566 0 -0.032300333499350402 0.090057470672271281 0 -0.041170092212669533 0.1046411265361262 0 -0.05578440732887191 0.096170589739797752 0 -0.024123805385937312 0.11014199076292169 0 -0.032300333499350402 0.090057470672271281 0 -0.041170092212669533 0.1046411265361262 0 -0.05578440732887191 0.096170589739797752 0 -0.052159737415513489 0.1112025467171566 0 -0.07438317581125764 0.1124407737129243 0 -0.041170092212669533 0.1046411265361262 0 -0.05578440732887191 0.096170589739797752 0 -0.052159737415513489 0.1112025467171566 0 -0.055186524828957063 0.1281687789626855 0 -0.04045215309894238 0.1165912735558266 0 -0.052159737415513489 0.1112025467171566 0 -0.055186524828957063 0.1281687789626855 0 -0.052159737415513489 0.1112025467171566 0 -0.07438317581125764 0.1124407737129243 0 -0.092802426943272898 0.12960292979422991 0 -0.07438317581125764 0.1124407737129243 0 -0.10110008134148971 0.1098561456819369 0 -0.07438317581125764 0.1124407737129243 0 -0.086834659998143784 0.098004038152668241 0 -0.10110008134148971 0.1098561456819369 0 -0.07438317581125764 0.1124407737129243 0 -0.086834659998143784 0.098004038152668241 0 -0.071620526940906107 0.087533684005701329 0 -0.05578440732887191 0.096170589739797752 0 -0.07438317581125764 0.1124407737129243 0 -0.071620526940906107 0.087533684005701329 0 -0.071620526940906107 0.087533684005701329 0 -0.062515526400001881 0.068377579792855414 0 -0.077633089280774809 0.070659037798975324 0 -0.062515526400001881 0.068377579792855414 0 -0.077633089280774809 0.070659037798975324 0 -0.069862538744371955 0.057777113150521288 0 -0.077633089280774809 0.070659037798975324 0 -0.081860045586377939 0.060182951188062161 0 -0.069862538744371955 0.057777113150521288 0 -0.077633089280774809 0.070659037798975324 0 -0.09054666164713164 0.067286880848174316 0 -0.081860045586377939 0.060182951188062161 0 -0.077633089280774809 0.070659037798975324 0 -0.09054666164713164 0.067286880848174316 0 -0.091096470542610469 0.082323341280698709 0 -0.071620526940906107 0.087533684005701329 0 -0.077633089280774809 0.070659037798975324 0 -0.091096470542610469 0.082323341280698709 0 -0.086834659998143784 0.098004038152668241 0 -0.071620526940906107 0.087533684005701329 0 -0.091096470542610469 0.082323341280698709 0 -0.086834659998143784 0.098004038152668241 0 -0.091096470542610469 0.082323341280698709 0 -0.1074822184466613 0.088136729408796272 0 -0.091096470542610469 0.082323341280698709 0 -0.1074822184466613 0.088136729408796272 0 -0.10104646070399111 0.074349611526457776 0 -0.1074822184466613 0.088136729408796272 0 -0.10104646070399111 0.074349611526457776 0 -0.1134486320906168 0.071653759806922179 0 -0.09054666164713164 0.067286880848174316 0 -0.10104646070399111 0.074349611526457776 0 -0.1026583207929353 0.062347346287697412 0 -0.09054666164713164 0.067286880848174316 0 -0.091096470542610469 0.082323341280698709 0 -0.10104646070399111 0.074349611526457776 0 -0.10104646070399111 0.074349611526457776 0 -0.1134486320906168 0.071653759806922179 0 -0.1026583207929353 0.062347346287697412 0 -0.1134486320906168 0.071653759806922179 0 -0.1169815729820268 0.057446916627697332 0 -0.1026583207929353 0.062347346287697412 0 -0.1134486320906168 0.071653759806922179 0 -0.12498233095038511 0.069533312171706482 0 -0.1248370695698198 0.083226530136874921 0 -0.1134486320906168 0.071653759806922179 0 -0.12498233095038511 0.069533312171706482 0 -0.1169815729820268 0.057446916627697332 0 -0.1074822184466613 0.088136729408796272 0 -0.1134486320906168 0.071653759806922179 0 -0.1248370695698198 0.083226530136874921 0 -0.12991930243541749 0.1020465165188278 0 -0.1074822184466613 0.088136729408796272 0 -0.1248370695698198 0.083226530136874921 0 -0.12991930243541749 0.1020465165188278 0 -0.1074822184466613 0.088136729408796272 0 -0.10110008134148971 0.1098561456819369 0 -0.12991930243541749 0.1020465165188278 0 -0.1131006250587715 0.12959615498317961 0 -0.10110008134148971 0.1098561456819369 0 -0.12991930243541749 0.1020465165188278 0 -0.13028426483969929 0.13221647237215789 0 -0.1131006250587715 0.12959615498317961 0 -0.1131006250587715 0.12959615498317961 0 -0.092802426943272898 0.12960292979422991 0 -0.10110008134148971 0.1098561456819369 0 -0.086834659998143784 0.098004038152668241 0 -0.1074822184466613 0.088136729408796272 0 -0.10110008134148971 0.1098561456819369 0 -0.1061587232064081 0.029080734372794698 0 -0.094449021505079139 0.018227913303066591 0 -0.1094215753963574 0.0115277712725063 0 -0.1061587232064081 0.029080734372794698 0 -0.094924595462104619 0.030399760044886301 0 -0.094449021505079139 0.018227913303066591 0 -0.094449021505079139 0.018227913303066591 0 -0.097507665945787692 0.0040820149966005574 0 -0.1094215753963574 0.0115277712725063 0 -0.097507665945787692 0.0040820149966005574 0 -0.1058521268010089 0.00073384547527136773 0 -0.1094215753963574 0.0115277712725063 0 -0.1152652699767374 -0.0044733142422073097 0 -0.1273771369441013 0.0023450629401116992 0 -0.1094215753963574 0.0115277712725063 0 -0.1152652699767374 -0.0044733142422073097 0 -0.1058521268010089 0.00073384547527136773 0 -0.1094215753963574 0.0115277712725063 0 -0.1273771369441013 0.0023450629401116992 0 -0.12537023626190849 0.01701499410391356 0 -0.1094215753963574 0.0115277712725063 0 -0.12537023626190849 0.01701499410391356 0 -0.1094215753963574 0.0115277712725063 0 -0.1154752524598698 0.02214949429500624 0 -0.12537023626190849 0.01701499410391356 0 -0.1154752524598698 0.02214949429500624 0 -0.120950474974805 0.030974477430810402 0 -0.1061587232064081 0.029080734372794698 0 -0.1094215753963574 0.0115277712725063 0 -0.1154752524598698 0.02214949429500624 0 -0.1061587232064081 0.029080734372794698 0 -0.1154752524598698 0.02214949429500624 0 -0.120950474974805 0.030974477430810402 0 -0.1304591025064194 0.044551821316570157 0 -0.120950474974805 0.030974477430810402 0 -0.112428546201817 0.041955624634692393 0 -0.1061587232064081 0.029080734372794698 0 -0.120950474974805 0.030974477430810402 0 -0.112428546201817 0.041955624634692393 0 -0.1304591025064194 0.044551821316570157 0 -0.112428546201817 0.041955624634692393 0 -0.1169815729820268 0.057446916627697332 0 -0.1311901693420546 0.060374133793646992 0 -0.12498233095038511 0.069533312171706482 0 -0.1169815729820268 0.057446916627697332 0 -0.112428546201817 0.041955624634692393 0 -0.1169815729820268 0.057446916627697332 0 -0.10210071185166431 0.050014029354961582 0 -0.1169815729820268 0.057446916627697332 0 -0.1026583207929353 0.062347346287697412 0 -0.10210071185166431 0.050014029354961582 0 -0.10210071185166431 0.050014029354961582 0 -0.091201579857211959 0.041080799774458047 0 -0.091131717688311603 0.055225201160547438 0 -0.1026583207929353 0.062347346287697412 0 -0.10210071185166431 0.050014029354961582 0 -0.091131717688311603 0.055225201160547438 0 -0.09054666164713164 0.067286880848174316 0 -0.1026583207929353 0.062347346287697412 0 -0.091131717688311603 0.055225201160547438 0 -0.1061587232064081 0.029080734372794698 0 -0.112428546201817 0.041955624634692393 0 -0.1016080011228369 0.039407166226836883 0 -0.112428546201817 0.041955624634692393 0 -0.10210071185166431 0.050014029354961582 0 -0.1016080011228369 0.039407166226836883 0 -0.10210071185166431 0.050014029354961582 0 -0.1016080011228369 0.039407166226836883 0 -0.091201579857211959 0.041080799774458047 0 -0.1061587232064081 0.029080734372794698 0 -0.094924595462104619 0.030399760044886301 0 -0.1016080011228369 0.039407166226836883 0 -0.094924595462104619 0.030399760044886301 0 -0.1016080011228369 0.039407166226836883 0 -0.091201579857211959 0.041080799774458047 0 -0.094924595462104619 0.030399760044886301 0 -0.091201579857211959 0.041080799774458047 0 -0.083613433652756419 0.02825823648094046 0 -0.091201579857211959 0.041080799774458047 0 -0.080163505572120847 0.038728335950810322 0 -0.0801262205712997 0.049966522982092462 0 -0.091201579857211959 0.041080799774458047 0 -0.080163505572120847 0.038728335950810322 0 -0.083613433652756419 0.02825823648094046 0 -0.080163505572120847 0.038728335950810322 0 -0.075199828102842814 0.032505994045140242 0 -0.083613433652756419 0.02825823648094046 0 -0.09054666164713164 0.067286880848174316 0 -0.091131717688311603 0.055225201160547438 0 -0.081860045586377939 0.060182951188062161 0 -0.091201579857211959 0.041080799774458047 0 -0.091131717688311603 0.055225201160547438 0 -0.0801262205712997 0.049966522982092462 0 -0.091131717688311603 0.055225201160547438 0 -0.0801262205712997 0.049966522982092462 0 -0.081860045586377939 0.060182951188062161 0 -0.0801262205712997 0.049966522982092462 0 -0.069862538744371955 0.057777113150521288 0 -0.06901267431079619 0.039797487593251017 0 -0.069862538744371955 0.057777113150521288 0 -0.06901267431079619 0.039797487593251017 0 -0.058907879691800273 0.050969475640674493 0 -0.062515526400001881 0.068377579792855414 0 -0.069862538744371955 0.057777113150521288 0 -0.058907879691800273 0.050969475640674493 0 -0.0801262205712997 0.049966522982092462 0 -0.081860045586377939 0.060182951188062161 0 -0.069862538744371955 0.057777113150521288 0 -0.06901267431079619 0.039797487593251017 0 -0.068009698875697827 0.023239916155559141 0 -0.055300232983598208 0.033561371488493641 0 -0.075199828102842814 0.032505994045140242 0 -0.06901267431079619 0.039797487593251017 0 -0.068009698875697827 0.023239916155559141 0 -0.080163505572120847 0.038728335950810322 0 -0.075199828102842814 0.032505994045140242 0 -0.06901267431079619 0.039797487593251017 0 -0.080163505572120847 0.038728335950810322 0 -0.0801262205712997 0.049966522982092462 0 -0.06901267431079619 0.039797487593251017 0 -0.068009698875697827 0.023239916155559141 0 -0.066123158358303874 0.0069763394170788487 0 -0.055300232983598208 0.033561371488493641 0 -0.068009698875697827 0.023239916155559141 0 -0.083613433652756419 0.02825823648094046 0 -0.080050012301679602 0.015705407900093959 0 -0.068009698875697827 0.023239916155559141 0 -0.080050012301679602 0.015705407900093959 0 -0.07274845615251338 0.0135364418571977 0 -0.075199828102842814 0.032505994045140242 0 -0.068009698875697827 0.023239916155559141 0 -0.083613433652756419 0.02825823648094046 0 -0.094449021505079139 0.018227913303066591 0 -0.083613433652756419 0.02825823648094046 0 -0.080050012301679602 0.015705407900093959 0 -0.094924595462104619 0.030399760044886301 0 -0.094449021505079139 0.018227913303066591 0 -0.083613433652756419 0.02825823648094046 0 -0.089124004628701792 -0.0040277377021705899 0 -0.097507665945787692 0.0040820149966005574 0 -0.086098134196158846 0.0059583430860626887 0 -0.094449021505079139 0.018227913303066591 0 -0.080050012301679602 0.015705407900093959 0 -0.086098134196158846 0.0059583430860626887 0 -0.094449021505079139 0.018227913303066591 0 -0.097507665945787692 0.0040820149966005574 0 -0.086098134196158846 0.0059583430860626887 0 -0.080050012301679602 0.015705407900093959 0 -0.086098134196158846 0.0059583430860626887 0 -0.076810955074372203 0.0082241039560588727 0 -0.079764572027605563 -0.001208843295517239 0 -0.086098134196158846 0.0059583430860626887 0 -0.076810955074372203 0.0082241039560588727 0 -0.079764572027605563 -0.001208843295517239 0 -0.089124004628701792 -0.0040277377021705899 0 -0.086098134196158846 0.0059583430860626887 0 -0.079764572027605563 -0.001208843295517239 0 -0.076810955074372203 0.0082241039560588727 0 -0.066123158358303874 0.0069763394170788487 0 -0.068009698875697827 0.023239916155559141 0 -0.07274845615251338 0.0135364418571977 0 -0.066123158358303874 0.0069763394170788487 0 -0.076810955074372203 0.0082241039560588727 0 -0.07274845615251338 0.0135364418571977 0 -0.066123158358303874 0.0069763394170788487 0 -0.080050012301679602 0.015705407900093959 0 -0.076810955074372203 0.0082241039560588727 0 -0.07274845615251338 0.0135364418571977 0 -0.047617207273071643 -0.0035118018543059538 0 -0.059664616745900671 -0.0040500510012267867 0 -0.050798470683601923 0.01183886002179501 0 -0.059664616745900671 -0.0040500510012267867 0 -0.066123158358303874 0.0069763394170788487 0 -0.050798470683601923 0.01183886002179501 0 -0.059664616745900671 -0.0040500510012267867 0 -0.050798470683601923 0.01183886002179501 0 -0.047617207273071643 -0.0035118018543059538 0 -0.050798470683601923 0.01183886002179501 0 -0.050798470683601923 0.01183886002179501 0 -0.055300232983598208 0.033561371488493641 0 -0.04692109718252771 0.035386244484329407 0 -0.066123158358303874 0.0069763394170788487 0 -0.055300232983598208 0.033561371488493641 0 -0.066123158358303874 0.0069763394170788487 0 -0.050798470683601923 0.01183886002179501 0 -0.055300232983598208 0.033561371488493641 0 -0.050798470683601923 0.01183886002179501 0 -0.055300232983598208 0.033561371488493641 0 -0.050798470683601923 0.01183886002179501 0 -0.034391162446891957 0.018187238464497092 0 -0.037793901381418679 0.035144188298954319 0 -0.034391162446891957 0.018187238464497092 0 -0.037793901381418679 0.035144188298954319 0 -0.022455882408961961 0.026825405924253771 0 -0.050798470683601923 0.01183886002179501 0 -0.037793901381418679 0.035144188298954319 0 -0.050798470683601923 0.01183886002179501 0 -0.04692109718252771 0.035386244484329407 0 -0.037793901381418679 0.035144188298954319 0 -0.050798470683601923 0.01183886002179501 0 -0.034391162446891957 0.018187238464497092 0 -0.03671052455766443 0.0037031618858211421 0 -0.034391162446891957 0.018187238464497092 0 -0.03671052455766443 0.0037031618858211421 0 -0.022890364083827771 0.01081673007749915 0 -0.047617207273071643 -0.0035118018543059538 0 -0.050798470683601923 0.01183886002179501 0 -0.03671052455766443 0.0037031618858211421 0 -0.062515526400001881 0.068377579792855414 0 -0.058907879691800273 0.050969475640674493 0 -0.062515526400001881 0.068377579792855414 0 -0.055379183454653792 0.058514889464143828 0 -0.058907879691800273 0.050969475640674493 0 -0.052204780428632629 0.062945341387988421 0 -0.047859912164240369 0.063897566148078455 0 -0.047888547298180387 0.051767161035057033 0 -0.052204780428632629 0.062945341387988421 0 -0.055379183454653792 0.058514889464143828 0 -0.047888547298180387 0.051767161035057033 0 -0.055379183454653792 0.058514889464143828 0 -0.058907879691800273 0.050969475640674493 0 -0.047888547298180387 0.051767161035057033 0 -0.06901267431079619 0.039797487593251017 0 -0.058907879691800273 0.050969475640674493 0 -0.055300232983598208 0.033561371488493641 0 -0.047888547298180387 0.051767161035057033 0 -0.055300232983598208 0.033561371488493641 0 -0.04692109718252771 0.035386244484329407 0 -0.058907879691800273 0.050969475640674493 0 -0.047888547298180387 0.051767161035057033 0 -0.055300232983598208 0.033561371488493641 0 -0.047888547298180387 0.051767161035057033 0 -0.055300232983598208 0.033561371488493641 0 -0.058907879691800273 0.050969475640674493 0 -0.055300232983598208 0.033561371488493641 0 -0.037793901381418679 0.035144188298954319 0 -0.024789332079235359 0.058449516576113518 0 -0.047888547298180387 0.051767161035057033 0 -0.04692109718252771 0.035386244484329407 0 -0.042824333565839388 0.044619641577347061 0 -0.037793901381418679 0.035144188298954319 0 -0.042824333565839388 0.044619641577347061 0 -0.024789332079235359 0.058449516576113518 0 -0.04692109718252771 0.035386244484329407 0 -0.037793901381418679 0.035144188298954319 0 -0.042824333565839388 0.044619641577347061 0 -0.027165468422692102 0.066119176775560506 0 -0.047888547298180387 0.051767161035057033 0 -0.042824333565839388 0.044619641577347061 0 -0.040476861612764189 0.069972950581621118 0 -0.047859912164240369 0.063897566148078455 0 -0.047888547298180387 0.051767161035057033 0 -0.040476861612764189 0.069972950581621118 0 -0.047888547298180387 0.051767161035057033 0 -0.027165468422692102 0.066119176775560506 0 -0.042824333565839388 0.044619641577347061 0 -0.027165468422692102 0.066119176775560506 0 -0.042824333565839388 0.044619641577347061 0 -0.024789332079235359 0.058449516576113518 0 -0.015766095144715799 0.059221925757037469 0 -0.024789332079235359 0.058449516576113518 0 -0.0190365636870411 0.05257699221554326 0 -0.015766095144715799 0.059221925757037469 0 -0.021155304748881689 0.062203044053262727 0 -0.024789332079235359 0.058449516576113518 0 -0.01690032334888349 0.065021557104339434 0 -0.015766095144715799 0.059221925757037469 0 -0.021155304748881689 0.062203044053262727 0 -0.027165468422692102 0.066119176775560506 0 -0.021155304748881689 0.062203044053262727 0 -0.024789332079235359 0.058449516576113518 0 -0.024789332079235359 0.058449516576113518 0 -0.0190365636870411 0.05257699221554326 0 -0.02501616098884394 0.043295095323351421 0 -0.0190365636870411 0.05257699221554326 0 -0.02501616098884394 0.043295095323351421 0 -0.010574666535369299 0.049341431205670631 0 -0.037793901381418679 0.035144188298954319 0 -0.024789332079235359 0.058449516576113518 0 -0.02501616098884394 0.043295095323351421 0 -0.037793901381418679 0.035144188298954319 0 -0.02501616098884394 0.043295095323351421 0 -0.022455882408961961 0.026825405924253771 0 -0.02501616098884394 0.043295095323351421 0 -0.01174883101074616 0.035626247072063598 0 -0.022455882408961961 0.026825405924253771 0 -0.02501616098884394 0.043295095323351421 0 -0.01174883101074616 0.035626247072063598 0 -0.010574666535369299 0.049341431205670631 0 -0.01174883101074616 0.035626247072063598 0 -0.010574666535369299 0.049341431205670631 0 0.0050554059078342702 0.036817447586302399 0 -0.010574666535369299 0.049341431205670631 0 -0.004471055932428975 0.061346262570306953 0 0.0079626054049135586 0.052863747179962457 0 -0.015766095144715799 0.059221925757037469 0 -0.0190365636870411 0.05257699221554326 0 -0.010574666535369299 0.049341431205670631 0 -0.015766095144715799 0.059221925757037469 0 -0.010574666535369299 0.049341431205670631 0 -0.004471055932428975 0.061346262570306953 0 -0.0096267601800840239 0.066065855624376196 0 -0.015766095144715799 0.059221925757037469 0 -0.004471055932428975 0.061346262570306953 0 -0.025670282478897081 -0.0054027298625421993 0 -0.03671052455766443 0.0037031618858211421 0 -0.022890364083827771 0.01081673007749915 0 -0.025670282478897081 -0.0054027298625421993 0 -0.022890364083827771 0.01081673007749915 0 -0.010105069976996849 0.0023765649732562961 0 -0.022890364083827771 0.01081673007749915 0 -0.022455882408961961 0.026825405924253771 0 -0.0028948745420432241 0.01788293630915707 0 -0.034391162446891957 0.018187238464497092 0 -0.022890364083827771 0.01081673007749915 0 -0.022455882408961961 0.026825405924253771 0 -0.01174883101074616 0.035626247072063598 0 -0.022455882408961961 0.026825405924253771 0 -0.0028948745420432241 0.01788293630915707 0 -0.01174883101074616 0.035626247072063598 0 -0.0028948745420432241 0.01788293630915707 0 0.0050554059078342702 0.036817447586302399 0 -0.022890364083827771 0.01081673007749915 0 -0.0028948745420432241 0.01788293630915707 0 -0.010105069976996849 0.0023765649732562961 0 -0.0028948745420432241 0.01788293630915707 0 -0.010105069976996849 0.0023765649732562961 0 0.0047038114401232534 -0.001040937293712483 0 -0.0028948745420432241 0.01788293630915707 0 0.020415517075116841 0.0076517724901667356 0 0.0047038114401232534 -0.001040937293712483 0 -0.0028948745420432241 0.01788293630915707 0 0.020342672512877309 0.02491627604112644 0 0.020415517075116841 0.0076517724901667356 0 -0.0028948745420432241 0.01788293630915707 0 0.020342672512877309 0.02491627604112644 0 0.0050554059078342702 0.036817447586302399 0 0.020342672512877309 0.02491627604112644 0 0.020415517075116841 0.0076517724901667356 0 0.04034715667016759 0.018897687307637179 0 0.020342672512877309 0.02491627604112644 0 0.02507841675544124 0.048354097280414877 0 0.04034715667016759 0.018897687307637179 0 0.0079626054049135586 0.052863747179962457 0 0.02507841675544124 0.048354097280414877 0 0.010722424996073881 0.068121568230846891 0 -0.010574666535369299 0.049341431205670631 0 0.0079626054049135586 0.052863747179962457 0 0.0050554059078342702 0.036817447586302399 0 0.0079626054049135586 0.052863747179962457 0 0.0050554059078342702 0.036817447586302399 0 0.02507841675544124 0.048354097280414877 0 0.020342672512877309 0.02491627604112644 0 0.0050554059078342702 0.036817447586302399 0 0.02507841675544124 0.048354097280414877 0 0.02507841675544124 0.048354097280414877 0 0.050251726499931808 0.044842678424317363 0 0.039807943620716157 0.068946520475498749 0 0.050251726499931808 0.044842678424317363 0 0.039807943620716157 0.068946520475498749 0 0.02507841675544124 0.048354097280414877 0 0.050251726499931808 0.044842678424317363 0 0.04034715667016759 0.018897687307637179 0 0.050251726499931808 0.044842678424317363 0 0.060695509379147472 0.02073883637313596 0 0.066628286533047365 0.040173783681243101 0 0.050251726499931808 0.044842678424317363 0 0.060695509379147472 0.02073883637313596 0 0.050251726499931808 0.044842678424317363 0 0.066628286533047365 0.040173783681243101 0 0.063756980967503582 0.059761195325569103 0 0.050251726499931808 0.044842678424317363 0 0.063756980967503582 0.059761195325569103 0 0.039807943620716157 0.068946520475498749 0 0.020415517075116841 0.0076517724901667356 0 0.04034715667016759 0.018897687307637179 0 0.039787151186370009 -0.0039594854922263374 0 0.04034715667016759 0.018897687307637179 0 0.053306813386582982 0.0056008818424343951 0 0.039787151186370009 -0.0039594854922263374 0 0.050251726499931808 0.044842678424317363 0 0.04034715667016759 0.018897687307637179 0 0.060695509379147472 0.02073883637313596 0 0.04034715667016759 0.018897687307637179 0 0.060695509379147472 0.02073883637313596 0 0.053306813386582982 0.0056008818424343951 0 0.060695509379147472 0.02073883637313596 0 0.053306813386582982 0.0056008818424343951 0 0.065940651683257009 0.0024831850618150888 0 0.060695509379147472 0.02073883637313596 0 0.065940651683257009 0.0024831850618150888 0 0.07992851590561921 0.0082161523869754144 0 0.065940651683257009 0.0024831850618150888 0 0.07992851590561921 0.0082161523869754144 0 0.074177093133044117 -0.010507922444979889 0 0.07992851590561921 0.0082161523869754144 0 0.1009244284881298 0.0078078577834924806 0 0.09649789417263642 -0.0037639840011086311 0 0.07992851590561921 0.0082161523869754144 0 0.1009244284881298 0.0078078577834924806 0 0.09893654195113713 0.02570505514797651 0 0.07992851590561921 0.0082161523869754144 0 0.08516149451907469 0.032589503251719387 0 0.07992851590561921 0.0082161523869754144 0 0.08516149451907469 0.032589503251719387 0 0.09893654195113713 0.02570505514797651 0 0.060695509379147472 0.02073883637313596 0 0.07992851590561921 0.0082161523869754144 0 0.08516149451907469 0.032589503251719387 0 0.060695509379147472 0.02073883637313596 0 0.066628286533047365 0.040173783681243101 0 0.08516149451907469 0.032589503251719387 0 0.066628286533047365 0.040173783681243101 0 0.076734924211177571 0.049535316522237388 0 0.08516149451907469 0.032589503251719387 0 0.066628286533047365 0.040173783681243101 0 0.063756980967503582 0.059761195325569103 0 0.076734924211177571 0.049535316522237388 0 0.063756980967503582 0.059761195325569103 0 0.076734924211177571 0.049535316522237388 0 0.078896317813284711 0.063130005487330554 0 0.076734924211177571 0.049535316522237388 0 0.090394473132530156 0.056962854116463339 0 0.078896317813284711 0.063130005487330554 0 0.090394473132530156 0.056962854116463339 0 0.08516149451907469 0.032589503251719387 0 0.076734924211177571 0.049535316522237388 0 0.090394473132530156 0.056962854116463339 0 0.08516149451907469 0.032589503251719387 0 0.090394473132530156 0.056962854116463339 0 0.08516149451907469 0.032589503251719387 0 0.096764564946639139 0.043178279343160431 0 0.08516149451907469 0.032589503251719387 0 0.096764564946639139 0.043178279343160431 0 0.09893654195113713 0.02570505514797651 0 0.096764564946639139 0.043178279343160431 0 0.10666951487556919 0.040720151324231749 0 0.09893654195113713 0.02570505514797651 0 0.096764564946639139 0.043178279343160431 0 0.10666951487556919 0.040720151324231749 0 0.10388747543703999 0.053358399551525167 0 0.10666951487556919 0.040720151324231749 0 0.1142736493139349 0.03087626799389703 0 0.09893654195113713 0.02570505514797651 0 0.10388747543703999 0.053358399551525167 0 0.11892469151436 0.060175562481194378 0 0.096340815718618328 0.066677421107029802 0 0.090394473132530156 0.056962854116463339 0 0.10388747543703999 0.053358399551525167 0 0.096340815718618328 0.066677421107029802 0 0.090394473132530156 0.056962854116463339 0 0.096764564946639139 0.043178279343160431 0 0.10388747543703999 0.053358399551525167 0 0.10666951487556919 0.040720151324231749 0 0.10388747543703999 0.053358399551525167 0 0.1137328545953389 0.049471119462924477 0 0.1137328545953389 0.049471119462924477 0 0.11892469151436 0.060175562481194378 0 0.12367169586596689 0.04413069599522032 0 0.10388747543703999 0.053358399551525167 0 0.1137328545953389 0.049471119462924477 0 0.11892469151436 0.060175562481194378 0 0.10666951487556919 0.040720151324231749 0 0.12367169586596689 0.04413069599522032 0 0.1142736493139349 0.03087626799389703 0 0.12367169586596689 0.04413069599522032 0 0.1142736493139349 0.03087626799389703 0 0.13034027439662041 0.028127834929059549 0 0.10666951487556919 0.040720151324231749 0 0.1137328545953389 0.049471119462924477 0 0.12367169586596689 0.04413069599522032 0 0.1142736493139349 0.03087626799389703 0 0.111750219480381 0.015697602572997061 0 0.13034027439662041 0.028127834929059549 0 0.11917198148314 0.002581966002757949 0 0.13034027439662041 0.028127834929059549 0 0.111750219480381 0.015697602572997061 0 0.11917198148314 0.002581966002757949 0 0.13034027439662041 0.028127834929059549 0 0.11917198148314 0.002581966002757949 0 0.1309849453148588 0.01811654968683717 0 0.1228376310831711 -0.00076623140119310329 0 0.11917198148314 0.002581966002757949 0 0.1228376310831711 -0.00076623140119310329 0 0.11917198148314 0.002581966002757949 0 0.1133629416093747 0.002418872237081233 0 0.1105415625726717 -0.0014271332550589229 0 0.11917198148314 0.002581966002757949 0 0.1133629416093747 0.002418872237081233 0 0.11092652002007269 0.0067640166461111727 0 0.1133629416093747 0.002418872237081233 0 0.1078625722471533 0.0022823866337398822 0 0.1105415625726717 -0.0014271332550589229 0 0.1133629416093747 0.002418872237081233 0 0.11092652002007269 0.0067640166461111727 0 0.1078625722471533 0.0022823866337398822 0 0.111750219480381 0.015697602572997061 0 0.11917198148314 0.002581966002757949 0 0.11092652002007269 0.0067640166461111727 0 0.111750219480381 0.015697602572997061 0 0.11092652002007269 0.0067640166461111727 0 0.1009244284881298 0.0078078577834924806 0 0.1078625722471533 0.0022823866337398822 0 0.1009244284881298 0.0078078577834924806 0 0.1039166904039584 -0.0028966343462391718 0 0.11092652002007269 0.0067640166461111727 0 0.1078625722471533 0.0022823866337398822 0 0.1009244284881298 0.0078078577834924806 0 0.1009244284881298 0.0078078577834924806 0 0.1039166904039584 -0.0028966343462391718 0 0.09649789417263642 -0.0037639840011086311 0 0.111750219480381 0.015697602572997061 0 0.1009244284881298 0.0078078577834924806 0 0.09893654195113713 0.02570505514797651 0 0.1142736493139349 0.03087626799389703 0 0.111750219480381 0.015697602572997061 0 0.09893654195113713 0.02570505514797651 0 0.10086043035944101 0.1057095558459509 0 0.088353675930770217 0.1090445403681379 0 0.098136173783193614 0.12855261503670501 0 0.10086043035944101 0.1057095558459509 0 0.11707998843366239 0.12090166170324231 0 0.098136173783193614 0.12855261503670501 0 0.10086043035944101 0.1057095558459509 0 0.11707998843366239 0.12090166170324231 0 0.12018819637303869 0.10164151191590461 0 0.11707998843366239 0.12090166170324231 0 0.12018819637303869 0.10164151191590461 0 0.1368974078767736 0.107501873099266 0 0.10086043035944101 0.1057095558459509 0 0.12018819637303869 0.10164151191590461 0 0.11039993896964689 0.089589601033300492 0 0.12018819637303869 0.10164151191590461 0 0.1225478872688979 0.090713611373926736 0 0.11039993896964689 0.089589601033300492 0 0.1225478872688979 0.090713611373926736 0 0.1210037722340596 0.082520495593825793 0 0.11039993896964689 0.089589601033300492 0 0.1210037722340596 0.082520495593825793 0 0.11039993896964689 0.089589601033300492 0 0.1079674466630436 0.07575227550831827 0 0.1243405792371938 0.066503547411893488 0 0.1152310018430296 0.068591719667449438 0 0.13121537104960351 0.072689189806444385 0 0.1152310018430296 0.068591719667449438 0 0.1079674466630436 0.07575227550831827 0 0.13121537104960351 0.072689189806444385 0 0.11892469151436 0.060175562481194378 0 0.1152310018430296 0.068591719667449438 0 0.096340815718618328 0.066677421107029802 0 0.1210037722340596 0.082520495593825793 0 0.1079674466630436 0.07575227550831827 0 0.13121537104960351 0.072689189806444385 0 0.1079674466630436 0.07575227550831827 0 0.13121537104960351 0.072689189806444385 0 0.11892469151436 0.060175562481194378 0 0.1243405792371938 0.066503547411893488 0 0.1152310018430296 0.068591719667449438 0 0.090394473132530156 0.056962854116463339 0 0.096340815718618328 0.066677421107029802 0 0.095627451745985609 0.081336204981207194 0 0.11892469151436 0.060175562481194378 0 0.096340815718618328 0.066677421107029802 0 0.1152310018430296 0.068591719667449438 0 0.1079674466630436 0.07575227550831827 0 0.096340815718618328 0.066677421107029802 0 0.1079674466630436 0.07575227550831827 0 0.096340815718618328 0.066677421107029802 0 0.095627451745985609 0.081336204981207194 0 0.10086043035944101 0.1057095558459509 0 0.095627451745985609 0.081336204981207194 0 0.10086043035944101 0.1057095558459509 0 0.095627451745985609 0.081336204981207194 0 0.085469831166676849 0.087436677031336632 0 0.10086043035944101 0.1057095558459509 0 0.11039993896964689 0.089589601033300492 0 0.095627451745985609 0.081336204981207194 0 0.11039993896964689 0.089589601033300492 0 0.1079674466630436 0.07575227550831827 0 0.095627451745985609 0.081336204981207194 0 0.095627451745985609 0.081336204981207194 0 0.085469831166676849 0.087436677031336632 0 0.085588317529406169 0.073238424790440806 0 0.085469831166676849 0.087436677031336632 0 0.085588317529406169 0.073238424790440806 0 0.076873554133312927 0.079435143693455501 0 0.085469831166676849 0.087436677031336632 0 0.070098818600398835 0.095008337279511162 0 0.081838863589211913 0.097859807548057495 0 0.085588317529406169 0.073238424790440806 0 0.078896317813284711 0.063130005487330554 0 0.076873554133312927 0.079435143693455501 0 0.090394473132530156 0.056962854116463339 0 0.095627451745985609 0.081336204981207194 0 0.090394473132530156 0.056962854116463339 0 0.095627451745985609 0.081336204981207194 0 0.085588317529406169 0.073238424790440806 0 0.090394473132530156 0.056962854116463339 0 0.085588317529406169 0.073238424790440806 0 0.078896317813284711 0.063130005487330554 0 0.063756980967503582 0.059761195325569103 0 0.076873554133312927 0.079435143693455501 0 0.058428932400687923 0.080576723114904505 0 0.063756980967503582 0.059761195325569103 0 0.078896317813284711 0.063130005487330554 0 0.076873554133312927 0.079435143693455501 0 0.076873554133312927 0.079435143693455501 0 0.070098818600398835 0.095008337279511162 0 0.058428932400687923 0.080576723114904505 0 0.085469831166676849 0.087436677031336632 0 0.076873554133312927 0.079435143693455501 0 0.070098818600398835 0.095008337279511162 0 0.076873554133312927 0.079435143693455501 0 0.070098818600398835 0.095008337279511162 0 0.070098818600398835 0.095008337279511162 0 0.063324083067484813 0.1105815308655668 0 0.056772327777908818 0.093355456469435216 0 0.070098818600398835 0.095008337279511162 0 0.073686861685182473 0.1058294153104071 0 0.063324083067484813 0.1105815308655668 0 0.070098818600398835 0.095008337279511162 0 0.063324083067484813 0.1105815308655668 0 0.070098818600398835 0.095008337279511162 0 0.073686861685182473 0.1058294153104071 0 0.081838863589211913 0.097859807548057495 0 0.10086043035944101 0.1057095558459509 0 0.088353675930770217 0.1090445403681379 0 0.081838863589211913 0.097859807548057495 0 0.10086043035944101 0.1057095558459509 0 0.085469831166676849 0.087436677031336632 0 0.081838863589211913 0.097859807548057495 0 0.073686861685182473 0.1058294153104071 0 0.081838863589211913 0.097859807548057495 0 0.081058066011519173 0.11973636453468819 0 0.081838863589211913 0.097859807548057495 0 0.081058066011519173 0.11973636453468819 0 0.088353675930770217 0.1090445403681379 0 0.081838863589211913 0.097859807548057495 0 0.081058066011519173 0.11973636453468819 0 0.081058066011519173 0.11973636453468819 0 0.098136173783193614 0.12855261503670501 0 0.088353675930770217 0.1090445403681379 0 0.081058066011519173 0.11973636453468819 0 0.098136173783193614 0.12855261503670501 0 0.081058066011519173 0.11973636453468819 0 0.063324083067484813 0.1105815308655668 0 0.068402942841081005 0.12865021266463919 0 0.081058066011519173 0.11973636453468819 0 0.063324083067484813 0.1105815308655668 0 0.073686861685182473 0.1058294153104071 0 0.081058066011519173 0.11973636453468819 0 0.063324083067484813 0.1105815308655668 0 0.063324083067484813 0.1105815308655668 0 0.047212646671147621 0.11637508280246631 0 0.046344121904492837 0.10181594669612309 0 0.063324083067484813 0.1105815308655668 0 0.047212646671147621 0.11637508280246631 0 0.054704645729867107 0.1303951701743557 0 0.063324083067484813 0.1105815308655668 0 0.054704645729867107 0.1303951701743557 0 0.068402942841081005 0.12865021266463919 0 0.063324083067484813 0.1105815308655668 0 0.054704645729867107 0.1303951701743557 0 0.063324083067484813 0.1105815308655668 0 0.046344121904492837 0.10181594669612309 0 0.056772327777908818 0.093355456469435216 0 0.063324083067484813 0.1105815308655668 0 0.046344121904492837 0.10181594669612309 0 0.046344121904492837 0.10181594669612309 0 0.056772327777908818 0.093355456469435216 0 0.045320775007697253 0.087378911453508054 0 0.046344121904492837 0.10181594669612309 0 0.0293641607415005 0.093050362526680058 0 0.027539824430943272 0.097260859315675907 0 0.046344121904492837 0.10181594669612309 0 0.0293641607415005 0.093050362526680058 0 0.046344121904492837 0.10181594669612309 0 0.045320775007697253 0.087378911453508054 0 0.0293641607415005 0.093050362526680058 0 0.046344121904492837 0.10181594669612309 0 0.034802580128522533 0.108370238657299 0 0.027539824430943272 0.097260859315675907 0 0.047212646671147621 0.11637508280246631 0 0.046344121904492837 0.10181594669612309 0 0.034802580128522533 0.108370238657299 0 0.034802580128522533 0.108370238657299 0 0.02295827912300942 0.1143792008990337 0 0.036209801575650402 0.12755429465012871 0 0.047212646671147621 0.11637508280246631 0 0.054704645729867107 0.1303951701743557 0 0.036209801575650402 0.12755429465012871 0 0.047212646671147621 0.11637508280246631 0 0.034802580128522533 0.108370238657299 0 0.036209801575650402 0.12755429465012871 0 0.063756980967503582 0.059761195325569103 0 0.058428932400687923 0.080576723114904505 0 0.039807943620716157 0.068946520475498749 0 0.058428932400687923 0.080576723114904505 0 0.045320775007697253 0.087378911453508054 0 0.039807943620716157 0.068946520475498749 0 0.070098818600398835 0.095008337279511162 0 0.058428932400687923 0.080576723114904505 0 0.056772327777908818 0.093355456469435216 0 0.058428932400687923 0.080576723114904505 0 0.056772327777908818 0.093355456469435216 0 0.045320775007697253 0.087378911453508054 0 0.039807943620716157 0.068946520475498749 0 0.02523443473854358 0.074793540318702806 0 0.0293641607415005 0.093050362526680058 0 0.045320775007697253 0.087378911453508054 0 0.039807943620716157 0.068946520475498749 0 0.0293641607415005 0.093050362526680058 0 0.039807943620716157 0.068946520475498749 0 0.0293641607415005 0.093050362526680058 0 0.02507841675544124 0.048354097280414877 0 0.039807943620716157 0.068946520475498749 0 0.02523443473854358 0.074793540318702806 0 0.02523443473854358 0.074793540318702806 0 0.01233266555678463 0.084258174892090337 0 0.010722424996073881 0.068121568230846891 0 0.02507841675544124 0.048354097280414877 0 0.02523443473854358 0.074793540318702806 0 0.010722424996073881 0.068121568230846891 0 0.0293641607415005 0.093050362526680058 0 0.01233266555678463 0.084258174892090337 0 0.0293641607415005 0.093050362526680058 0 0.01233266555678463 0.084258174892090337 0 0.019584721545335231 0.095933386042030777 0 0.02523443473854358 0.074793540318702806 0 0.0293641607415005 0.093050362526680058 0 0.01233266555678463 0.084258174892090337 0 -0.0046988296279310846 0.075465987257500103 0 0.01233266555678463 0.084258174892090337 0 -0.0046988296279310846 0.075465987257500103 0 0.00056903788424511365 0.086682396089073327 0 0.01233266555678463 0.084258174892090337 0 0.01233266555678463 0.084258174892090337 0 0.019584721545335231 0.095933386042030777 0 0.0096773837387348072 0.094713106344260181 0 0.00056903788424511365 0.086682396089073327 0 0.0096773837387348072 0.094713106344260181 0 0.0017142141577850001 0.096485027642689541 0 0.00056903788424511365 0.086682396089073327 0 0.01233266555678463 0.084258174892090337 0 0.0096773837387348072 0.094713106344260181 0 -0.0046988296279310846 0.075465987257500103 0 0.0079626054049135586 0.052863747179962457 0 -0.0046988296279310846 0.075465987257500103 0 0.01233266555678463 0.084258174892090337 0 0.010722424996073881 0.068121568230846891 0 -0.0046988296279310846 0.075465987257500103 0 0.0079626054049135586 0.052863747179962457 0 0.010722424996073881 0.068121568230846891 0 0.02295827912300942 0.1143792008990337 0 0.016633607451047409 0.12879447845417449 0 0.036209801575650402 0.12755429465012871 0 0.02295827912300942 0.1143792008990337 0 0.02320798257890765 0.1047443639128517 0 0.017264926825327171 0.1093249123190818 0 0.02295827912300942 0.1143792008990337 0 0.017264926825327171 0.1093249123190818 0 0.01360187540002143 0.11722717171449371 0 0.02295827912300942 0.1143792008990337 0 0.01360187540002143 0.11722717171449371 0 0.016633607451047409 0.12879447845417449 0 0.034802580128522533 0.108370238657299 0 0.027539824430943272 0.097260859315675907 0 0.02320798257890765 0.1047443639128517 0 0.034802580128522533 0.108370238657299 0 0.02295827912300942 0.1143792008990337 0 0.02320798257890765 0.1047443639128517 0 0.0293641607415005 0.093050362526680058 0 0.027539824430943272 0.097260859315675907 0 0.019584721545335231 0.095933386042030777 0 0.027539824430943272 0.097260859315675907 0 0.019584721545335231 0.095933386042030777 0 0.02320798257890765 0.1047443639128517 0 0.0293641607415005 0.093050362526680058 0 0.027539824430943272 0.097260859315675907 0 0.019584721545335231 0.095933386042030777 0 0.02320798257890765 0.1047443639128517 0 0.01504081682007688 0.10253598369847031 0 0.02320798257890765 0.1047443639128517 0 0.017264926825327171 0.1093249123190818 0 0.01504081682007688 0.10253598369847031 0 0.0088228464681819972 0.10238366970120689 0 0.01151568020462046 0.1077378413705596 0 0.0058206420146291954 0.1114089238878985 0 0.017264926825327171 0.1093249123190818 0 0.01504081682007688 0.10253598369847031 0 0.01151568020462046 0.1077378413705596 0 0.01504081682007688 0.10253598369847031 0 0.0088228464681819972 0.10238366970120689 0 0.01151568020462046 0.1077378413705596 0 0.019584721545335231 0.095933386042030777 0 0.01504081682007688 0.10253598369847031 0 0.0096773837387348072 0.094713106344260181 0 0.01504081682007688 0.10253598369847031 0 0.0088228464681819972 0.10238366970120689 0 0.0096773837387348072 0.094713106344260181 0 0.0088228464681819972 0.10238366970120689 0 0.0096773837387348072 0.094713106344260181 0 0.0017142141577850001 0.096485027642689541 0 0.0088228464681819972 0.10238366970120689 0 0.0017142141577850001 0.096485027642689541 0 0.0058206420146291954 0.1114089238878985 0 0.0058206420146291954 0.1114089238878985 0 0.00039794405216867472 0.112072386291362 0 0.01360187540002143 0.11722717171449371 0 0.00039794405216867472 0.112072386291362 0 0.016633607451047409 0.12879447845417449 0 0.00039794405216867472 0.112072386291362 0 0.01360187540002143 0.11722717171449371 0 0.016633607451047409 0.12879447845417449 0 0.00039794405216867472 0.112072386291362 0 0.0010393500416724941 0.12595831854165979 0 0.016633607451047409 0.12879447845417449 0 0.01151568020462046 0.1077378413705596 0 0.0058206420146291954 0.1114089238878985 0 0.01360187540002143 0.11722717171449371 0 0.017264926825327171 0.1093249123190818 0 0.01151568020462046 0.1077378413705596 0 0.01360187540002143 0.11722717171449371 0 -0.0082797250895681185 0.13474448294352481 0 0.0010393500416724941 0.12595831854165979 0 0.01291562537333717 0.14373886088149129 0 0.0010393500416724941 0.12595831854165979 0 0.016633607451047409 0.12879447845417449 0 0.01291562537333717 0.14373886088149129 0 0.016633607451047409 0.12879447845417449 0 0.030096440749716711 0.14309687622970299 0 0.036209801575650402 0.12755429465012871 0 0.016633607451047409 0.12879447845417449 0 0.030096440749716711 0.14309687622970299 0 0.01291562537333717 0.14373886088149129 0 0.030096440749716711 0.14309687622970299 0 0.01291562537333717 0.14373886088149129 0 0.026789162612504271 0.15663130254031199 0 0.01291562537333717 0.14373886088149129 0 0.015650655317666261 0.15865613344587939 0 0.026789162612504271 0.15663130254031199 0 0.01291562537333717 0.14373886088149129 0 0.00151890392611572 0.15456094484017679 0 0.015650655317666261 0.15865613344587939 0 -0.0082797250895681185 0.13474448294352481 0 0.01291562537333717 0.14373886088149129 0 0.00151890392611572 0.15456094484017679 0 0.00151890392611572 0.15456094484017679 0 0.01131753294179963 0.17437740673682869 0 0.00151890392611572 0.15456094484017679 0 0.012386788017382491 0.1641388541230504 0 0.01131753294179963 0.17437740673682869 0 -0.0026654791677323511 0.16604552865166611 0 0.00151890392611572 0.15456094484017679 0 0.01131753294179963 0.17437740673682869 0 -0.0026654791677323511 0.16604552865166611 0 0.01131753294179963 0.17437740673682869 0 0.012386788017382491 0.1641388541230504 0 0.01131753294179963 0.17437740673682869 0 0.021060059883948341 0.16896093146931659 0 0.00151890392611572 0.15456094484017679 0 0.012386788017382491 0.1641388541230504 0 0.015650655317666261 0.15865613344587939 0 0.0072367552089822543 0.1840346549744645 0 0.003085550936940849 0.18695469644268639 0 0.007927604969267173 0.18944813828794729 0 0.0072367552089822543 0.1840346549744645 0 0.003085550936940849 0.18695469644268639 0 0.00053502205069707774 0.18188021690744111 0 -0.003081975793268537 0.18782002811878001 0 0.003085550936940849 0.18695469644268639 0 0.00053502205069707774 0.18188021690744111 0 0.0072367552089822543 0.1840346549744645 0 0.00053502205069707774 0.18188021690744111 0 0.0082701590199136289 0.17900500476799119 0 -0.0026654791677323511 0.16604552865166611 0 0.0024081860720475369 0.17557227428335351 0 0.01131753294179963 0.17437740673682869 0 0.0024081860720475369 0.17557227428335351 0 0.01131753294179963 0.17437740673682869 0 0.0082701590199136289 0.17900500476799119 0 0.00053502205069707774 0.18188021690744111 0 0.0024081860720475369 0.17557227428335351 0 0.0082701590199136289 0.17900500476799119 0 0.01131753294179963 0.17437740673682869 0 0.013543000689093809 0.1790660034635034 0 0.021389494149062459 0.18037885708243739 0 0.01131753294179963 0.17437740673682869 0 0.013543000689093809 0.1790660034635034 0 0.01131753294179963 0.17437740673682869 0 0.013543000689093809 0.1790660034635034 0 0.0082701590199136289 0.17900500476799119 0 0.013543000689093809 0.1790660034635034 0 0.0115175493401282 0.18523262863701309 0 0.016985704636488509 0.19275209946522329 0 0.0072367552089822543 0.1840346549744645 0 0.0082701590199136289 0.17900500476799119 0 0.0115175493401282 0.18523262863701309 0 0.013543000689093809 0.1790660034635034 0 0.0082701590199136289 0.17900500476799119 0 0.0115175493401282 0.18523262863701309 0 0.0072367552089822543 0.1840346549744645 0 0.0115175493401282 0.18523262863701309 0 0.007927604969267173 0.18944813828794729 0 0.021389494149062459 0.18037885708243739 0 0.039453436217199322 0.18340126598870379 0 0.013543000689093809 0.1790660034635034 0 0.021389494149062459 0.18037885708243739 0 0.02230428843080948 0.19662630733770359 0 0.013543000689093809 0.1790660034635034 0 0.021389494149062459 0.18037885708243739 0 0.01131753294179963 0.17437740673682869 0 0.021389494149062459 0.18037885708243739 0 0.01131753294179963 0.17437740673682869 0 0.021389494149062459 0.18037885708243739 0 0.021060059883948341 0.16896093146931659 0 0.021389494149062459 0.18037885708243739 0 0.021060059883948341 0.16896093146931659 0 0.034487576316221548 0.17006964541133651 0 0.021389494149062459 0.18037885708243739 0 0.036772518206031037 0.18954494233072339 0 0.012386788017382491 0.1641388541230504 0 0.015650655317666261 0.15865613344587939 0 0.021060059883948341 0.16896093146931659 0 0.015650655317666261 0.15865613344587939 0 0.021060059883948341 0.16896093146931659 0 0.026789162612504271 0.15663130254031199 0 0.021060059883948341 0.16896093146931659 0 0.026789162612504271 0.15663130254031199 0 0.034487576316221548 0.17006964541133651 0 0.026789162612504271 0.15663130254031199 0 0.034487576316221548 0.17006964541133651 0 0.046085208392249437 0.15020880948314461 0 0.034487576316221548 0.17006964541133651 0 0.049790080527993393 0.16878629006039211 0 0.046085208392249437 0.15020880948314461 0 0.021389494149062459 0.18037885708243739 0 0.039453436217199322 0.18340126598870379 0 0.036772518206031037 0.18954494233072339 0 0.021389494149062459 0.18037885708243739 0 0.034487576316221548 0.17006964541133651 0 0.039453436217199322 0.18340126598870379 0 0.034487576316221548 0.17006964541133651 0 0.039453436217199322 0.18340126598870379 0 0.049790080527993393 0.16878629006039211 0 0.039453436217199322 0.18340126598870379 0 0.057517378285335978 0.18642367489497111 0 0.049790080527993393 0.16878629006039211 0 0.057517378285335978 0.18642367489497111 0 0.06670876632053821 0.16536039993208129 0 0.039453436217199322 0.18340126598870379 0 0.057517378285335978 0.18642367489497111 0 0.039453436217199322 0.18340126598870379 0 0.057517378285335978 0.18642367489497111 0 0.046621016020550923 0.1898787739154234 0 0.057517378285335978 0.18642367489497111 0 0.049790080527993393 0.16878629006039211 0 0.06670876632053821 0.16536039993208129 0 0.056759789081437029 0.15816783404816359 0 0.049790080527993393 0.16878629006039211 0 0.06670876632053821 0.16536039993208129 0 0.056759789081437029 0.15816783404816359 0 0.049790080527993393 0.16878629006039211 0 0.046085208392249437 0.15020880948314461 0 0.056759789081437029 0.15816783404816359 0 0.046085208392249437 0.15020880948314461 0 0.06445510108496709 0.14831583671703669 0 0.054704645729867107 0.1303951701743557 0 0.046085208392249437 0.15020880948314461 0 0.06445510108496709 0.14831583671703669 0 0.054704645729867107 0.1303951701743557 0 0.046085208392249437 0.15020880948314461 0 0.054704645729867107 0.1303951701743557 0 0.036209801575650402 0.12755429465012871 0 0.046085208392249437 0.15020880948314461 0 0.030096440749716711 0.14309687622970299 0 0.036209801575650402 0.12755429465012871 0 0.046085208392249437 0.15020880948314461 0 0.030096440749716711 0.14309687622970299 0 0.026789162612504271 0.15663130254031199 0 0.046085208392249437 0.15020880948314461 0 0.02117589590128718 0.2395927914801684 0 0.012156823249103331 0.25259817100369902 0 0.030652172791378579 0.25229956247347313 0 0.02117589590128718 0.2395927914801684 0 0.034188277432347557 0.23988537883147459 0 0.030652172791378579 0.25229956247347313 0 0.02117589590128718 0.2395927914801684 0 0.030323397599499081 0.22959965211839081 0 0.034188277432347557 0.23988537883147459 0 -0.0082457657602449386 0.25246627485226031 0 -0.001965278602122185 0.24182690426762959 0 0.012156823249103331 0.25259817100369902 0 0.02117589590128718 0.2395927914801684 0 0.008579196815527634 0.23953031834541311 0 0.012156823249103331 0.25259817100369902 0 -0.001965278602122185 0.24182690426762959 0 0.008579196815527634 0.23953031834541311 0 0.012156823249103331 0.25259817100369902 0 -0.001965278602122185 0.24182690426762959 0 0.008579196815527634 0.23953031834541311 0 0.0010433620948100131 0.23240638127880581 0 0.02117589590128718 0.2395927914801684 0 0.008579196815527634 0.23953031834541311 0 0.01115565641706814 0.2303537873583584 0 0.008579196815527634 0.23953031834541311 0 0.01115565641706814 0.2303537873583584 0 0.0010433620948100131 0.23240638127880581 0 0.01115565641706814 0.2303537873583584 0 0.0010433620948100131 0.23240638127880581 0 0.0091084557899102862 0.2202403998025296 0 0.0010433620948100131 0.23240638127880581 0 0.0001093474821353509 0.22215689039817851 0 0.0091084557899102862 0.2202403998025296 0 0.01115565641706814 0.2303537873583584 0 0.0091084557899102862 0.2202403998025296 0 0.016496999093422449 0.223541986747673 0 0.0091084557899102862 0.2202403998025296 0 0.016496999093422449 0.223541986747673 0 0.01612020317490017 0.2152275371535412 0 0.016496999093422449 0.223541986747673 0 0.02147394042148347 0.23028557103733549 0 0.024626739663750161 0.22160263838659999 0 0.016496999093422449 0.223541986747673 0 0.024626739663750161 0.22160263838659999 0 0.01612020317490017 0.2152275371535412 0 0.01115565641706814 0.2303537873583584 0 0.016496999093422449 0.223541986747673 0 0.02147394042148347 0.23028557103733549 0 0.02117589590128718 0.2395927914801684 0 0.01115565641706814 0.2303537873583584 0 0.02147394042148347 0.23028557103733549 0 0.02147394042148347 0.23028557103733549 0 0.030323397599499081 0.22959965211839081 0 0.024626739663750161 0.22160263838659999 0 0.02117589590128718 0.2395927914801684 0 0.02147394042148347 0.23028557103733549 0 0.030323397599499081 0.22959965211839081 0 0.024626739663750161 0.22160263838659999 0 0.027508903383077599 0.21474836631904051 0 0.034268755792753257 0.2207932912834846 0 0.030323397599499081 0.22959965211839081 0 0.024626739663750161 0.22160263838659999 0 0.034268755792753257 0.2207932912834846 0 0.027508903383077599 0.21474836631904051 0 0.023943201944243639 0.1999111919537408 0 0.034268755792753257 0.2207932912834846 0 0.023943201944243639 0.1999111919537408 0 0.034268755792753257 0.2207932912834846 0 0.027508903383077599 0.21474836631904051 0 0.023922045305692211 0.20684028787671799 0 0.022699459496289199 0.2141990688659105 0 0.024626739663750161 0.22160263838659999 0 0.027508903383077599 0.21474836631904051 0 0.022699459496289199 0.2141990688659105 0 0.027508903383077599 0.21474836631904051 0 0.023922045305692211 0.20684028787671799 0 0.023943201944243639 0.1999111919537408 0 0.01896544066016782 0.20973745132843891 0 0.01612020317490017 0.2152275371535412 0 0.013247665380499421 0.20734461508933349 0 0.023922045305692211 0.20684028787671799 0 0.01896544066016782 0.20973745132843891 0 0.022699459496289199 0.2141990688659105 0 0.023922045305692211 0.20684028787671799 0 0.021734838082019509 0.20302577286306159 0 0.023943201944243639 0.1999111919537408 0 0.023922045305692211 0.20684028787671799 0 0.018650848458870179 0.20436341187488569 0 0.021734838082019509 0.20302577286306159 0 0.023922045305692211 0.20684028787671799 0 0.018650848458870179 0.20436341187488569 0 0.01896544066016782 0.20973745132843891 0 0.018650848458870179 0.20436341187488569 0 0.01896544066016782 0.20973745132843891 0 0.013247665380499421 0.20734461508933349 0 0.024626739663750161 0.22160263838659999 0 0.022699459496289199 0.2141990688659105 0 0.01612020317490017 0.2152275371535412 0 0.01896544066016782 0.20973745132843891 0 0.022699459496289199 0.2141990688659105 0 0.01612020317490017 0.2152275371535412 0 0.01612020317490017 0.2152275371535412 0 0.0085100262700745465 0.21094865931476009 0 0.013247665380499421 0.20734461508933349 0 0.0091084557899102862 0.2202403998025296 0 0.01612020317490017 0.2152275371535412 0 0.0085100262700745465 0.21094865931476009 0 0.0001093474821353509 0.22215689039817851 0 0.0091084557899102862 0.2202403998025296 0 0.00083142932333707279 0.21381627434491049 0 0.0091084557899102862 0.2202403998025296 0 0.0085100262700745465 0.21094865931476009 0 0.00083142932333707279 0.21381627434491049 0 0.0085100262700745465 0.21094865931476009 0 0.00083142932333707279 0.21381627434491049 0 0.0029581381265264858 0.20519393183106241 0 0.0085100262700745465 0.21094865931476009 0 0.0029581381265264858 0.20519393183106241 0 0.0087942658252738396 0.20386919766718339 0 0.0029581381265264858 0.20519393183106241 0 0.0087942658252738396 0.20386919766718339 0 0.0056326315351633537 0.2004899601979887 0 0.0085100262700745465 0.21094865931476009 0 0.0087942658252738396 0.20386919766718339 0 0.013247665380499421 0.20734461508933349 0 0.0087942658252738396 0.20386919766718339 0 0.013247665380499421 0.20734461508933349 0 0.013927284278231049 0.2027684573698135 0 0.018650848458870179 0.20436341187488569 0 0.013247665380499421 0.20734461508933349 0 0.013927284278231049 0.2027684573698135 0 0.013927284278231049 0.2027684573698135 0 0.010260103200158849 0.1991700010832006 0 0.016231602148303749 0.1987520895161983 0 0.010260103200158849 0.1991700010832006 0 0.01183675088797494 0.19419665586736051 0 0.016231602148303749 0.1987520895161983 0 0.010260103200158849 0.1991700010832006 0 0.0061740732670114221 0.19541611365695169 0 0.01183675088797494 0.19419665586736051 0 0.0087942658252738396 0.20386919766718339 0 0.010260103200158849 0.1991700010832006 0 0.0056326315351633537 0.2004899601979887 0 0.0087942658252738396 0.20386919766718339 0 0.013927284278231049 0.2027684573698135 0 0.010260103200158849 0.1991700010832006 0 0.010260103200158849 0.1991700010832006 0 0.0056326315351633537 0.2004899601979887 0 0.0061740732670114221 0.19541611365695169 0 -2.3422743153838069e-05 0.1988005567515452 0 0.0056326315351633537 0.2004899601979887 0 0.0061740732670114221 0.19541611365695169 0 -2.3422743153838069e-05 0.1988005567515452 0 0.0029581381265264858 0.20519393183106241 0 0.0056326315351633537 0.2004899601979887 0 -0.003081975793268537 0.18782002811878001 0 0.003085550936940849 0.18695469644268639 0 0.0015327128313205251 0.1915709431207247 0 -2.3422743153838069e-05 0.1988005567515452 0 0.0061740732670114221 0.19541611365695169 0 0.0015327128313205251 0.1915709431207247 0 0.0061740732670114221 0.19541611365695169 0 0.0015327128313205251 0.1915709431207247 0 0.007927604969267173 0.18944813828794729 0 0.003085550936940849 0.18695469644268639 0 0.0015327128313205251 0.1915709431207247 0 0.007927604969267173 0.18944813828794729 0 0.007927604969267173 0.18944813828794729 0 0.01183675088797494 0.19419665586736051 0 0.012456110925155389 0.1902446129755902 0 0.0115175493401282 0.18523262863701309 0 0.007927604969267173 0.18944813828794729 0 0.012456110925155389 0.1902446129755902 0 0.0061740732670114221 0.19541611365695169 0 0.007927604969267173 0.18944813828794729 0 0.01183675088797494 0.19419665586736051 0 0.01183675088797494 0.19419665586736051 0 0.012456110925155389 0.1902446129755902 0 0.016985704636488509 0.19275209946522329 0 0.01183675088797494 0.19419665586736051 0 0.016985704636488509 0.19275209946522329 0 0.016231602148303749 0.1987520895161983 0 0.0115175493401282 0.18523262863701309 0 0.012456110925155389 0.1902446129755902 0 0.016985704636488509 0.19275209946522329 0 0.021389494149062459 0.18037885708243739 0 0.02230428843080948 0.19662630733770359 0 0.036772518206031037 0.18954494233072339 0 0.013543000689093809 0.1790660034635034 0 0.02230428843080948 0.19662630733770359 0 0.013543000689093809 0.1790660034635034 0 0.016985704636488509 0.19275209946522329 0 0.02230428843080948 0.19662630733770359 0 0.016985704636488509 0.19275209946522329 0 0.019428477636303031 0.19812266709439569 0 0.016231602148303749 0.1987520895161983 0 0.019428477636303031 0.19812266709439569 0 0.016231602148303749 0.1987520895161983 0 0.020423256619271999 0.20098819974690199 0 0.018650848458870179 0.20436341187488569 0 0.016231602148303749 0.1987520895161983 0 0.020423256619271999 0.20098819974690199 0 0.018650848458870179 0.20436341187488569 0 0.013927284278231049 0.2027684573698135 0 0.016231602148303749 0.1987520895161983 0 0.019428477636303031 0.19812266709439569 0 0.020423256619271999 0.20098819974690199 0 0.023943201944243639 0.1999111919537408 0 0.018650848458870179 0.20436341187488569 0 0.020423256619271999 0.20098819974690199 0 0.021734838082019509 0.20302577286306159 0 0.020423256619271999 0.20098819974690199 0 0.021734838082019509 0.20302577286306159 0 0.023943201944243639 0.1999111919537408 0 0.016985704636488509 0.19275209946522329 0 0.02230428843080948 0.19662630733770359 0 0.023943201944243639 0.1999111919537408 0 0.016985704636488509 0.19275209946522329 0 0.019428477636303031 0.19812266709439569 0 0.023943201944243639 0.1999111919537408 0 0.02230428843080948 0.19662630733770359 0 0.023943201944243639 0.1999111919537408 0 0.02230428843080948 0.19662630733770359 0 0.023943201944243639 0.1999111919537408 0 0.035957366435008513 0.20647473970990701 0 0.02230428843080948 0.19662630733770359 0 0.050897121833006063 0.20159486356051531 0 0.035957366435008513 0.20647473970990701 0 0.02230428843080948 0.19662630733770359 0 0.036772518206031037 0.18954494233072339 0 0.050897121833006063 0.20159486356051531 0 0.02230428843080948 0.19662630733770359 0 0.050897121833006063 0.20159486356051531 0 0.036772518206031037 0.18954494233072339 0 0.050897121833006063 0.20159486356051531 0 0.052155542262999663 0.1987110275790093 0 0.036772518206031037 0.18954494233072339 0 0.052155542262999663 0.1987110275790093 0 0.036772518206031037 0.18954494233072339 0 0.046621016020550923 0.1898787739154234 0 0.052155542262999663 0.1987110275790093 0 0.039453436217199322 0.18340126598870379 0 0.036772518206031037 0.18954494233072339 0 0.046621016020550923 0.1898787739154234 0 0.057517378285335978 0.18642367489497111 0 0.046621016020550923 0.1898787739154234 0 0.052155542262999663 0.1987110275790093 0 0.057517378285335978 0.18642367489497111 0 0.052155542262999663 0.1987110275790093 0 0.057517378285335978 0.18642367489497111 0 0.057090951257530269 0.197109929087698 0 0.052155542262999663 0.1987110275790093 0 0.057517378285335978 0.18642367489497111 0 0.060667890749981898 0.1933513013873914 0 0.057090951257530269 0.197109929087698 0 0.060667890749981898 0.1933513013873914 0 0.057090951257530269 0.197109929087698 0 0.058031923789004708 0.2022125116707813 0 0.060667890749981898 0.1933513013873914 0 0.058031923789004708 0.2022125116707813 0 0.060667890749981898 0.1933513013873914 0 0.058031923789004708 0.2022125116707813 0 0.059673977213942478 0.20319094098477611 0 0.058031923789004708 0.2022125116707813 0 0.059673977213942478 0.20319094098477611 0 0.057090951257530269 0.197109929087698 0 0.058031923789004708 0.2022125116707813 0 0.052155542262999663 0.1987110275790093 0 0.058031923789004708 0.2022125116707813 0 0.052155542262999663 0.1987110275790093 0 0.058031923789004708 0.2022125116707813 0 0.050897121833006063 0.20159486356051531 0 0.052155542262999663 0.1987110275790093 0 0.058031923789004708 0.2022125116707813 0 0.050897121833006063 0.20159486356051531 0 0.050897121833006063 0.20159486356051531 0 0.052155542262999663 0.1987110275790093 0 0.050897121833006063 0.20159486356051531 0 0.042542699632676838 0.22074012119599501 0 0.053005439111290922 0.21910981667301421 0 0.058031923789004708 0.2022125116707813 0 0.050897121833006063 0.20159486356051531 0 0.053005439111290922 0.21910981667301421 0 0.058031923789004708 0.2022125116707813 0 0.053005439111290922 0.21910981667301421 0 0.058031923789004708 0.2022125116707813 0 0.061718375040706958 0.21244198365854619 0 0.053005439111290922 0.21910981667301421 0 0.058031923789004708 0.2022125116707813 0 0.059673977213942478 0.20319094098477611 0 0.061718375040706958 0.21244198365854619 0 0.061718375040706958 0.21244198365854619 0 0.053005439111290922 0.21910981667301421 0 0.062081063031912492 0.22413796841031719 0 0.050897121833006063 0.20159486356051531 0 0.042542699632676838 0.22074012119599501 0 0.023943201944243639 0.1999111919537408 0 0.035957366435008513 0.20647473970990701 0 0.034268755792753257 0.2207932912834846 0 0.050897121833006063 0.20159486356051531 0 0.038363073609551428 0.21412918370060571 0 0.042542699632676838 0.22074012119599501 0 0.050897121833006063 0.20159486356051531 0 0.035957366435008513 0.20647473970990701 0 0.038363073609551428 0.21412918370060571 0 0.038363073609551428 0.21412918370060571 0 0.034268755792753257 0.2207932912834846 0 0.042542699632676838 0.22074012119599501 0 0.035957366435008513 0.20647473970990701 0 0.038363073609551428 0.21412918370060571 0 0.034268755792753257 0.2207932912834846 0 0.042542699632676838 0.22074012119599501 0 0.034188277432347557 0.23988537883147459 0 0.042542699632676838 0.22074012119599501 0 0.04817080422001134 0.23536218897101929 0 0.044937254539659167 0.2379713478153713 0 0.030323397599499081 0.22959965211839081 0 0.042542699632676838 0.22074012119599501 0 0.034188277432347557 0.23988537883147459 0 0.042542699632676838 0.22074012119599501 0 0.044937254539659167 0.2379713478153713 0 0.034188277432347557 0.23988537883147459 0 0.030323397599499081 0.22959965211839081 0 0.034268755792753257 0.2207932912834846 0 0.042542699632676838 0.22074012119599501 0 0.053005439111290922 0.21910981667301421 0 0.04817080422001134 0.23536218897101929 0 0.053005439111290922 0.21910981667301421 0 0.062081063031912492 0.22413796841031719 0 0.04817080422001134 0.23536218897101929 0 0.062081063031912492 0.22413796841031719 0 0.04817080422001134 0.23536218897101929 0 0.059531729096570118 0.24099028160929839 0 0.042542699632676838 0.22074012119599501 0 0.053005439111290922 0.21910981667301421 0 0.04817080422001134 0.23536218897101929 0 0.062081063031912492 0.22413796841031719 0 0.04817080422001134 0.23536218897101929 0 0.04817080422001134 0.23536218897101929 0 0.052294646587479003 0.2493466198794505 0 0.04073495957405681 0.26035892983227987 0 0.04817080422001134 0.23536218897101929 0 0.059531729096570118 0.24099028160929839 0 0.052294646587479003 0.2493466198794505 0 0.059531729096570118 0.24099028160929839 0 0.067445722382230539 0.24771064348785149 0 0.06034442261467237 0.25120339486286308 0 0.059531729096570118 0.24099028160929839 0 0.052294646587479003 0.2493466198794505 0 0.06034442261467237 0.25120339486286308 0 0.04817080422001134 0.23536218897101929 0 0.04073495957405681 0.26035892983227987 0 0.04817080422001134 0.23536218897101929 0 0.044937254539659167 0.2379713478153713 0 0.04073495957405681 0.26035892983227987 0 0.04817080422001134 0.23536218897101929 0 0.044937254539659167 0.2379713478153713 0 0.044937254539659167 0.2379713478153713 0 0.034188277432347557 0.23988537883147459 0 0.030652172791378579 0.25229956247347313 0 0.085975255819246227 0.24304742420893821 0 0.091760355399887042 0.24149966876957779 0 0.085886262968569133 0.25948379364412733 0 0.091760355399887042 0.24149966876957779 0 0.10166443252893551 0.23659000017624271 0 0.085886262968569133 0.25948379364412733 0 0.085975255819246227 0.24304742420893821 0 0.091760355399887042 0.24149966876957779 0 0.090327239942362525 0.2312920649275291 0 0.085975255819246227 0.24304742420893821 0 0.075396639696560977 0.24390878816167419 0 0.077103558767455421 0.230534611802553 0 0.085975255819246227 0.24304742420893821 0 0.077103558767455421 0.230534611802553 0 0.090327239942362525 0.2312920649275291 0 0.085975255819246227 0.24304742420893821 0 0.075396639696560977 0.24390878816167419 0 0.080478695998155714 0.25165019938018113 0 0.075396639696560977 0.24390878816167419 0 0.074707437689247702 0.25389633834412328 0 0.080478695998155714 0.25165019938018113 0 0.075396639696560977 0.24390878816167419 0 0.067445722382230539 0.24771064348785149 0 0.068934414955804643 0.23628801399858909 0 0.075396639696560977 0.24390878816167419 0 0.067445722382230539 0.24771064348785149 0 0.074707437689247702 0.25389633834412328 0 0.059531729096570118 0.24099028160929839 0 0.067445722382230539 0.24771064348785149 0 0.068934414955804643 0.23628801399858909 0 0.075396639696560977 0.24390878816167419 0 0.068934414955804643 0.23628801399858909 0 0.077103558767455421 0.230534611802553 0 0.062081063031912492 0.22413796841031719 0 0.059531729096570118 0.24099028160929839 0 0.068934414955804643 0.23628801399858909 0 0.062081063031912492 0.22413796841031719 0 0.077103558767455421 0.230534611802553 0 0.077696208689423979 0.21392961690810641 0 0.077103558767455421 0.230534611802553 0 0.077696208689423979 0.21392961690810641 0 0.062081063031912492 0.22413796841031719 0 0.068934414955804643 0.23628801399858909 0 0.077103558767455421 0.230534611802553 0 0.077103558767455421 0.230534611802553 0 0.086723057100410644 0.21930832929599969 0 0.077696208689423979 0.21392961690810641 0 0.077103558767455421 0.230534611802553 0 0.090327239942362525 0.2312920649275291 0 0.086723057100410644 0.21930832929599969 0 0.090327239942362525 0.2312920649275291 0 0.086723057100410644 0.21930832929599969 0 0.099258091607832458 0.22228701345730209 0 0.08282365066700062 0.20740072564839451 0 0.1001331263781514 0.21054846617837791 0 0.08282365066700062 0.20740072564839451 0 0.0830920941513177 0.21288940176841251 0 0.1001331263781514 0.21054846617837791 0 0.086723057100410644 0.21930832929599969 0 0.0830920941513177 0.21288940176841251 0 0.1001331263781514 0.21054846617837791 0 0.08282365066700062 0.20740072564839451 0 0.077960793866212394 0.2065164116634538 0 0.08282365066700062 0.20740072564839451 0 0.07778409662064556 0.21146715366449201 0 0.077960793866212394 0.2065164116634538 0 0.08282365066700062 0.20740072564839451 0 0.0830920941513177 0.21288940176841251 0 0.07778409662064556 0.21146715366449201 0 0.08282365066700062 0.20740072564839451 0 0.07778409662064556 0.21146715366449201 0 0.086723057100410644 0.21930832929599969 0 0.077696208689423979 0.21392961690810641 0 0.086723057100410644 0.21930832929599969 0 0.0830920941513177 0.21288940176841251 0 0.077696208689423979 0.21392961690810641 0 0.0830920941513177 0.21288940176841251 0 0.07778409662064556 0.21146715366449201 0 0.077696208689423979 0.21392961690810641 0 0.059673977213942478 0.20319094098477611 0 0.077960793866212394 0.2065164116634538 0 0.062081063031912492 0.22413796841031719 0 0.077696208689423979 0.21392961690810641 0 0.075991321843812007 0.21291374784961289 0 0.059673977213942478 0.20319094098477611 0 0.075991321843812007 0.21291374784961289 0 0.059673977213942478 0.20319094098477611 0 0.061718375040706958 0.21244198365854619 0 0.075991321843812007 0.21291374784961289 0 0.059673977213942478 0.20319094098477611 0 0.075991321843812007 0.21291374784961289 0 0.077960793866212394 0.2065164116634538 0 0.07778409662064556 0.21146715366449201 0 0.077696208689423979 0.21392961690810641 0 0.075991321843812007 0.21291374784961289 0 0.07778409662064556 0.21146715366449201 0 0.077696208689423979 0.21392961690810641 0 0.07778409662064556 0.21146715366449201 0 0.075991321843812007 0.21291374784961289 0 0.077696208689423979 0.21392961690810641 0 0.075991321843812007 0.21291374784961289 0 0.062081063031912492 0.22413796841031719 0 0.075991321843812007 0.21291374784961289 0 0.061718375040706958 0.21244198365854619 0 0.062081063031912492 0.22413796841031719 0 0.075991321843812007 0.21291374784961289 0 0.07778409662064556 0.21146715366449201 0 0.075991321843812007 0.21291374784961289 0 0.077960793866212394 0.2065164116634538 0 0.07778409662064556 0.21146715366449201 0 0.077960793866212394 0.2065164116634538 0 0.060667890749981898 0.1933513013873914 0 0.069391780603767286 0.1985353247034998 0 0.078552310067739675 0.1899431815963343 0 0.059673977213942478 0.20319094098477611 0 0.077960793866212394 0.2065164116634538 0 0.069391780603767286 0.1985353247034998 0 0.057517378285335978 0.18642367489497111 0 0.060667890749981898 0.1933513013873914 0 0.078552310067739675 0.1899431815963343 0 0.077960793866212394 0.2065164116634538 0 0.069391780603767286 0.1985353247034998 0 0.078552310067739675 0.1899431815963343 0 0.057517378285335978 0.18642367489497111 0 0.078552310067739675 0.1899431815963343 0 0.060667890749981898 0.1933513013873914 0 0.059673977213942478 0.20319094098477611 0 0.069391780603767286 0.1985353247034998 0 0.077960793866212394 0.2065164116634538 0 0.078552310067739675 0.1899431815963343 0 0.08282365066700062 0.20740072564839451 0 0.078552310067739675 0.1899431815963343 0 0.1000095862482286 0.19353335379614581 0 0.08282365066700062 0.20740072564839451 0 0.077960793866212394 0.2065164116634538 0 0.078552310067739675 0.1899431815963343 0 0.08282365066700062 0.20740072564839451 0 0.1000095862482286 0.19353335379614581 0 0.078552310067739675 0.1899431815963343 0 0.1000095862482286 0.19353335379614581 0 0.1000095862482286 0.19353335379614581 0 0.1119621855324581 0.18388877331391679 0 0.1119621855324581 0.18388877331391679 0 0.12809949413598259 0.1982332796183166 0 0.12623709760602039 0.18867627876683751 0 0.1000095862482286 0.19353335379614581 0 0.12809949413598259 0.1982332796183166 0 0.1000095862482286 0.19353335379614581 0 0.1174426020893027 0.21369620670835879 0 0.12809949413598259 0.1982332796183166 0 0.1000095862482286 0.19353335379614581 0 0.1119621855324581 0.18388877331391679 0 0.12809949413598259 0.1982332796183166 0 0.1174426020893027 0.21369620670835879 0 0.12809949413598259 0.1982332796183166 0 0.1174426020893027 0.21369620670835879 0 0.13079881134157489 0.21612504290720769 0 0.1174426020893027 0.21369620670835879 0 0.1001331263781514 0.21054846617837791 0 0.1000095862482286 0.19353335379614581 0 0.1174426020893027 0.21369620670835879 0 0.1001331263781514 0.21054846617837791 0 0.08282365066700062 0.20740072564839451 0 0.1000095862482286 0.19353335379614581 0 0.1001331263781514 0.21054846617837791 0 0.1174426020893027 0.21369620670835879 0 0.1001331263781514 0.21054846617837791 0 0.099258091607832458 0.22228701345730209 0 0.086723057100410644 0.21930832929599969 0 0.1001331263781514 0.21054846617837791 0 0.099258091607832458 0.22228701345730209 0 0.1174426020893027 0.21369620670835879 0 0.099258091607832458 0.22228701345730209 0 0.10166443252893551 0.23659000017624271 0 0.090327239942362525 0.2312920649275291 0 0.099258091607832458 0.22228701345730209 0 0.10166443252893551 0.23659000017624271 0 0.11193009187841341 0.23778907333103991 0 0.1233060832280653 0.2372070654073864 0 0.13079881134157489 0.21612504290720769 0 0.1174426020893027 0.21369620670835879 0 0.11193009187841341 0.23778907333103991 0 0.10166443252893551 0.23659000017624271 0 0.1174426020893027 0.21369620670835879 0 0.11193009187841341 0.23778907333103991 0 0.13079881134157489 0.21612504290720769 0 0.11193009187841341 0.23778907333103991 0 0.13079881134157489 0.21612504290720769 0 0.1174426020893027 0.21369620670835879 0 0.10166443252893551 0.23659000017624271 0 0.11193009187841341 0.23778907333103991 0 0.1233060832280653 0.2372070654073864 0 0.1152979079485152 0.2467056018988516 0 0.1233060832280653 0.2372070654073864 0 0.1152979079485152 0.2467056018988516 0 0.1250676346401875 0.24796443701554319 0 0.11193009187841341 0.23778907333103991 0 0.1152979079485152 0.2467056018988516 0 0.10650461767427161 0.25132517155921902 0 0.11193009187841341 0.23778907333103991 0 0.10166443252893551 0.23659000017624271 0 0.093061372415253377 0.25945310375487363 0 0.10166443252893551 0.23659000017624271 0 0.085886262968569133 0.25948379364412733 0 0.11193009187841341 0.23778907333103991 0 0.093061372415253377 0.25945310375487363 0 0.11193009187841341 0.23778907333103991 0 0.093061372415253377 0.25945310375487363 0 0.10650461767427161 0.25132517155921902 0 0.091760355399887042 0.24149966876957779 0 0.090327239942362525 0.2312920649275291 0 0.10166443252893551 0.23659000017624271 0 0.08022281403025916 0.14313863688857029 0 0.093167312330706492 0.16073073013935579 0 0.097579150219516186 0.1459852772673329 0 0.08022281403025916 0.14313863688857029 0 0.079387562048995053 0.16654090924245221 0 0.08022281403025916 0.14313863688857029 0 0.097579150219516186 0.1459852772673329 0 0.098136173783193614 0.12855261503670501 0 0.081058066011519173 0.11973636453468819 0 0.08022281403025916 0.14313863688857029 0 0.081058066011519173 0.11973636453468819 0 0.08022281403025916 0.14313863688857029 0 0.098136173783193614 0.12855261503670501 0 0.054704645729867107 0.1303951701743557 0 0.068402942841081005 0.12865021266463919 0 0.06445510108496709 0.14831583671703669 0 0.081058066011519173 0.11973636453468819 0 0.08022281403025916 0.14313863688857029 0 0.068402942841081005 0.12865021266463919 0 0.08022281403025916 0.14313863688857029 0 0.068402942841081005 0.12865021266463919 0 0.06445510108496709 0.14831583671703669 0 0.08022281403025916 0.14313863688857029 0 0.06445510108496709 0.14831583671703669 0 0.079387562048995053 0.16654090924245221 0 0.06445510108496709 0.14831583671703669 0 0.06670876632053821 0.16536039993208129 0 0.079387562048995053 0.16654090924245221 0 0.056759789081437029 0.15816783404816359 0 0.06445510108496709 0.14831583671703669 0 0.06670876632053821 0.16536039993208129 0 0.06670876632053821 0.16536039993208129 0 0.071220178094475839 0.177519435916074 0 0.079387562048995053 0.16654090924245221 0 0.078552310067739675 0.1899431815963343 0 0.071220178094475839 0.177519435916074 0 0.079387562048995053 0.16654090924245221 0 0.057517378285335978 0.18642367489497111 0 0.078552310067739675 0.1899431815963343 0 0.071220178094475839 0.177519435916074 0 0.057517378285335978 0.18642367489497111 0 0.06670876632053821 0.16536039993208129 0 0.071220178094475839 0.177519435916074 0 0.078552310067739675 0.1899431815963343 0 0.079387562048995053 0.16654090924245221 0 0.078552310067739675 0.1899431815963343 0 0.079387562048995053 0.16654090924245221 0 0.094656188726405799 0.1772984468475671 0 0.078552310067739675 0.1899431815963343 0 0.1000095862482286 0.19353335379614581 0 0.094656188726405799 0.1772984468475671 0 0.079387562048995053 0.16654090924245221 0 0.093167312330706492 0.16073073013935579 0 0.094656188726405799 0.1772984468475671 0 0.08022281403025916 0.14313863688857029 0 0.079387562048995053 0.16654090924245221 0 0.093167312330706492 0.16073073013935579 0 0.093167312330706492 0.16073073013935579 0 0.1051682117550992 0.16863341283049499 0 0.094656188726405799 0.1772984468475671 0 0.093167312330706492 0.16073073013935579 0 0.1051682117550992 0.16863341283049499 0 0.10738037989590581 0.15691718048007991 0 0.1051682117550992 0.16863341283049499 0 0.094656188726405799 0.1772984468475671 0 0.1119621855324581 0.18388877331391679 0 0.1000095862482286 0.19353335379614581 0 0.094656188726405799 0.1772984468475671 0 0.1119621855324581 0.18388877331391679 0 0.1051682117550992 0.16863341283049499 0 0.1119621855324581 0.18388877331391679 0 0.1176573055604207 0.16965843036111 0 0.1119621855324581 0.18388877331391679 0 0.1176573055604207 0.16965843036111 0 0.12502668500631101 0.18003223183350331 0 0.1119621855324581 0.18388877331391679 0 0.12502668500631101 0.18003223183350331 0 0.12623709760602039 0.18867627876683751 0 0.10738037989590581 0.15691718048007991 0 0.1176573055604207 0.16965843036111 0 0.1263510041100718 0.15412713222648239 0 0.1051682117550992 0.16863341283049499 0 0.10738037989590581 0.15691718048007991 0 0.1176573055604207 0.16965843036111 0 0.10738037989590581 0.15691718048007991 0 0.1089890710575158 0.14058722379195329 0 0.1263510041100718 0.15412713222648239 0 0.1089890710575158 0.14058722379195329 0 0.1243116374868449 0.136850619307404 0 0.1263510041100718 0.15412713222648239 0 0.10738037989590581 0.15691718048007991 0 0.097579150219516186 0.1459852772673329 0 0.1089890710575158 0.14058722379195329 0 0.093167312330706492 0.16073073013935579 0 0.10738037989590581 0.15691718048007991 0 0.097579150219516186 0.1459852772673329 0 0.097579150219516186 0.1459852772673329 0 0.1089890710575158 0.14058722379195329 0 0.098136173783193614 0.12855261503670501 0 0.11707998843366239 0.12090166170324231 0 0.1089890710575158 0.14058722379195329 0 0.098136173783193614 0.12855261503670501 0 0.11707998843366239 0.12090166170324231 0 0.1089890710575158 0.14058722379195329 0 0.1243116374868449 0.136850619307404 0 0.11707998843366239 0.12090166170324231 0 0.1243116374868449 0.136850619307404 0 0.14061487869327599 0.12738787364596069 0 0.1243116374868449 0.136850619307404 0 0.14061487869327599 0.12738787364596069 0 0.1450893294801871 0.15084825440961219 0 0.14061487869327599 0.12738787364596069 0 0.1450893294801871 0.15084825440961219 0 0.16208469833826319 0.13464304631642149 0 0.1450893294801871 0.15084825440961219 0 0.16208469833826319 0.13464304631642149 0 0.1243116374868449 0.136850619307404 0 0.1450893294801871 0.15084825440961219 0 0.1263510041100718 0.15412713222648239 0 0.1450893294801871 0.15084825440961219 0 0.1263510041100718 0.15412713222648239 0 0.13434892063135129 0.1709012650253654 0 0.1176573055604207 0.16965843036111 0 0.1263510041100718 0.15412713222648239 0 0.13434892063135129 0.1709012650253654 0 0.1176573055604207 0.16965843036111 0 0.13434892063135129 0.1709012650253654 0 0.12502668500631101 0.18003223183350331 0 0.12502668500631101 0.18003223183350331 0 0.13317066441191511 0.18549658195139779 0 0.12623709760602039 0.18867627876683751 0 0.13434892063135129 0.1709012650253654 0 0.12502668500631101 0.18003223183350331 0 0.13317066441191511 0.18549658195139779 0 0.13434892063135129 0.1709012650253654 0 0.13317066441191511 0.18549658195139779 0 0.14289571148574401 0.18421669799074539 0 0.13434892063135129 0.1709012650253654 0 0.14289571148574401 0.18421669799074539 0 0.15014598838012391 0.16812378435884931 0 0.14289571148574401 0.18421669799074539 0 0.15014598838012391 0.16812378435884931 0 0.16340295837154781 0.17869074671240681 0 0.1450893294801871 0.15084825440961219 0 0.15014598838012391 0.16812378435884931 0 0.17025484901730581 0.156442106610301 0 0.1450893294801871 0.15084825440961219 0 0.13434892063135129 0.1709012650253654 0 0.15014598838012391 0.16812378435884931 0 0.15014598838012391 0.16812378435884931 0 0.17025484901730581 0.156442106610301 0 0.16340295837154781 0.17869074671240681 0 0.17025484901730581 0.156442106610301 0 0.16340295837154781 0.17869074671240681 0 0.18344157371591241 0.18406997535271 0 0.17025484901730581 0.156442106610301 0 0.18344157371591241 0.18406997535271 0 0.1981233639171355 0.16578679509823521 0 0.17025484901730581 0.156442106610301 0 0.1886017155567373 0.14211231666073301 0 0.1981233639171355 0.16578679509823521 0 0.17025484901730581 0.156442106610301 0 0.16208469833826319 0.13464304631642149 0 0.1886017155567373 0.14211231666073301 0 0.1886017155567373 0.14211231666073301 0 0.1790800671963392 0.1184378382232308 0 0.16208469833826319 0.13464304631642149 0 0.1886017155567373 0.14211231666073301 0 0.1790800671963392 0.1184378382232308 0 0.19325819231563421 0.12959887947710741 0 0.1886017155567373 0.14211231666073301 0 0.1790800671963392 0.1184378382232308 0 0.16208469833826319 0.13464304631642149 0 0.1790800671963392 0.1184378382232308 0 0.1450893294801871 0.15084825440961219 0 0.17025484901730581 0.156442106610301 0 0.16208469833826319 0.13464304631642149 0 0.1514273965657848 0.24085309905483679 0 0.13478444466321229 0.23767678351231611 0 0.14386495534927929 0.22895205141331151 0 0.1514273965657848 0.24085309905483679 0 0.13478444466321229 0.23767678351231611 0 0.1384713120865835 0.25773302092121009 0 0.1250676346401875 0.24796443701554319 0 0.13478444466321229 0.23767678351231611 0 0.1384713120865835 0.25773302092121009 0 0.1233060832280653 0.2372070654073864 0 0.1250676346401875 0.24796443701554319 0 0.13478444466321229 0.23767678351231611 0 0.1233060832280653 0.2372070654073864 0 0.13478444466321229 0.23767678351231611 0 0.13079881134157489 0.21612504290720769 0 0.13478444466321229 0.23767678351231611 0 0.14386495534927929 0.22895205141331151 0 0.13079881134157489 0.21612504290720769 0 0.14386495534927929 0.22895205141331151 0 0.13079881134157489 0.21612504290720769 0 0.15844916882654519 0.22115328017888419 0 0.1514273965657848 0.24085309905483679 0 0.14386495534927929 0.22895205141331151 0 0.15844916882654519 0.22115328017888419 0 0.13079881134157489 0.21612504290720769 0 0.15844916882654519 0.22115328017888419 0 0.13079881134157489 0.21612504290720769 0 0.14405659807402271 0.2009031781863346 0 0.15844916882654519 0.22115328017888419 0 0.13079881134157489 0.21612504290720769 0 0.12809949413598259 0.1982332796183166 0 0.14405659807402271 0.2009031781863346 0 0.1174426020893027 0.21369620670835879 0 0.13079881134157489 0.21612504290720769 0 0.12809949413598259 0.1982332796183166 0 0.13079881134157489 0.21612504290720769 0 0.14405659807402271 0.2009031781863346 0 0.12809949413598259 0.1982332796183166 0 0.14405659807402271 0.2009031781863346 0 0.12809949413598259 0.1982332796183166 0 0.1377541084679488 0.19338203871321119 0 0.14405659807402271 0.2009031781863346 0 0.12809949413598259 0.1982332796183166 0 0.13022991801334199 0.19514207920620891 0 0.1377541084679488 0.19338203871321119 0 0.12809949413598259 0.1982332796183166 0 0.13022991801334199 0.19514207920620891 0 0.12809949413598259 0.1982332796183166 0 0.12623709760602039 0.18867627876683751 0 0.13022991801334199 0.19514207920620891 0 0.13317066441191511 0.18549658195139779 0 0.12623709760602039 0.18867627876683751 0 0.13022991801334199 0.19514207920620891 0 0.13317066441191511 0.18549658195139779 0 0.14289571148574401 0.18421669799074539 0 0.1377541084679488 0.19338203871321119 0 0.13317066441191511 0.18549658195139779 0 0.13022991801334199 0.19514207920620891 0 0.1377541084679488 0.19338203871321119 0 0.14289571148574401 0.18421669799074539 0 0.1377541084679488 0.19338203871321119 0 0.14405659807402271 0.2009031781863346 0 0.14405659807402271 0.2009031781863346 0 0.1684266189286579 0.20498070278197239 0 0.14289571148574401 0.18421669799074539 0 0.16340295837154781 0.17869074671240681 0 0.14405659807402271 0.2009031781863346 0 0.16340295837154781 0.17869074671240681 0 0.14405659807402271 0.2009031781863346 0 0.16340295837154781 0.17869074671240681 0 0.18344157371591241 0.18406997535271 0 0.1684266189286579 0.20498070278197239 0 0.16340295837154781 0.17869074671240681 0 0.14405659807402271 0.2009031781863346 0 0.1684266189286579 0.20498070278197239 0 0.18344157371591241 0.18406997535271 0 0.1684266189286579 0.20498070278197239 0 0.19279663978329381 0.20905822737760699 0 0.1684266189286579 0.20498070278197239 0 0.19279663978329381 0.20905822737760699 0 0.17869659642439559 0.21414630976549021 0 0.1684266189286579 0.20498070278197239 0 0.19279663978329381 0.20905822737760699 0 0.17869659642439559 0.21414630976549021 0 0.18609952631151591 0.22618151745055959 0 0.19279663978329381 0.20905822737760699 0 0.14405659807402271 0.2009031781863346 0 0.1684266189286579 0.20498070278197239 0 0.15844916882654519 0.22115328017888419 0 0.17869659642439559 0.21414630976549021 0 0.1684266189286579 0.20498070278197239 0 0.15844916882654519 0.22115328017888419 0 0.1514273965657848 0.24085309905483679 0 0.15844916882654519 0.22115328017888419 0 0.1691493644934341 0.23606856512045299 0 0.15844916882654519 0.22115328017888419 0 0.18609952631151591 0.22618151745055959 0 0.1691493644934341 0.23606856512045299 0 0.17869659642439559 0.21414630976549021 0 0.15844916882654519 0.22115328017888419 0 0.18609952631151591 0.22618151745055959 0 0.15844916882654519 0.22115328017888419 0 0.18609952631151591 0.22618151745055959 0 0.18609952631151591 0.22618151745055959 0 0.1971008006350988 0.24422433182354611 0 0.17660728565697029 0.25284173787090108 0 0.18609952631151591 0.22618151745055959 0 0.1691493644934341 0.23606856512045299 0 0.17660728565697029 0.25284173787090108 0 0.1514273965657848 0.24085309905483679 0 0.17660728565697029 0.25284173787090108 0 0.1514273965657848 0.24085309905483679 0 0.1691493644934341 0.23606856512045299 0 0.17660728565697029 0.25284173787090108 0 0.1971008006350988 0.24422433182354611 0 0.21374988379648621 0.2312097547222359 0 0.2257125065402284 0.25431107802280528 0 0.18609952631151591 0.22618151745055959 0 0.19919001424274069 0.21902366269476331 0 0.2102140220753515 0.22438156273492879 0 0.18609952631151591 0.22618151745055959 0 0.1971008006350988 0.24422433182354611 0 0.21374988379648621 0.2312097547222359 0 0.18609952631151591 0.22618151745055959 0 0.21374988379648621 0.2312097547222359 0 0.18609952631151591 0.22618151745055959 0 0.2102140220753515 0.22438156273492879 0 0.21374988379648621 0.2312097547222359 0 0.19919001424274069 0.21902366269476331 0 0.2102140220753515 0.22438156273492879 0 0.22326984787173351 0.22831062181695069 0 0.19919001424274069 0.21902366269476331 0 0.21716666063792969 0.21313575197324039 0 0.22326984787173351 0.22831062181695069 0 0.19919001424274069 0.21902366269476331 0 0.22326984787173351 0.22831062181695069 0 0.2102140220753515 0.22438156273492879 0 0.21374988379648621 0.2312097547222359 0 0.2102140220753515 0.22438156273492879 0 0.21374988379648621 0.2312097547222359 0 0.22326984787173351 0.22831062181695069 0 0.21716666063792969 0.21313575197324039 0 0.19279663978329381 0.20905822737760699 0 0.20764501227753371 0.18946127353573741 0 0.21716666063792969 0.21313575197324039 0 0.19279663978329381 0.20905822737760699 0 0.19919001424274069 0.21902366269476331 0 0.21716666063792969 0.21313575197324039 0 0.19279663978329381 0.20905822737760699 0 0.18609952631151591 0.22618151745055959 0 0.19919001424274069 0.21902366269476331 0 0.19279663978329381 0.20905822737760699 0 0.18344157371591241 0.18406997535271 0 0.19279663978329381 0.20905822737760699 0 0.20764501227753371 0.18946127353573741 0 0.21716666063792969 0.21313575197324039 0 0.20764501227753371 0.18946127353573741 0 0.21716666063792969 0.21313575197324039 0 0.20764501227753371 0.18946127353573741 0 0.22349524510262589 0.1882929917077163 0 0.21716666063792969 0.21313575197324039 0 0.22349524510262589 0.1882929917077163 0 0.23482300448504159 0.1984970970255906 0 0.22349524510262589 0.1882929917077163 0 0.23482300448504159 0.1984970970255906 0 0.23800281531175979 0.18073324988006281 0 0.23482300448504159 0.1984970970255906 0 0.24828008483854189 0.20295934428596721 0 0.25113643024109478 0.19094495075723769 0 0.23482300448504159 0.1984970970255906 0 0.23800281531175979 0.18073324988006281 0 0.25113643024109478 0.19094495075723769 0 0.23482300448504159 0.1984970970255906 0 0.24828008483854189 0.20295934428596721 0 0.24332195560292991 0.2175119837032847 0 0.21716666063792969 0.21313575197324039 0 0.23482300448504159 0.1984970970255906 0 0.24332195560292991 0.2175119837032847 0 0.21716666063792969 0.21313575197324039 0 0.24332195560292991 0.2175119837032847 0 0.22527908084694109 0.23330634744632109 0 0.22326984787173351 0.22831062181695069 0 0.2459873280094696 0.23707215699401071 0 0.21716666063792969 0.21313575197324039 0 0.24332195560292991 0.2175119837032847 0 0.22326984787173351 0.22831062181695069 0 0.21716666063792969 0.21313575197324039 0 0.22326984787173351 0.22831062181695069 0 0.21374988379648621 0.2312097547222359 0 0.22527908084694109 0.23330634744632109 0 0.22326984787173351 0.22831062181695069 0 0.21374988379648621 0.2312097547222359 0 0.22527908084694109 0.23330634744632109 0 0.22527908084694109 0.23330634744632109 0 0.22326984787173351 0.22831062181695069 0 0.22326984787173351 0.22831062181695069 0 0.2459873280094696 0.23707215699401071 0 0.24332195560292991 0.2175119837032847 0 0.22326984787173351 0.22831062181695069 0 0.2459873280094696 0.23707215699401071 0 0.22527908084694109 0.23330634744632109 0 0.2459873280094696 0.23707215699401071 0 0.22527908084694109 0.23330634744632109 0 0.2459873280094696 0.23707215699401071 0 0.23435940432808119 0.2558835225658645 0 0.22527908084694109 0.23330634744632109 0 0.23435940432808119 0.2558835225658645 0 0.21374988379648621 0.2312097547222359 0 0.2257125065402284 0.25431107802280528 0 0.21374988379648621 0.2312097547222359 0 0.22527908084694109 0.23330634744632109 0 0.2257125065402284 0.25431107802280528 0 0.22527908084694109 0.23330634744632109 0 0.2257125065402284 0.25431107802280528 0 0.23435940432808119 0.2558835225658645 0 0.207677409848747 0.15265436726913009 0 0.20799191400454739 0.1375227668896451 0 0.22134903716669199 0.14708536363501609 0 0.20799191400454739 0.1375227668896451 0 0.22703691245497479 0.13189098412415109 0 0.21251029914637609 0.1192952894197942 0 0.20799191400454739 0.1375227668896451 0 0.19325819231563421 0.12959887947710741 0 0.21251029914637609 0.1192952894197942 0 0.20799191400454739 0.1375227668896451 0 0.19325819231563421 0.12959887947710741 0 0.1886017155567373 0.14211231666073301 0 0.1886017155567373 0.14211231666073301 0 0.1981233639171355 0.16578679509823521 0 0.207677409848747 0.15265436726913009 0 0.20799191400454739 0.1375227668896451 0 0.1886017155567373 0.14211231666073301 0 0.207677409848747 0.15265436726913009 0 0.1886017155567373 0.14211231666073301 0 0.1981233639171355 0.16578679509823521 0 0.20764501227753371 0.18946127353573741 0 0.1981233639171355 0.16578679509823521 0 0.18344157371591241 0.18406997535271 0 0.20764501227753371 0.18946127353573741 0 0.1981233639171355 0.16578679509823521 0 0.20764501227753371 0.18946127353573741 0 0.1981233639171355 0.16578679509823521 0 0.22193333897365611 0.16940236618161161 0 0.20764501227753371 0.18946127353573741 0 0.22349524510262589 0.1882929917077163 0 0.22193333897365611 0.16940236618161161 0 0.207677409848747 0.15265436726913009 0 0.1981233639171355 0.16578679509823521 0 0.22193333897365611 0.16940236618161161 0 0.207677409848747 0.15265436726913009 0 0.22193333897365611 0.16940236618161161 0 0.22134903716669199 0.14708536363501609 0 0.22349524510262589 0.1882929917077163 0 0.22193333897365611 0.16940236618161161 0 0.23800281531175979 0.18073324988006281 0 0.23800281531175979 0.18073324988006281 0 0.24342118736862761 0.16410875332904781 0 0.25421457754785548 0.17528354573505059 0 0.23800281531175979 0.18073324988006281 0 0.25421457754785548 0.17528354573505059 0 0.25113643024109478 0.19094495075723769 0 0.22193333897365611 0.16940236618161161 0 0.23800281531175979 0.18073324988006281 0 0.24342118736862761 0.16410875332904781 0 0.22193333897365611 0.16940236618161161 0 0.24342118736862761 0.16410875332904781 0 0.2381959797174126 0.14809141417820801 0 0.2381959797174126 0.14809141417820801 0 0.2471064899150823 0.133463067737116 0 0.25227113898158787 0.14916335431643429 0 0.24342118736862761 0.16410875332904781 0 0.2381959797174126 0.14809141417820801 0 0.25227113898158787 0.14916335431643429 0 0.2381959797174126 0.14809141417820801 0 0.22134903716669199 0.14708536363501609 0 0.22703691245497479 0.13189098412415109 0 0.22193333897365611 0.16940236618161161 0 0.2381959797174126 0.14809141417820801 0 0.22134903716669199 0.14708536363501609 0 0.20799191400454739 0.1375227668896451 0 0.22134903716669199 0.14708536363501609 0 0.22703691245497479 0.13189098412415109 0 0.22703691245497479 0.13189098412415109 0 0.2471064899150823 0.133463067737116 0 0.2348532799323845 0.1126728752525727 0 0.2381959797174126 0.14809141417820801 0 0.22703691245497479 0.13189098412415109 0 0.2471064899150823 0.133463067737116 0 0.2471064899150823 0.133463067737116 0 0.2496952397761337 0.1160329650041991 0 0.2348532799323845 0.1126728752525727 0 0.2348532799323845 0.1126728752525727 0 0.23238347446995899 0.09878858498409393 0 0.25089272908716931 0.092982859712809007 0 0.2496952397761337 0.1160329650041991 0 0.2348532799323845 0.1126728752525727 0 0.25089272908716931 0.092982859712809007 0 0.23238347446995899 0.09878858498409393 0 0.21965336389696419 0.1029970115124081 0 0.22413452496331809 0.086501593458585962 0 0.2348532799323845 0.1126728752525727 0 0.23238347446995899 0.09878858498409393 0 0.21965336389696419 0.1029970115124081 0 0.2348532799323845 0.1126728752525727 0 0.21965336389696419 0.1029970115124081 0 0.21251029914637609 0.1192952894197942 0 0.22703691245497479 0.13189098412415109 0 0.2348532799323845 0.1126728752525727 0 0.21251029914637609 0.1192952894197942 0 0.21965336389696419 0.1029970115124081 0 0.21251029914637609 0.1192952894197942 0 0.20714728240524249 0.10617251279081751 0 0.21251029914637609 0.1192952894197942 0 0.20714728240524249 0.10617251279081751 0 0.2007454095485067 0.1153730887768626 0 0.21965336389696419 0.1029970115124081 0 0.21155544327336909 0.093494818701204518 0 0.22413452496331809 0.086501593458585962 0 0.21965336389696419 0.1029970115124081 0 0.20714728240524249 0.10617251279081751 0 0.21155544327336909 0.093494818701204518 0 0.20029711589946361 0.098207227624031723 0 0.20055037116402991 0.091606906531847498 0 0.21155544327336909 0.093494818701204518 0 0.20714728240524249 0.10617251279081751 0 0.20029711589946361 0.098207227624031723 0 0.21155544327336909 0.093494818701204518 0 0.19812206266677551 0.107667640710604 0 0.20029711589946361 0.098207227624031723 0 0.1885688884481975 0.1093901779912298 0 0.20714728240524249 0.10617251279081751 0 0.19812206266677551 0.107667640710604 0 0.20029711589946361 0.098207227624031723 0 0.20029711589946361 0.098207227624031723 0 0.1929726046438287 0.094705252597794665 0 0.20055037116402991 0.091606906531847498 0 0.1929726046438287 0.094705252597794665 0 0.1885688884481975 0.1093901779912298 0 0.1832996600419958 0.1003897382564244 0 0.20029711589946361 0.098207227624031723 0 0.1929726046438287 0.094705252597794665 0 0.1885688884481975 0.1093901779912298 0 0.20029711589946361 0.098207227624031723 0 0.1885688884481975 0.1093901779912298 0 0.1929726046438287 0.094705252597794665 0 0.1885688884481975 0.1093901779912298 0 0.19812206266677551 0.107667640710604 0 0.19247123508700151 0.1156451737142033 0 0.1885688884481975 0.1093901779912298 0 0.19247123508700151 0.1156451737142033 0 0.1885688884481975 0.1093901779912298 0 0.1858372065203453 0.1184994265274882 0 0.19325819231563421 0.12959887947710741 0 0.21251029914637609 0.1192952894197942 0 0.2007454095485067 0.1153730887768626 0 0.19325819231563421 0.12959887947710741 0 0.19247123508700151 0.1156451737142033 0 0.1858372065203453 0.1184994265274882 0 0.19325819231563421 0.12959887947710741 0 0.19247123508700151 0.1156451737142033 0 0.2007454095485067 0.1153730887768626 0 0.20714728240524249 0.10617251279081751 0 0.19812206266677551 0.107667640710604 0 0.2007454095485067 0.1153730887768626 0 0.19812206266677551 0.107667640710604 0 0.19247123508700151 0.1156451737142033 0 0.2007454095485067 0.1153730887768626 0 0.20238686903042469 0.063311819413239129 0 0.1973763208394673 0.08002032720436178 0 0.18079222374313991 0.066157073385880324 0 0.20238686903042469 0.063311819413239129 0 0.18079222374313991 0.066157073385880324 0 0.1973763208394673 0.08002032720436178 0 0.17868141559437861 0.075492121278057239 0 0.20238686903042469 0.063311819413239129 0 0.1973763208394673 0.08002032720436178 0 0.1929726046438287 0.094705252597794665 0 0.1973763208394673 0.08002032720436178 0 0.1929726046438287 0.094705252597794665 0 0.1973763208394673 0.08002032720436178 0 0.18493574174144031 0.087819629641268118 0 0.1929726046438287 0.094705252597794665 0 0.20055037116402991 0.091606906531847498 0 0.1973763208394673 0.08002032720436178 0 0.1973763208394673 0.08002032720436178 0 0.22413452496331809 0.086501593458585962 0 0.1973763208394673 0.08002032720436178 0 0.21155544327336909 0.093494818701204518 0 0.22413452496331809 0.086501593458585962 0 0.1973763208394673 0.08002032720436178 0 0.21581045027983861 0.072515516379325212 0 0.22413452496331809 0.086501593458585962 0 0.20055037116402991 0.091606906531847498 0 0.1973763208394673 0.08002032720436178 0 0.21155544327336909 0.093494818701204518 0 0.20238686903042469 0.063311819413239129 0 0.21581045027983861 0.072515516379325212 0 0.22639199231908241 0.060148967164815811 0 0.20238686903042469 0.063311819413239129 0 0.1973763208394673 0.08002032720436178 0 0.21581045027983861 0.072515516379325212 0 0.21581045027983861 0.072515516379325212 0 0.22413452496331809 0.086501593458585962 0 0.23571274181676019 0.070187616308315881 0 0.21581045027983861 0.072515516379325212 0 0.23571274181676019 0.070187616308315881 0 0.22639199231908241 0.060148967164815811 0 0.23571274181676019 0.070187616308315881 0 0.23935269316475091 0.05797056278501677 0 0.22639199231908241 0.060148967164815811 0 0.22413452496331809 0.086501593458585962 0 0.25089272908716931 0.092982859712809007 0 0.22413452496331809 0.086501593458585962 0 0.23571274181676019 0.070187616308315881 0 0.25089272908716931 0.092982859712809007 0 0.23238347446995899 0.09878858498409393 0 0.22413452496331809 0.086501593458585962 0 0.25089272908716931 0.092982859712809007 0 0.23571274181676019 0.070187616308315881 0 0.25089272908716931 0.092982859712809007 0 0.23571274181676019 0.070187616308315881 0 0.25282536794073712 0.073272794188635415 0 0.25089272908716931 0.092982859712809007 0 0.23935269316475091 0.05797056278501677 0 0.25425538404847059 0.057624927133231481 0 0.25282536794073712 0.073272794188635415 0 0.23571274181676019 0.070187616308315881 0 0.23935269316475091 0.05797056278501677 0 0.25282536794073712 0.073272794188635415 0 0.2368345322212535 0.044434942105003657 0 0.25425538404847059 0.057624927133231481 0 0.23935269316475091 0.05797056278501677 0 0.2368345322212535 0.044434942105003657 0 0.25425538404847059 0.057624927133231481 0 0.23935269316475091 0.05797056278501677 0 0.2368345322212535 0.044434942105003657 0 0.23127016951469481 0.052559852354376588 0 0.2368345322212535 0.044434942105003657 0 0.25291178968964928 0.037547667281027097 0 0.25425538404847059 0.057624927133231481 0 0.2368345322212535 0.044434942105003657 0 0.24190969492169709 0.024768393557462999 0 0.25291178968964928 0.037547667281027097 0 0.2368345322212535 0.044434942105003657 0 0.21941368039403211 0.031244957076781411 0 0.2368345322212535 0.044434942105003657 0 0.22121604545690071 0.040326540279582428 0 0.22250146035369231 0.047684937362670127 0 0.2368345322212535 0.044434942105003657 0 0.22121604545690071 0.040326540279582428 0 0.21941368039403211 0.031244957076781411 0 0.2368345322212535 0.044434942105003657 0 0.24190969492169709 0.024768393557462999 0 0.21941368039403211 0.031244957076781411 0 0.22121604545690071 0.040326540279582428 0 0.22250146035369231 0.047684937362670127 0 0.2151241054634794 0.043140718643033253 0 0.22250146035369231 0.047684937362670127 0 0.22639199231908241 0.060148967164815811 0 0.21464985550632831 0.05254647609126252 0 0.23935269316475091 0.05797056278501677 0 0.22639199231908241 0.060148967164815811 0 0.23127016951469481 0.052559852354376588 0 0.2368345322212535 0.044434942105003657 0 0.22250146035369231 0.047684937362670127 0 0.23127016951469481 0.052559852354376588 0 0.22250146035369231 0.047684937362670127 0 0.22639199231908241 0.060148967164815811 0 0.23127016951469481 0.052559852354376588 0 0.23517440673197429 0.0051848507458196356 0 0.24190969492169709 0.024768393557462999 0 0.22860778246280219 0.01441509204728152 0 0.23517440673197429 0.0051848507458196356 0 0.2485551203034157 0.0102848256948572 0 0.24190969492169709 0.024768393557462999 0 0.23517440673197429 0.0051848507458196356 0 0.2429424487767215 0.0026164120279975069 0 0.24005113852307369 -0.0027355710512556022 0 0.23517440673197429 0.0051848507458196356 0 0.2429424487767215 0.0026164120279975069 0 0.2485551203034157 0.0102848256948572 0 0.2429424487767215 0.0026164120279975069 0 0.2485551203034157 0.0102848256948572 0 0.2479891295484222 -0.0022684572774312019 0 0.2237082671027216 0.020648212041472009 0 0.22100796739575951 0.001216664300799794 0 0.21337432104441539 0.026672329963493752 0 0.24190969492169709 0.024768393557462999 0 0.21941368039403211 0.031244957076781411 0 0.24190969492169709 0.024768393557462999 0 0.21941368039403211 0.031244957076781411 0 0.2237082671027216 0.020648212041472009 0 0.24190969492169709 0.024768393557462999 0 0.2237082671027216 0.020648212041472009 0 0.22860778246280219 0.01441509204728152 0 0.21941368039403211 0.031244957076781411 0 0.2237082671027216 0.020648212041472009 0 0.21337432104441539 0.026672329963493752 0 0.2237082671027216 0.020648212041472009 0 0.22860778246280219 0.01441509204728152 0 0.22100796739575951 0.001216664300799794 0 0.23517440673197429 0.0051848507458196356 0 0.22860778246280219 0.01441509204728152 0 0.22100796739575951 0.001216664300799794 0 0.22100796739575951 0.001216664300799794 0 0.21337432104441539 0.026672329963493752 0 0.22100796739575951 0.001216664300799794 0 0.21213365429295861 0.01041237886839381 0 0.21337432104441539 0.026672329963493752 0 0.20938161325362409 0.0025060029461209908 0 0.21213365429295861 0.01041237886839381 0 0.19981118715584381 0.0070254328827108366 0 0.20938161325362409 0.0025060029461209908 0 0.19981118715584381 0.0070254328827108366 0 0.20239897911060981 -0.0049616950454924097 0 0.22100796739575951 0.001216664300799794 0 0.21476518088515931 0.0026345493870347861 0 0.21213365429295861 0.01041237886839381 0 0.20938161325362409 0.0025060029461209908 0 0.21476518088515931 0.0026345493870347861 0 0.21653748859829491 -0.0035968485671754561 0 0.20938161325362409 0.0025060029461209908 0 0.21476518088515931 0.0026345493870347861 0 0.21213365429295861 0.01041237886839381 0 0.22100796739575951 0.001216664300799794 0 0.21476518088515931 0.0026345493870347861 0 0.21653748859829491 -0.0035968485671754561 0 0.21213365429295861 0.01041237886839381 0 0.20775643638324501 0.022418817258943329 0 0.19981118715584381 0.0070254328827108366 0 0.20775643638324501 0.022418817258943329 0 0.19981118715584381 0.0070254328827108366 0 0.21213365429295861 0.01041237886839381 0 0.20775643638324501 0.022418817258943329 0 0.21337432104441539 0.026672329963493752 0 0.20775643638324501 0.022418817258943329 0 0.21337432104441539 0.026672329963493752 0 0.21211661331991941 0.030866365927793071 0 0.21941368039403211 0.031244957076781411 0 0.21337432104441539 0.026672329963493752 0 0.21211661331991941 0.030866365927793071 0 0.21941368039403211 0.031244957076781411 0 0.21337432104441539 0.026672329963493752 0 0.21337432104441539 0.026672329963493752 0 0.21211661331991941 0.030866365927793071 0 0.20775643638324501 0.022418817258943329 0 0.21211661331991941 0.030866365927793071 0 0.2008624239423544 0.027751844864101351 0 0.21211661331991941 0.030866365927793071 0 0.2008624239423544 0.027751844864101351 0 0.21130283169949521 0.033580056331867662 0 0.20775643638324501 0.022418817258943329 0 0.21211661331991941 0.030866365927793071 0 0.20775643638324501 0.022418817258943329 0 0.21337432104441539 0.026672329963493752 0 0.2008624239423544 0.027751844864101351 0 0.1914807756371078 0.039286791852227318 0 0.1874867753674215 0.0231110496262097 0 0.2008624239423544 0.027751844864101351 0 0.19503111124693581 0.017247988187571551 0 0.1874867753674215 0.0231110496262097 0 0.19503111124693581 0.017247988187571551 0 0.18734518720319909 0.015281891910368059 0 0.1874867753674215 0.0231110496262097 0 0.20775643638324501 0.022418817258943329 0 0.2008624239423544 0.027751844864101351 0 0.19503111124693581 0.017247988187571551 0 0.20775643638324501 0.022418817258943329 0 0.19503111124693581 0.017247988187571551 0 0.18660242445042999 0.0064023156866817926 0 0.20775643638324501 0.022418817258943329 0 0.18660242445042999 0.0064023156866817926 0 0.20775643638324501 0.022418817258943329 0 0.1894192936343001 0.0060385698470956234 0 0.19981118715584381 0.0070254328827108366 0 0.20775643638324501 0.022418817258943329 0 0.1894192936343001 0.0060385698470956234 0 0.18660242445042999 0.0064023156866817926 0 0.19503111124693581 0.017247988187571551 0 0.18832376542685261 0.012450231659139751 0 0.18660242445042999 0.0064023156866817926 0 0.19503111124693581 0.017247988187571551 0 0.18832376542685261 0.012450231659139751 0 0.18734518720319909 0.015281891910368059 0 0.1894192936343001 0.0060385698470956234 0 0.19981118715584381 0.0070254328827108366 0 0.1918659379284415 -0.0083679514935210662 0 0.20238686903042469 0.063311819413239129 0 0.22639199231908241 0.060148967164815811 0 0.21464985550632831 0.05254647609126252 0 0.20238686903042469 0.063311819413239129 0 0.22639199231908241 0.060148967164815811 0 0.20238686903042469 0.063311819413239129 0 0.20684485036496281 0.04844593787255428 0 0.21464985550632831 0.05254647609126252 0 0.20238686903042469 0.063311819413239129 0 0.20684485036496281 0.04844593787255428 0 0.20684485036496281 0.04844593787255428 0 0.21464985550632831 0.05254647609126252 0 0.2151241054634794 0.043140718643033253 0 0.22250146035369231 0.047684937362670127 0 0.21464985550632831 0.05254647609126252 0 0.2151241054634794 0.043140718643033253 0 0.20684485036496281 0.04844593787255428 0 0.2151241054634794 0.043140718643033253 0 0.21130283169949521 0.033580056331867662 0 0.20684485036496281 0.04844593787255428 0 0.21130283169949521 0.033580056331867662 0 0.1914807756371078 0.039286791852227318 0 0.2151241054634794 0.043140718643033253 0 0.21130283169949521 0.033580056331867662 0 0.21323078658658201 0.03302500146766809 0 0.22121604545690071 0.040326540279582428 0 0.2151241054634794 0.043140718643033253 0 0.21323078658658201 0.03302500146766809 0 0.22121604545690071 0.040326540279582428 0 0.21941368039403211 0.031244957076781411 0 0.21323078658658201 0.03302500146766809 0 0.21941368039403211 0.031244957076781411 0 0.21211661331991941 0.030866365927793071 0 0.21323078658658201 0.03302500146766809 0 0.21941368039403211 0.031244957076781411 0 0.21323078658658201 0.03302500146766809 0 0.21130283169949521 0.033580056331867662 0 0.21323078658658201 0.03302500146766809 0 0.21211661331991941 0.030866365927793071 0 0.21130283169949521 0.033580056331867662 0 0.21323078658658201 0.03302500146766809 0 0.21211661331991941 0.030866365927793071 0 0.21130283169949521 0.033580056331867662 0 0.21211661331991941 0.030866365927793071 0 0.21323078658658201 0.03302500146766809 0 0.20684485036496281 0.04844593787255428 0 0.21130283169949521 0.033580056331867662 0 0.20684485036496281 0.04844593787255428 0 0.1914807756371078 0.039286791852227318 0 0.1906326876700713 0.052439029979298252 0 0.21130283169949521 0.033580056331867662 0 0.1914807756371078 0.039286791852227318 0 0.2008624239423544 0.027751844864101351 0 0.21130283169949521 0.033580056331867662 0 0.1914807756371078 0.039286791852227318 0 0.20238686903042469 0.063311819413239129 0 0.20684485036496281 0.04844593787255428 0 0.1906326876700713 0.052439029979298252 0 0.20238686903042469 0.063311819413239129 0 0.1906326876700713 0.052439029979298252 0 0.18079222374313991 0.066157073385880324 0 0.1906326876700713 0.052439029979298252 0 0.1716587195747214 0.044993527372590117 0 0.18079222374313991 0.066157073385880324 0 0.1914807756371078 0.039286791852227318 0 0.17895959729017549 0.03270519686463521 0 0.1874867753674215 0.0231110496262097 0 0.1914807756371078 0.039286791852227318 0 0.1906326876700713 0.052439029979298252 0 0.1716587195747214 0.044993527372590117 0 0.1914807756371078 0.039286791852227318 0 0.1716587195747214 0.044993527372590117 0 0.1914807756371078 0.039286791852227318 0 0.17895959729017549 0.03270519686463521 0 0.1716587195747214 0.044993527372590117 0 0.17895959729017549 0.03270519686463521 0 0.1716587195747214 0.044993527372590117 0 0.1692336025848987 0.033942773786365128 0 0.1716587195747214 0.044993527372590117 0 0.1692336025848987 0.033942773786365128 0 0.1566962317421734 0.039838803654011962 0 0.1716587195747214 0.044993527372590117 0 0.1566962317421734 0.039838803654011962 0 0.15183666351233449 0.050700262892952028 0 0.1692336025848987 0.033942773786365128 0 0.1566962317421734 0.039838803654011962 0 0.158601754226253 0.030081739901262169 0 0.1716587195747214 0.044993527372590117 0 0.15183666351233449 0.050700262892952028 0 0.15919757845585511 0.069002327358520896 0 0.1716587195747214 0.044993527372590117 0 0.18079222374313991 0.066157073385880324 0 0.15919757845585511 0.069002327358520896 0 0.1716587195747214 0.044993527372590117 0 0.15183666351233449 0.050700262892952028 0 0.17227434920368959 0.00081991249798677823 0 0.17658810010716819 0.0040568459827444014 0 0.17786282304025339 -0.001583287003114023 0 0.17227434920368959 0.00081991249798677823 0 0.17658810010716819 0.0040568459827444014 0 0.17233771352019589 0.0083561011481188656 0 0.17658810010716819 0.0040568459827444014 0 0.18177514670000741 0.0039010391453388991 0 0.17943453638861959 0.0091511058078182841 0 0.17658810010716819 0.0040568459827444014 0 0.17943453638861959 0.0091511058078182841 0 0.17233771352019589 0.0083561011481188656 0 0.17658810010716819 0.0040568459827444014 0 0.18177514670000741 0.0039010391453388991 0 0.17786282304025339 -0.001583287003114023 0 0.18177514670000741 0.0039010391453388991 0 0.18580903226614379 -0.0011502469314075439 0 0.17786282304025339 -0.001583287003114023 0 0.1894192936343001 0.0060385698470956234 0 0.18660242445042999 0.0064023156866817926 0 0.18580903226614379 -0.0011502469314075439 0 0.18177514670000741 0.0039010391453388991 0 0.18660242445042999 0.0064023156866817926 0 0.18580903226614379 -0.0011502469314075439 0 0.18177514670000741 0.0039010391453388991 0 0.18660242445042999 0.0064023156866817926 0 0.18303211158647559 0.0075807978729441382 0 0.18177514670000741 0.0039010391453388991 0 0.18303211158647559 0.0075807978729441382 0 0.17943453638861959 0.0091511058078182841 0 0.18303211158647559 0.0075807978729441382 0 0.18431633880684531 0.01086873085193758 0 0.17943453638861959 0.0091511058078182841 0 0.18660242445042999 0.0064023156866817926 0 0.18303211158647559 0.0075807978729441382 0 0.18431633880684531 0.01086873085193758 0 0.18832376542685261 0.012450231659139751 0 0.18660242445042999 0.0064023156866817926 0 0.18431633880684531 0.01086873085193758 0 0.18431633880684531 0.01086873085193758 0 0.18734518720319909 0.015281891910368059 0 0.18195036267736389 0.015275800378046231 0 0.18832376542685261 0.012450231659139751 0 0.18431633880684531 0.01086873085193758 0 0.18734518720319909 0.015281891910368059 0 0.18431633880684531 0.01086873085193758 0 0.18195036267736389 0.015275800378046231 0 0.17943453638861959 0.0091511058078182841 0 0.18195036267736389 0.015275800378046231 0 0.1761571917665653 0.013806221612761949 0 0.17943453638861959 0.0091511058078182841 0 0.1761571917665653 0.013806221612761949 0 0.17943453638861959 0.0091511058078182841 0 0.17233771352019589 0.0083561011481188656 0 0.1761571917665653 0.013806221612761949 0 0.17233771352019589 0.0083561011481188656 0 0.1709247624247007 0.01466984692398882 0 0.1761571917665653 0.013806221612761949 0 0.17493811328672779 0.022191841685783802 0 0.1709247624247007 0.01466984692398882 0 0.18195036267736389 0.015275800378046231 0 0.1761571917665653 0.013806221612761949 0 0.17493811328672779 0.022191841685783802 0 0.18734518720319909 0.015281891910368059 0 0.18195036267736389 0.015275800378046231 0 0.1874867753674215 0.0231110496262097 0 0.18195036267736389 0.015275800378046231 0 0.17493811328672779 0.022191841685783802 0 0.1874867753674215 0.0231110496262097 0 0.17895959729017549 0.03270519686463521 0 0.17493811328672779 0.022191841685783802 0 0.1874867753674215 0.0231110496262097 0 0.17895959729017549 0.03270519686463521 0 0.1692336025848987 0.033942773786365128 0 0.17493811328672779 0.022191841685783802 0 0.1692336025848987 0.033942773786365128 0 0.1660519956958274 0.025200646889517071 0 0.158601754226253 0.030081739901262169 0 0.1692336025848987 0.033942773786365128 0 0.17493811328672779 0.022191841685783802 0 0.1660519956958274 0.025200646889517071 0 0.1660519956958274 0.025200646889517071 0 0.158601754226253 0.030081739901262169 0 0.15656323758401319 0.020842958383828041 0 0.15656323758401319 0.020842958383828041 0 0.1655425680131333 0.017645951334422452 0 0.15799820797772829 0.01069464001977203 0 0.1660519956958274 0.025200646889517071 0 0.15656323758401319 0.020842958383828041 0 0.1655425680131333 0.017645951334422452 0 0.17493811328672779 0.022191841685783802 0 0.1660519956958274 0.025200646889517071 0 0.1655425680131333 0.017645951334422452 0 0.17493811328672779 0.022191841685783802 0 0.1655425680131333 0.017645951334422452 0 0.1709247624247007 0.01466984692398882 0 0.17233771352019589 0.0083561011481188656 0 0.1709247624247007 0.01466984692398882 0 0.16528784937855559 0.0099045707114697821 0 0.1655425680131333 0.017645951334422452 0 0.1709247624247007 0.01466984692398882 0 0.16528784937855559 0.0099045707114697821 0 0.1655425680131333 0.017645951334422452 0 0.16528784937855559 0.0099045707114697821 0 0.15799820797772829 0.01069464001977203 0 0.16528784937855559 0.0099045707114697821 0 0.15830422717032419 0.0026668804518291322 0 0.16550177429739321 0.001625335581948511 0 0.16528784937855559 0.0099045707114697821 0 0.15799820797772829 0.01069464001977203 0 0.15830422717032419 0.0026668804518291322 0 0.17233771352019589 0.0083561011481188656 0 0.16528784937855559 0.0099045707114697821 0 0.16550177429739321 0.001625335581948511 0 0.17227434920368959 0.00081991249798677823 0 0.17233771352019589 0.0083561011481188656 0 0.16550177429739321 0.001625335581948511 0 0.14127976741107601 0.00215554095495248 0 0.15230472087545879 0.0045339035350271751 0 0.14873370341600839 0.01190124285016711 0 0.15799820797772829 0.01069464001977203 0 0.15830422717032419 0.0026668804518291322 0 0.15230472087545879 0.0045339035350271751 0 0.14127976741107601 0.00215554095495248 0 0.15230472087545879 0.0045339035350271751 0 0.1552076984021574 -0.0047487866015848753 0 0.15830422717032419 0.0026668804518291322 0 0.15230472087545879 0.0045339035350271751 0 0.1552076984021574 -0.0047487866015848753 0 0.15656323758401319 0.020842958383828041 0 0.15799820797772829 0.01069464001977203 0 0.14873370341600839 0.01190124285016711 0 0.15799820797772829 0.01069464001977203 0 0.15230472087545879 0.0045339035350271751 0 0.14873370341600839 0.01190124285016711 0 0.14873370341600839 0.01190124285016711 0 0.1458857290053831 0.021389540043380069 0 0.13967636330765321 0.013174792475989121 0 0.14127976741107601 0.00215554095495248 0 0.14873370341600839 0.01190124285016711 0 0.13967636330765321 0.013174792475989121 0 0.1458857290053831 0.021389540043380069 0 0.13916191736165201 0.019633136795163032 0 0.13967636330765321 0.013174792475989121 0 0.1458857290053831 0.021389540043380069 0 0.14010063181871271 0.02585166497444577 0 0.13916191736165201 0.019633136795163032 0 0.15656323758401319 0.020842958383828041 0 0.1458857290053831 0.021389540043380069 0 0.15175299049851881 0.02729842449465077 0 0.15656323758401319 0.020842958383828041 0 0.14873370341600839 0.01190124285016711 0 0.1458857290053831 0.021389540043380069 0 0.158601754226253 0.030081739901262169 0 0.15656323758401319 0.020842958383828041 0 0.15175299049851881 0.02729842449465077 0 0.158601754226253 0.030081739901262169 0 0.15175299049851881 0.02729842449465077 0 0.15159127196488009 0.032471007951428398 0 0.15175299049851881 0.02729842449465077 0 0.14523576613563741 0.02976945682372012 0 0.15159127196488009 0.032471007951428398 0 0.1458857290053831 0.021389540043380069 0 0.14523576613563741 0.02976945682372012 0 0.14010063181871271 0.02585166497444577 0 0.14523576613563741 0.02976945682372012 0 0.14010063181871271 0.02585166497444577 0 0.1391322595465444 0.03699933077486834 0 0.1458857290053831 0.021389540043380069 0 0.15175299049851881 0.02729842449465077 0 0.14523576613563741 0.02976945682372012 0 0.1309849453148588 0.01811654968683717 0 0.1391322595465444 0.03699933077486834 0 0.14010063181871271 0.02585166497444577 0 0.1309849453148588 0.01811654968683717 0 0.1391322595465444 0.03699933077486834 0 0.11917198148314 0.002581966002757949 0 0.13034027439662041 0.028127834929059549 0 0.1309849453148588 0.01811654968683717 0 0.13034027439662041 0.028127834929059549 0 0.1309849453148588 0.01811654968683717 0 0.1391322595465444 0.03699933077486834 0 0.1309849453148588 0.01811654968683717 0 0.13916191736165201 0.019633136795163032 0 0.13967636330765321 0.013174792475989121 0 0.14010063181871271 0.02585166497444577 0 0.1309849453148588 0.01811654968683717 0 0.13916191736165201 0.019633136795163032 0 0.14127976741107601 0.00215554095495248 0 0.13362755423293271 0.0080562160832345926 0 0.1228376310831711 -0.00076623140119310329 0 0.1309849453148588 0.01811654968683717 0 0.13362755423293271 0.0080562160832345926 0 0.1228376310831711 -0.00076623140119310329 0 0.1309849453148588 0.01811654968683717 0 0.1228376310831711 -0.00076623140119310329 0 0.1309849453148588 0.01811654968683717 0 0.13362755423293271 0.0080562160832345926 0 0.13967636330765321 0.013174792475989121 0 0.14127976741107601 0.00215554095495248 0 0.13362755423293271 0.0080562160832345926 0 0.13967636330765321 0.013174792475989121 0 0.15183666351233449 0.050700262892952028 0 0.15919757845585511 0.069002327358520896 0 0.15048711395973299 0.060532750562707877 0 0.15183666351233449 0.050700262892952028 0 0.15919757845585511 0.069002327358520896 0 0.14215194880052681 0.055145346777992182 0 0.15048711395973299 0.060532750562707877 0 0.13253998066004699 0.064315925604492674 0 0.1415085673101022 0.053673703855360522 0 0.14215194880052681 0.055145346777992182 0 0.15183666351233449 0.050700262892952028 0 0.1415085673101022 0.053673703855360522 0 0.15183666351233449 0.050700262892952028 0 0.1415085673101022 0.053673703855360522 0 0.15183666351233449 0.050700262892952028 0 0.14453550543306221 0.044729731242042367 0 0.1415085673101022 0.053673703855360522 0 0.14215194880052681 0.055145346777992182 0 0.14215194880052681 0.055145346777992182 0 0.15048711395973299 0.060532750562707877 0 0.15183666351233449 0.050700262892952028 0 0.1415085673101022 0.053673703855360522 0 0.14453550543306221 0.044729731242042367 0 0.1391322595465444 0.03699933077486834 0 0.15183666351233449 0.050700262892952028 0 0.14566961722181801 0.035366614883496988 0 0.1566962317421734 0.039838803654011962 0 0.15183666351233449 0.050700262892952028 0 0.14566961722181801 0.035366614883496988 0 0.1566962317421734 0.039838803654011962 0 0.15159127196488009 0.032471007951428398 0 0.14566961722181801 0.035366614883496988 0 0.1566962317421734 0.039838803654011962 0 0.158601754226253 0.030081739901262169 0 0.15159127196488009 0.032471007951428398 0 0.14566961722181801 0.035366614883496988 0 0.14453550543306221 0.044729731242042367 0 0.1391322595465444 0.03699933077486834 0 0.14523576613563741 0.02976945682372012 0 0.15159127196488009 0.032471007951428398 0 0.14566961722181801 0.035366614883496988 0 0.14523576613563741 0.02976945682372012 0 0.14566961722181801 0.035366614883496988 0 0.1391322595465444 0.03699933077486834 0 0.15183666351233449 0.050700262892952028 0 0.14566961722181801 0.035366614883496988 0 0.14453550543306221 0.044729731242042367 0 0.13034027439662041 0.028127834929059549 0 0.1415085673101022 0.053673703855360522 0 0.13034027439662041 0.028127834929059549 0 0.1415085673101022 0.053673703855360522 0 0.1391322595465444 0.03699933077486834 0 0.12367169586596689 0.04413069599522032 0 0.13034027439662041 0.028127834929059549 0 0.1415085673101022 0.053673703855360522 0 0.11892469151436 0.060175562481194378 0 0.12367169586596689 0.04413069599522032 0 0.1415085673101022 0.053673703855360522 0 0.11892469151436 0.060175562481194378 0 0.1415085673101022 0.053673703855360522 0 0.11892469151436 0.060175562481194378 0 0.1415085673101022 0.053673703855360522 0 0.13253998066004699 0.064315925604492674 0 0.1415085673101022 0.053673703855360522 0 0.14215194880052681 0.055145346777992182 0 0.13253998066004699 0.064315925604492674 0 0.13253998066004699 0.064315925604492674 0 0.13121537104960351 0.072689189806444385 0 0.15446329543616341 0.069626104104570485 0 0.1243405792371938 0.066503547411893488 0 0.13253998066004699 0.064315925604492674 0 0.13121537104960351 0.072689189806444385 0 0.11892469151436 0.060175562481194378 0 0.1243405792371938 0.066503547411893488 0 0.13253998066004699 0.064315925604492674 0 0.13121537104960351 0.072689189806444385 0 0.14336397744542301 0.076431171561807093 0 0.13288821721910599 0.083857800247139097 0 0.15048711395973299 0.060532750562707877 0 0.13253998066004699 0.064315925604492674 0 0.15446329543616341 0.069626104104570485 0 0.13121537104960351 0.072689189806444385 0 0.15446329543616341 0.069626104104570485 0 0.13121537104960351 0.072689189806444385 0 0.14336397744542301 0.076431171561807093 0 0.15446329543616341 0.069626104104570485 0 0.13253998066004699 0.064315925604492674 0 0.15446329543616341 0.069626104104570485 0 0.14336397744542301 0.076431171561807093 0 0.15145508435945571 0.07730097997971673 0 0.15446329543616341 0.069626104104570485 0 0.15145508435945571 0.07730097997971673 0 0.15998651034928929 0.070963915351755544 0 0.15635019231632599 0.084708360937410687 0 0.15145508435945571 0.07730097997971673 0 0.15446329543616341 0.069626104104570485 0 0.15998651034928929 0.070963915351755544 0 0.15048711395973299 0.060532750562707877 0 0.15446329543616341 0.069626104104570485 0 0.15919757845585511 0.069002327358520896 0 0.1449478564828334 0.088262465871273704 0 0.15304430801011831 0.09759233646353245 0 0.15635019231632599 0.084708360937410687 0 0.15145508435945571 0.07730097997971673 0 0.1449478564828334 0.088262465871273704 0 0.15635019231632599 0.084708360937410687 0 0.14336397744542301 0.076431171561807093 0 0.15145508435945571 0.07730097997971673 0 0.1449478564828334 0.088262465871273704 0 0.1449478564828334 0.088262465871273704 0 0.13288821721910599 0.083857800247139097 0 0.1333435253298102 0.095432768439741328 0 0.14336397744542301 0.076431171561807093 0 0.1449478564828334 0.088262465871273704 0 0.13288821721910599 0.083857800247139097 0 0.1225478872688979 0.090713611373926736 0 0.1210037722340596 0.082520495593825793 0 0.13288821721910599 0.083857800247139097 0 0.1210037722340596 0.082520495593825793 0 0.13121537104960351 0.072689189806444385 0 0.13288821721910599 0.083857800247139097 0 0.1225478872688979 0.090713611373926736 0 0.13288821721910599 0.083857800247139097 0 0.1333435253298102 0.095432768439741328 0 0.1449478564828334 0.088262465871273704 0 0.1368974078767736 0.107501873099266 0 0.1333435253298102 0.095432768439741328 0 0.12018819637303869 0.10164151191590461 0 0.1368974078767736 0.107501873099266 0 0.1333435253298102 0.095432768439741328 0 0.12018819637303869 0.10164151191590461 0 0.1225478872688979 0.090713611373926736 0 0.1333435253298102 0.095432768439741328 0 0.11707998843366239 0.12090166170324231 0 0.14061487869327599 0.12738787364596069 0 0.1368974078767736 0.107501873099266 0 0.14061487869327599 0.12738787364596069 0 0.1368974078767736 0.107501873099266 0 0.1574927946018469 0.1127881056222175 0 0.14061487869327599 0.12738787364596069 0 0.16208469833826319 0.13464304631642149 0 0.1574927946018469 0.1127881056222175 0 0.1368974078767736 0.107501873099266 0 0.15304430801011831 0.09759233646353245 0 0.1574927946018469 0.1127881056222175 0 0.1449478564828334 0.088262465871273704 0 0.1368974078767736 0.107501873099266 0 0.15304430801011831 0.09759233646353245 0 0.15304430801011831 0.09759233646353245 0 0.1695332887728116 0.094700876787494351 0 0.1574927946018469 0.1127881056222175 0 0.1695332887728116 0.094700876787494351 0 0.1574927946018469 0.1127881056222175 0 0.1790800671963392 0.1184378382232308 0 0.16208469833826319 0.13464304631642149 0 0.1574927946018469 0.1127881056222175 0 0.1790800671963392 0.1184378382232308 0 0.1885688884481975 0.1093901779912298 0 0.1790800671963392 0.1184378382232308 0 0.1832996600419958 0.1003897382564244 0 0.1885688884481975 0.1093901779912298 0 0.1790800671963392 0.1184378382232308 0 0.1858372065203453 0.1184994265274882 0 0.1885688884481975 0.1093901779912298 0 0.1858372065203453 0.1184994265274882 0 0.1885688884481975 0.1093901779912298 0 0.1790800671963392 0.1184378382232308 0 0.19325819231563421 0.12959887947710741 0 0.1790800671963392 0.1184378382232308 0 0.1858372065203453 0.1184994265274882 0 0.1695332887728116 0.094700876787494351 0 0.1790800671963392 0.1184378382232308 0 0.1695332887728116 0.094700876787494351 0 0.1790800671963392 0.1184378382232308 0 0.1832996600419958 0.1003897382564244 0 0.1695332887728116 0.094700876787494351 0 0.1832996600419958 0.1003897382564244 0 0.18493574174144031 0.087819629641268118 0 0.1929726046438287 0.094705252597794665 0 0.1832996600419958 0.1003897382564244 0 0.18493574174144031 0.087819629641268118 0 0.1973763208394673 0.08002032720436178 0 0.18493574174144031 0.087819629641268118 0 0.17868141559437861 0.075492121278057239 0 0.1695332887728116 0.094700876787494351 0 0.18493574174144031 0.087819629641268118 0 0.17868141559437861 0.075492121278057239 0 0.1973763208394673 0.08002032720436178 0 0.17868141559437861 0.075492121278057239 0 0.18079222374313991 0.066157073385880324 0 0.17868141559437861 0.075492121278057239 0 0.18079222374313991 0.066157073385880324 0 0.15998651034928929 0.070963915351755544 0 0.18079222374313991 0.066157073385880324 0 0.15919757845585511 0.069002327358520896 0 0.18079222374313991 0.066157073385880324 0 0.15919757845585511 0.069002327358520896 0 0.15998651034928929 0.070963915351755544 0 0.17868141559437861 0.075492121278057239 0 0.15998651034928929 0.070963915351755544 0 0.15446329543616341 0.069626104104570485 0 0.15919757845585511 0.069002327358520896 0 0.15998651034928929 0.070963915351755544 0 0.15446329543616341 0.069626104104570485 0 0.15919757845585511 0.069002327358520896 0 0.15446329543616341 0.069626104104570485 0 0.15998651034928929 0.070963915351755544 0 0.15919757845585511 0.069002327358520896 0 0.15998651034928929 0.070963915351755544 0 0.1695332887728116 0.094700876787494351 0 0.17868141559437861 0.075492121278057239 0 0.15998651034928929 0.070963915351755544 0 0.15304430801011831 0.09759233646353245 0 0.1695332887728116 0.094700876787494351 0 0.15635019231632599 0.084708360937410687 0 0.1695332887728116 0.094700876787494351 0 0.15998651034928929 0.070963915351755544 0 0.1695332887728116 0.094700876787494351 0 0.15998651034928929 0.070963915351755544 0 0.15635019231632599 0.084708360937410687 0 0.097740131103692757 0.47211576306312553 0 0.10228396963995549 0.48764264937867408 0 0.092199203719590395 0.48872928857719472 0 0.097740131103692757 0.47211576306312553 0 0.1146358595090817 0.48605788153156299 0 0.097740131103692757 0.47211576306312553 0 0.10228396963995549 0.48764264937867408 0 0.1146358595090817 0.48605788153156299 0 0.1038255785689283 0.5 0 0.10228396963995549 0.48764264937867408 0 0.092199203719590395 0.48872928857719472 0 0.1038255785689283 0.5 0 0.10228396963995549 0.48764264937867408 0 0.1146358595090817 0.48605788153156299 0 0.1146358595090817 0.48605788153156299 0 0.13153158791447089 0.50000000000000033 0 0.1038255785689283 0.5 0 0.1146358595090817 0.48605788153156299 0 0.13153158791447089 0.50000000000000033 0 0.097740131103692757 0.47211576306312553 0 0.1146358595090817 0.48605788153156299 0 0.1160915578241386 0.4641835533930308 0 0.1146358595090817 0.48605788153156299 0 0.1160915578241386 0.4641835533930308 0 0.13792901651589951 0.46760966493884959 0 0.1160915578241386 0.4641835533930308 0 0.1237280261196836 0.44463014715047522 0 0.10202961426548091 0.45002724093957291 0 0.1237280261196836 0.44463014715047522 0 0.1057649319772677 0.43759517983083812 0 0.10202961426548091 0.45002724093957291 0 0.1057649319772677 0.43759517983083812 0 0.10202961426548091 0.45002724093957291 0 0.08764391112498858 0.43163178618934439 0 0.097740131103692757 0.47211576306312553 0 0.1160915578241386 0.4641835533930308 0 0.10202961426548091 0.45002724093957291 0 0.080844402698305312 0.45817364459468618 0 0.076730675362011974 0.47423156549521001 0 0.097740131103692757 0.47211576306312553 0 0.080844402698305312 0.45817364459468618 0 0.097740131103692757 0.47211576306312553 0 0.10202961426548091 0.45002724093957291 0 0.080844402698305312 0.45817364459468618 0 0.097740131103692757 0.47211576306312553 0 0.080844402698305312 0.45817364459468618 0 0.076730675362011974 0.47423156549521001 0 0.080844402698305312 0.45817364459468618 0 0.08764391112498858 0.43163178618934439 0 0.10202961426548091 0.45002724093957291 0 0.080844402698305312 0.45817364459468618 0 0.08764391112498858 0.43163178618934439 0 0.080844402698305312 0.45817364459468618 0 0.07540768018483697 0.44030754071393319 0 0.08764391112498858 0.43163178618934439 0 0.080844402698305312 0.45817364459468618 0 0.07540768018483697 0.44030754071393319 0 0.061556592319121653 0.44225761358074578 0 0.080844402698305312 0.45817364459468618 0 0.061556592319121653 0.44225761358074578 0 0.080844402698305312 0.45817364459468618 0 0.067859653170709522 0.45426422462270638 0 0.061556592319121653 0.44225761358074578 0 0.080844402698305312 0.45817364459468618 0 0.064346854003363874 0.46736183993319841 0 0.076730675362011974 0.47423156549521001 0 0.064346854003363874 0.46736183993319841 0 0.067859653170709522 0.45426422462270638 0 0.056076759981020123 0.44443419347066321 0 0.080844402698305312 0.45817364459468618 0 0.064346854003363874 0.46736183993319841 0 0.067859653170709522 0.45426422462270638 0 0.076730675362011974 0.47423156549521001 0 0.072616948025712127 0.490289486395732 0 0.064346854003363874 0.46736183993319841 0 0.072616948025712127 0.490289486395732 0 0.058055043786226751 0.49051055052906067 0 0.064346854003363874 0.46736183993319841 0 0.072616948025712127 0.490289486395732 0 0.064346854003363874 0.46736183993319841 0 0.076730675362011974 0.47423156549521001 0 0.072616948025712127 0.490289486395732 0 0.076730675362011974 0.47423156549521001 0 0.082075002421626492 0.48449271935339733 0 0.072616948025712127 0.490289486395732 0 0.097740131103692757 0.47211576306312553 0 0.076730675362011974 0.47423156549521001 0 0.082075002421626492 0.48449271935339733 0 0.097740131103692757 0.47211576306312553 0 0.092199203719590395 0.48872928857719472 0 0.082075002421626492 0.48449271935339733 0 0.1038255785689283 0.5 0 0.092199203719590395 0.48872928857719472 0 0.076119569223385697 0.50000000000000089 0 0.092199203719590395 0.48872928857719472 0 0.082075002421626492 0.48449271935339733 0 0.076119569223385697 0.50000000000000089 0 0.072616948025712127 0.490289486395732 0 0.07012930311136284 0.49999999999999661 0 0.076119569223385697 0.50000000000000089 0 0.072616948025712127 0.490289486395732 0 0.07012930311136284 0.49999999999999661 0 0.076119569223385697 0.50000000000000089 0 0.072616948025712127 0.490289486395732 0 0.082075002421626492 0.48449271935339733 0 0.076119569223385697 0.50000000000000089 0 0.072616948025712127 0.490289486395732 0 0.072616948025712127 0.490289486395732 0 0.07012930311136284 0.49999999999999661 0 0.058055043786226751 0.49051055052906067 0 0.058055043786226751 0.49051055052906067 0 0.046280597366186747 0.47957307303049429 0 0.044860440428939378 0.4999999999999995 0 0.07012930311136284 0.49999999999999661 0 0.058055043786226751 0.49051055052906067 0 0.044860440428939378 0.4999999999999995 0 0.064346854003363874 0.46736183993319841 0 0.058055043786226751 0.49051055052906067 0 0.046280597366186747 0.47957307303049429 0 0.046280597366186747 0.47957307303049429 0 0.047700754303434179 0.45914614606098908 0 0.046280597366186747 0.47957307303049429 0 0.029897162037545319 0.4839753813588808 0 0.03521852719449324 0.46736449501777538 0 0.044860440428939378 0.4999999999999995 0 0.01907995414838232 0.5 0 0.029897162037545319 0.4839753813588808 0 0.046280597366186747 0.47957307303049429 0 0.044860440428939378 0.4999999999999995 0 0.046280597366186747 0.47957307303049429 0 0.044860440428939378 0.4999999999999995 0 0.029897162037545319 0.4839753813588808 0 0.01907995414838232 0.5 0 0.029897162037545319 0.4839753813588808 0 0.01223017135109394 0.48399563131022733 0 0.029897162037545319 0.4839753813588808 0 0.02313076419329519 0.4718947066398041 0 0.01223017135109394 0.48399563131022733 0 0.029897162037545319 0.4839753813588808 0 0.02313076419329519 0.4718947066398041 0 0.03521852719449324 0.46736449501777538 0 0.02313076419329519 0.4718947066398041 0 0.01223017135109394 0.48399563131022733 0 0.01319884020628341 0.47022233111689332 0 -0.003880604538310756 0.48346324919380129 0 0.01223017135109394 0.48399563131022733 0 0.0050866533922729329 0.47701524235381432 0 0.01223017135109394 0.48399563131022733 0 0.01319884020628341 0.47022233111689332 0 0.0050866533922729329 0.47701524235381432 0 0.01319884020628341 0.47022233111689332 0 0.0053167838454733218 0.46943384557929257 0 0.0050866533922729329 0.47701524235381432 0 -0.001026908195020756 0.47486914558720472 0 0.0053167838454733218 0.46943384557929257 0 0.0050866533922729329 0.47701524235381432 0 -0.003880604538310756 0.48346324919380129 0 -0.001026908195020756 0.47486914558720472 0 0.0050866533922729329 0.47701524235381432 0 -0.0067005321321746969 0.5 0 0.01907995414838232 0.5 0 0.01223017135109394 0.48399563131022733 0 -0.0067005321321746969 0.5 0 -0.003880604538310756 0.48346324919380129 0 0.01223017135109394 0.48399563131022733 0 0.0094816941431487278 0.45086042579757712 0 0.01399183751309625 0.44462120914047132 0 0.0048617880261327502 0.44584476697033082 0 0.0094816941431487278 0.45086042579757712 0 0.01399183751309625 0.44462120914047132 0 0.016302396861864351 0.45114502888407948 0 0.01049598620797234 0.43767394788706171 0 0.01399183751309625 0.44462120914047132 0 0.0048617880261327502 0.44584476697033082 0 0.01049598620797234 0.43767394788706171 0 0.01399183751309625 0.44462120914047132 0 0.020379531913139331 0.43685778481219928 0 0.01049598620797234 0.43767394788706171 0 0.0048617880261327502 0.44584476697033082 0 0.01049598620797234 0.43767394788706171 0 0.0048617880261327502 0.44584476697033082 0 0.0065189226172944724 0.43188650626448272 0 0.0094816941431487278 0.45086042579757712 0 0.0048617880261327502 0.44584476697033082 0 0.0015605482097463411 0.45063228640423969 0 0.0048617880261327502 0.44584476697033082 0 0.0015605482097463411 0.45063228640423969 0 0.0094816941431487278 0.45086042579757712 0 0.0048617880261327502 0.44584476697033082 0 0.0015605482097463411 0.45063228640423969 0 0.0080738590363113663 0.46132998490476868 0 0.01222090350615627 0.45893997922115709 0 0.0015605482097463411 0.45063228640423969 0 0.01222090350615627 0.45893997922115709 0 -0.0094095992007081283 0.46654139838691122 0 0.0053167838454733218 0.46943384557929257 0 0.0080738590363113663 0.46132998490476868 0 0.0094816941431487278 0.45086042579757712 0 0.0015605482097463411 0.45063228640423969 0 0.01222090350615627 0.45893997922115709 0 -0.0094095992007081283 0.46654139838691122 0 0.0015605482097463411 0.45063228640423969 0 0.0080738590363113663 0.46132998490476868 0 0.0080738590363113663 0.46132998490476868 0 0.01222090350615627 0.45893997922115709 0 0.025557317273330941 0.45611857142262657 0 0.01319884020628341 0.47022233111689332 0 0.0080738590363113663 0.46132998490476868 0 0.025557317273330941 0.45611857142262657 0 0.01319884020628341 0.47022233111689332 0 0.0053167838454733218 0.46943384557929257 0 0.0080738590363113663 0.46132998490476868 0 0.0094816941431487278 0.45086042579757712 0 0.01222090350615627 0.45893997922115709 0 0.016302396861864351 0.45114502888407948 0 0.01222090350615627 0.45893997922115709 0 0.025557317273330941 0.45611857142262657 0 0.016302396861864351 0.45114502888407948 0 0.0080738590363113663 0.46132998490476868 0 0.025557317273330941 0.45611857142262657 0 0.02313076419329519 0.4718947066398041 0 0.01319884020628341 0.47022233111689332 0 0.025557317273330941 0.45611857142262657 0 0.02313076419329519 0.4718947066398041 0 0.025557317273330941 0.45611857142262657 0 0.03521852719449324 0.46736449501777538 0 0.025557317273330941 0.45611857142262657 0 0.029497972404799989 0.4465970104894148 0 0.021231693005787571 0.44530579808828252 0 0.025557317273330941 0.45611857142262657 0 0.016302396861864351 0.45114502888407948 0 0.021231693005787571 0.44530579808828252 0 0.01399183751309625 0.44462120914047132 0 0.016302396861864351 0.45114502888407948 0 0.021231693005787571 0.44530579808828252 0 0.01399183751309625 0.44462120914047132 0 0.021231693005787571 0.44530579808828252 0 0.020379531913139331 0.43685778481219928 0 0.029497972404799989 0.4465970104894148 0 0.021231693005787571 0.44530579808828252 0 0.030311313049230751 0.43763339856834432 0 0.021231693005787571 0.44530579808828252 0 0.030311313049230751 0.43763339856834432 0 0.020379531913139331 0.43685778481219928 0 0.038697605999956301 0.44825738244890739 0 0.047700754303434179 0.45914614606098908 0 0.049120911240681603 0.43871921909148398 0 0.029497972404799989 0.4465970104894148 0 0.038697605999956301 0.44825738244890739 0 0.040333793699140981 0.43958103258297831 0 0.029497972404799989 0.4465970104894148 0 0.030311313049230751 0.43763339856834432 0 0.040333793699140981 0.43958103258297831 0 0.025557317273330941 0.45611857142262657 0 0.029497972404799989 0.4465970104894148 0 0.038697605999956301 0.44825738244890739 0 0.038697605999956301 0.44825738244890739 0 0.040333793699140981 0.43958103258297831 0 0.049120911240681603 0.43871921909148398 0 0.046280597366186747 0.47957307303049429 0 0.03521852719449324 0.46736449501777538 0 0.047700754303434179 0.45914614606098908 0 0.025557317273330941 0.45611857142262657 0 0.038697605999956301 0.44825738244890739 0 0.03521852719449324 0.46736449501777538 0 0.038697605999956301 0.44825738244890739 0 0.03521852719449324 0.46736449501777538 0 0.047700754303434179 0.45914614606098908 0 0.064346854003363874 0.46736183993319841 0 0.056076759981020123 0.44443419347066321 0 0.064346854003363874 0.46736183993319841 0 0.046280597366186747 0.47957307303049429 0 0.047700754303434179 0.45914614606098908 0 0.064346854003363874 0.46736183993319841 0 0.047700754303434179 0.45914614606098908 0 0.056076759981020123 0.44443419347066321 0 0.047700754303434179 0.45914614606098908 0 0.049120911240681603 0.43871921909148398 0 0.056076759981020123 0.44443419347066321 0 0.047700754303434179 0.45914614606098908 0 0.049120911240681603 0.43871921909148398 0 0.067859653170709522 0.45426422462270638 0 0.056076759981020123 0.44443419347066321 0 0.061556592319121653 0.44225761358074578 0 0.056076759981020123 0.44443419347066321 0 0.061556592319121653 0.44225761358074578 0 0.059201111644200437 0.43099696977894508 0 0.056076759981020123 0.44443419347066321 0 0.047806665958676359 0.42150654700812801 0 0.049120911240681603 0.43871921909148398 0 0.056076759981020123 0.44443419347066321 0 0.047806665958676359 0.42150654700812801 0 0.056076759981020123 0.44443419347066321 0 0.059201111644200437 0.43099696977894508 0 0.047806665958676359 0.42150654700812801 0 0.059201111644200437 0.43099696977894508 0 0.058979725365252707 0.4176193763442323 0 0.047806665958676359 0.42150654700812801 0 0.058979725365252707 0.4176193763442323 0 0.039536571936328653 0.39857890054559408 0 0.063240005814886313 0.40658319209587829 0 0.058979725365252707 0.4176193763442323 0 0.047806665958676359 0.42150654700812801 0 0.039536571936328653 0.39857890054559408 0 0.035113551011259521 0.41687403621696922 0 0.02872917033170445 0.40503675834663061 0 0.039536571936328653 0.39857890054559408 0 0.047806665958676359 0.42150654700812801 0 0.039536571936328653 0.39857890054559408 0 0.047806665958676359 0.42150654700812801 0 0.035113551011259521 0.41687403621696922 0 0.039536571936328653 0.39857890054559408 0 0.049120911240681603 0.43871921909148398 0 0.047806665958676359 0.42150654700812801 0 0.039708047704291503 0.4306454839277386 0 0.040333793699140981 0.43958103258297831 0 0.049120911240681603 0.43871921909148398 0 0.039708047704291503 0.4306454839277386 0 0.047806665958676359 0.42150654700812801 0 0.035113551011259521 0.41687403621696922 0 0.039708047704291503 0.4306454839277386 0 0.035113551011259521 0.41687403621696922 0 0.039708047704291503 0.4306454839277386 0 0.028741688689164512 0.42811504149697438 0 0.030311313049230751 0.43763339856834432 0 0.039708047704291503 0.4306454839277386 0 0.028741688689164512 0.42811504149697438 0 0.030311313049230751 0.43763339856834432 0 0.040333793699140981 0.43958103258297831 0 0.039708047704291503 0.4306454839277386 0 0.030311313049230751 0.43763339856834432 0 0.020379531913139331 0.43685778481219928 0 0.028741688689164512 0.42811504149697438 0 0.01049598620797234 0.43767394788706171 0 0.020379531913139331 0.43685778481219928 0 0.01750467301358458 0.42779731369206181 0 0.020379531913139331 0.43685778481219928 0 0.01750467301358458 0.42779731369206181 0 0.028741688689164512 0.42811504149697438 0 0.01750467301358458 0.42779731369206181 0 0.028741688689164512 0.42811504149697438 0 0.02615916144738779 0.41736148597675132 0 0.035113551011259521 0.41687403621696922 0 0.028741688689164512 0.42811504149697438 0 0.02615916144738779 0.41736148597675132 0 0.02615916144738779 0.41736148597675132 0 0.010437450069317761 0.40463061763750507 0 0.02872917033170445 0.40503675834663061 0 0.02615916144738779 0.41736148597675132 0 0.01517065216307991 0.41806138940930709 0 0.010437450069317761 0.40463061763750507 0 0.035113551011259521 0.41687403621696922 0 0.02615916144738779 0.41736148597675132 0 0.02872917033170445 0.40503675834663061 0 0.01750467301358458 0.42779731369206181 0 0.02615916144738779 0.41736148597675132 0 0.01517065216307991 0.41806138940930709 0 -0.003174347114314008 0.41591217031924949 0 0.0065813241220295041 0.42245614033091039 0 0.010437450069317761 0.40463061763750507 0 -0.0064316016559190746 0.3999483233353413 0 -0.003174347114314008 0.41591217031924949 0 0.010437450069317761 0.40463061763750507 0 0.01517065216307991 0.41806138940930709 0 0.0065813241220295041 0.42245614033091039 0 0.010437450069317761 0.40463061763750507 0 -0.003174347114314008 0.41591217031924949 0 0.010437450069317761 0.40463061763750507 0 -0.003174347114314008 0.41591217031924949 0 0.0065813241220295041 0.42245614033091039 0 -0.0026301228576318379 0.42717885202372191 0 -0.003174347114314008 0.41591217031924949 0 0.0065813241220295041 0.42245614033091039 0 -0.0026301228576318379 0.42717885202372191 0 0.0065813241220295041 0.42245614033091039 0 0.0065189226172944724 0.43188650626448272 0 -0.0026301228576318379 0.42717885202372191 0 0.0048617880261327502 0.44584476697033082 0 0.0065189226172944724 0.43188650626448272 0 0.01049598620797234 0.43767394788706171 0 0.01750467301358458 0.42779731369206181 0 0.0065189226172944724 0.43188650626448272 0 0.01750467301358458 0.42779731369206181 0 0.0065813241220295041 0.42245614033091039 0 0.0065189226172944724 0.43188650626448272 0 0.01750467301358458 0.42779731369206181 0 0.01517065216307991 0.41806138940930709 0 0.0065813241220295041 0.42245614033091039 0 -0.0042030409966118051 0.38380869400061962 0 0.01009735409817194 0.38238429504652488 0 0.02404924725294803 0.393349064955759 0 -0.0042030409966118051 0.38380869400061962 0 0.02404924725294803 0.393349064955759 0 0.01009735409817194 0.38238429504652488 0 0.0197357255374827 0.37571737083264412 0 0.011110712074150059 0.37343232972227269 0 -0.001064505034491721 0.37161458349227261 0 0.01009735409817194 0.38238429504652488 0 0.011110712074150059 0.37343232972227269 0 -0.001064505034491721 0.37161458349227261 0 -0.0042030409966118051 0.38380869400061962 0 0.01009735409817194 0.38238429504652488 0 -0.0042030409966118051 0.38380869400061962 0 0.01009735409817194 0.38238429504652488 0 -0.0042030409966118051 0.38380869400061962 0 0.010437450069317761 0.40463061763750507 0 0.02404924725294803 0.393349064955759 0 0.010437450069317761 0.40463061763750507 0 0.02872917033170445 0.40503675834663061 0 0.02404924725294803 0.393349064955759 0 0.010437450069317761 0.40463061763750507 0 0.02404924725294803 0.393349064955759 0 0.02872917033170445 0.40503675834663061 0 0.02404924725294803 0.393349064955759 0 0.039536571936328653 0.39857890054559408 0 0.02404924725294803 0.393349064955759 0 0.034519904376963118 0.38467091111880503 0 0.02404924725294803 0.393349064955759 0 0.0197357255374827 0.37571737083264412 0 0.034519904376963118 0.38467091111880503 0 0.01009735409817194 0.38238429504652488 0 0.02404924725294803 0.393349064955759 0 0.0197357255374827 0.37571737083264412 0 0.034519904376963118 0.38467091111880503 0 0.050307067216076778 0.37158640017128619 0 0.034519904376963118 0.38467091111880503 0 0.039536571936328653 0.39857890054559408 0 0.056773536515482913 0.38908479613358171 0 0.02404924725294803 0.393349064955759 0 0.039536571936328653 0.39857890054559408 0 0.034519904376963118 0.38467091111880503 0 0.039536571936328653 0.39857890054559408 0 0.02404924725294803 0.393349064955759 0 0.034519904376963118 0.38467091111880503 0 0.039536571936328653 0.39857890054559408 0 0.039536571936328653 0.39857890054559408 0 0.063240005814886313 0.40658319209587829 0 0.039536571936328653 0.39857890054559408 0 0.056773536515482913 0.38908479613358171 0 0.063240005814886313 0.40658319209587829 0 0.056773536515482913 0.38908479613358171 0 0.063240005814886313 0.40658319209587829 0 0.056773536515482913 0.38908479613358171 0 0.059721524030669819 0.37431687333309788 0 0.050307067216076778 0.37158640017128619 0 0.056773536515482913 0.38908479613358171 0 0.050307067216076778 0.37158640017128619 0 0.034519904376963118 0.38467091111880503 0 0.056773536515482913 0.38908479613358171 0 0.050307067216076778 0.37158640017128619 0 0.056773536515482913 0.38908479613358171 0 0.069041936002645535 0.37820082441249081 0 0.059721524030669819 0.37431687333309788 0 0.056773536515482913 0.38908479613358171 0 0.069041936002645535 0.37820082441249081 0 0.068225210254675303 0.39186969982647402 0 0.069041936002645535 0.37820082441249081 0 0.078928226936330073 0.3918395352538776 0 0.068225210254675303 0.39186969982647402 0 0.069041936002645535 0.37820082441249081 0 0.087739402474845588 0.37833299208434412 0 0.078928226936330073 0.3918395352538776 0 0.087739402474845588 0.37833299208434412 0 0.078928226936330073 0.3918395352538776 0 0.094443419551670932 0.40508992778400232 0 0.078928226936330073 0.3918395352538776 0 0.080832552055978585 0.40498983155533402 0 0.094443419551670932 0.40508992778400232 0 0.080832552055978585 0.40498983155533402 0 0.073695702888484968 0.40005040040525608 0 0.075088081656536507 0.41058410832735293 0 0.078928226936330073 0.3918395352538776 0 0.080832552055978585 0.40498983155533402 0 0.073695702888484968 0.40005040040525608 0 0.056773536515482913 0.38908479613358171 0 0.068225210254675303 0.39186969982647402 0 0.063240005814886313 0.40658319209587829 0 0.073695702888484968 0.40005040040525608 0 0.063240005814886313 0.40658319209587829 0 0.075088081656536507 0.41058410832735293 0 0.078928226936330073 0.3918395352538776 0 0.073695702888484968 0.40005040040525608 0 0.068225210254675303 0.39186969982647402 0 0.073695702888484968 0.40005040040525608 0 0.068225210254675303 0.39186969982647402 0 0.063240005814886313 0.40658319209587829 0 0.058979725365252707 0.4176193763442323 0 0.063240005814886313 0.40658319209587829 0 0.071585814596931419 0.42916711849095618 0 0.063240005814886313 0.40658319209587829 0 0.075088081656536507 0.41058410832735293 0 0.071585814596931419 0.42916711849095618 0 0.063240005814886313 0.40658319209587829 0 0.071585814596931419 0.42916711849095618 0 0.063240005814886313 0.40658319209587829 0 0.075088081656536507 0.41058410832735293 0 0.075088081656536507 0.41058410832735293 0 0.071585814596931419 0.42916711849095618 0 0.082007329246870417 0.41738518600618091 0 0.061556592319121653 0.44225761358074578 0 0.059201111644200437 0.43099696977894508 0 0.071585814596931419 0.42916711849095618 0 0.07540768018483697 0.44030754071393319 0 0.061556592319121653 0.44225761358074578 0 0.071585814596931419 0.42916711849095618 0 0.059201111644200437 0.43099696977894508 0 0.058979725365252707 0.4176193763442323 0 0.071585814596931419 0.42916711849095618 0 0.07540768018483697 0.44030754071393319 0 0.071585814596931419 0.42916711849095618 0 0.08764391112498858 0.43163178618934439 0 0.071585814596931419 0.42916711849095618 0 0.08764391112498858 0.43163178618934439 0 0.082007329246870417 0.41738518600618091 0 0.08764391112498858 0.43163178618934439 0 0.082007329246870417 0.41738518600618091 0 0.094443419551670932 0.40508992778400232 0 0.08764391112498858 0.43163178618934439 0 0.094443419551670932 0.40508992778400232 0 0.080832552055978585 0.40498983155533402 0 0.075088081656536507 0.41058410832735293 0 0.082007329246870417 0.41738518600618091 0 0.080832552055978585 0.40498983155533402 0 0.082007329246870417 0.41738518600618091 0 0.094443419551670932 0.40508992778400232 0 0.08764391112498858 0.43163178618934439 0 0.1096581763989177 0.42409154504396013 0 0.094443419551670932 0.40508992778400232 0 0.1096581763989177 0.42409154504396013 0 0.11163148259572971 0.40863234267508453 0 0.094443419551670932 0.40508992778400232 0 0.1057649319772677 0.43759517983083812 0 0.08764391112498858 0.43163178618934439 0 0.1096581763989177 0.42409154504396013 0 0.1237280261196836 0.44463014715047522 0 0.1096581763989177 0.42409154504396013 0 0.13502200614688589 0.42010390008240672 0 0.1237280261196836 0.44463014715047522 0 0.1057649319772677 0.43759517983083812 0 0.1096581763989177 0.42409154504396013 0 0.11163148259572971 0.40863234267508453 0 0.1236499924648251 0.3984302041169589 0 0.13502200614688589 0.42010390008240672 0 0.1096581763989177 0.42409154504396013 0 0.11163148259572971 0.40863234267508453 0 0.13502200614688589 0.42010390008240672 0 0.11163148259572971 0.40863234267508453 0 0.1236499924648251 0.3984302041169589 0 0.10863659533572551 0.39290197353284961 0 0.10863659533572551 0.39290197353284961 0 0.114060711710889 0.37342974127053702 0 0.12550685613774351 0.37951055496914998 0 0.1236499924648251 0.3984302041169589 0 0.10863659533572551 0.39290197353284961 0 0.12550685613774351 0.37951055496914998 0 0.1012429279783533 0.37854806937866009 0 0.10863659533572551 0.39290197353284961 0 0.114060711710889 0.37342974127053702 0 0.087739402474845588 0.37833299208434412 0 0.1012429279783533 0.37854806937866009 0 0.094443419551670932 0.40508992778400232 0 0.11163148259572971 0.40863234267508453 0 0.10863659533572551 0.39290197353284961 0 0.094443419551670932 0.40508992778400232 0 0.1012429279783533 0.37854806937866009 0 0.094443419551670932 0.40508992778400232 0 0.1012429279783533 0.37854806937866009 0 0.10863659533572551 0.39290197353284961 0 0.094443419551670932 0.40508992778400232 0 0.10055213054656729 0.36013865237867942 0 0.1100489009895301 0.33374314175173209 0 0.10055213054656729 0.36013865237867942 0 0.1100489009895301 0.33374314175173209 0 0.08625589277749264 0.346999797836966 0 0.1069344999541316 0.36147573913557879 0 0.10055213054656729 0.36013865237867942 0 0.1165634558871128 0.3492406052842485 0 0.10055213054656729 0.36013865237867942 0 0.1165634558871128 0.3492406052842485 0 0.1100489009895301 0.33374314175173209 0 0.087739402474845588 0.37833299208434412 0 0.1012429279783533 0.37854806937866009 0 0.1069344999541316 0.36147573913557879 0 0.1012429279783533 0.37854806937866009 0 0.1069344999541316 0.36147573913557879 0 0.114060711710889 0.37342974127053702 0 0.1069344999541316 0.36147573913557879 0 0.10055213054656729 0.36013865237867942 0 0.081229983254247365 0.36650003300062722 0 0.1069344999541316 0.36147573913557879 0 0.081229983254247365 0.36650003300062722 0 0.114060711710889 0.37342974127053702 0 0.1326390166540157 0.35645144527053041 0 0.12550685613774351 0.37951055496914998 0 0.1069344999541316 0.36147573913557879 0 0.114060711710889 0.37342974127053702 0 0.1326390166540157 0.35645144527053041 0 0.1069344999541316 0.36147573913557879 0 0.1165634558871128 0.3492406052842485 0 0.1326390166540157 0.35645144527053041 0 0.1069344999541316 0.36147573913557879 0 0.1326390166540157 0.35645144527053041 0 0.1165634558871128 0.3492406052842485 0 0.1100489009895301 0.33374314175173209 0 0.13264273129131951 0.33439404788472138 0 0.1100489009895301 0.33374314175173209 0 0.099713977183769634 0.31807175575135088 0 0.11954567143249289 0.30734763112478491 0 0.1100489009895301 0.33374314175173209 0 0.11954567143249289 0.30734763112478491 0 0.13264273129131951 0.33439404788472138 0 0.1100489009895301 0.33374314175173209 0 0.11954567143249289 0.30734763112478491 0 0.1100489009895301 0.33374314175173209 0 0.099713977183769634 0.31807175575135088 0 0.083894735805945045 0.32735700357097808 0 0.1100489009895301 0.33374314175173209 0 0.083894735805945045 0.32735700357097808 0 0.08625589277749264 0.346999797836966 0 0.083894735805945045 0.32735700357097808 0 0.068148884279383815 0.34110740296781622 0 0.08625589277749264 0.346999797836966 0 0.099713977183769634 0.31807175575135088 0 0.083894735805945045 0.32735700357097808 0 0.079241751540062577 0.3091409184095229 0 0.083894735805945045 0.32735700357097808 0 0.067542665246266162 0.32227296773822012 0 0.079241751540062577 0.3091409184095229 0 0.067542665246266162 0.32227296773822012 0 0.068148884279383815 0.34110740296781622 0 0.052098030758102709 0.32848813316288678 0 0.083894735805945045 0.32735700357097808 0 0.067542665246266162 0.32227296773822012 0 0.068148884279383815 0.34110740296781622 0 0.068148884279383815 0.34110740296781622 0 0.072981575438615956 0.35429511825148829 0 0.08625589277749264 0.346999797836966 0 0.068148884279383815 0.34110740296781622 0 0.072981575438615956 0.35429511825148829 0 0.059971533893319953 0.35265308331869138 0 0.072981575438615956 0.35429511825148829 0 0.066555082361941326 0.36578627017444021 0 0.059971533893319953 0.35265308331869138 0 0.10055213054656729 0.36013865237867942 0 0.08625589277749264 0.346999797836966 0 0.081229983254247365 0.36650003300062722 0 0.072981575438615956 0.35429511825148829 0 0.08625589277749264 0.346999797836966 0 0.081229983254247365 0.36650003300062722 0 0.087739402474845588 0.37833299208434412 0 0.1069344999541316 0.36147573913557879 0 0.081229983254247365 0.36650003300062722 0 0.069041936002645535 0.37820082441249081 0 0.087739402474845588 0.37833299208434412 0 0.081229983254247365 0.36650003300062722 0 0.069041936002645535 0.37820082441249081 0 0.081229983254247365 0.36650003300062722 0 0.066555082361941326 0.36578627017444021 0 0.072981575438615956 0.35429511825148829 0 0.081229983254247365 0.36650003300062722 0 0.066555082361941326 0.36578627017444021 0 0.069041936002645535 0.37820082441249081 0 0.066555082361941326 0.36578627017444021 0 0.059721524030669819 0.37431687333309788 0 0.055929998057201551 0.36692607577369102 0 0.050307067216076778 0.37158640017128619 0 0.041108453413194898 0.34669476624024848 0 0.066555082361941326 0.36578627017444021 0 0.059721524030669819 0.37431687333309788 0 0.055929998057201551 0.36692607577369102 0 0.059721524030669819 0.37431687333309788 0 0.055929998057201551 0.36692607577369102 0 0.050307067216076778 0.37158640017128619 0 0.066555082361941326 0.36578627017444021 0 0.055929998057201551 0.36692607577369102 0 0.059971533893319953 0.35265308331869138 0 0.055929998057201551 0.36692607577369102 0 0.050307067216076778 0.37158640017128619 0 0.055929998057201551 0.36692607577369102 0 0.059971533893319953 0.35265308331869138 0 0.041108453413194898 0.34669476624024848 0 0.059971533893319953 0.35265308331869138 0 0.041108453413194898 0.34669476624024848 0 0.053731959496234848 0.34189436452501393 0 0.068148884279383815 0.34110740296781622 0 0.059971533893319953 0.35265308331869138 0 0.053731959496234848 0.34189436452501393 0 0.050307067216076778 0.37158640017128619 0 0.041108453413194898 0.34669476624024848 0 0.036325720293778493 0.35734230210966361 0 0.050307067216076778 0.37158640017128619 0 0.041108453413194898 0.34669476624024848 0 0.041108453413194898 0.34669476624024848 0 0.036325720293778493 0.35734230210966361 0 0.028822601092593811 0.34272768621728472 0 0.034519904376963118 0.38467091111880503 0 0.036565816098641138 0.36791040757449411 0 0.02482466364838485 0.35779225034500489 0 0.034519904376963118 0.38467091111880503 0 0.050307067216076778 0.37158640017128619 0 0.036565816098641138 0.36791040757449411 0 0.050307067216076778 0.37158640017128619 0 0.036325720293778493 0.35734230210966361 0 0.036565816098641138 0.36791040757449411 0 0.036325720293778493 0.35734230210966361 0 0.036565816098641138 0.36791040757449411 0 0.02482466364838485 0.35779225034500489 0 0.034519904376963118 0.38467091111880503 0 0.02482466364838485 0.35779225034500489 0 0.0197357255374827 0.37571737083264412 0 0.034519904376963118 0.38467091111880503 0 0.02482466364838485 0.35779225034500489 0 0.0197357255374827 0.37571737083264412 0 0.015674273695437339 0.36401306951764911 0 0.02482466364838485 0.35779225034500489 0 0.015674273695437339 0.36401306951764911 0 0.02482466364838485 0.35779225034500489 0 0.015768167676543349 0.35713923686247862 0 0.02482466364838485 0.35779225034500489 0 0.01512942291980679 0.33091358957120492 0 0.02482466364838485 0.35779225034500489 0 0.01512942291980679 0.33091358957120492 0 0.028822601092593811 0.34272768621728472 0 0.036325720293778493 0.35734230210966361 0 0.02482466364838485 0.35779225034500489 0 0.028822601092593811 0.34272768621728472 0 0.02482466364838485 0.35779225034500489 0 0.012196298529549159 0.34905700984651278 0 0.01512942291980679 0.33091358957120492 0 0.02482466364838485 0.35779225034500489 0 0.015768167676543349 0.35713923686247862 0 0.012196298529549159 0.34905700984651278 0 0.01037743483280206 0.35769461774074762 0 0.012196298529549159 0.34905700984651278 0 0.0032447233134405931 0.35422125060834359 0 0.015768167676543349 0.35713923686247862 0 0.01037743483280206 0.35769461774074762 0 0.012196298529549159 0.34905700984651278 0 -0.002583240235104544 0.34489224502179239 0 0.012196298529549159 0.34905700984651278 0 0.0065182143906638264 0.33911035096943482 0 -0.002583240235104544 0.34489224502179239 0 0.012196298529549159 0.34905700984651278 0 0.0032447233134405931 0.35422125060834359 0 0.01037743483280206 0.35769461774074762 0 0.0032447233134405931 0.35422125060834359 0 0.0039428335920915006 0.36531030276633031 0 -0.0064988099748367559 0.35299106404641623 0 0.0032447233134405931 0.35422125060834359 0 0.0039428335920915006 0.36531030276633031 0 -0.001064505034491721 0.37161458349227261 0 0.015674273695437339 0.36401306951764911 0 0.0039428335920915006 0.36531030276633031 0 -0.001064505034491721 0.37161458349227261 0 0.015674273695437339 0.36401306951764911 0 0.011110712074150059 0.37343232972227269 0 -0.001064505034491721 0.37161458349227261 0 0.015674273695437339 0.36401306951764911 0 0.0197357255374827 0.37571737083264412 0 0.015674273695437339 0.36401306951764911 0 0.011110712074150059 0.37343232972227269 0 0.015674273695437339 0.36401306951764911 0 0.01037743483280206 0.35769461774074762 0 0.0039428335920915006 0.36531030276633031 0 0.015674273695437339 0.36401306951764911 0 0.015768167676543349 0.35713923686247862 0 0.01037743483280206 0.35769461774074762 0 -0.00058836015198596755 0.32088344941533808 0 0.01512942291980679 0.33091358957120492 0 0.0054341821912287152 0.30403492879740468 0 0.01512942291980679 0.33091358957120492 0 0.0054341821912287152 0.30403492879740468 0 0.01512942291980679 0.33091358957120492 0 0.018796167632194181 0.3134157872639986 0 0.0054341821912287152 0.30403492879740468 0 0.012196298529549159 0.34905700984651278 0 0.01512942291980679 0.33091358957120492 0 0.0065182143906638264 0.33911035096943482 0 -0.0025616559074486049 0.3329031852911295 0 -0.00058836015198596755 0.32088344941533808 0 0.01512942291980679 0.33091358957120492 0 -0.0025616559074486049 0.3329031852911295 0 0.01512942291980679 0.33091358957120492 0 0.0065182143906638264 0.33911035096943482 0 -0.0025616559074486049 0.3329031852911295 0 -0.002583240235104544 0.34489224502179239 0 0.0065182143906638264 0.33911035096943482 0 0.01512942291980679 0.33091358957120492 0 0.028822601092593811 0.34272768621728472 0 0.031909839610312053 0.3218031323092112 0 0.01512942291980679 0.33091358957120492 0 0.018796167632194181 0.3134157872639986 0 0.031909839610312053 0.3218031323092112 0 0.031909839610312053 0.3218031323092112 0 0.052098030758102709 0.32848813316288678 0 0.054329923847836643 0.30527138057989611 0 0.041108453413194898 0.34669476624024848 0 0.031909839610312053 0.3218031323092112 0 0.041108453413194898 0.34669476624024848 0 0.028822601092593811 0.34272768621728472 0 0.031909839610312053 0.3218031323092112 0 0.041108453413194898 0.34669476624024848 0 0.031909839610312053 0.3218031323092112 0 0.052098030758102709 0.32848813316288678 0 0.041108453413194898 0.34669476624024848 0 0.052098030758102709 0.32848813316288678 0 0.053731959496234848 0.34189436452501393 0 0.068148884279383815 0.34110740296781622 0 0.052098030758102709 0.32848813316288678 0 0.053731959496234848 0.34189436452501393 0 0.067542665246266162 0.32227296773822012 0 0.052098030758102709 0.32848813316288678 0 0.054329923847836643 0.30527138057989611 0 0.054329923847836643 0.30527138057989611 0 0.058643640903709077 0.2841886380467647 0 0.070108093408202884 0.28237758711201172 0 0.054329923847836643 0.30527138057989611 0 0.058643640903709077 0.2841886380467647 0 0.046708945964444748 0.28470371633566799 0 0.054329923847836643 0.30527138057989611 0 0.070108093408202884 0.28237758711201172 0 0.033299114928103571 0.2853556706935409 0 0.038381760441483573 0.30030485014671859 0 0.022711225807429191 0.29691149837817382 0 0.054329923847836643 0.30527138057989611 0 0.046708945964444748 0.28470371633566799 0 0.038381760441483573 0.30030485014671859 0 0.046708945964444748 0.28470371633566799 0 0.033299114928103571 0.2853556706935409 0 0.038381760441483573 0.30030485014671859 0 0.031909839610312053 0.3218031323092112 0 0.054329923847836643 0.30527138057989611 0 0.038381760441483573 0.30030485014671859 0 0.031909839610312053 0.3218031323092112 0 0.022711225807429191 0.29691149837817382 0 0.018796167632194181 0.3134157872639986 0 0.031909839610312053 0.3218031323092112 0 0.022711225807429191 0.29691149837817382 0 0.018796167632194181 0.3134157872639986 0 0.022711225807429191 0.29691149837817382 0 0.0054341821912287152 0.30403492879740468 0 0.031909839610312053 0.3218031323092112 0 0.038381760441483573 0.30030485014671859 0 0.022711225807429191 0.29691149837817382 0 0.022711225807429191 0.29691149837817382 0 0.0097135815956244098 0.28932323485025419 0 0.01496997692118909 0.27919024420183391 0 0.033299114928103571 0.2853556706935409 0 0.022711225807429191 0.29691149837817382 0 0.01496997692118909 0.27919024420183391 0 -0.0042610585373493576 0.2771562680236046 0 0.0097135815956244098 0.28932323485025419 0 0.01496997692118909 0.27919024420183391 0 -0.0042610585373493576 0.2771562680236046 0 0.0097135815956244098 0.28932323485025419 0 0.0054341821912287152 0.30403492879740468 0 0.022711225807429191 0.29691149837817382 0 0.0097135815956244098 0.28932323485025419 0 0.0054341821912287152 0.30403492879740468 0 -0.0042610585373493576 0.2771562680236046 0 0.0054341821912287152 0.30403492879740468 0 0.012156823249103331 0.25259817100369902 0 0.0071094060709509964 0.26564087220093879 0 0.023079021189564172 0.26593697868694532 0 -0.0082457657602449386 0.25246627485226031 0 0.012156823249103331 0.25259817100369902 0 0.0071094060709509964 0.26564087220093879 0 0.0071094060709509964 0.26564087220093879 0 0.01496997692118909 0.27919024420183391 0 0.023079021189564172 0.26593697868694532 0 -0.0042610585373493576 0.2771562680236046 0 0.0071094060709509964 0.26564087220093879 0 0.01496997692118909 0.27919024420183391 0 0.033299114928103571 0.2853556706935409 0 0.01496997692118909 0.27919024420183391 0 0.023079021189564172 0.26593697868694532 0 0.012156823249103331 0.25259817100369902 0 0.023079021189564172 0.26593697868694532 0 0.030652172791378579 0.25229956247347313 0 0.023079021189564172 0.26593697868694532 0 0.030652172791378579 0.25229956247347313 0 0.04073495957405681 0.26035892983227987 0 0.044937254539659167 0.2379713478153713 0 0.030652172791378579 0.25229956247347313 0 0.04073495957405681 0.26035892983227987 0 0.033299114928103571 0.2853556706935409 0 0.023079021189564172 0.26593697868694532 0 0.04073495957405681 0.26035892983227987 0 0.033299114928103571 0.2853556706935409 0 0.04073495957405681 0.26035892983227987 0 0.046708945964444748 0.28470371633566799 0 0.033299114928103571 0.2853556706935409 0 0.04073495957405681 0.26035892983227987 0 0.046708945964444748 0.28470371633566799 0 0.04073495957405681 0.26035892983227987 0 0.054656664038459993 0.27221644551962948 0 0.058643640903709077 0.2841886380467647 0 0.046708945964444748 0.28470371633566799 0 0.054656664038459993 0.27221644551962948 0 0.054656664038459993 0.27221644551962948 0 0.05595459183600883 0.25980758553240452 0 0.063151913248908592 0.26702092668087168 0 0.054656664038459993 0.27221644551962948 0 0.063151913248908592 0.26702092668087168 0 0.062868354845155253 0.27542318723842002 0 0.058643640903709077 0.2841886380467647 0 0.054656664038459993 0.27221644551962948 0 0.062868354845155253 0.27542318723842002 0 0.058643640903709077 0.2841886380467647 0 0.062868354845155253 0.27542318723842002 0 0.06481936793225318 0.27971168374165578 0 0.052294646587479003 0.2493466198794505 0 0.04073495957405681 0.26035892983227987 0 0.05595459183600883 0.25980758553240452 0 0.04073495957405681 0.26035892983227987 0 0.054656664038459993 0.27221644551962948 0 0.05595459183600883 0.25980758553240452 0 0.05595459183600883 0.25980758553240452 0 0.066495423171073403 0.25816184380531082 0 0.063151913248908592 0.26702092668087168 0 0.052294646587479003 0.2493466198794505 0 0.05595459183600883 0.25980758553240452 0 0.06034442261467237 0.25120339486286308 0 0.05595459183600883 0.25980758553240452 0 0.06034442261467237 0.25120339486286308 0 0.066495423171073403 0.25816184380531082 0 0.067445722382230539 0.24771064348785149 0 0.066495423171073403 0.25816184380531082 0 0.074707437689247702 0.25389633834412328 0 0.067445722382230539 0.24771064348785149 0 0.06034442261467237 0.25120339486286308 0 0.066495423171073403 0.25816184380531082 0 0.066495423171073403 0.25816184380531082 0 0.070468357435777063 0.2657419037057816 0 0.063151913248908592 0.26702092668087168 0 0.066495423171073403 0.25816184380531082 0 0.074357597956477339 0.26064435546358339 0 0.070468357435777063 0.2657419037057816 0 0.074357597956477339 0.26064435546358339 0 0.075194191089397802 0.26640127341757941 0 0.070468357435777063 0.2657419037057816 0 0.074357597956477339 0.26064435546358339 0 0.080427883817154544 0.25791465254204288 0 0.078852294536213494 0.26175012096666261 0 0.074357597956477339 0.26064435546358339 0 0.078852294536213494 0.26175012096666261 0 0.075194191089397802 0.26640127341757941 0 0.066495423171073403 0.25816184380531082 0 0.074357597956477339 0.26064435546358339 0 0.074707437689247702 0.25389633834412328 0 0.074357597956477339 0.26064435546358339 0 0.074707437689247702 0.25389633834412328 0 0.080427883817154544 0.25791465254204288 0 0.085975255819246227 0.24304742420893821 0 0.080478695998155714 0.25165019938018113 0 0.085886262968569133 0.25948379364412733 0 0.080478695998155714 0.25165019938018113 0 0.080427883817154544 0.25791465254204288 0 0.085886262968569133 0.25948379364412733 0 0.10166443252893551 0.23659000017624271 0 0.085886262968569133 0.25948379364412733 0 0.093061372415253377 0.25945310375487363 0 0.074707437689247702 0.25389633834412328 0 0.080478695998155714 0.25165019938018113 0 0.080427883817154544 0.25791465254204288 0 0.078852294536213494 0.26175012096666261 0 0.085886262968569133 0.25948379364412733 0 0.075194191089397802 0.26640127341757941 0 0.080427883817154544 0.25791465254204288 0 0.078852294536213494 0.26175012096666261 0 0.085886262968569133 0.25948379364412733 0 0.093061372415253377 0.25945310375487363 0 0.088669334409182038 0.27365465257629329 0 0.074192652952093263 0.28111713417870732 0 0.093061372415253377 0.25945310375487363 0 0.074192652952093263 0.28111713417870732 0 0.085886262968569133 0.25948379364412733 0 0.093061372415253377 0.25945310375487363 0 0.074192652952093263 0.28111713417870732 0 0.088669334409182038 0.27365465257629329 0 0.090629520296699906 0.27989165378522829 0 0.096617072050330918 0.27420358010706619 0 0.088669334409182038 0.27365465257629329 0 0.090629520296699906 0.27989165378522829 0 0.083300485689734874 0.28178689503457671 0 0.093061372415253377 0.25945310375487363 0 0.088669334409182038 0.27365465257629329 0 0.097208854645582696 0.26674380090640232 0 0.088669334409182038 0.27365465257629329 0 0.074192652952093263 0.28111713417870732 0 0.083300485689734874 0.28178689503457671 0 0.085886262968569133 0.25948379364412733 0 0.072732619288592745 0.27411268144752271 0 0.070108093408202884 0.28237758711201172 0 0.085886262968569133 0.25948379364412733 0 0.074192652952093263 0.28111713417870732 0 0.070108093408202884 0.28237758711201172 0 0.085886262968569133 0.25948379364412733 0 0.070108093408202884 0.28237758711201172 0 0.085886262968569133 0.25948379364412733 0 0.072732619288592745 0.27411268144752271 0 0.075194191089397802 0.26640127341757941 0 0.072732619288592745 0.27411268144752271 0 0.075194191089397802 0.26640127341757941 0 0.068678803079962825 0.27092621584326698 0 0.075194191089397802 0.26640127341757941 0 0.070468357435777063 0.2657419037057816 0 0.068678803079962825 0.27092621584326698 0 0.068678803079962825 0.27092621584326698 0 0.063151913248908592 0.26702092668087168 0 0.062868354845155253 0.27542318723842002 0 0.070468357435777063 0.2657419037057816 0 0.068678803079962825 0.27092621584326698 0 0.063151913248908592 0.26702092668087168 0 0.072732619288592745 0.27411268144752271 0 0.067657382571945521 0.27685732256942691 0 0.070108093408202884 0.28237758711201172 0 0.067657382571945521 0.27685732256942691 0 0.06481936793225318 0.27971168374165578 0 0.070108093408202884 0.28237758711201172 0 0.072732619288592745 0.27411268144752271 0 0.068678803079962825 0.27092621584326698 0 0.067657382571945521 0.27685732256942691 0 0.067657382571945521 0.27685732256942691 0 0.062868354845155253 0.27542318723842002 0 0.06481936793225318 0.27971168374165578 0 0.068678803079962825 0.27092621584326698 0 0.067657382571945521 0.27685732256942691 0 0.062868354845155253 0.27542318723842002 0 0.058643640903709077 0.2841886380467647 0 0.06481936793225318 0.27971168374165578 0 0.070108093408202884 0.28237758711201172 0 0.054329923847836643 0.30527138057989611 0 0.070108093408202884 0.28237758711201172 0 0.07616196246918229 0.29401120062856562 0 0.070108093408202884 0.28237758711201172 0 0.07616196246918229 0.29401120062856562 0 0.077305327314718786 0.28670206069564769 0 0.074192652952093263 0.28111713417870732 0 0.070108093408202884 0.28237758711201172 0 0.077305327314718786 0.28670206069564769 0 0.054329923847836643 0.30527138057989611 0 0.07616196246918229 0.29401120062856562 0 0.079241751540062577 0.3091409184095229 0 0.067542665246266162 0.32227296773822012 0 0.054329923847836643 0.30527138057989611 0 0.079241751540062577 0.3091409184095229 0 0.07616196246918229 0.29401120062856562 0 0.079241751540062577 0.3091409184095229 0 0.093760017070794913 0.30048783451418309 0 0.099713977183769634 0.31807175575135088 0 0.079241751540062577 0.3091409184095229 0 0.093760017070794913 0.30048783451418309 0 0.07616196246918229 0.29401120062856562 0 0.086675975183887061 0.28808357667035972 0 0.093760017070794913 0.30048783451418309 0 0.074192652952093263 0.28111713417870732 0 0.077305327314718786 0.28670206069564769 0 0.083300485689734874 0.28178689503457671 0 0.077305327314718786 0.28670206069564769 0 0.083300485689734874 0.28178689503457671 0 0.086675975183887061 0.28808357667035972 0 0.07616196246918229 0.29401120062856562 0 0.077305327314718786 0.28670206069564769 0 0.086675975183887061 0.28808357667035972 0 0.090629520296699906 0.27989165378522829 0 0.083300485689734874 0.28178689503457671 0 0.086675975183887061 0.28808357667035972 0 0.090629520296699906 0.27989165378522829 0 0.086675975183887061 0.28808357667035972 0 0.1012207646153751 0.28627192450051492 0 0.086675975183887061 0.28808357667035972 0 0.1012207646153751 0.28627192450051492 0 0.093760017070794913 0.30048783451418309 0 0.099713977183769634 0.31807175575135088 0 0.093760017070794913 0.30048783451418309 0 0.11954567143249289 0.30734763112478491 0 0.1012207646153751 0.28627192450051492 0 0.093760017070794913 0.30048783451418309 0 0.11954567143249289 0.30734763112478491 0 0.11954567143249289 0.30734763112478491 0 0.1141818460752707 0.27714397317686529 0 0.12904244187545569 0.2809521204978378 0 0.1012207646153751 0.28627192450051492 0 0.11954567143249289 0.30734763112478491 0 0.1141818460752707 0.27714397317686529 0 0.11954567143249289 0.30734763112478491 0 0.12904244187545569 0.2809521204978378 0 0.1141818460752707 0.27714397317686529 0 0.11615378911320511 0.26032519799560372 0 0.1048644735931679 0.26655228778042589 0 0.1141818460752707 0.27714397317686529 0 0.11615378911320511 0.26032519799560372 0 0.12904244187545569 0.2809521204978378 0 0.1152979079485152 0.2467056018988516 0 0.1250676346401875 0.24796443701554319 0 0.11615378911320511 0.26032519799560372 0 0.1152979079485152 0.2467056018988516 0 0.11615378911320511 0.26032519799560372 0 0.10650461767427161 0.25132517155921902 0 0.11615378911320511 0.26032519799560372 0 0.1028320207599793 0.25985538031335248 0 0.1048644735931679 0.26655228778042589 0 0.1028320207599793 0.25985538031335248 0 0.097208854645582696 0.26674380090640232 0 0.1048644735931679 0.26655228778042589 0 0.11615378911320511 0.26032519799560372 0 0.1028320207599793 0.25985538031335248 0 0.10650461767427161 0.25132517155921902 0 0.093061372415253377 0.25945310375487363 0 0.1028320207599793 0.25985538031335248 0 0.10650461767427161 0.25132517155921902 0 0.093061372415253377 0.25945310375487363 0 0.1028320207599793 0.25985538031335248 0 0.097208854645582696 0.26674380090640232 0 0.088669334409182038 0.27365465257629329 0 0.097208854645582696 0.26674380090640232 0 0.096617072050330918 0.27420358010706619 0 0.097208854645582696 0.26674380090640232 0 0.096617072050330918 0.27420358010706619 0 0.1048644735931679 0.26655228778042589 0 0.1141818460752707 0.27714397317686529 0 0.096617072050330918 0.27420358010706619 0 0.1048644735931679 0.26655228778042589 0 0.1012207646153751 0.28627192450051492 0 0.1141818460752707 0.27714397317686529 0 0.096617072050330918 0.27420358010706619 0 0.090629520296699906 0.27989165378522829 0 0.1012207646153751 0.28627192450051492 0 0.096617072050330918 0.27420358010706619 0 0.1384713120865835 0.25773302092121009 0 0.12904244187545569 0.2809521204978378 0 0.15915390062653459 0.27760612704708998 0 0.1514273965657848 0.24085309905483679 0 0.1384713120865835 0.25773302092121009 0 0.156278998070083 0.25778272565978 0 0.1384713120865835 0.25773302092121009 0 0.15915390062653459 0.27760612704708998 0 0.156278998070083 0.25778272565978 0 0.1250676346401875 0.24796443701554319 0 0.11615378911320511 0.26032519799560372 0 0.1384713120865835 0.25773302092121009 0 0.11615378911320511 0.26032519799560372 0 0.1384713120865835 0.25773302092121009 0 0.12904244187545569 0.2809521204978378 0 0.11954567143249289 0.30734763112478491 0 0.12904244187545569 0.2809521204978378 0 0.14488164426314301 0.29594920495010729 0 0.11954567143249289 0.30734763112478491 0 0.14488164426314301 0.29594920495010729 0 0.15139514334923471 0.31791608062108467 0 0.14488164426314301 0.29594920495010729 0 0.16637322996135739 0.30016678813796199 0 0.15139514334923471 0.31791608062108467 0 0.12904244187545569 0.2809521204978378 0 0.14488164426314301 0.29594920495010729 0 0.15915390062653459 0.27760612704708998 0 0.14488164426314301 0.29594920495010729 0 0.16637322996135739 0.30016678813796199 0 0.15915390062653459 0.27760612704708998 0 0.16637322996135739 0.30016678813796199 0 0.18265278236186541 0.28020603593405619 0 0.15915390062653459 0.27760612704708998 0 0.16637322996135739 0.30016678813796199 0 0.18588027836364171 0.30417070427619303 0 0.17427563080372541 0.32515257599924119 0 0.16637322996135739 0.30016678813796199 0 0.18588027836364171 0.30417070427619303 0 0.18265278236186541 0.28020603593405619 0 0.18265278236186541 0.28020603593405619 0 0.15915390062653459 0.27760612704708998 0 0.17660728565697029 0.25284173787090108 0 0.18265278236186541 0.28020603593405619 0 0.17660728565697029 0.25284173787090108 0 0.20178717474815569 0.26483037668696541 0 0.1514273965657848 0.24085309905483679 0 0.156278998070083 0.25778272565978 0 0.17660728565697029 0.25284173787090108 0 0.15915390062653459 0.27760612704708998 0 0.156278998070083 0.25778272565978 0 0.17660728565697029 0.25284173787090108 0 0.1971008006350988 0.24422433182354611 0 0.17660728565697029 0.25284173787090108 0 0.20178717474815569 0.26483037668696541 0 0.17660728565697029 0.25284173787090108 0 0.20178717474815569 0.26483037668696541 0 0.18265278236186541 0.28020603593405619 0 0.20178717474815569 0.26483037668696541 0 0.20721699074389299 0.28586320426344869 0 0.20178717474815569 0.26483037668696541 0 0.22696706383934109 0.27681901550302962 0 0.20721699074389299 0.28586320426344869 0 0.20178717474815569 0.26483037668696541 0 0.22696706383934109 0.27681901550302962 0 0.1971008006350988 0.24422433182354611 0 0.20178717474815569 0.26483037668696541 0 0.2257125065402284 0.25431107802280528 0 0.20178717474815569 0.26483037668696541 0 0.2257125065402284 0.25431107802280528 0 0.22696706383934109 0.27681901550302962 0 0.2257125065402284 0.25431107802280528 0 0.23435940432808119 0.2558835225658645 0 0.2376751292839718 0.27741240132337408 0 0.2257125065402284 0.25431107802280528 0 0.22696706383934109 0.27681901550302962 0 0.2376751292839718 0.27741240132337408 0 0.2257125065402284 0.25431107802280528 0 0.2376751292839718 0.27741240132337408 0 0.22696706383934109 0.27681901550302962 0 0.2376751292839718 0.27741240132337408 0 0.2318681827461313 0.28775992326468519 0 0.23435940432808119 0.2558835225658645 0 0.2434397278092077 0.27846069768541332 0 0.2376751292839718 0.27741240132337408 0 0.23435940432808119 0.2558835225658645 0 0.2434397278092077 0.27846069768541332 0 0.23435940432808119 0.2558835225658645 0 0.2434397278092077 0.27846069768541332 0 0.24763005152173001 0.25910176257370959 0 0.2459873280094696 0.23707215699401071 0 0.23435940432808119 0.2558835225658645 0 0.24763005152173001 0.25910176257370959 0 0.24963775202771521 0.30051372462394288 0 0.22557231514573739 0.29747977878921561 0 0.2305146992996441 0.31691702429977642 0 0.2376751292839718 0.27741240132337408 0 0.24963775202771521 0.30051372462394288 0 0.2318681827461313 0.28775992326468519 0 0.2434397278092077 0.27846069768541332 0 0.25252005129033422 0.30103787280496203 0 0.2434397278092077 0.27846069768541332 0 0.2376751292839718 0.27741240132337408 0 0.24963775202771521 0.30051372462394288 0 0.2434397278092077 0.27846069768541332 0 0.24963775202771521 0.30051372462394288 0 0.25252005129033422 0.30103787280496203 0 0.24963775202771521 0.30051372462394288 0 0.2318681827461313 0.28775992326468519 0 0.22557231514573739 0.29747977878921561 0 0.2376751292839718 0.27741240132337408 0 0.24963775202771521 0.30051372462394288 0 0.22696706383934109 0.27681901550302962 0 0.2318681827461313 0.28775992326468519 0 0.22192971392309441 0.28686454206331458 0 0.2318681827461313 0.28775992326468519 0 0.22192971392309441 0.28686454206331458 0 0.22557231514573739 0.29747977878921561 0 0.22557231514573739 0.29747977878921561 0 0.21067009246602381 0.31050760251916348 0 0.2305146992996441 0.31691702429977642 0 0.22557231514573739 0.29747977878921561 0 0.2305146992996441 0.31691702429977642 0 0.22557231514573739 0.29747977878921561 0 0.21067009246602381 0.31050760251916348 0 0.20721699074389299 0.28586320426344869 0 0.22192971392309441 0.28686454206331458 0 0.22557231514573739 0.29747977878921561 0 0.20721699074389299 0.28586320426344869 0 0.22696706383934109 0.27681901550302962 0 0.22192971392309441 0.28686454206331458 0 0.20721699074389299 0.28586320426344869 0 0.18588027836364171 0.30417070427619303 0 0.18265278236186541 0.28020603593405619 0 0.20721699074389299 0.28586320426344869 0 0.18588027836364171 0.30417070427619303 0 0.21067009246602381 0.31050760251916348 0 0.20721699074389299 0.28586320426344869 0 0.18588027836364171 0.30417070427619303 0 0.21067009246602381 0.31050760251916348 0 0.1975742485098208 0.32622361772240582 0 0.1975742485098208 0.32622361772240582 0 0.2097525667536678 0.34137856367538538 0 0.18404805005378369 0.34640285754043382 0 0.1975742485098208 0.32622361772240582 0 0.2097525667536678 0.34137856367538538 0 0.2167937380965417 0.3262762156054137 0 0.21067009246602381 0.31050760251916348 0 0.1975742485098208 0.32622361772240582 0 0.2167937380965417 0.3262762156054137 0 0.21067009246602381 0.31050760251916348 0 0.2167937380965417 0.3262762156054137 0 0.2305146992996441 0.31691702429977642 0 0.2305146992996441 0.31691702429977642 0 0.2354570834535519 0.33635426981033711 0 0.2167937380965417 0.3262762156054137 0 0.2305146992996441 0.31691702429977642 0 0.2354570834535519 0.33635426981033711 0 0.2097525667536678 0.34137856367538538 0 0.2167937380965417 0.3262762156054137 0 0.2354570834535519 0.33635426981033711 0 0.2097525667536678 0.34137856367538538 0 0.2354570834535519 0.33635426981033711 0 0.2097525667536678 0.34137856367538538 0 0.2354570834535519 0.33635426981033711 0 0.22572342153310379 0.35183723080414581 0 0.2354570834535519 0.33635426981033711 0 0.24833100513142109 0.32161764704062729 0 0.26518788721623437 0.33054298393043219 0 0.24963775202771521 0.30051372462394288 0 0.2305146992996441 0.31691702429977642 0 0.24833100513142109 0.32161764704062729 0 0.2305146992996441 0.31691702429977642 0 0.2354570834535519 0.33635426981033711 0 0.24833100513142109 0.32161764704062729 0 0.2354570834535519 0.33635426981033711 0 0.24217950803475169 0.36279199964721098 0 0.25397109136889212 0.34953950795812871 0 0.2354570834535519 0.33635426981033711 0 0.24217950803475169 0.36279199964721098 0 0.22572342153310379 0.35183723080414581 0 0.2354570834535519 0.33635426981033711 0 0.24217950803475169 0.36279199964721098 0 0.24217950803475169 0.36279199964721098 0 0.22572342153310379 0.35183723080414581 0 0.21637712922286109 0.36651385017664678 0 0.24217950803475169 0.36279199964721098 0 0.21637712922286109 0.36651385017664678 0 0.22693728272114971 0.38251641872149622 0 0.2097525667536678 0.34137856367538538 0 0.22572342153310379 0.35183723080414581 0 0.21637712922286109 0.36651385017664678 0 0.2097525667536678 0.34137856367538538 0 0.21637712922286109 0.36651385017664678 0 0.19198276408895759 0.36846918068195189 0 0.2097525667536678 0.34137856367538538 0 0.19198276408895759 0.36846918068195189 0 0.18404805005378369 0.34640285754043382 0 0.2097525667536678 0.34137856367538538 0 0.18404805005378369 0.34640285754043382 0 0.21637712922286109 0.36651385017664678 0 0.19198276408895759 0.36846918068195189 0 0.2008438189570996 0.38963870543367402 0 0.1583435333538997 0.35142715140548209 0 0.18404805005378369 0.34640285754043382 0 0.17157629822801171 0.38002160271682978 0 0.19198276408895759 0.36846918068195189 0 0.18404805005378369 0.34640285754043382 0 0.17157629822801171 0.38002160271682978 0 0.1583435333538997 0.35142715140548209 0 0.14756927440754089 0.37573381366887992 0 0.17157629822801171 0.38002160271682978 0 0.1583435333538997 0.35142715140548209 0 0.18404805005378369 0.34640285754043382 0 0.1583435333538997 0.35142715140548209 0 0.17427563080372541 0.32515257599924119 0 0.15139514334923471 0.31791608062108467 0 0.1975742485098208 0.32622361772240582 0 0.18404805005378369 0.34640285754043382 0 0.17427563080372541 0.32515257599924119 0 0.1583435333538997 0.35142715140548209 0 0.18404805005378369 0.34640285754043382 0 0.17427563080372541 0.32515257599924119 0 0.18588027836364171 0.30417070427619303 0 0.1975742485098208 0.32622361772240582 0 0.17427563080372541 0.32515257599924119 0 0.16637322996135739 0.30016678813796199 0 0.17427563080372541 0.32515257599924119 0 0.15139514334923471 0.31791608062108467 0 0.1583435333538997 0.35142715140548209 0 0.15139514334923471 0.31791608062108467 0 0.13264273129131951 0.33439404788472138 0 0.11954567143249289 0.30734763112478491 0 0.15139514334923471 0.31791608062108467 0 0.13264273129131951 0.33439404788472138 0 0.1165634558871128 0.3492406052842485 0 0.13264273129131951 0.33439404788472138 0 0.1326390166540157 0.35645144527053041 0 0.1326390166540157 0.35645144527053041 0 0.14756927440754089 0.37573381366887992 0 0.12550685613774351 0.37951055496914998 0 0.1583435333538997 0.35142715140548209 0 0.1326390166540157 0.35645144527053041 0 0.14756927440754089 0.37573381366887992 0 0.1583435333538997 0.35142715140548209 0 0.1326390166540157 0.35645144527053041 0 0.1583435333538997 0.35142715140548209 0 0.13264273129131951 0.33439404788472138 0 0.1326390166540157 0.35645144527053041 0 0.1528019220027558 0.40532518960412911 0 0.14756927440754089 0.37573381366887992 0 0.13567422075440499 0.38715007620423969 0 0.14756927440754089 0.37573381366887992 0 0.12550685613774351 0.37951055496914998 0 0.13567422075440499 0.38715007620423969 0 0.1236499924648251 0.3984302041169589 0 0.12550685613774351 0.37951055496914998 0 0.13567422075440499 0.38715007620423969 0 0.1236499924648251 0.3984302041169589 0 0.1528019220027558 0.40532518960412911 0 0.13567422075440499 0.38715007620423969 0 0.1528019220027558 0.40532518960412911 0 0.13502200614688589 0.42010390008240672 0 0.17098438647877001 0.42850314348833868 0 0.13502200614688589 0.42010390008240672 0 0.17098438647877001 0.42850314348833868 0 0.1532788809183856 0.44756588495706878 0 0.1236499924648251 0.3984302041169589 0 0.1528019220027558 0.40532518960412911 0 0.13502200614688589 0.42010390008240672 0 0.1237280261196836 0.44463014715047522 0 0.13502200614688589 0.42010390008240672 0 0.1532788809183856 0.44756588495706878 0 0.1528019220027558 0.40532518960412911 0 0.17098438647877001 0.42850314348833868 0 0.1528019220027558 0.40532518960412911 0 0.17098438647877001 0.42850314348833868 0 0.17902253221663289 0.40492788695933207 0 0.17098438647877001 0.42850314348833868 0 0.19890623541652749 0.42115079355368912 0 0.18916685095478419 0.4516810973725483 0 0.17098438647877001 0.42850314348833868 0 0.17902253221663289 0.40492788695933207 0 0.19890623541652749 0.42115079355368912 0 0.17902253221663289 0.40492788695933207 0 0.17157629822801171 0.38002160271682978 0 0.2008438189570996 0.38963870543367402 0 0.1528019220027558 0.40532518960412911 0 0.17902253221663289 0.40492788695933207 0 0.17157629822801171 0.38002160271682978 0 0.1528019220027558 0.40532518960412911 0 0.14756927440754089 0.37573381366887992 0 0.17157629822801171 0.38002160271682978 0 0.17902253221663289 0.40492788695933207 0 0.2008438189570996 0.38963870543367402 0 0.19890623541652749 0.42115079355368912 0 0.19198276408895759 0.36846918068195189 0 0.17157629822801171 0.38002160271682978 0 0.2008438189570996 0.38963870543367402 0 0.2008438189570996 0.38963870543367402 0 0.22638402477508329 0.40440780886586492 0 0.19890623541652749 0.42115079355368912 0 0.2008438189570996 0.38963870543367402 0 0.22693728272114971 0.38251641872149622 0 0.22638402477508329 0.40440780886586492 0 0.21637712922286109 0.36651385017664678 0 0.2008438189570996 0.38963870543367402 0 0.22693728272114971 0.38251641872149622 0 0.22693728272114971 0.38251641872149622 0 0.22638402477508329 0.40440780886586492 0 0.24890193261595259 0.38922972948408457 0 0.22638402477508329 0.40440780886586492 0 0.24890193261595259 0.38922972948408457 0 0.25562435719715348 0.41566745932095828 0 0.24217950803475169 0.36279199964721098 0 0.24890193261595259 0.38922972948408457 0 0.24217950803475169 0.36279199964721098 0 0.22693728272114971 0.38251641872149622 0 0.24890193261595259 0.38922972948408457 0 0.22638402477508329 0.40440780886586492 0 0.23929670148200641 0.42651558303428039 0 0.25562435719715348 0.41566745932095828 0 0.22638402477508329 0.40440780886586492 0 0.23929670148200641 0.42651558303428039 0 0.21947817947708001 0.42577831055793047 0 0.23929670148200641 0.42651558303428039 0 0.21947817947708001 0.42577831055793047 0 0.23265016418236131 0.44461914726881641 0 0.21947817947708001 0.42577831055793047 0 0.19890623541652749 0.42115079355368912 0 0.21144352365240529 0.44700262568134053 0 0.22638402477508329 0.40440780886586492 0 0.21947817947708001 0.42577831055793047 0 0.19890623541652749 0.42115079355368912 0 0.19890623541652749 0.42115079355368912 0 0.18916685095478419 0.4516810973725483 0 0.21144352365240529 0.44700262568134053 0 0.18916685095478419 0.4516810973725483 0 0.20734931543079829 0.47485905125675792 0 0.18916685095478419 0.4516810973725483 0 0.21144352365240529 0.44700262568134053 0 0.20734931543079829 0.47485905125675792 0 0.21144352365240529 0.44700262568134053 0 0.22111039645288069 0.46392735407830132 0 0.20734931543079829 0.47485905125675792 0 0.21144352365240529 0.44700262568134053 0 0.23265016418236131 0.44461914726881641 0 0.22111039645288069 0.46392735407830132 0 0.21947817947708001 0.42577831055793047 0 0.21144352365240529 0.44700262568134053 0 0.23265016418236131 0.44461914726881641 0 0.23265016418236131 0.44461914726881641 0 0.22111039645288069 0.46392735407830132 0 0.24508980140621781 0.46623513653650361 0 0.22111039645288069 0.46392735407830132 0 0.24508980140621781 0.46623513653650361 0 0.23265016418236131 0.44461914726881641 0 0.24508980140621781 0.46623513653650361 0 0.26234678177835441 0.44210518915783192 0 0.23929670148200641 0.42651558303428039 0 0.23265016418236131 0.44461914726881641 0 0.26234678177835441 0.44210518915783192 0 0.2479606543192433 0.5 0 0.23772208332050199 0.48786840683281429 0 0.2255317799068125 0.49803700514096738 0 0.2479606543192433 0.5 0 0.23772208332050199 0.48786840683281429 0 0.25513941322049821 0.48355515434954122 0 0.24508980140621781 0.46623513653650361 0 0.23688712964706901 0.4763018139788181 0 0.25513941322049821 0.48355515434954122 0 0.23772208332050199 0.48786840683281429 0 0.23688712964706901 0.4763018139788181 0 0.25513941322049821 0.48355515434954122 0 0.22111039645288069 0.46392735407830132 0 0.23688712964706901 0.4763018139788181 0 0.22537395383524639 0.47992301809693011 0 0.22537395383524639 0.47992301809693011 0 0.2255317799068125 0.49803700514096738 0 0.20734931543079829 0.47485905125675792 0 0.23772208332050199 0.48786840683281429 0 0.23688712964706901 0.4763018139788181 0 0.22537395383524639 0.47992301809693011 0 0.22111039645288069 0.46392735407830132 0 0.24508980140621781 0.46623513653650361 0 0.23688712964706901 0.4763018139788181 0 0.23772208332050199 0.48786840683281429 0 0.22537395383524639 0.47992301809693011 0 0.2255317799068125 0.49803700514096738 0 0.2479606543192433 0.5 0 0.21885338771805021 0.5 0 0.2255317799068125 0.49803700514096738 0 0.21885338771805021 0.5 0 0.2255317799068125 0.49803700514096738 0 0.20734931543079829 0.47485905125675792 0 0.21885338771805021 0.5 0 0.20734931543079829 0.47485905125675792 0 0.1897461211168571 0.5 0 0.2255317799068125 0.49803700514096738 0 0.20734931543079829 0.47485905125675792 0 0.22111039645288069 0.46392735407830132 0 0.22537395383524639 0.47992301809693011 0 0.20734931543079829 0.47485905125675792 0 0.18916685095478419 0.4516810973725483 0 0.20734931543079829 0.47485905125675792 0 0.18375498264642379 0.4799820804674747 0 0.20734931543079829 0.47485905125675792 0 0.1897461211168571 0.5 0 0.18375498264642379 0.4799820804674747 0 0.1897461211168571 0.5 0 0.1606388545156639 0.5 0 0.18375498264642379 0.4799820804674747 0 0.1606388545156639 0.5 0 0.16284299929429041 0.47286735670979418 0 0.18375498264642379 0.4799820804674747 0 0.17098438647877001 0.42850314348833868 0 0.18916685095478419 0.4516810973725483 0 0.1532788809183856 0.44756588495706878 0 0.18916685095478419 0.4516810973725483 0 0.16284299929429041 0.47286735670979418 0 0.18375498264642379 0.4799820804674747 0 0.18916685095478419 0.4516810973725483 0 0.16284299929429041 0.47286735670979418 0 0.1532788809183856 0.44756588495706878 0 0.17098438647877001 0.42850314348833868 0 0.18916685095478419 0.4516810973725483 0 0.16284299929429041 0.47286735670979418 0 0.1532788809183856 0.44756588495706878 0 0.13792901651589951 0.46760966493884959 0 0.1160915578241386 0.4641835533930308 0 0.1237280261196836 0.44463014715047522 0 0.13792901651589951 0.46760966493884959 0 0.1237280261196836 0.44463014715047522 0 0.1532788809183856 0.44756588495706878 0 0.13792901651589951 0.46760966493884959 0 0.1146358595090817 0.48605788153156299 0 0.13792901651589951 0.46760966493884959 0 0.14375381424303349 0.48699105670781317 0 0.1146358595090817 0.48605788153156299 0 0.13153158791447089 0.50000000000000033 0 0.14375381424303349 0.48699105670781317 0 0.1606388545156639 0.5 0 0.13153158791447089 0.50000000000000033 0 0.14375381424303349 0.48699105670781317 0 0.1606388545156639 0.5 0 0.16284299929429041 0.47286735670979418 0 0.14375381424303349 0.48699105670781317 0 0.16284299929429041 0.47286735670979418 0 0.13792901651589951 0.46760966493884959 0 0.14375381424303349 0.48699105670781317 0 0.35818797179075601 0.47458138126870081 0 0.34642182508771258 0.48585203466637861 0 0.33573625410597768 0.47071191077640329 0 0.35818797179075601 0.47458138126870081 0 0.34642182508771258 0.48585203466637861 0 0.35839011049240282 0.5 0 0.34642182508771258 0.48585203466637861 0 0.35839011049240282 0.5 0 0.33128271396841408 0.5 0 0.35818797179075601 0.47458138126870081 0 0.35839011049240282 0.5 0 0.37951078222479251 0.47868038482078018 0 0.35839011049240282 0.5 0 0.37951078222479251 0.47868038482078018 0 0.38549750701639152 0.5 0 0.35818797179075601 0.47458138126870081 0 0.37565915938479377 0.45849116020829678 0 0.37951078222479251 0.47868038482078018 0 0.35818797179075601 0.47458138126870081 0 0.35384759317055892 0.4558722467826386 0 0.37565915938479377 0.45849116020829678 0 0.3672128213662551 0.44140310366938379 0 0.35384759317055892 0.4558722467826386 0 0.37565915938479377 0.45849116020829678 0 0.35041805056504127 0.44039830756831011 0 0.35384759317055892 0.4558722467826386 0 0.33587130181052999 0.44964761720473639 0 0.3672128213662551 0.44140310366938379 0 0.35041805056504127 0.44039830756831011 0 0.35384759317055892 0.4558722467826386 0 0.35818797179075601 0.47458138126870081 0 0.35384759317055892 0.4558722467826386 0 0.33573625410597768 0.47071191077640329 0 0.33587130181052999 0.44964761720473639 0 0.32245641590876828 0.45710047073305682 0 0.33573625410597768 0.47071191077640329 0 0.35384759317055892 0.4558722467826386 0 0.33587130181052999 0.44964761720473639 0 0.33573625410597768 0.47071191077640329 0 0.35041805056504127 0.44039830756831011 0 0.33587130181052999 0.44964761720473639 0 0.34011375395909899 0.42827966665244982 0 0.33587130181052999 0.44964761720473639 0 0.32313042491148092 0.43915640659962429 0 0.34011375395909899 0.42827966665244982 0 0.33587130181052999 0.44964761720473639 0 0.32313042491148092 0.43915640659962429 0 0.32245641590876828 0.45710047073305682 0 0.32313042491148092 0.43915640659962429 0 0.32245641590876828 0.45710047073305682 0 0.3069723578181176 0.44921026163567479 0 0.32313042491148092 0.43915640659962429 0 0.3069723578181176 0.44921026163567479 0 0.30967478190587899 0.43248339293908478 0 0.32245641590876828 0.45710047073305682 0 0.31479002533830769 0.47294309924184441 0 0.33573625410597768 0.47071191077640329 0 0.32245641590876828 0.45710047073305682 0 0.31479002533830769 0.47294309924184441 0 0.3069723578181176 0.44921026163567479 0 0.31479002533830769 0.47294309924184441 0 0.33573625410597768 0.47071191077640329 0 0.33128271396841408 0.5 0 0.34642182508771258 0.48585203466637861 0 0.33573625410597768 0.47071191077640329 0 0.33128271396841408 0.5 0 0.31479002533830769 0.47294309924184441 0 0.33128271396841408 0.5 0 0.30417531744442527 0.5 0 0.31479002533830769 0.47294309924184441 0 0.30417531744442527 0.5 0 0.29074220063683293 0.48758109823480927 0 0.31479002533830769 0.47294309924184441 0 0.29192961584893129 0.47074300911827521 0 0.29074220063683293 0.48758109823480927 0 0.31479002533830769 0.47294309924184441 0 0.29192961584893129 0.47074300911827521 0 0.29192961584893129 0.47074300911827521 0 0.29074220063683293 0.48758109823480927 0 0.27306856363999571 0.4842714594973539 0 0.30417531744442527 0.5 0 0.29074220063683293 0.48758109823480927 0 0.27706792092043642 0.500000000000002 0 0.27706792092043642 0.500000000000002 0 0.27306856363999571 0.4842714594973539 0 0.25513941322049821 0.48355515434954122 0 0.29074220063683293 0.48758109823480927 0 0.27706792092043642 0.500000000000002 0 0.27306856363999571 0.4842714594973539 0 0.27706792092043642 0.500000000000002 0 0.27306856363999571 0.4842714594973539 0 0.29192961584893129 0.47074300911827521 0 0.26906920635955489 0.46854291899470579 0 0.27306856363999571 0.4842714594973539 0 0.25513941322049821 0.48355515434954122 0 0.26906920635955489 0.46854291899470579 0 0.29192961584893129 0.47074300911827521 0 0.27306856363999571 0.4842714594973539 0 0.26906920635955489 0.46854291899470579 0 0.27306856363999571 0.4842714594973539 0 0.26906920635955489 0.46854291899470579 0 0.24508980140621781 0.46623513653650361 0 0.25513941322049821 0.48355515434954122 0 0.26906920635955489 0.46854291899470579 0 0.2479606543192433 0.5 0 0.27706792092043642 0.500000000000002 0 0.25513941322049821 0.48355515434954122 0 0.24508980140621781 0.46623513653650361 0 0.26906920635955489 0.46854291899470579 0 0.24508980140621781 0.46623513653650361 0 0.26234678177835441 0.44210518915783192 0 0.26906920635955489 0.46854291899470579 0 0.29192961584893129 0.47074300911827521 0 0.26906920635955489 0.46854291899470579 0 0.2825318911539082 0.44937975844880462 0 0.26234678177835441 0.44210518915783192 0 0.26906920635955489 0.46854291899470579 0 0.26234678177835441 0.44210518915783192 0 0.26906920635955489 0.46854291899470579 0 0.2825318911539082 0.44937975844880462 0 0.26234678177835441 0.44210518915783192 0 0.2825318911539082 0.44937975844880462 0 0.2735489225425754 0.42398780939214897 0 0.2825318911539082 0.44937975844880462 0 0.3069723578181176 0.44921026163567479 0 0.29424437368670248 0.43173942196487358 0 0.29192961584893129 0.47074300911827521 0 0.2825318911539082 0.44937975844880462 0 0.3069723578181176 0.44921026163567479 0 0.31479002533830769 0.47294309924184441 0 0.29192961584893129 0.47074300911827521 0 0.3069723578181176 0.44921026163567479 0 0.3069723578181176 0.44921026163567479 0 0.30967478190587899 0.43248339293908478 0 0.29424437368670248 0.43173942196487358 0 0.30967478190587899 0.43248339293908478 0 0.3045281829251868 0.41996349248923659 0 0.31949857018790712 0.42234738200601463 0 0.30967478190587899 0.43248339293908478 0 0.3045281829251868 0.41996349248923659 0 0.29424437368670248 0.43173942196487358 0 0.31221380766262308 0.41141105291454111 0 0.3045281829251868 0.41996349248923659 0 0.30175255758949709 0.40539483602959481 0 0.31221380766262308 0.41141105291454111 0 0.3045281829251868 0.41996349248923659 0 0.31949857018790712 0.42234738200601463 0 0.3045281829251868 0.41996349248923659 0 0.29116822628179151 0.41527777958226658 0 0.30175255758949709 0.40539483602959481 0 0.29116822628179151 0.41527777958226658 0 0.2735489225425754 0.42398780939214897 0 0.28009549588900451 0.40671294327225221 0 0.29116822628179151 0.41527777958226658 0 0.29046685710439091 0.40365495696152731 0 0.30175255758949709 0.40539483602959481 0 0.29116822628179151 0.41527777958226658 0 0.28009549588900451 0.40671294327225221 0 0.29046685710439091 0.40365495696152731 0 0.29116822628179151 0.41527777958226658 0 0.29424437368670248 0.43173942196487358 0 0.2735489225425754 0.42398780939214897 0 0.3045281829251868 0.41996349248923659 0 0.29116822628179151 0.41527777958226658 0 0.29424437368670248 0.43173942196487358 0 0.2825318911539082 0.44937975844880462 0 0.29424437368670248 0.43173942196487358 0 0.2735489225425754 0.42398780939214897 0 0.2735489225425754 0.42398780939214897 0 0.28009549588900451 0.40671294327225221 0 0.26594594197715632 0.40587542564026857 0 0.2735489225425754 0.42398780939214897 0 0.25562435719715348 0.41566745932095828 0 0.26594594197715632 0.40587542564026857 0 0.26234678177835441 0.44210518915783192 0 0.25562435719715348 0.41566745932095828 0 0.23929670148200641 0.42651558303428039 0 0.26234678177835441 0.44210518915783192 0 0.25562435719715348 0.41566745932095828 0 0.26234678177835441 0.44210518915783192 0 0.2735489225425754 0.42398780939214897 0 0.25562435719715348 0.41566745932095828 0 0.24890193261595259 0.38922972948408457 0 0.27155900164109531 0.39377918673189899 0 0.26817635423288699 0.37969346344739391 0 0.24890193261595259 0.38922972948408457 0 0.26817635423288699 0.37969346344739391 0 0.26082178769032438 0.36496323128775521 0 0.24890193261595259 0.38922972948408457 0 0.25562435719715348 0.41566745932095828 0 0.24890193261595259 0.38922972948408457 0 0.27155900164109531 0.39377918673189899 0 0.26594594197715632 0.40587542564026857 0 0.24890193261595259 0.38922972948408457 0 0.25562435719715348 0.41566745932095828 0 0.26594594197715632 0.40587542564026857 0 0.28009549588900451 0.40671294327225221 0 0.27155900164109531 0.39377918673189899 0 0.26594594197715632 0.40587542564026857 0 0.28009549588900451 0.40671294327225221 0 0.27155900164109531 0.39377918673189899 0 0.2841626669368148 0.39603484022980262 0 0.27155900164109531 0.39377918673189899 0 0.27917556467927279 0.38707504911542251 0 0.2841626669368148 0.39603484022980262 0 0.27917556467927279 0.38707504911542251 0 0.27737653217987568 0.3763299637903077 0 0.28641533258273322 0.38531457319514678 0 0.27155900164109531 0.39377918673189899 0 0.27917556467927279 0.38707504911542251 0 0.26817635423288699 0.37969346344739391 0 0.26817635423288699 0.37969346344739391 0 0.27737653217987568 0.3763299637903077 0 0.26995518240551242 0.36922466410125959 0 0.27917556467927279 0.38707504911542251 0 0.26817635423288699 0.37969346344739391 0 0.27737653217987568 0.3763299637903077 0 0.27917556467927279 0.38707504911542251 0 0.28749669470930389 0.39059918652862902 0 0.28641533258273322 0.38531457319514678 0 0.28749669470930389 0.39059918652862902 0 0.28641533258273322 0.38531457319514678 0 0.29321390271680048 0.38636149671614523 0 0.28641533258273322 0.38531457319514678 0 0.29321390271680048 0.38636149671614523 0 0.29155132770994241 0.38145409056705559 0 0.28749669470930389 0.39059918652862902 0 0.29321390271680048 0.38636149671614523 0 0.2951553388248469 0.39485438569372039 0 0.29321390271680048 0.38636149671614523 0 0.2951553388248469 0.39485438569372039 0 0.30172663999730548 0.38411556817588999 0 0.2951337916801352 0.37545299726164849 0 0.29155132770994241 0.38145409056705559 0 0.29028041611347422 0.37131190521640561 0 0.29650911823343812 0.38027524721939082 0 0.2951337916801352 0.37545299726164849 0 0.29155132770994241 0.38145409056705559 0 0.29321390271680048 0.38636149671614523 0 0.29650911823343812 0.38027524721939082 0 0.29155132770994241 0.38145409056705559 0 0.28009549588900451 0.40671294327225221 0 0.2841626669368148 0.39603484022980262 0 0.29046685710439091 0.40365495696152731 0 0.27917556467927279 0.38707504911542251 0 0.28749669470930389 0.39059918652862902 0 0.2841626669368148 0.39603484022980262 0 0.28749669470930389 0.39059918652862902 0 0.2841626669368148 0.39603484022980262 0 0.2951553388248469 0.39485438569372039 0 0.2841626669368148 0.39603484022980262 0 0.2951553388248469 0.39485438569372039 0 0.29046685710439091 0.40365495696152731 0 0.2951553388248469 0.39485438569372039 0 0.29046685710439091 0.40365495696152731 0 0.30175255758949709 0.40539483602959481 0 0.2951553388248469 0.39485438569372039 0 0.30416997859767031 0.39496190780794832 0 0.30172663999730548 0.38411556817588999 0 0.2951553388248469 0.39485438569372039 0 0.30175255758949709 0.40539483602959481 0 0.30416997859767031 0.39496190780794832 0 0.30416997859767031 0.39496190780794832 0 0.31194754139156228 0.39992908639018659 0 0.31058504665001713 0.38993607806902841 0 0.31221380766262308 0.41141105291454111 0 0.30175255758949709 0.40539483602959481 0 0.31194754139156228 0.39992908639018659 0 0.30175255758949709 0.40539483602959481 0 0.30416997859767031 0.39496190780794832 0 0.31194754139156228 0.39992908639018659 0 0.29650911823343812 0.38027524721939082 0 0.30172663999730548 0.38411556817588999 0 0.30091992906300691 0.3739920833762147 0 0.30172663999730548 0.38411556817588999 0 0.31077839752677883 0.37658419253607489 0 0.30091992906300691 0.3739920833762147 0 0.29650911823343812 0.38027524721939082 0 0.2951337916801352 0.37545299726164849 0 0.30091992906300691 0.3739920833762147 0 0.29321390271680048 0.38636149671614523 0 0.29650911823343812 0.38027524721939082 0 0.30172663999730548 0.38411556817588999 0 0.30416997859767031 0.39496190780794832 0 0.30172663999730548 0.38411556817588999 0 0.31058504665001713 0.38993607806902841 0 0.30172663999730548 0.38411556817588999 0 0.31058504665001713 0.38993607806902841 0 0.31077839752677883 0.37658419253607489 0 0.31077839752677883 0.37658419253607489 0 0.31867525833463911 0.38494833593070971 0 0.32306703930603953 0.37623237809600169 0 0.31058504665001713 0.38993607806902841 0 0.31867525833463911 0.38494833593070971 0 0.31878199461777879 0.39362573130725731 0 0.31058504665001713 0.38993607806902841 0 0.31077839752677883 0.37658419253607489 0 0.31867525833463911 0.38494833593070971 0 0.31867525833463911 0.38494833593070971 0 0.32306703930603953 0.37623237809600169 0 0.32934203852673438 0.38871677178939867 0 0.31867525833463911 0.38494833593070971 0 0.32934203852673438 0.38871677178939867 0 0.31878199461777879 0.39362573130725731 0 0.32306703930603953 0.37623237809600169 0 0.33555471090824662 0.37714848622012531 0 0.32934203852673438 0.38871677178939867 0 0.33555471090824662 0.37714848622012531 0 0.32934203852673438 0.38871677178939867 0 0.34865402358820241 0.38746960960344728 0 0.32934203852673438 0.38871677178939867 0 0.33838050486014071 0.40132571833470809 0 0.34865402358820241 0.38746960960344728 0 0.32934203852673438 0.38871677178939867 0 0.33838050486014071 0.40132571833470809 0 0.32336008818594092 0.40459838435696299 0 0.32934203852673438 0.38871677178939867 0 0.32336008818594092 0.40459838435696299 0 0.31878199461777879 0.39362573130725731 0 0.31194754139156228 0.39992908639018659 0 0.31058504665001713 0.38993607806902841 0 0.31878199461777879 0.39362573130725731 0 0.31221380766262308 0.41141105291454111 0 0.31194754139156228 0.39992908639018659 0 0.32336008818594092 0.40459838435696299 0 0.31194754139156228 0.39992908639018659 0 0.32336008818594092 0.40459838435696299 0 0.31878199461777879 0.39362573130725731 0 0.31221380766262308 0.41141105291454111 0 0.32336008818594092 0.40459838435696299 0 0.31949857018790712 0.42234738200601463 0 0.32336008818594092 0.40459838435696299 0 0.31949857018790712 0.42234738200601463 0 0.33335541567677851 0.41413927737501682 0 0.32313042491148092 0.43915640659962429 0 0.31949857018790712 0.42234738200601463 0 0.34011375395909899 0.42827966665244982 0 0.32313042491148092 0.43915640659962429 0 0.30967478190587899 0.43248339293908478 0 0.31949857018790712 0.42234738200601463 0 0.31949857018790712 0.42234738200601463 0 0.34011375395909899 0.42827966665244982 0 0.33335541567677851 0.41413927737501682 0 0.34011375395909899 0.42827966665244982 0 0.33335541567677851 0.41413927737501682 0 0.35251535500997389 0.4097633894025835 0 0.33838050486014071 0.40132571833470809 0 0.33335541567677851 0.41413927737501682 0 0.35251535500997389 0.4097633894025835 0 0.33838050486014071 0.40132571833470809 0 0.32336008818594092 0.40459838435696299 0 0.33335541567677851 0.41413927737501682 0 0.34011375395909899 0.42827966665244982 0 0.35251535500997389 0.4097633894025835 0 0.3591301267131588 0.42602683944016839 0 0.3672128213662551 0.44140310366938379 0 0.35041805056504127 0.44039830756831011 0 0.3591301267131588 0.42602683944016839 0 0.35041805056504127 0.44039830756831011 0 0.34011375395909899 0.42827966665244982 0 0.3591301267131588 0.42602683944016839 0 0.3672128213662551 0.44140310366938379 0 0.3591301267131588 0.42602683944016839 0 0.37786999239799629 0.42201923841731348 0 0.3591301267131588 0.42602683944016839 0 0.36674031876838431 0.41287021939491358 0 0.37786999239799629 0.42201923841731348 0 0.35251535500997389 0.4097633894025835 0 0.36674031876838431 0.41287021939491358 0 0.36672310374365391 0.3972274770167053 0 0.36674031876838431 0.41287021939491358 0 0.37714557779446961 0.40580011292323048 0 0.37786999239799629 0.42201923841731348 0 0.35251535500997389 0.4097633894025835 0 0.3591301267131588 0.42602683944016839 0 0.36674031876838431 0.41287021939491358 0 0.36674031876838431 0.41287021939491358 0 0.36672310374365391 0.3972274770167053 0 0.37714557779446961 0.40580011292323048 0 0.36672310374365391 0.3972274770167053 0 0.34865402358820241 0.38746960960344728 0 0.36927583114563117 0.37168826674887129 0 0.36672310374365391 0.3972274770167053 0 0.36927583114563117 0.37168826674887129 0 0.38594138320053972 0.39504117240748449 0 0.34865402358820241 0.38746960960344728 0 0.34769055634412588 0.36745966958429022 0 0.36927583114563117 0.37168826674887129 0 0.33555471090824662 0.37714848622012531 0 0.34865402358820241 0.38746960960344728 0 0.34769055634412588 0.36745966958429022 0 0.35251535500997389 0.4097633894025835 0 0.36672310374365391 0.3972274770167053 0 0.34865402358820241 0.38746960960344728 0 0.33838050486014071 0.40132571833470809 0 0.35251535500997389 0.4097633894025835 0 0.34865402358820241 0.38746960960344728 0 0.35261027909072251 0.34833536109025781 0 0.34769055634412588 0.36745966958429022 0 0.33944519881702218 0.35670643516570921 0 0.35261027909072251 0.34833536109025781 0 0.34769055634412588 0.36745966958429022 0 0.36927583114563117 0.37168826674887129 0 0.35261027909072251 0.34833536109025781 0 0.36927583114563117 0.37168826674887129 0 0.35261027909072251 0.34833536109025781 0 0.36927583114563117 0.37168826674887129 0 0.38014707859742553 0.358601566133181 0 0.35261027909072251 0.34833536109025781 0 0.37418757138316661 0.34003979241565702 0 0.38014707859742553 0.358601566133181 0 0.37418757138316661 0.34003979241565702 0 0.36114413796306788 0.32433110896381118 0 0.38634354889032002 0.32367976249598251 0 0.35261027909072251 0.34833536109025781 0 0.37418757138316661 0.34003979241565702 0 0.36114413796306788 0.32433110896381118 0 0.36114413796306788 0.32433110896381118 0 0.38634354889032002 0.32367976249598251 0 0.36114413796306788 0.32433110896381118 0 0.36246687595182442 0.30494518477727961 0 0.38634354889032002 0.32367976249598251 0 0.36114413796306788 0.32433110896381118 0 0.33594472703581602 0.32498245543164278 0 0.36114413796306788 0.32433110896381118 0 0.33594472703581602 0.32498245543164278 0 0.34448717235649018 0.30756264321984922 0 0.35261027909072251 0.34833536109025781 0 0.36114413796306788 0.32433110896381118 0 0.33594472703581602 0.32498245543164278 0 0.35261027909072251 0.34833536109025781 0 0.33594472703581602 0.32498245543164278 0 0.35261027909072251 0.34833536109025781 0 0.33361265820108371 0.33601463685995558 0 0.33594472703581602 0.32498245543164278 0 0.35261027909072251 0.34833536109025781 0 0.33361265820108371 0.33601463685995558 0 0.33117650937159632 0.34590223044488833 0 0.33361265820108371 0.33601463685995558 0 0.33594472703581602 0.32498245543164278 0 0.32592845192929348 0.32524135296818618 0 0.33361265820108371 0.33601463685995558 0 0.32240332357799001 0.33561178436480271 0 0.33117650937159632 0.34590223044488833 0 0.33594472703581602 0.32498245543164278 0 0.32420479997372442 0.30853167071016102 0 0.33594472703581602 0.32498245543164278 0 0.32592845192929348 0.32524135296818618 0 0.32420479997372442 0.30853167071016102 0 0.33594472703581602 0.32498245543164278 0 0.32420479997372442 0.30853167071016102 0 0.34448717235649018 0.30756264321984922 0 0.33594472703581602 0.32498245543164278 0 0.32592845192929348 0.32524135296818618 0 0.32592845192929348 0.32524135296818618 0 0.31778971146991503 0.31788997842391498 0 0.32420479997372442 0.30853167071016102 0 0.32592845192929348 0.32524135296818618 0 0.31591730865868939 0.32743152395768732 0 0.31778971146991503 0.31788997842391498 0 0.31591730865868939 0.32743152395768732 0 0.31778971146991503 0.31788997842391498 0 0.30920411140212778 0.3196886032463338 0 0.32240332357799001 0.33561178436480271 0 0.31863003654071292 0.34601962911411782 0 0.33117650937159632 0.34590223044488833 0 0.33361265820108371 0.33601463685995558 0 0.32592845192929348 0.32524135296818618 0 0.32240332357799001 0.33561178436480271 0 0.32592845192929348 0.32524135296818618 0 0.31591730865868939 0.32743152395768732 0 0.32240332357799001 0.33561178436480271 0 0.31591730865868939 0.32743152395768732 0 0.32240332357799001 0.33561178436480271 0 0.31164832743931292 0.33689503642828789 0 0.32240332357799001 0.33561178436480271 0 0.31863003654071292 0.34601962911411782 0 0.31164832743931292 0.33689503642828789 0 0.31863003654071292 0.34601962911411782 0 0.30992842843050988 0.3457112388019602 0 0.31164832743931292 0.33689503642828789 0 0.31863003654071292 0.34601962911411782 0 0.30992842843050988 0.3457112388019602 0 0.31160887743439081 0.35478490180041172 0 0.32445766980723489 0.35579424438156659 0 0.31686549990355672 0.36548826773678422 0 0.31160887743439081 0.35478490180041172 0 0.31863003654071292 0.34601962911411782 0 0.32445766980723489 0.35579424438156659 0 0.31160887743439081 0.35478490180041172 0 0.31863003654071292 0.34601962911411782 0 0.32445766980723489 0.35579424438156659 0 0.33117650937159632 0.34590223044488833 0 0.35261027909072251 0.34833536109025781 0 0.33117650937159632 0.34590223044488833 0 0.33944519881702218 0.35670643516570921 0 0.32445766980723489 0.35579424438156659 0 0.33117650937159632 0.34590223044488833 0 0.33944519881702218 0.35670643516570921 0 0.33555471090824662 0.37714848622012531 0 0.34769055634412588 0.36745966958429022 0 0.3290198967761308 0.36586400202748842 0 0.34769055634412588 0.36745966958429022 0 0.33944519881702218 0.35670643516570921 0 0.3290198967761308 0.36586400202748842 0 0.32445766980723489 0.35579424438156659 0 0.33944519881702218 0.35670643516570921 0 0.3290198967761308 0.36586400202748842 0 0.32306703930603953 0.37623237809600169 0 0.33555471090824662 0.37714848622012531 0 0.3290198967761308 0.36586400202748842 0 0.32306703930603953 0.37623237809600169 0 0.3290198967761308 0.36586400202748842 0 0.31686549990355672 0.36548826773678422 0 0.32445766980723489 0.35579424438156659 0 0.3290198967761308 0.36586400202748842 0 0.31686549990355672 0.36548826773678422 0 0.31077839752677883 0.37658419253607489 0 0.32306703930603953 0.37623237809600169 0 0.31686549990355672 0.36548826773678422 0 0.31077839752677883 0.37658419253607489 0 0.30653952356419251 0.36486132392814918 0 0.30091992906300691 0.3739920833762147 0 0.31077839752677883 0.37658419253607489 0 0.31686549990355672 0.36548826773678422 0 0.30653952356419251 0.36486132392814918 0 0.31686549990355672 0.36548826773678422 0 0.30653952356419251 0.36486132392814918 0 0.31160887743439081 0.35478490180041172 0 0.30653952356419251 0.36486132392814918 0 0.29956039950038399 0.36055845947794762 0 0.29968882481084308 0.36620473963642819 0 0.30653952356419251 0.36486132392814918 0 0.29956039950038399 0.36055845947794762 0 0.30450437459886343 0.35739179545954242 0 0.29956039950038399 0.36055845947794762 0 0.29968882481084308 0.36620473963642819 0 0.2946843591870788 0.36349444767638139 0 0.29968882481084308 0.36620473963642819 0 0.30091992906300691 0.3739920833762147 0 0.29515321138997108 0.36891281366618561 0 0.30653952356419251 0.36486132392814918 0 0.29968882481084308 0.36620473963642819 0 0.30091992906300691 0.3739920833762147 0 0.2951337916801352 0.37545299726164849 0 0.30091992906300691 0.3739920833762147 0 0.29515321138997108 0.36891281366618561 0 0.30992842843050988 0.3457112388019602 0 0.31160887743439081 0.35478490180041172 0 0.30300584901730271 0.34938636887413438 0 0.30992842843050988 0.3457112388019602 0 0.30300584901730271 0.34938636887413438 0 0.30284961949963451 0.34180688944884569 0 0.31160887743439081 0.35478490180041172 0 0.30450437459886343 0.35739179545954242 0 0.30300584901730271 0.34938636887413438 0 0.30653952356419251 0.36486132392814918 0 0.31160887743439081 0.35478490180041172 0 0.30450437459886343 0.35739179545954242 0 0.30450437459886343 0.35739179545954242 0 0.29772286606791931 0.35422336501427332 0 0.30300584901730271 0.34938636887413438 0 0.29956039950038399 0.36055845947794762 0 0.30450437459886343 0.35739179545954242 0 0.29772286606791931 0.35422336501427332 0 0.29772286606791931 0.35422336501427332 0 0.30300584901730271 0.34938636887413438 0 0.29508057650716829 0.34607515835053693 0 0.30300584901730271 0.34938636887413438 0 0.29508057650716829 0.34607515835053693 0 0.30284961949963451 0.34180688944884569 0 0.29508057650716829 0.34607515835053693 0 0.29128433478161492 0.3514692197730912 0 0.28696318970460172 0.34507386829548542 0 0.29772286606791931 0.35422336501427332 0 0.29508057650716829 0.34607515835053693 0 0.29128433478161492 0.3514692197730912 0 0.29128433478161492 0.3514692197730912 0 0.29260686737414288 0.35803349489433017 0 0.28831593146678952 0.35482697607295582 0 0.29772286606791931 0.35422336501427332 0 0.29128433478161492 0.3514692197730912 0 0.29260686737414288 0.35803349489433017 0 0.29956039950038399 0.36055845947794762 0 0.29772286606791931 0.35422336501427332 0 0.29260686737414288 0.35803349489433017 0 0.29260686737414288 0.35803349489433017 0 0.28714468874269172 0.35854684035017659 0 0.29097547274489571 0.36086700820637557 0 0.29260686737414288 0.35803349489433017 0 0.28714468874269172 0.35854684035017659 0 0.28831593146678952 0.35482697607295582 0 0.28714468874269172 0.35854684035017659 0 0.28946597567566928 0.3633932499046143 0 0.27836960746308909 0.35599853724874359 0 0.28714468874269172 0.35854684035017659 0 0.28392422607346179 0.35383006020545288 0 0.27836960746308909 0.35599853724874359 0 0.28714468874269172 0.35854684035017659 0 0.28392422607346179 0.35383006020545288 0 0.28831593146678952 0.35482697607295582 0 0.28392422607346179 0.35383006020545288 0 0.28273558166129192 0.34922596943765521 0 0.28101653893848899 0.35208327708388421 0 0.28392422607346179 0.35383006020545288 0 0.28831593146678952 0.35482697607295582 0 0.2863539578433606 0.35136140079780598 0 0.29128433478161492 0.3514692197730912 0 0.28831593146678952 0.35482697607295582 0 0.2863539578433606 0.35136140079780598 0 0.29128433478161492 0.3514692197730912 0 0.2863539578433606 0.35136140079780598 0 0.28696318970460172 0.34507386829548542 0 0.2863539578433606 0.35136140079780598 0 0.28273558166129192 0.34922596943765521 0 0.28696318970460172 0.34507386829548542 0 0.28392422607346179 0.35383006020545288 0 0.2863539578433606 0.35136140079780598 0 0.28273558166129192 0.34922596943765521 0 0.28696318970460172 0.34507386829548542 0 0.28013569367420871 0.34584772387197749 0 0.28119375649751349 0.3415044430455576 0 0.28273558166129192 0.34922596943765521 0 0.28696318970460172 0.34507386829548542 0 0.28013569367420871 0.34584772387197749 0 0.29155132770994241 0.38145409056705559 0 0.29028041611347422 0.37131190521640561 0 0.27836960746308909 0.35599853724874359 0 0.28641533258273322 0.38531457319514678 0 0.29155132770994241 0.38145409056705559 0 0.2754302243437341 0.35800137086985789 0 0.29155132770994241 0.38145409056705559 0 0.2754302243437341 0.35800137086985789 0 0.27836960746308909 0.35599853724874359 0 0.29155132770994241 0.38145409056705559 0 0.27836960746308909 0.35599853724874359 0 0.29028041611347422 0.37131190521640561 0 0.29515321138997108 0.36891281366618561 0 0.28946597567566928 0.3633932499046143 0 0.2951337916801352 0.37545299726164849 0 0.29028041611347422 0.37131190521640561 0 0.29515321138997108 0.36891281366618561 0 0.29968882481084308 0.36620473963642819 0 0.29515321138997108 0.36891281366618561 0 0.2946843591870788 0.36349444767638139 0 0.29515321138997108 0.36891281366618561 0 0.2946843591870788 0.36349444767638139 0 0.28946597567566928 0.3633932499046143 0 0.29956039950038399 0.36055845947794762 0 0.29260686737414288 0.35803349489433017 0 0.2946843591870788 0.36349444767638139 0 0.28714468874269172 0.35854684035017659 0 0.29097547274489571 0.36086700820637557 0 0.28946597567566928 0.3633932499046143 0 0.2946843591870788 0.36349444767638139 0 0.29097547274489571 0.36086700820637557 0 0.28946597567566928 0.3633932499046143 0 0.29260686737414288 0.35803349489433017 0 0.2946843591870788 0.36349444767638139 0 0.29097547274489571 0.36086700820637557 0 0.29028041611347422 0.37131190521640561 0 0.28946597567566928 0.3633932499046143 0 0.27836960746308909 0.35599853724874359 0 0.28641533258273322 0.38531457319514678 0 0.2754302243437341 0.35800137086985789 0 0.27737653217987568 0.3763299637903077 0 0.28641533258273322 0.38531457319514678 0 0.2754302243437341 0.35800137086985789 0 0.27737653217987568 0.3763299637903077 0 0.27292546410526491 0.36629585246079138 0 0.2754302243437341 0.35800137086985789 0 0.27737653217987568 0.3763299637903077 0 0.26995518240551242 0.36922466410125959 0 0.27292546410526491 0.36629585246079138 0 0.26817635423288699 0.37969346344739391 0 0.26995518240551242 0.36922466410125959 0 0.26082178769032438 0.36496323128775521 0 0.26995518240551242 0.36922466410125959 0 0.26893991749193752 0.36162741108174062 0 0.26082178769032438 0.36496323128775521 0 0.26893991749193752 0.36162741108174062 0 0.27292546410526491 0.36629585246079138 0 0.2754302243437341 0.35800137086985789 0 0.26995518240551242 0.36922466410125959 0 0.26893991749193752 0.36162741108174062 0 0.27292546410526491 0.36629585246079138 0 0.2754302243437341 0.35800137086985789 0 0.26518788721623437 0.33054298393043219 0 0.2754302243437341 0.35800137086985789 0 0.27836960746308909 0.35599853724874359 0 0.26518788721623437 0.33054298393043219 0 0.2754302243437341 0.35800137086985789 0 0.26469999689944002 0.35285812485780471 0 0.26518788721623437 0.33054298393043219 0 0.27836960746308909 0.35599853724874359 0 0.28101653893848899 0.35208327708388421 0 0.2797945401242129 0.34946851842389731 0 0.28392422607346179 0.35383006020545288 0 0.27836960746308909 0.35599853724874359 0 0.28101653893848899 0.35208327708388421 0 0.27836960746308909 0.35599853724874359 0 0.2797945401242129 0.34946851842389731 0 0.27671527888398562 0.3441870844772259 0 0.28013569367420871 0.34584772387197749 0 0.2797945401242129 0.34946851842389731 0 0.27671527888398562 0.3441870844772259 0 0.28013569367420871 0.34584772387197749 0 0.27671527888398562 0.3441870844772259 0 0.28119375649751349 0.3415044430455576 0 0.28273558166129192 0.34922596943765521 0 0.28013569367420871 0.34584772387197749 0 0.2797945401242129 0.34946851842389731 0 0.28273558166129192 0.34922596943765521 0 0.28101653893848899 0.35208327708388421 0 0.2797945401242129 0.34946851842389731 0 0.26893991749193752 0.36162741108174062 0 0.2754302243437341 0.35800137086985789 0 0.26469999689944002 0.35285812485780471 0 0.26469999689944002 0.35285812485780471 0 0.25397109136889212 0.34953950795812871 0 0.26518788721623437 0.33054298393043219 0 0.26469999689944002 0.35285812485780471 0 0.25397109136889212 0.34953950795812871 0 0.26082178769032438 0.36496323128775521 0 0.24217950803475169 0.36279199964721098 0 0.25397109136889212 0.34953950795812871 0 0.26082178769032438 0.36496323128775521 0 0.24217950803475169 0.36279199964721098 0 0.24890193261595259 0.38922972948408457 0 0.26082178769032438 0.36496323128775521 0 0.26893991749193752 0.36162741108174062 0 0.26469999689944002 0.35285812485780471 0 0.26082178769032438 0.36496323128775521 0 0.26160037477145948 0.32361504792451118 0 0.26961523156275707 0.31863310602586059 0 0.25252005129033422 0.30103787280496203 0 0.24833100513142109 0.32161764704062729 0 0.26160037477145948 0.32361504792451118 0 0.26518788721623437 0.33054298393043219 0 0.24963775202771521 0.30051372462394288 0 0.24833100513142109 0.32161764704062729 0 0.26160037477145948 0.32361504792451118 0 0.26160037477145948 0.32361504792451118 0 0.26518788721623437 0.33054298393043219 0 0.26731122343739822 0.32545953491366858 0 0.26160037477145948 0.32361504792451118 0 0.26518788721623437 0.33054298393043219 0 0.2354570834535519 0.33635426981033711 0 0.26518788721623437 0.33054298393043219 0 0.2354570834535519 0.33635426981033711 0 0.25397109136889212 0.34953950795812871 0 0.26518788721623437 0.33054298393043219 0 0.27836960746308909 0.35599853724874359 0 0.27671527888398562 0.3441870844772259 0 0.26518788721623437 0.33054298393043219 0 0.26518788721623437 0.33054298393043219 0 0.2728414001991406 0.32904700177387047 0 0.26518788721623437 0.33054298393043219 0 0.2728414001991406 0.32904700177387047 0 0.26731122343739822 0.32545953491366858 0 0.27836960746308909 0.35599853724874359 0 0.26518788721623437 0.33054298393043219 0 0.26518788721623437 0.33054298393043219 0 0.2728414001991406 0.32904700177387047 0 0.27786043041236869 0.33471626715991409 0 0.27671527888398562 0.3441870844772259 0 0.26518788721623437 0.33054298393043219 0 0.27786043041236869 0.33471626715991409 0 0.27671527888398562 0.3441870844772259 0 0.28119375649751349 0.3415044430455576 0 0.27786043041236869 0.33471626715991409 0 0.2728414001991406 0.32904700177387047 0 0.27786043041236869 0.33471626715991409 0 0.27936204924768121 0.32498307102898349 0 0.27786043041236869 0.33471626715991409 0 0.27936204924768121 0.32498307102898349 0 0.28525590824973168 0.33019860290154568 0 0.2728414001991406 0.32904700177387047 0 0.27936204924768121 0.32498307102898349 0 0.26961523156275707 0.31863310602586059 0 0.2728414001991406 0.32904700177387047 0 0.26731122343739822 0.32545953491366858 0 0.26961523156275707 0.31863310602586059 0 0.26160037477145948 0.32361504792451118 0 0.26731122343739822 0.32545953491366858 0 0.26961523156275707 0.31863310602586059 0 0.27936204924768121 0.32498307102898349 0 0.26961523156275707 0.31863310602586059 0 0.28133089707177739 0.31565660162935461 0 0.26961523156275707 0.31863310602586059 0 0.28133089707177739 0.31565660162935461 0 0.27162220014601168 0.30819847959926649 0 0.28133089707177739 0.31565660162935461 0 0.28926842799031183 0.32164684668335553 0 0.29289622389348391 0.31173450207074938 0 0.27936204924768121 0.32498307102898349 0 0.28926842799031183 0.32164684668335553 0 0.28525590824973168 0.33019860290154568 0 0.27936204924768121 0.32498307102898349 0 0.28133089707177739 0.31565660162935461 0 0.28926842799031183 0.32164684668335553 0 0.28926842799031183 0.32164684668335553 0 0.29270679870612148 0.33133919612790758 0 0.29864702146159328 0.32643954785611667 0 0.28926842799031183 0.32164684668335553 0 0.28525590824973168 0.33019860290154568 0 0.29270679870612148 0.33133919612790758 0 0.28926842799031183 0.32164684668335553 0 0.30057412006284873 0.3182848580649148 0 0.29864702146159328 0.32643954785611667 0 0.28926842799031183 0.32164684668335553 0 0.30057412006284873 0.3182848580649148 0 0.29289622389348391 0.31173450207074938 0 0.28696318970460172 0.34507386829548542 0 0.28119375649751349 0.3415044430455576 0 0.28563489893157912 0.33697664508827291 0 0.28696318970460172 0.34507386829548542 0 0.28563489893157912 0.33697664508827291 0 0.29440715639490739 0.33866623850310912 0 0.28119375649751349 0.3415044430455576 0 0.27786043041236869 0.33471626715991409 0 0.28563489893157912 0.33697664508827291 0 0.28563489893157912 0.33697664508827291 0 0.28525590824973168 0.33019860290154568 0 0.29270679870612148 0.33133919612790758 0 0.27786043041236869 0.33471626715991409 0 0.28563489893157912 0.33697664508827291 0 0.28525590824973168 0.33019860290154568 0 0.29270679870612148 0.33133919612790758 0 0.29440715639490739 0.33866623850310912 0 0.30302737920860612 0.33410729573504611 0 0.28563489893157912 0.33697664508827291 0 0.29270679870612148 0.33133919612790758 0 0.29440715639490739 0.33866623850310912 0 0.29508057650716829 0.34607515835053693 0 0.28696318970460172 0.34507386829548542 0 0.29440715639490739 0.33866623850310912 0 0.29508057650716829 0.34607515835053693 0 0.29440715639490739 0.33866623850310912 0 0.30284961949963451 0.34180688944884569 0 0.29440715639490739 0.33866623850310912 0 0.30284961949963451 0.34180688944884569 0 0.30302737920860612 0.33410729573504611 0 0.29270679870612148 0.33133919612790758 0 0.30302737920860612 0.33410729573504611 0 0.29864702146159328 0.32643954785611667 0 0.30302737920860612 0.33410729573504611 0 0.29864702146159328 0.32643954785611667 0 0.30648676239126638 0.32698903389663531 0 0.30302737920860612 0.33410729573504611 0 0.31164832743931292 0.33689503642828789 0 0.30648676239126638 0.32698903389663531 0 0.31591730865868939 0.32743152395768732 0 0.31164832743931292 0.33689503642828789 0 0.30648676239126638 0.32698903389663531 0 0.30284961949963451 0.34180688944884569 0 0.30302737920860612 0.33410729573504611 0 0.31164832743931292 0.33689503642828789 0 0.30992842843050988 0.3457112388019602 0 0.30284961949963451 0.34180688944884569 0 0.31164832743931292 0.33689503642828789 0 0.30057412006284873 0.3182848580649148 0 0.3075048900192453 0.30846754722968978 0 0.29289622389348391 0.31173450207074938 0 0.30057412006284873 0.3182848580649148 0 0.29864702146159328 0.32643954785611667 0 0.30648676239126638 0.32698903389663531 0 0.30057412006284873 0.3182848580649148 0 0.30648676239126638 0.32698903389663531 0 0.30920411140212778 0.3196886032463338 0 0.31591730865868939 0.32743152395768732 0 0.30648676239126638 0.32698903389663531 0 0.30920411140212778 0.3196886032463338 0 0.30057412006284873 0.3182848580649148 0 0.30920411140212778 0.3196886032463338 0 0.3075048900192453 0.30846754722968978 0 0.31778971146991503 0.31788997842391498 0 0.30920411140212778 0.3196886032463338 0 0.3075048900192453 0.30846754722968978 0 0.3075048900192453 0.30846754722968978 0 0.29694347339530303 0.29848366127231912 0 0.31246487291163488 0.29208088598867771 0 0.3075048900192453 0.30846754722968978 0 0.29694347339530303 0.29848366127231912 0 0.29289622389348391 0.31173450207074938 0 0.31246487291163488 0.29208088598867771 0 0.29888580149873889 0.28140566667868477 0 0.31966717048778492 0.28020807462702291 0 0.29694347339530303 0.29848366127231912 0 0.31246487291163488 0.29208088598867771 0 0.29888580149873889 0.28140566667868477 0 0.29694347339530303 0.29848366127231912 0 0.29888580149873889 0.28140566667868477 0 0.28532215262680061 0.29218967158653381 0 0.29888580149873889 0.28140566667868477 0 0.28532215262680061 0.29218967158653381 0 0.27597263544757811 0.27926985653850322 0 0.29694347339530303 0.29848366127231912 0 0.29289622389348391 0.31173450207074938 0 0.28421062956037713 0.3046253325656294 0 0.29694347339530303 0.29848366127231912 0 0.28532215262680061 0.29218967158653381 0 0.28421062956037713 0.3046253325656294 0 0.28133089707177739 0.31565660162935461 0 0.29289622389348391 0.31173450207074938 0 0.28421062956037713 0.3046253325656294 0 0.28133089707177739 0.31565660162935461 0 0.28421062956037713 0.3046253325656294 0 0.27162220014601168 0.30819847959926649 0 0.28421062956037713 0.3046253325656294 0 0.27162220014601168 0.30819847959926649 0 0.27073357959762612 0.29469717476731772 0 0.28532215262680061 0.29218967158653381 0 0.28421062956037713 0.3046253325656294 0 0.27073357959762612 0.29469717476731772 0 0.27073357959762612 0.29469717476731772 0 0.25964825064670849 0.2811944406245902 0 0.27597263544757811 0.27926985653850322 0 0.28532215262680061 0.29218967158653381 0 0.27073357959762612 0.29469717476731772 0 0.27597263544757811 0.27926985653850322 0 0.2434397278092077 0.27846069768541332 0 0.25252005129033422 0.30103787280496203 0 0.25964825064670849 0.2811944406245902 0 0.27073357959762612 0.29469717476731772 0 0.25252005129033422 0.30103787280496203 0 0.25964825064670849 0.2811944406245902 0 0.24963775202771521 0.30051372462394288 0 0.26160037477145948 0.32361504792451118 0 0.26160037477145948 0.32361504792451118 0 0.25252005129033422 0.30103787280496203 0 0.24963775202771521 0.30051372462394288 0 0.26160037477145948 0.32361504792451118 0 0.25252005129033422 0.30103787280496203 0 0.27162220014601168 0.30819847959926649 0 0.27073357959762612 0.29469717476731772 0 0.25252005129033422 0.30103787280496203 0 0.26961523156275707 0.31863310602586059 0 0.27162220014601168 0.30819847959926649 0 0.25252005129033422 0.30103787280496203 0 0.26005695654466249 0.26476207857526007 0 0.25877170878786238 0.25302463852503437 0 0.26784118605052742 0.25766384122118591 0 0.26005695654466249 0.26476207857526007 0 0.26877199542094288 0.271185286046489 0 0.26784118605052742 0.25766384122118591 0 0.24763005152173001 0.25910176257370959 0 0.26005695654466249 0.26476207857526007 0 0.25877170878786238 0.25302463852503437 0 0.26005695654466249 0.26476207857526007 0 0.25964825064670849 0.2811944406245902 0 0.26877199542094288 0.271185286046489 0 0.2434397278092077 0.27846069768541332 0 0.26005695654466249 0.26476207857526007 0 0.25964825064670849 0.2811944406245902 0 0.2434397278092077 0.27846069768541332 0 0.24763005152173001 0.25910176257370959 0 0.26005695654466249 0.26476207857526007 0 0.25964825064670849 0.2811944406245902 0 0.26877199542094288 0.271185286046489 0 0.27597263544757811 0.27926985653850322 0 0.26877199542094288 0.271185286046489 0 0.27597263544757811 0.27926985653850322 0 0.27647749418933931 0.26389562134405542 0 0.27597263544757811 0.27926985653850322 0 0.27647749418933931 0.26389562134405542 0 0.28921799240021828 0.26815650339571012 0 0.27647749418933931 0.26389562134405542 0 0.27542464597538868 0.25681776053554017 0 0.28272693040926428 0.25881526167589219 0 0.27647749418933931 0.26389562134405542 0 0.26784118605052742 0.25766384122118591 0 0.27542464597538868 0.25681776053554017 0 0.26877199542094288 0.271185286046489 0 0.27647749418933931 0.26389562134405542 0 0.26784118605052742 0.25766384122118591 0 0.26784118605052742 0.25766384122118591 0 0.27542464597538868 0.25681776053554017 0 0.27283394916361492 0.24742619336605559 0 0.25877170878786238 0.25302463852503437 0 0.26784118605052742 0.25766384122118591 0 0.27283394916361492 0.24742619336605559 0 0.27542464597538868 0.25681776053554017 0 0.28272693040926428 0.25881526167589219 0 0.27283394916361492 0.24742619336605559 0 0.28272693040926428 0.25881526167589219 0 0.29968057031776052 0.25778022973809978 0 0.27283394916361492 0.24742619336605559 0 0.28272693040926428 0.25881526167589219 0 0.28921799240021828 0.26815650339571012 0 0.29968057031776052 0.25778022973809978 0 0.29968057031776052 0.25778022973809978 0 0.27283394916361492 0.24742619336605559 0 0.29968057031776052 0.25778022973809978 0 0.27283394916361492 0.24742619336605559 0 0.3016365876598241 0.24719201463661561 0 0.27647749418933931 0.26389562134405542 0 0.28272693040926428 0.25881526167589219 0 0.28921799240021828 0.26815650339571012 0 0.28921799240021828 0.26815650339571012 0 0.29917140266547992 0.2696271248040239 0 0.29968057031776052 0.25778022973809978 0 0.29888580149873889 0.28140566667868477 0 0.27597263544757811 0.27926985653850322 0 0.28921799240021828 0.26815650339571012 0 0.29888580149873889 0.28140566667868477 0 0.28921799240021828 0.26815650339571012 0 0.29917140266547992 0.2696271248040239 0 0.30890124644520212 0.27116609940360098 0 0.29968057031776052 0.25778022973809978 0 0.32652719147190618 0.26813426611014402 0 0.29888580149873889 0.28140566667868477 0 0.30890124644520212 0.27116609940360098 0 0.31966717048778492 0.28020807462702291 0 0.29888580149873889 0.28140566667868477 0 0.29917140266547992 0.2696271248040239 0 0.30890124644520212 0.27116609940360098 0 0.29917140266547992 0.2696271248040239 0 0.30890124644520212 0.27116609940360098 0 0.29968057031776052 0.25778022973809978 0 0.29968057031776052 0.25778022973809978 0 0.31432639173362298 0.2563396134856944 0 0.3016365876598241 0.24719201463661561 0 0.29968057031776052 0.25778022973809978 0 0.32652719147190618 0.26813426611014402 0 0.29968057031776052 0.25778022973809978 0 0.31432639173362298 0.2563396134856944 0 0.32652719147190618 0.26813426611014402 0 0.31432639173362298 0.2563396134856944 0 0.32946121748500129 0.25225194345791829 0 0.3016365876598241 0.24719201463661561 0 0.31432639173362298 0.2563396134856944 0 0.32946121748500129 0.25225194345791829 0 0.32652719147190618 0.26813426611014402 0 0.32946121748500129 0.25225194345791829 0 0.35728584731017871 0.25731187227922109 0 0.32946121748500129 0.25225194345791829 0 0.33854302537622011 0.27351786473126699 0 0.35728584731017871 0.25731187227922109 0 0.32946121748500129 0.25225194345791829 0 0.33854302537622011 0.27351786473126699 0 0.32652719147190618 0.26813426611014402 0 0.33854302537622011 0.27351786473126699 0 0.32652719147190618 0.26813426611014402 0 0.31966717048778492 0.28020807462702291 0 0.30890124644520212 0.27116609940360098 0 0.32652719147190618 0.26813426611014402 0 0.31966717048778492 0.28020807462702291 0 0.31246487291163488 0.29208088598867771 0 0.31966717048778492 0.28020807462702291 0 0.33172871425663403 0.29269405324557379 0 0.31778971146991503 0.31788997842391498 0 0.3075048900192453 0.30846754722968978 0 0.32420479997372442 0.30853167071016102 0 0.31246487291163488 0.29208088598867771 0 0.32420479997372442 0.30853167071016102 0 0.31246487291163488 0.29208088598867771 0 0.32420479997372442 0.30853167071016102 0 0.33172871425663403 0.29269405324557379 0 0.3075048900192453 0.30846754722968978 0 0.31246487291163488 0.29208088598867771 0 0.32420479997372442 0.30853167071016102 0 0.32420479997372442 0.30853167071016102 0 0.33172871425663403 0.29269405324557379 0 0.34448717235649018 0.30756264321984922 0 0.33854302537622011 0.27351786473126699 0 0.31966717048778492 0.28020807462702291 0 0.33172871425663403 0.29269405324557379 0 0.33172871425663403 0.29269405324557379 0 0.3503635169770366 0.28966006865463678 0 0.34448717235649018 0.30756264321984922 0 0.33854302537622011 0.27351786473126699 0 0.33172871425663403 0.29269405324557379 0 0.3503635169770366 0.28966006865463678 0 0.3503635169770366 0.28966006865463678 0 0.34448717235649018 0.30756264321984922 0 0.36246687595182442 0.30494518477727961 0 0.36114413796306788 0.32433110896381118 0 0.34448717235649018 0.30756264321984922 0 0.36246687595182442 0.30494518477727961 0 0.36246687595182442 0.30494518477727961 0 0.37008896088821891 0.27907488192658342 0 0.38127772340545701 0.29855436992749679 0 0.3503635169770366 0.28966006865463678 0 0.36246687595182442 0.30494518477727961 0 0.37008896088821891 0.27907488192658342 0 0.37008896088821891 0.27907488192658342 0 0.35728584731017871 0.25731187227922109 0 0.35441181453934328 0.27463334472066592 0 0.37008896088821891 0.27907488192658342 0 0.35728584731017871 0.25731187227922109 0 0.38511047713535562 0.2623718011005241 0 0.35728584731017871 0.25731187227922109 0 0.38511047713535562 0.2623718011005241 0 0.37293454716760283 0.2396311516560117 0 0.35728584731017871 0.25731187227922109 0 0.38511047713535562 0.2623718011005241 0 0.33854302537622011 0.27351786473126699 0 0.3503635169770366 0.28966006865463678 0 0.35441181453934328 0.27463334472066592 0 0.33854302537622011 0.27351786473126699 0 0.35728584731017871 0.25731187227922109 0 0.35441181453934328 0.27463334472066592 0 0.3503635169770366 0.28966006865463678 0 0.37008896088821891 0.27907488192658342 0 0.35441181453934328 0.27463334472066592 0 0.4059739891301799 0.26616584566893298 0 0.38511047713535562 0.2623718011005241 0 0.39575362435311728 0.2822497143692822 0 0.4059739891301799 0.26616584566893298 0 0.39575362435311728 0.2822497143692822 0 0.41466985898722469 0.28617745239982811 0 0.4059739891301799 0.26616584566893298 0 0.38511047713535562 0.2623718011005241 0 0.39933451681408499 0.24222051247515669 0 0.4059739891301799 0.26616584566893298 0 0.38511047713535562 0.2623718011005241 0 0.38511047713535562 0.2623718011005241 0 0.37293454716760283 0.2396311516560117 0 0.37008896088821891 0.27907488192658342 0 0.38511047713535562 0.2623718011005241 0 0.39575362435311728 0.2822497143692822 0 0.38511047713535562 0.2623718011005241 0 0.39575362435311728 0.2822497143692822 0 0.37008896088821891 0.27907488192658342 0 0.38127772340545701 0.29855436992749679 0 0.39575362435311728 0.2822497143692822 0 0.38127772340545701 0.29855436992749679 0 0.39341545683502421 0.31015448597301559 0 0.38634354889032002 0.32367976249598251 0 0.38127772340545701 0.29855436992749679 0 0.38634354889032002 0.32367976249598251 0 0.36246687595182442 0.30494518477727961 0 0.38127772340545701 0.29855436992749679 0 0.38634354889032002 0.32367976249598251 0 0.38127772340545701 0.29855436992749679 0 0.39341545683502421 0.31015448597301559 0 0.40639677157087911 0.30212762763804019 0 0.39341545683502421 0.31015448597301559 0 0.40639677157087911 0.30212762763804019 0 0.4081981699382346 0.3139513768470385 0 0.39575362435311728 0.2822497143692822 0 0.40639677157087911 0.30212762763804019 0 0.38127772340545701 0.29855436992749679 0 0.39575362435311728 0.2822497143692822 0 0.40639677157087911 0.30212762763804019 0 0.39575362435311728 0.2822497143692822 0 0.41466985898722469 0.28617745239982811 0 0.40639677157087911 0.30212762763804019 0 0.41466985898722469 0.28617745239982811 0 0.40639677157087911 0.30212762763804019 0 0.42063747895650733 0.30228076741981708 0 0.40639677157087911 0.30212762763804019 0 0.417039918788641 0.32200554090679828 0 0.40639677157087911 0.30212762763804019 0 0.42063747895650733 0.30228076741981708 0 0.41590325438833858 0.31571238371771643 0 0.42063747895650733 0.30228076741981708 0 0.43554340190627211 0.31006971119553528 0 0.43241978878766019 0.29428086906555412 0 0.42063747895650733 0.30228076741981708 0 0.43554340190627211 0.31006971119553528 0 0.41590325438833858 0.31571238371771643 0 0.43241978878766019 0.29428086906555412 0 0.42683750112500368 0.26995989023734401 0 0.43795337608323548 0.28151673092589807 0 0.41466985898722469 0.28617745239982811 0 0.43241978878766019 0.29428086906555412 0 0.42683750112500368 0.26995989023734401 0 0.43241978878766019 0.29428086906555412 0 0.42683750112500368 0.26995989023734401 0 0.41466985898722469 0.28617745239982811 0 0.42063747895650733 0.30228076741981708 0 0.43241978878766019 0.29428086906555412 0 0.4059739891301799 0.26616584566893298 0 0.42683750112500368 0.26995989023734401 0 0.4059739891301799 0.26616584566893298 0 0.41466985898722469 0.28617745239982811 0 0.42683750112500368 0.26995989023734401 0 0.4059739891301799 0.26616584566893298 0 0.42683750112500368 0.26995989023734401 0 0.42092918023873821 0.24421844589255121 0 0.4059739891301799 0.26616584566893298 0 0.39933451681408499 0.24222051247515669 0 0.42092918023873821 0.24421844589255121 0 0.42683750112500368 0.26995989023734401 0 0.44089414042045799 0.25771217685885472 0 0.42092918023873821 0.24421844589255121 0 0.42683750112500368 0.26995989023734401 0 0.42092918023873821 0.24421844589255121 0 0.44089414042045799 0.25771217685885472 0 0.45301423403414209 0.26007999789895508 0 0.4569230610569987 0.24819013429900669 0 0.44089414042045799 0.25771217685885472 0 0.45301423403414209 0.26007999789895508 0 0.44973892600361531 0.27412453072026172 0 0.42683750112500368 0.26995989023734401 0 0.44089414042045799 0.25771217685885472 0 0.44973892600361531 0.27412453072026172 0 0.42683750112500368 0.26995989023734401 0 0.44973892600361531 0.27412453072026172 0 0.43795337608323548 0.28151673092589807 0 0.42683750112500368 0.26995989023734401 0 0.44973892600361531 0.27412453072026172 0 0.44973892600361531 0.27412453072026172 0 0.46478170596961249 0.26323965275109401 0 0.47264035088222628 0.27828917120318131 0 0.44973892600361531 0.27412453072026172 0 0.47264035088222628 0.27828917120318131 0 0.44973892600361531 0.27412453072026172 0 0.47264035088222628 0.27828917120318131 0 0.46226850420995219 0.28814127863090738 0 0.45301423403414209 0.26007999789895508 0 0.44973892600361531 0.27412453072026172 0 0.46478170596961249 0.26323965275109401 0 0.46478170596961249 0.26323965275109401 0 0.47264035088222628 0.27828917120318131 0 0.46478170596961249 0.26323965275109401 0 0.4569230610569987 0.24819013429900669 0 0.45301423403414209 0.26007999789895508 0 0.46478170596961249 0.26323965275109401 0 0.4569230610569987 0.24819013429900669 0 0.46478170596961249 0.26323965275109401 0 0.46750550623703407 0.25349570762290419 0 0.47341939214644252 0.26170481890296848 0 0.46478170596961249 0.26323965275109401 0 0.46750550623703407 0.25349570762290419 0 0.4569230610569987 0.24819013429900669 0 0.47341939214644252 0.26170481890296848 0 0.48489893488970792 0.25686202981026901 0 0.47278153852907701 0.24486280325581439 0 0.46750550623703407 0.25349570762290419 0 0.47341939214644252 0.26170481890296848 0 0.47278153852907701 0.24486280325581439 0 0.47341939214644252 0.26170481890296848 0 0.47278153852907701 0.24486280325581439 0 0.47341939214644252 0.26170481890296848 0 0.48000757765913032 0.26759533659828072 0 0.48489893488970792 0.25686202981026901 0 0.47341939214644252 0.26170481890296848 0 0.47405724576380859 0.27854683455012252 0 0.48000757765913032 0.26759533659828072 0 0.47341939214644252 0.26170481890296848 0 0.47264035088222628 0.27828917120318131 0 0.47405724576380859 0.27854683455012252 0 0.46478170596961249 0.26323965275109401 0 0.47341939214644252 0.26170481890296848 0 0.47264035088222628 0.27828917120318131 0 0.47405724576380859 0.27854683455012252 0 0.47415752390174082 0.28119459874267072 0 0.50000000000001354 0.28326454295050368 0 0.47341939214644252 0.26170481890296848 0 0.47405724576380859 0.27854683455012252 0 0.47264035088222628 0.27828917120318131 0 0.47405724576380859 0.27854683455012252 0 0.47405724576380859 0.27854683455012252 0 0.47415752390174082 0.28119459874267072 0 0.47264035088222628 0.27828917120318131 0 0.47405724576380859 0.27854683455012252 0 0.47415752390174082 0.28119459874267072 0 0.47264035088222628 0.27828917120318131 0 0.47415752390174082 0.28119459874267072 0 0.47405724576380859 0.27854683455012252 0 0.48000757765913032 0.26759533659828072 0 0.48909471086131839 0.26954423778064313 0 0.47405724576380859 0.27854683455012252 0 0.50000000000001354 0.28326454295050368 0 0.47405724576380859 0.27854683455012252 0 0.48909471086131839 0.26954423778064313 0 0.50000000000001354 0.28326454295050368 0 0.48909471086131839 0.26954423778064313 0 0.5 0.25553121794514477 0 0.50000000000001354 0.28326454295050368 0 0.5 0.25553121794514477 0 0.48489893488970792 0.25686202981026901 0 0.48903365503734891 0.24299047468837701 0 0.48909471086131839 0.26954423778064313 0 0.5 0.25553121794514477 0 0.48489893488970792 0.25686202981026901 0 0.48000757765913032 0.26759533659828072 0 0.48909471086131839 0.26954423778064313 0 0.48489893488970792 0.25686202981026901 0 0.48223131843763373 0.29665613456690521 0 0.49274985611107969 0.31679941989990179 0 0.48223131843763373 0.29665613456690521 0 0.49274985611107969 0.31679941989990179 0 0.48532411314893581 0.31403081790115361 0 0.49298554246438231 0.30475618362627349 0 0.48223131843763373 0.29665613456690521 0 0.49274985611107969 0.31679941989990179 0 0.49298554246438231 0.30475618362627349 0 0.4969609953088156 0.2924242547978898 0 0.5 0.31314492524039728 0 0.49298554246438231 0.30475618362627349 0 0.4969609953088156 0.2924242547978898 0 0.48223131843763373 0.29665613456690521 0 0.49298554246438231 0.30475618362627349 0 0.49274985611107969 0.31679941989990179 0 0.5 0.31314492524039728 0 0.4969609953088156 0.2924242547978898 0 0.50000000000001354 0.28326454295050368 0 0.5 0.31314492524039728 0 0.47415752390174082 0.28119459874267072 0 0.4969609953088156 0.2924242547978898 0 0.50000000000001354 0.28326454295050368 0 0.47415752390174082 0.28119459874267072 0 0.4969609953088156 0.2924242547978898 0 0.48223131843763373 0.29665613456690521 0 0.4969609953088156 0.2924242547978898 0 0.48223131843763373 0.29665613456690521 0 0.47415752390174082 0.28119459874267072 0 0.47482369694213911 0.29878436615117387 0 0.47415752390174082 0.28119459874267072 0 0.47482369694213911 0.29878436615117387 0 0.46226850420995219 0.28814127863090738 0 0.47415752390174082 0.28119459874267072 0 0.48223131843763373 0.29665613456690521 0 0.47482369694213911 0.29878436615117387 0 0.47415752390174082 0.28119459874267072 0 0.48223131843763373 0.29665613456690521 0 0.47264035088222628 0.27828917120318131 0 0.47415752390174082 0.28119459874267072 0 0.46226850420995219 0.28814127863090738 0 0.48223131843763373 0.29665613456690521 0 0.48022688714188239 0.30485617861310249 0 0.48532411314893581 0.31403081790115361 0 0.47482369694213911 0.29878436615117387 0 0.4785284200388214 0.30995339583317788 0 0.47567910166728178 0.32137064515506791 0 0.47482369694213911 0.29878436615117387 0 0.46683928615616721 0.31034493157342358 0 0.47567910166728178 0.32137064515506791 0 0.47482369694213911 0.29878436615117387 0 0.47567910166728178 0.32137064515506791 0 0.47482369694213911 0.29878436615117387 0 0.48022688714188239 0.30485617861310249 0 0.4785284200388214 0.30995339583317788 0 0.48223131843763373 0.29665613456690521 0 0.47482369694213911 0.29878436615117387 0 0.48022688714188239 0.30485617861310249 0 0.48223131843763373 0.29665613456690521 0 0.47482369694213911 0.29878436615117387 0 0.48022688714188239 0.30485617861310249 0 0.4785284200388214 0.30995339583317788 0 0.48532411314893581 0.31403081790115361 0 0.47482369694213911 0.29878436615117387 0 0.46683928615616721 0.31034493157342358 0 0.45518354942420552 0.3044270386733543 0 0.47482369694213911 0.29878436615117387 0 0.45518354942420552 0.3044270386733543 0 0.46683928615616721 0.31034493157342358 0 0.45518354942420552 0.3044270386733543 0 0.46090063033065398 0.31457074158430443 0 0.47482369694213911 0.29878436615117387 0 0.45518354942420552 0.3044270386733543 0 0.46226850420995219 0.28814127863090738 0 0.45518354942420552 0.3044270386733543 0 0.46226850420995219 0.28814127863090738 0 0.44650245416143669 0.29205179777212908 0 0.44973892600361531 0.27412453072026172 0 0.46226850420995219 0.28814127863090738 0 0.44650245416143669 0.29205179777212908 0 0.44973892600361531 0.27412453072026172 0 0.44650245416143669 0.29205179777212908 0 0.43795337608323548 0.28151673092589807 0 0.43241978878766019 0.29428086906555412 0 0.44650245416143669 0.29205179777212908 0 0.43795337608323548 0.28151673092589807 0 0.43554340190627211 0.31006971119553528 0 0.45518354942420552 0.3044270386733543 0 0.44650245416143669 0.29205179777212908 0 0.43554340190627211 0.31006971119553528 0 0.43241978878766019 0.29428086906555412 0 0.44650245416143669 0.29205179777212908 0 0.43554340190627211 0.31006971119553528 0 0.45518354942420552 0.3044270386733543 0 0.44590058407496119 0.32214035093537202 0 0.43554340190627211 0.31006971119553528 0 0.45518354942420552 0.3044270386733543 0 0.44438162939182968 0.33527616080122319 0 0.43941431748234389 0.34697694962204328 0 0.43138153093963261 0.33684778794266318 0 0.44438162939182968 0.33527616080122319 0 0.43138153093963261 0.33684778794266318 0 0.43736796180383269 0.33070162376080392 0 0.44590058407496119 0.32214035093537202 0 0.44438162939182968 0.33527616080122319 0 0.43736796180383269 0.33070162376080392 0 0.44590058407496119 0.32214035093537202 0 0.44438162939182968 0.33527616080122319 0 0.45938090137280319 0.33331169935871768 0 0.44438162939182968 0.33527616080122319 0 0.45466128638888681 0.34537342559846479 0 0.43941431748234389 0.34697694962204328 0 0.44438162939182968 0.33527616080122319 0 0.45938090137280319 0.33331169935871768 0 0.45466128638888681 0.34537342559846479 0 0.45938090137280319 0.33331169935871768 0 0.47648750655815691 0.34271593104932652 0 0.45466128638888681 0.34537342559846479 0 0.45518354942420552 0.3044270386733543 0 0.44590058407496119 0.32214035093537202 0 0.46090063033065398 0.31457074158430443 0 0.44590058407496119 0.32214035093537202 0 0.47567910166728178 0.32137064515506791 0 0.44590058407496119 0.32214035093537202 0 0.45938090137280319 0.33331169935871768 0 0.47567910166728178 0.32137064515506791 0 0.44590058407496119 0.32214035093537202 0 0.46090063033065398 0.31457074158430443 0 0.47567910166728178 0.32137064515506791 0 0.46683928615616721 0.31034493157342358 0 0.46090063033065398 0.31457074158430443 0 0.47567910166728178 0.32137064515506791 0 0.4785284200388214 0.30995339583317788 0 0.48037384835626529 0.31664076505113292 0 0.47567910166728178 0.32137064515506791 0 0.48037384835626529 0.31664076505113292 0 0.48196375857002199 0.32120820131513239 0 0.47567910166728178 0.32137064515506791 0 0.48037384835626529 0.31664076505113292 0 0.48196375857002199 0.32120820131513239 0 0.48532411314893581 0.31403081790115361 0 0.4785284200388214 0.30995339583317788 0 0.48037384835626529 0.31664076505113292 0 0.48532411314893581 0.31403081790115361 0 0.48196375857002199 0.32120820131513239 0 0.48271443300740718 0.32966898805558448 0 0.48700966075600671 0.32276244140519528 0 0.48196375857002199 0.32120820131513239 0 0.47567910166728178 0.32137064515506791 0 0.48271443300740718 0.32966898805558448 0 0.48196375857002199 0.32120820131513239 0 0.47567910166728178 0.32137064515506791 0 0.47567910166728178 0.32137064515506791 0 0.47648750655815691 0.34271593104932652 0 0.47567910166728178 0.32137064515506791 0 0.47648750655815691 0.34271593104932652 0 0.48271443300740718 0.32966898805558448 0 0.45938090137280319 0.33331169935871768 0 0.47567910166728178 0.32137064515506791 0 0.47648750655815691 0.34271593104932652 0 0.47648750655815691 0.34271593104932652 0 0.48271443300740718 0.32966898805558448 0 0.49227852706914571 0.3310448133387906 0 0.47648750655815691 0.34271593104932652 0 0.5 0.34302530753029081 0 0.49227852706914571 0.3310448133387906 0 0.5 0.34302530753029081 0 0.49227852706914571 0.3310448133387906 0 0.5 0.31314492524039728 0 0.49227852706914571 0.3310448133387906 0 0.49274985611107969 0.31679941989990179 0 0.5 0.31314492524039728 0 0.48196375857002199 0.32120820131513239 0 0.48532411314893581 0.31403081790115361 0 0.48700966075600671 0.32276244140519528 0 0.49274985611107969 0.31679941989990179 0 0.48532411314893581 0.31403081790115361 0 0.48700966075600671 0.32276244140519528 0 0.48271443300740718 0.32966898805558448 0 0.49227852706914571 0.3310448133387906 0 0.48700966075600671 0.32276244140519528 0 0.49227852706914571 0.3310448133387906 0 0.49274985611107969 0.31679941989990179 0 0.48700966075600671 0.32276244140519528 0 0.5 0.37290568982018429 0 0.48906820236105919 0.3579654986752378 0 0.48477613844387402 0.38021688004838439 0 0.47648750655815691 0.34271593104932652 0 0.5 0.34302530753029081 0 0.48906820236105919 0.3579654986752378 0 0.5 0.34302530753029081 0 0.5 0.37290568982018429 0 0.48906820236105919 0.3579654986752378 0 0.47648750655815691 0.34271593104932652 0 0.4736556537454587 0.3678330253399309 0 0.4628011452372443 0.35721885356897543 0 0.47648750655815691 0.34271593104932652 0 0.48906820236105919 0.3579654986752378 0 0.4736556537454587 0.3678330253399309 0 0.48906820236105919 0.3579654986752378 0 0.4736556537454587 0.3678330253399309 0 0.48477613844387402 0.38021688004838439 0 0.4736556537454587 0.3678330253399309 0 0.45151374504626951 0.36758660991241321 0 0.46980882541715813 0.38208294099771128 0 0.4736556537454587 0.3678330253399309 0 0.4628011452372443 0.35721885356897543 0 0.45151374504626951 0.36758660991241321 0 0.47648750655815691 0.34271593104932652 0 0.4628011452372443 0.35721885356897543 0 0.45466128638888681 0.34537342559846479 0 0.4628011452372443 0.35721885356897543 0 0.45466128638888681 0.34537342559846479 0 0.45151374504626951 0.36758660991241321 0 0.43941431748234389 0.34697694962204328 0 0.45151374504626951 0.36758660991241321 0 0.43248649325656402 0.35912170041613489 0 0.45466128638888681 0.34537342559846479 0 0.43941431748234389 0.34697694962204328 0 0.45151374504626951 0.36758660991241321 0 0.45151374504626951 0.36758660991241321 0 0.4343808670510142 0.37207818795490849 0 0.43248649325656402 0.35912170041613489 0 0.4343808670510142 0.37207818795490849 0 0.41565945607251759 0.36236511110304392 0 0.42235721568131929 0.38220686924127689 0 0.4343808670510142 0.37207818795490849 0 0.41565945607251759 0.36236511110304392 0 0.43248649325656402 0.35912170041613489 0 0.41565945607251759 0.36236511110304392 0 0.40683499004542412 0.37566900985645529 0 0.42235721568131929 0.38220686924127689 0 0.41565945607251759 0.36236511110304392 0 0.42423344021441339 0.3469403641650044 0 0.40881868850316022 0.34319093436892228 0 0.41565945607251759 0.36236511110304392 0 0.40881868850316022 0.34319093436892228 0 0.40255325820206211 0.35440744329028528 0 0.41565945607251759 0.36236511110304392 0 0.42423344021441339 0.3469403641650044 0 0.43248649325656402 0.35912170041613489 0 0.43941431748234389 0.34697694962204328 0 0.42423344021441339 0.3469403641650044 0 0.43248649325656402 0.35912170041613489 0 0.43941431748234389 0.34697694962204328 0 0.42423344021441339 0.3469403641650044 0 0.43138153093963261 0.33684778794266318 0 0.43138153093963261 0.33684778794266318 0 0.43736796180383269 0.33070162376080392 0 0.42780810280890752 0.32854219536395729 0 0.43138153093963261 0.33684778794266318 0 0.42780810280890752 0.32854219536395729 0 0.41974391964010321 0.33544292333485398 0 0.42780810280890752 0.32854219536395729 0 0.41816216709540432 0.32913892271221878 0 0.41974391964010321 0.33544292333485398 0 0.42423344021441339 0.3469403641650044 0 0.43138153093963261 0.33684778794266318 0 0.41974391964010321 0.33544292333485398 0 0.44590058407496119 0.32214035093537202 0 0.417039918788641 0.32200554090679828 0 0.43554340190627211 0.31006971119553528 0 0.42610184512817068 0.31856760869421968 0 0.41590325438833858 0.31571238371771643 0 0.44590058407496119 0.32214035093537202 0 0.42610184512817068 0.31856760869421968 0 0.417039918788641 0.32200554090679828 0 0.44590058407496119 0.32214035093537202 0 0.42780810280890752 0.32854219536395729 0 0.417039918788641 0.32200554090679828 0 0.44590058407496119 0.32214035093537202 0 0.43736796180383269 0.33070162376080392 0 0.42780810280890752 0.32854219536395729 0 0.43554340190627211 0.31006971119553528 0 0.41590325438833858 0.31571238371771643 0 0.43554340190627211 0.31006971119553528 0 0.44590058407496119 0.32214035093537202 0 0.42610184512817068 0.31856760869421968 0 0.40639677157087911 0.30212762763804019 0 0.417039918788641 0.32200554090679828 0 0.4081981699382346 0.3139513768470385 0 0.40639677157087911 0.30212762763804019 0 0.41590325438833858 0.31571238371771643 0 0.417039918788641 0.32200554090679828 0 0.42610184512817068 0.31856760869421968 0 0.41590325438833858 0.31571238371771643 0 0.417039918788641 0.32200554090679828 0 0.417039918788641 0.32200554090679828 0 0.41816216709540432 0.32913892271221878 0 0.41176425843116088 0.33156610519561941 0 0.42780810280890752 0.32854219536395729 0 0.417039918788641 0.32200554090679828 0 0.41816216709540432 0.32913892271221878 0 0.42423344021441339 0.3469403641650044 0 0.41974391964010321 0.33544292333485398 0 0.40881868850316022 0.34319093436892228 0 0.41816216709540432 0.32913892271221878 0 0.41974391964010321 0.33544292333485398 0 0.41176425843116088 0.33156610519561941 0 0.417039918788641 0.32200554090679828 0 0.41176425843116088 0.33156610519561941 0 0.40171431040203109 0.33103781916521291 0 0.41176425843116088 0.33156610519561941 0 0.40881868850316022 0.34319093436892228 0 0.40171431040203109 0.33103781916521291 0 0.41974391964010321 0.33544292333485398 0 0.41176425843116088 0.33156610519561941 0 0.40881868850316022 0.34319093436892228 0 0.40171431040203109 0.33103781916521291 0 0.38634354889032002 0.32367976249598251 0 0.39069281237429682 0.34525116339505252 0 0.40881868850316022 0.34319093436892228 0 0.40171431040203109 0.33103781916521291 0 0.39069281237429682 0.34525116339505252 0 0.417039918788641 0.32200554090679828 0 0.40171431040203109 0.33103781916521291 0 0.38634354889032002 0.32367976249598251 0 0.417039918788641 0.32200554090679828 0 0.4081981699382346 0.3139513768470385 0 0.38634354889032002 0.32367976249598251 0 0.39341545683502421 0.31015448597301559 0 0.4081981699382346 0.3139513768470385 0 0.38634354889032002 0.32367976249598251 0 0.417039918788641 0.32200554090679828 0 0.38634354889032002 0.32367976249598251 0 0.38634354889032002 0.32367976249598251 0 0.39069281237429682 0.34525116339505252 0 0.37418757138316661 0.34003979241565702 0 0.38634354889032002 0.32367976249598251 0 0.39069281237429682 0.34525116339505252 0 0.37418757138316661 0.34003979241565702 0 0.38014707859742553 0.358601566133181 0 0.39069281237429682 0.34525116339505252 0 0.38014707859742553 0.358601566133181 0 0.39504207585827378 0.36682256429412252 0 0.39069281237429682 0.34525116339505252 0 0.36927583114563117 0.37168826674887129 0 0.38014707859742553 0.358601566133181 0 0.3861818138235471 0.37714139125663793 0 0.38014707859742553 0.358601566133181 0 0.39504207585827378 0.36682256429412252 0 0.3861818138235471 0.37714139125663793 0 0.41565945607251759 0.36236511110304392 0 0.39504207585827378 0.36682256429412252 0 0.40683499004542412 0.37566900985645529 0 0.41565945607251759 0.36236511110304392 0 0.39504207585827378 0.36682256429412252 0 0.40255325820206211 0.35440744329028528 0 0.39504207585827378 0.36682256429412252 0 0.40255325820206211 0.35440744329028528 0 0.39069281237429682 0.34525116339505252 0 0.40881868850316022 0.34319093436892228 0 0.40255325820206211 0.35440744329028528 0 0.39069281237429682 0.34525116339505252 0 0.39504207585827378 0.36682256429412252 0 0.39069281237429682 0.34525116339505252 0 0.3993913393422508 0.38839396519319253 0 0.39020643165102042 0.40750290438779102 0 0.40342788129008578 0.41136751416027151 0 0.3993913393422508 0.38839396519319253 0 0.40342788129008578 0.41136751416027151 0 0.41247484703898341 0.39668929567888889 0 0.3993913393422508 0.38839396519319253 0 0.38594138320053972 0.39504117240748449 0 0.39020643165102042 0.40750290438779102 0 0.39504207585827378 0.36682256429412252 0 0.3993913393422508 0.38839396519319253 0 0.40683499004542412 0.37566900985645529 0 0.39504207585827378 0.36682256429412252 0 0.3993913393422508 0.38839396519319253 0 0.39504207585827378 0.36682256429412252 0 0.3993913393422508 0.38839396519319253 0 0.3861818138235471 0.37714139125663793 0 0.3993913393422508 0.38839396519319253 0 0.41247484703898341 0.39668929567888889 0 0.40683499004542412 0.37566900985645529 0 0.36927583114563117 0.37168826674887129 0 0.38594138320053972 0.39504117240748449 0 0.3993913393422508 0.38839396519319253 0 0.3861818138235471 0.37714139125663793 0 0.38594138320053972 0.39504117240748449 0 0.36927583114563117 0.37168826674887129 0 0.3861818138235471 0.37714139125663793 0 0.38594138320053972 0.39504117240748449 0 0.36672310374365391 0.3972274770167053 0 0.38594138320053972 0.39504117240748449 0 0.37714557779446961 0.40580011292323048 0 0.38594138320053972 0.39504117240748449 0 0.37714557779446961 0.40580011292323048 0 0.39020643165102042 0.40750290438779102 0 0.37714557779446961 0.40580011292323048 0 0.39020643165102042 0.40750290438779102 0 0.37786999239799629 0.42201923841731348 0 0.39020643165102042 0.40750290438779102 0 0.37786999239799629 0.42201923841731348 0 0.39620875860206523 0.42610388639599522 0 0.3672128213662551 0.44140310366938379 0 0.37786999239799629 0.42201923841731348 0 0.38861509636247821 0.44175005125570632 0 0.37786999239799629 0.42201923841731348 0 0.39620875860206523 0.42610388639599522 0 0.38861509636247821 0.44175005125570632 0 0.39620875860206523 0.42610388639599522 0 0.40342788129008578 0.41136751416027151 0 0.4165515890159211 0.43106581875832262 0 0.39020643165102042 0.40750290438779102 0 0.39620875860206523 0.42610388639599522 0 0.40342788129008578 0.41136751416027151 0 0.40342788129008578 0.41136751416027151 0 0.4194649070479346 0.41075775866906961 0 0.4165515890159211 0.43106581875832262 0 0.40342788129008578 0.41136751416027151 0 0.4194649070479346 0.41075775866906961 0 0.41247484703898341 0.39668929567888889 0 0.39620875860206523 0.42610388639599522 0 0.4165515890159211 0.43106581875832262 0 0.40679533173472487 0.44514780784289609 0 0.4165515890159211 0.43106581875832262 0 0.44107028692003247 0.43153611533185032 0 0.4165515890159211 0.43106581875832262 0 0.43527838440837918 0.41507327228856877 0 0.44107028692003247 0.43153611533185032 0 0.4194649070479346 0.41075775866906961 0 0.4165515890159211 0.43106581875832262 0 0.43527838440837918 0.41507327228856877 0 0.4194649070479346 0.41075775866906961 0 0.43527838440837918 0.41507327228856877 0 0.42844040697821201 0.39890611008127758 0 0.43527838440837918 0.41507327228856877 0 0.42844040697821201 0.39890611008127758 0 0.44356544647064411 0.40084295107477419 0 0.42844040697821201 0.39890611008127758 0 0.43978627658039499 0.38550810048347522 0 0.44356544647064411 0.40084295107477419 0 0.4194649070479346 0.41075775866906961 0 0.42844040697821201 0.39890611008127758 0 0.41247484703898341 0.39668929567888889 0 0.42844040697821201 0.39890611008127758 0 0.41247484703898341 0.39668929567888889 0 0.42235721568131929 0.38220686924127689 0 0.41247484703898341 0.39668929567888889 0 0.40683499004542412 0.37566900985645529 0 0.42235721568131929 0.38220686924127689 0 0.4343808670510142 0.37207818795490849 0 0.42235721568131929 0.38220686924127689 0 0.43978627658039499 0.38550810048347522 0 0.42844040697821201 0.39890611008127758 0 0.42235721568131929 0.38220686924127689 0 0.43978627658039499 0.38550810048347522 0 0.45151374504626951 0.36758660991241321 0 0.4343808670510142 0.37207818795490849 0 0.43978627658039499 0.38550810048347522 0 0.45151374504626951 0.36758660991241321 0 0.43978627658039499 0.38550810048347522 0 0.45722528454721961 0.3906654768237981 0 0.43978627658039499 0.38550810048347522 0 0.44356544647064411 0.40084295107477419 0 0.45722528454721961 0.3906654768237981 0 0.44356544647064411 0.40084295107477419 0 0.45722528454721961 0.3906654768237981 0 0.45594545333092312 0.41337501331873322 0 0.45722528454721961 0.3906654768237981 0 0.47568108772685191 0.39367102650606373 0 0.46881626912638691 0.40427363304328218 0 0.45722528454721961 0.3906654768237981 0 0.46881626912638691 0.40427363304328218 0 0.45594545333092312 0.41337501331873322 0 0.45151374504626951 0.36758660991241321 0 0.45722528454721961 0.3906654768237981 0 0.46980882541715813 0.38208294099771128 0 0.45722528454721961 0.3906654768237981 0 0.46980882541715813 0.38208294099771128 0 0.47568108772685191 0.39367102650606373 0 0.4736556537454587 0.3678330253399309 0 0.46980882541715813 0.38208294099771128 0 0.48477613844387402 0.38021688004838439 0 0.47568108772685191 0.39367102650606373 0 0.48702766555901961 0.39491075051184021 0 0.48477613844387402 0.38021688004838439 0 0.46980882541715813 0.38208294099771128 0 0.47568108772685191 0.39367102650606373 0 0.48477613844387402 0.38021688004838439 0 0.47568108772685191 0.39367102650606373 0 0.46881626912638691 0.40427363304328218 0 0.48151606592710777 0.40452093291302588 0 0.47568108772685191 0.39367102650606373 0 0.48151606592710777 0.40452093291302588 0 0.48702766555901961 0.39491075051184021 0 0.48702766555901961 0.39491075051184021 0 0.49874079622209128 0.38660437256818281 0 0.49442423947517328 0.40954054052354433 0 0.5 0.40278607211007789 0 0.49874079622209128 0.38660437256818281 0 0.49442423947517328 0.40954054052354433 0 0.49874079622209128 0.38660437256818281 0 0.49442423947517328 0.40954054052354433 0 0.48151606592710777 0.40452093291302588 0 0.48702766555901961 0.39491075051184021 0 0.49442423947517328 0.40954054052354433 0 0.5 0.37290568982018429 0 0.5 0.40278607211007789 0 0.49874079622209128 0.38660437256818281 0 0.5 0.37290568982018429 0 0.49874079622209128 0.38660437256818281 0 0.48477613844387402 0.38021688004838439 0 0.48702766555901961 0.39491075051184021 0 0.49874079622209128 0.38660437256818281 0 0.48477613844387402 0.38021688004838439 0 0.49010768272825528 0.43247670847890568 0 0.49999999999999839 0.43266645439997159 0 0.49442423947517328 0.40954054052354433 0 0.49010768272825528 0.43247670847890568 0 0.49999999999999839 0.43266645439997159 0 0.5 0.40278607211007789 0 0.49999999999999839 0.43266645439997159 0 0.49442423947517328 0.40954054052354433 0 0.49010768272825528 0.43247670847890568 0 0.49442423947517328 0.40954054052354433 0 0.47768739680387268 0.41777805257305989 0 0.48151606592710777 0.40452093291302588 0 0.49442423947517328 0.40954054052354433 0 0.47768739680387268 0.41777805257305989 0 0.49010768272825528 0.43247670847890568 0 0.49442423947517328 0.40954054052354433 0 0.46881626912638691 0.40427363304328218 0 0.48151606592710777 0.40452093291302588 0 0.47768739680387268 0.41777805257305989 0 0.49010768272825528 0.43247670847890568 0 0.47768739680387268 0.41777805257305989 0 0.4655889848241439 0.43200641190537797 0 0.49010768272825528 0.43247670847890568 0 0.4655889848241439 0.43200641190537797 0 0.47536631759922843 0.44556886167195853 0 0.49010768272825528 0.43247670847890568 0 0.4655889848241439 0.43200641190537797 0 0.4655889848241439 0.43200641190537797 0 0.44107028692003247 0.43153611533185032 0 0.4655889848241439 0.43200641190537797 0 0.45594545333092312 0.41337501331873322 0 0.44107028692003247 0.43153611533185032 0 0.4655889848241439 0.43200641190537797 0 0.44107028692003247 0.43153611533185032 0 0.4606865760628292 0.44801704672434101 0 0.47768739680387268 0.41777805257305989 0 0.4655889848241439 0.43200641190537797 0 0.45594545333092312 0.41337501331873322 0 0.46881626912638691 0.40427363304328218 0 0.47768739680387268 0.41777805257305989 0 0.45594545333092312 0.41337501331873322 0 0.43527838440837918 0.41507327228856877 0 0.45594545333092312 0.41337501331873322 0 0.44107028692003247 0.43153611533185032 0 0.43527838440837918 0.41507327228856877 0 0.44356544647064411 0.40084295107477419 0 0.45594545333092312 0.41337501331873322 0 0.49999999999999839 0.43266645439997159 0 0.48505572566105232 0.45932045051458531 0 0.5 0.5 0 0.44107028692003247 0.43153611533185032 0 0.44376664188615123 0.45979150936037488 0 0.4606865760628292 0.44801704672434101 0 0.44376664188615123 0.45979150936037488 0 0.46112241578244989 0.46478661640483648 0 0.45121200239437631 0.4807671998253365 0 0.44376664188615123 0.45979150936037488 0 0.46112241578244989 0.46478661640483648 0 0.4606865760628292 0.44801704672434101 0 0.46112241578244989 0.46478661640483648 0 0.4606865760628292 0.44801704672434101 0 0.47539261871986088 0.45602369073658289 0 0.4655889848241439 0.43200641190537797 0 0.4606865760628292 0.44801704672434101 0 0.47536631759922843 0.44556886167195853 0 0.49010768272825528 0.43247670847890568 0 0.47536631759922843 0.44556886167195853 0 0.48505572566105232 0.45932045051458531 0 0.4606865760628292 0.44801704672434101 0 0.47536631759922843 0.44556886167195853 0 0.47539261871986088 0.45602369073658289 0 0.47539261871986088 0.45602369073658289 0 0.47110615765410929 0.47801184536829172 0 0.47539261871986088 0.45602369073658289 0 0.48505572566105232 0.45932045051458531 0 0.47110615765410929 0.47801184536829172 0 0.46112241578244989 0.46478661640483648 0 0.47539261871986088 0.45602369073658289 0 0.47110615765410929 0.47801184536829172 0 0.47536631759922843 0.44556886167195853 0 0.47539261871986088 0.45602369073658289 0 0.48505572566105232 0.45932045051458531 0 0.49010768272825528 0.43247670847890568 0 0.48505572566105232 0.45932045051458531 0 0.49010768272825528 0.43247670847890568 0 0.49999999999999839 0.43266645439997159 0 0.48505572566105232 0.45932045051458531 0 0.48505572566105232 0.45932045051458531 0 0.5 0.5 0 0.48000376859384941 0.48616419255026477 0 0.5 0.5 0 0.48000376859384941 0.48616419255026477 0 0.46681969658835759 0.50000000000000044 0 0.48505572566105232 0.45932045051458531 0 0.47110615765410929 0.47801184536829172 0 0.48000376859384941 0.48616419255026477 0 0.48505572566105232 0.45932045051458531 0 0.48000376859384941 0.48616419255026477 0 0.47110615765410929 0.47801184536829172 0 0.46681969658835759 0.50000000000000044 0 0.47110615765410929 0.47801184536829172 0 0.48000376859384941 0.48616419255026477 0 0.46681969658835759 0.50000000000000044 0 0.47110615765410929 0.47801184536829172 0 0.46681969658835759 0.50000000000000044 0 0.45121200239437631 0.4807671998253365 0 0.46112241578244989 0.46478661640483648 0 0.47110615765410929 0.47801184536829172 0 0.45121200239437631 0.4807671998253365 0 0.44376664188615123 0.45979150936037488 0 0.45121200239437631 0.4807671998253365 0 0.42408561830569141 0.47732830779616442 0 0.46681969658835759 0.50000000000000044 0 0.45121200239437631 0.4807671998253365 0 0.43971230006436901 0.5 0 0.45121200239437631 0.4807671998253365 0 0.43971230006436901 0.5 0 0.42408561830569141 0.47732830779616442 0 0.43971230006436901 0.5 0 0.41260490354038032 0.5 0 0.42408561830569141 0.47732830779616442 0 0.41260490354038032 0.5 0 0.42408561830569141 0.47732830779616442 0 0.40044085355502113 0.48368683573266119 0 0.42408561830569141 0.47732830779616442 0 0.40050545668784993 0.46242548604636152 0 0.40044085355502113 0.48368683573266119 0 0.44376664188615123 0.45979150936037488 0 0.42408561830569141 0.47732830779616442 0 0.42267709028742451 0.45339185591380432 0 0.44107028692003247 0.43153611533185032 0 0.44376664188615123 0.45979150936037488 0 0.42267709028742451 0.45339185591380432 0 0.4165515890159211 0.43106581875832262 0 0.44107028692003247 0.43153611533185032 0 0.42267709028742451 0.45339185591380432 0 0.4165515890159211 0.43106581875832262 0 0.42267709028742451 0.45339185591380432 0 0.40679533173472487 0.44514780784289609 0 0.42408561830569141 0.47732830779616442 0 0.42267709028742451 0.45339185591380432 0 0.40050545668784993 0.46242548604636152 0 0.42267709028742451 0.45339185591380432 0 0.40679533173472487 0.44514780784289609 0 0.40050545668784993 0.46242548604636152 0 0.40679533173472487 0.44514780784289609 0 0.40050545668784993 0.46242548604636152 0 0.38861509636247821 0.44175005125570632 0 0.39620875860206523 0.42610388639599522 0 0.40679533173472487 0.44514780784289609 0 0.38861509636247821 0.44175005125570632 0 0.3672128213662551 0.44140310366938379 0 0.38861509636247821 0.44175005125570632 0 0.37565915938479377 0.45849116020829678 0 0.40050545668784993 0.46242548604636152 0 0.37565915938479377 0.45849116020829678 0 0.37951078222479251 0.47868038482078018 0 0.40050545668784993 0.46242548604636152 0 0.38861509636247821 0.44175005125570632 0 0.37565915938479377 0.45849116020829678 0 0.37951078222479251 0.47868038482078018 0 0.38549750701639152 0.5 0 0.40044085355502113 0.48368683573266119 0 0.41260490354038032 0.5 0 0.38549750701639152 0.5 0 0.40044085355502113 0.48368683573266119 0 0.40050545668784993 0.46242548604636152 0 0.37951078222479251 0.47868038482078018 0 0.40044085355502113 0.48368683573266119 0 0.3285700774521132 0.069227507684709172 0 0.34376262838779448 0.090160381808613591 0 0.3285700774521132 0.069227507684709172 0 0.34376262838779448 0.090160381808613591 0 0.3570119940846016 0.07655140493877155 0 0.3285700774521132 0.069227507684709172 0 0.31851483003181857 0.089032350953859848 0 0.34376262838779448 0.090160381808613591 0 0.3285700774521132 0.069227507684709172 0 0.31851483003181857 0.089032350953859848 0 0.30262144479489489 0.063472250579192202 0 0.31851483003181857 0.089032350953859848 0 0.32257158209111758 0.11034462767622299 0 0.33741607394213652 0.1036774965936159 0 0.31851483003181857 0.089032350953859848 0 0.32257158209111758 0.11034462767622299 0 0.29867863108980142 0.1045573716884185 0 0.32257158209111758 0.11034462767622299 0 0.32933038512457441 0.1245201253257071 0 0.3207185438207466 0.1263919595033525 0 0.32257158209111758 0.11034462767622299 0 0.31156748461804079 0.12537242366950921 0 0.3207185438207466 0.1263919595033525 0 0.32933038512457441 0.1245201253257071 0 0.34646453309243358 0.11613188366402739 0 0.34441400131097022 0.1288917011053414 0 0.32257158209111758 0.11034462767622299 0 0.33741607394213652 0.1036774965936159 0 0.34646453309243358 0.11613188366402739 0 0.32257158209111758 0.11034462767622299 0 0.34646453309243358 0.11613188366402739 0 0.32257158209111758 0.11034462767622299 0 0.32933038512457441 0.1245201253257071 0 0.34646453309243358 0.11613188366402739 0 0.31851483003181857 0.089032350953859848 0 0.33741607394213652 0.1036774965936159 0 0.34376262838779448 0.090160381808613591 0 0.35895517932347593 0.111093255932518 0 0.36286728541875429 0.096218484345557367 0 0.34376262838779448 0.090160381808613591 0 0.33741607394213652 0.1036774965936159 0 0.35895517932347593 0.111093255932518 0 0.34376262838779448 0.090160381808613591 0 0.35895517932347593 0.111093255932518 0 0.34376262838779448 0.090160381808613591 0 0.34646453309243358 0.11613188366402739 0 0.35895517932347593 0.111093255932518 0 0.37035748409374952 0.12191913965183331 0 0.34646453309243358 0.11613188366402739 0 0.37035748409374952 0.12191913965183331 0 0.33741607394213652 0.1036774965936159 0 0.34646453309243358 0.11613188366402739 0 0.35895517932347593 0.111093255932518 0 0.34646453309243358 0.11613188366402739 0 0.37035748409374952 0.12191913965183331 0 0.34441400131097022 0.1288917011053414 0 0.35895517932347593 0.111093255932518 0 0.36901916600157941 0.1100142775002767 0 0.37035748409374952 0.12191913965183331 0 0.36901916600157941 0.1100142775002767 0 0.37035748409374952 0.12191913965183331 0 0.37815432920295677 0.1109533992790251 0 0.37035748409374952 0.12191913965183331 0 0.37511757494472903 0.123072110010257 0 0.37035748409374952 0.12191913965183331 0 0.37169283910029199 0.12815165521797289 0 0.37511757494472903 0.123072110010257 0 0.36286728541875429 0.096218484345557367 0 0.37455144446510141 0.10193275935197101 0 0.37400882161871279 0.083619613235024759 0 0.35895517932347593 0.111093255932518 0 0.36901916600157941 0.1100142775002767 0 0.36286728541875429 0.096218484345557367 0 0.36901916600157941 0.1100142775002767 0 0.36286728541875429 0.096218484345557367 0 0.37455144446510141 0.10193275935197101 0 0.36901916600157941 0.1100142775002767 0 0.37455144446510141 0.10193275935197101 0 0.37815432920295677 0.1109533992790251 0 0.36286728541875429 0.096218484345557367 0 0.37400882161871279 0.083619613235024759 0 0.3570119940846016 0.07655140493877155 0 0.36286728541875429 0.096218484345557367 0 0.34376262838779448 0.090160381808613591 0 0.3570119940846016 0.07655140493877155 0 0.3285700774521132 0.069227507684709172 0 0.3570119940846016 0.07655140493877155 0 0.3540274811898364 0.057481719132925622 0 0.37400882161871279 0.083619613235024759 0 0.3570119940846016 0.07655140493877155 0 0.37883567044039879 0.062600723425798879 0 0.3570119940846016 0.07655140493877155 0 0.3540274811898364 0.057481719132925622 0 0.37883567044039879 0.062600723425798879 0 0.36884998715724038 0.048654936693666287 0 0.3540274811898364 0.057481719132925622 0 0.37883567044039879 0.062600723425798879 0 0.36884998715724038 0.048654936693666287 0 0.36096242836060388 0.032492650360987897 0 0.3540274811898364 0.057481719132925622 0 0.36884998715724038 0.048654936693666287 0 0.36096242836060388 0.032492650360987897 0 0.38366251926208489 0.041581833616573027 0 0.36096242836060388 0.032492650360987897 0 0.3540274811898364 0.057481719132925622 0 0.33343548863743699 0.044422356914628619 0 0.36096242836060388 0.032492650360987897 0 0.34150772405548108 0.025325389551572871 0 0.33343548863743699 0.044422356914628619 0 0.36096242836060388 0.032492650360987897 0 0.33343548863743699 0.044422356914628619 0 0.36934971840039982 0.01412264887454192 0 0.38120377069012762 0.010554394007073271 0 0.36845156083710567 -0.0060515153414843056 0 0.36934971840039982 0.01412264887454192 0 0.35188933009005469 0.012921367503740049 0 0.36845156083710567 -0.0060515153414843056 0 0.36096242836060388 0.032492650360987897 0 0.38848936808377088 0.020562943807347231 0 0.36096242836060388 0.032492650360987897 0 0.36934971840039982 0.01412264887454192 0 0.35188933009005469 0.012921367503740049 0 0.36096242836060388 0.032492650360987897 0 0.36934971840039982 0.01412264887454192 0 0.38848936808377088 0.020562943807347231 0 0.36096242836060388 0.032492650360987897 0 0.35188933009005469 0.012921367503740049 0 0.34150772405548108 0.025325389551572871 0 0.35188933009005469 0.012921367503740049 0 0.36845156083710567 -0.0060515153414843056 0 0.34114057903213352 -0.00099436838624600288 0 0.32992396985460443 0.01263339996306794 0 0.31382959722716158 0.0040627785689932028 0 0.34114057903213352 -0.00099436838624600288 0 0.35188933009005469 0.012921367503740049 0 0.32992396985460443 0.01263339996306794 0 0.34114057903213352 -0.00099436838624600288 0 0.32992396985460443 0.01263339996306794 0 0.34150772405548108 0.025325389551572871 0 0.32077834005703848 0.02927741351548363 0 0.35188933009005469 0.012921367503740049 0 0.32992396985460443 0.01263339996306794 0 0.34150772405548108 0.025325389551572871 0 0.32992396985460443 0.01263339996306794 0 0.32077834005703848 0.02927741351548363 0 0.31391214704691389 0.015516024244919061 0 0.32992396985460443 0.01263339996306794 0 0.31391214704691389 0.015516024244919061 0 0.31382959722716158 0.0040627785689932028 0 0.31382959722716158 0.0040627785689932028 0 0.34183048761771712 -0.0039986291523161147 0 0.31382959722716158 0.0040627785689932028 0 0.34114057903213352 -0.00099436838624600288 0 0.31382959722716158 0.0040627785689932028 0 0.30752965714041391 0.0058765203804442539 0 0.32194573769061952 -0.0077676308935595512 0 0.3285700774521132 0.069227507684709172 0 0.3540274811898364 0.057481719132925622 0 0.33343548863743699 0.044422356914628619 0 0.34150772405548108 0.025325389551572871 0 0.32077834005703848 0.02927741351548363 0 0.33343548863743699 0.044422356914628619 0 0.32077834005703848 0.02927741351548363 0 0.33343548863743699 0.044422356914628619 0 0.31337752651643169 0.04829463356080467 0 0.3285700774521132 0.069227507684709172 0 0.31337752651643169 0.04829463356080467 0 0.3285700774521132 0.069227507684709172 0 0.33343548863743699 0.044422356914628619 0 0.31337752651643169 0.04829463356080467 0 0.3285700774521132 0.069227507684709172 0 0.31337752651643169 0.04829463356080467 0 0.30262144479489489 0.063472250579192202 0 0.31337752651643169 0.04829463356080467 0 0.29190445549758398 0.041801895735158197 0 0.30262144479489489 0.063472250579192202 0 0.31337752651643169 0.04829463356080467 0 0.29818497558074802 0.027361759436901809 0 0.31337752651643169 0.04829463356080467 0 0.29190445549758398 0.041801895735158197 0 0.29818497558074802 0.027361759436901809 0 0.32077834005703848 0.02927741351548363 0 0.31337752651643169 0.04829463356080467 0 0.29818497558074802 0.027361759436901809 0 0.29190445549758398 0.041801895735158197 0 0.29818497558074802 0.027361759436901809 0 0.28149235485467722 0.028426230672526639 0 0.29190445549758398 0.041801895735158197 0 0.28562393541442521 0.056242032033416753 0 0.26921605588191849 0.040519794607793452 0 0.29190445549758398 0.041801895735158197 0 0.29818497558074802 0.027361759436901809 0 0.29190445549758398 0.041801895735158197 0 0.28562393541442521 0.056242032033416753 0 0.29190445549758398 0.041801895735158197 0 0.28562393541442521 0.056242032033416753 0 0.30262144479489489 0.063472250579192202 0 0.2978295874258669 0.0070254842464454832 0 0.30752965714041391 0.0058765203804442539 0 0.2978295874258669 0.0070254842464454832 0 0.30752965714041391 0.0058765203804442539 0 0.29396858594285019 -0.001032612778502764 0 0.31382959722716158 0.0040627785689932028 0 0.30752965714041391 0.0058765203804442539 0 0.31391214704691389 0.015516024244919061 0 0.30752965714041391 0.0058765203804442539 0 0.30398999522707459 0.014014891057021139 0 0.30752965714041391 0.0058765203804442539 0 0.30398999522707459 0.014014891057021139 0 0.31391214704691389 0.015516024244919061 0 0.31382959722716158 0.0040627785689932028 0 0.30752965714041391 0.0058765203804442539 0 0.2978295874258669 0.0070254842464454832 0 0.30752965714041391 0.0058765203804442539 0 0.30398999522707459 0.014014891057021139 0 0.2978295874258669 0.0070254842464454832 0 0.30398999522707459 0.014014891057021139 0 0.31391214704691389 0.015516024244919061 0 0.30398999522707459 0.014014891057021139 0 0.29818497558074802 0.027361759436901809 0 0.32077834005703848 0.02927741351548363 0 0.31391214704691389 0.015516024244919061 0 0.29818497558074802 0.027361759436901809 0 0.30398999522707459 0.014014891057021139 0 0.29818497558074802 0.027361759436901809 0 0.30398999522707459 0.014014891057021139 0 0.29818497558074802 0.027361759436901809 0 0.28690172397702512 0.011815266518820099 0 0.29818497558074802 0.027361759436901809 0 0.28149235485467722 0.028426230672526639 0 0.28690172397702512 0.011815266518820099 0 0.29818497558074802 0.027361759436901809 0 0.28690172397702512 0.011815266518820099 0 0.28690172397702512 0.011815266518820099 0 0.28687677889875068 0.001725005618485562 0 0.27267603034966698 -0.0077854348569651906 0 0.2978295874258669 0.0070254842464454832 0 0.30398999522707459 0.014014891057021139 0 0.28690172397702512 0.011815266518820099 0 0.2978295874258669 0.0070254842464454832 0 0.28690172397702512 0.011815266518820099 0 0.29376575238797509 0.0077779804816672602 0 0.2978295874258669 0.0070254842464454832 0 0.28690172397702512 0.011815266518820099 0 0.2978295874258669 0.0070254842464454832 0 0.28687677889875068 0.001725005618485562 0 0.29376575238797509 0.0077779804816672602 0 0.28690172397702512 0.011815266518820099 0 0.28687677889875068 0.001725005618485562 0 0.29376575238797509 0.0077779804816672602 0 0.2978295874258669 0.0070254842464454832 0 0.29376575238797509 0.0077779804816672602 0 0.28690172397702512 0.011815266518820099 0 0.26939274767164711 0.0040745279013861191 0 0.27267603034966698 -0.0077854348569651906 0 0.28690172397702512 0.011815266518820099 0 0.26440570944936082 0.018291830038140541 0 0.28690172397702512 0.011815266518820099 0 0.26939274767164711 0.0040745279013861191 0 0.26440570944936082 0.018291830038140541 0 0.28690172397702512 0.011815266518820099 0 0.27267603034966698 -0.0077854348569651906 0 0.28149235485467722 0.028426230672526639 0 0.26440570944936082 0.018291830038140541 0 0.26921605588191849 0.040519794607793452 0 0.28149235485467722 0.028426230672526639 0 0.28690172397702512 0.011815266518820099 0 0.26440570944936082 0.018291830038140541 0 0.24190969492169709 0.024768393557462999 0 0.26440570944936082 0.018291830038140541 0 0.2485551203034157 0.0102848256948572 0 0.24190969492169709 0.024768393557462999 0 0.26440570944936082 0.018291830038140541 0 0.24190969492169709 0.024768393557462999 0 0.26440570944936082 0.018291830038140541 0 0.25291178968964928 0.037547667281027097 0 0.2485551203034157 0.0102848256948572 0 0.26440570944936082 0.018291830038140541 0 0.25894279220913391 0.003459445712386486 0 0.26939274767164711 0.0040745279013861191 0 0.26440570944936082 0.018291830038140541 0 0.25894279220913391 0.003459445712386486 0 0.2485551203034157 0.0102848256948572 0 0.25894279220913391 0.003459445712386486 0 0.2479891295484222 -0.0022684572774312019 0 0.26939274767164711 0.0040745279013861191 0 0.25894279220913391 0.003459445712386486 0 0.26317147738524183 -0.0038637327990410169 0 0.28562393541442521 0.056242032033416753 0 0.27026274557325353 0.056119745337220257 0 0.26921605588191849 0.040519794607793452 0 0.28562393541442521 0.056242032033416753 0 0.27026274557325353 0.056119745337220257 0 0.27167623587568768 0.070814912161459326 0 0.29190445549758398 0.041801895735158197 0 0.28149235485467722 0.028426230672526639 0 0.26921605588191849 0.040519794607793452 0 0.26921605588191849 0.040519794607793452 0 0.25291178968964928 0.037547667281027097 0 0.25425538404847059 0.057624927133231481 0 0.26440570944936082 0.018291830038140541 0 0.26921605588191849 0.040519794607793452 0 0.25291178968964928 0.037547667281027097 0 0.27026274557325353 0.056119745337220257 0 0.26921605588191849 0.040519794607793452 0 0.25425538404847059 0.057624927133231481 0 0.27026274557325353 0.056119745337220257 0 0.25425538404847059 0.057624927133231481 0 0.27167623587568768 0.070814912161459326 0 0.25425538404847059 0.057624927133231481 0 0.27167623587568768 0.070814912161459326 0 0.25282536794073712 0.073272794188635415 0 0.26618138576237349 0.084067315497028519 0 0.27167623587568768 0.070814912161459326 0 0.25425538404847059 0.057624927133231481 0 0.25282536794073712 0.073272794188635415 0 0.27167623587568768 0.070814912161459326 0 0.25089272908716931 0.092982859712809007 0 0.26618138576237349 0.084067315497028519 0 0.27478568008848531 0.098770115700614086 0 0.25282536794073712 0.073272794188635415 0 0.25089272908716931 0.092982859712809007 0 0.26618138576237349 0.084067315497028519 0 0.26618138576237349 0.084067315497028519 0 0.28181267844286689 0.084890460016538952 0 0.27478568008848531 0.098770115700614086 0 0.26618138576237349 0.084067315497028519 0 0.27167623587568768 0.070814912161459326 0 0.28181267844286689 0.084890460016538952 0 0.27167623587568768 0.070814912161459326 0 0.2870451550563029 0.071072764848292863 0 0.28181267844286689 0.084890460016538952 0 0.2870451550563029 0.071072764848292863 0 0.29673814540623761 0.08207029957157172 0 0.30262144479489489 0.063472250579192202 0 0.28562393541442521 0.056242032033416753 0 0.2870451550563029 0.071072764848292863 0 0.30262144479489489 0.063472250579192202 0 0.28562393541442521 0.056242032033416753 0 0.27167623587568768 0.070814912161459326 0 0.2870451550563029 0.071072764848292863 0 0.2870451550563029 0.071072764848292863 0 0.28181267844286689 0.084890460016538952 0 0.29673814540623761 0.08207029957157172 0 0.28181267844286689 0.084890460016538952 0 0.29673814540623761 0.08207029957157172 0 0.29867863108980142 0.1045573716884185 0 0.31851483003181857 0.089032350953859848 0 0.29673814540623761 0.08207029957157172 0 0.30262144479489489 0.063472250579192202 0 0.31851483003181857 0.089032350953859848 0 0.29673814540623761 0.08207029957157172 0 0.29867863108980142 0.1045573716884185 0 0.2991284260398443 0.1226428311133997 0 0.29867863108980142 0.1045573716884185 0 0.31156748461804079 0.12537242366950921 0 0.32257158209111758 0.11034462767622299 0 0.29867863108980142 0.1045573716884185 0 0.31156748461804079 0.12537242366950921 0 0.32257158209111758 0.11034462767622299 0 0.29867863108980142 0.1045573716884185 0 0.29867863108980142 0.1045573716884185 0 0.27478568008848531 0.098770115700614086 0 0.29867863108980142 0.1045573716884185 0 0.27783009132198788 0.1122622341296569 0 0.27478568008848531 0.098770115700614086 0 0.28181267844286689 0.084890460016538952 0 0.29867863108980142 0.1045573716884185 0 0.27478568008848531 0.098770115700614086 0 0.2991284260398443 0.1226428311133997 0 0.29867863108980142 0.1045573716884185 0 0.28707615928971691 0.1208096883177448 0 0.29867863108980142 0.1045573716884185 0 0.28707615928971691 0.1208096883177448 0 0.27783009132198788 0.1122622341296569 0 0.2991284260398443 0.1226428311133997 0 0.28707615928971691 0.1208096883177448 0 0.29671346303214241 0.12961196471325551 0 0.26302281242735981 0.111198171579071 0 0.27515289576754948 0.1294134834453334 0 0.28707615928971691 0.1208096883177448 0 0.27783009132198788 0.1122622341296569 0 0.27515289576754948 0.1294134834453334 0 0.27783009132198788 0.1122622341296569 0 0.26302281242735981 0.111198171579071 0 0.27515289576754948 0.1294134834453334 0 0.26302281242735981 0.111198171579071 0 0.26007351669183237 0.1253037732749688 0 0.27515289576754948 0.1294134834453334 0 0.27783009132198788 0.1122622341296569 0 0.27478568008848531 0.098770115700614086 0 0.26302281242735981 0.111198171579071 0 0.25089272908716931 0.092982859712809007 0 0.26302281242735981 0.111198171579071 0 0.2496952397761337 0.1160329650041991 0 0.25089272908716931 0.092982859712809007 0 0.26302281242735981 0.111198171579071 0 0.25089272908716931 0.092982859712809007 0 0.27478568008848531 0.098770115700614086 0 0.26302281242735981 0.111198171579071 0 0.25089272908716931 0.092982859712809007 0 0.27478568008848531 0.098770115700614086 0 0.2471064899150823 0.133463067737116 0 0.2496952397761337 0.1160329650041991 0 0.26007351669183237 0.1253037732749688 0 0.2496952397761337 0.1160329650041991 0 0.26302281242735981 0.111198171579071 0 0.26007351669183237 0.1253037732749688 0 0.2471064899150823 0.133463067737116 0 0.26212056590251792 0.13860634342131159 0 0.25227113898158787 0.14916335431643429 0 0.2471064899150823 0.133463067737116 0 0.26212056590251792 0.13860634342131159 0 0.26007351669183237 0.1253037732749688 0 0.27515289576754948 0.1294134834453334 0 0.28728297910773942 0.14762879531159581 0 0.27515289576754948 0.1294134834453334 0 0.27408945104382287 0.14431330872834849 0 0.28728297910773942 0.14762879531159581 0 0.26212056590251792 0.13860634342131159 0 0.26007351669183237 0.1253037732749688 0 0.27515289576754948 0.1294134834453334 0 0.26212056590251792 0.13860634342131159 0 0.27515289576754948 0.1294134834453334 0 0.27408945104382287 0.14431330872834849 0 0.27408945104382287 0.14431330872834849 0 0.27716137478162928 0.15889869399298601 0 0.28728297910773942 0.14762879531159581 0 0.26212056590251792 0.13860634342131159 0 0.27408945104382287 0.14431330872834849 0 0.26493391480523859 0.14953421755469451 0 0.27408945104382287 0.14431330872834849 0 0.26493391480523859 0.14953421755469451 0 0.27716137478162928 0.15889869399298601 0 0.26493391480523859 0.14953421755469451 0 0.25227113898158787 0.14916335431643429 0 0.25784869618064837 0.16117632967822779 0 0.26212056590251792 0.13860634342131159 0 0.26493391480523859 0.14953421755469451 0 0.25227113898158787 0.14916335431643429 0 0.24342118736862761 0.16410875332904781 0 0.25227113898158787 0.14916335431643429 0 0.25784869618064837 0.16117632967822779 0 0.24342118736862761 0.16410875332904781 0 0.25784869618064837 0.16117632967822779 0 0.25421457754785548 0.17528354573505059 0 0.25784869618064837 0.16117632967822779 0 0.25421457754785548 0.17528354573505059 0 0.26798999978846311 0.16999528723303189 0 0.25421457754785548 0.17528354573505059 0 0.26688833639653942 0.18474270353269559 0 0.25113643024109478 0.19094495075723769 0 0.25421457754785548 0.17528354573505059 0 0.26688833639653942 0.18474270353269559 0 0.26798999978846311 0.16999528723303189 0 0.26688833639653942 0.18474270353269559 0 0.27899922157627788 0.1740987885831469 0 0.26798999978846311 0.16999528723303189 0 0.26688833639653942 0.18474270353269559 0 0.27899922157627788 0.1740987885831469 0 0.28165513110548479 0.1855437801635878 0 0.25784869618064837 0.16117632967822779 0 0.26798999978846311 0.16999528723303189 0 0.27716137478162928 0.15889869399298601 0 0.26493391480523859 0.14953421755469451 0 0.25784869618064837 0.16117632967822779 0 0.27716137478162928 0.15889869399298601 0 0.27899922157627788 0.1740987885831469 0 0.26798999978846311 0.16999528723303189 0 0.27716137478162928 0.15889869399298601 0 0.27716137478162928 0.15889869399298601 0 0.28838527260411961 0.16768800255462621 0 0.29642958482603432 0.1586868689393966 0 0.27899922157627788 0.1740987885831469 0 0.27716137478162928 0.15889869399298601 0 0.28838527260411961 0.16768800255462621 0 0.28838527260411961 0.16768800255462621 0 0.29642958482603432 0.1586868689393966 0 0.2990812202460017 0.16972771789266669 0 0.28165513110548479 0.1855437801635878 0 0.29057456817046978 0.17841330338653549 0 0.29442149412013968 0.19018242885082931 0 0.27899922157627788 0.1740987885831469 0 0.28165513110548479 0.1855437801635878 0 0.29057456817046978 0.17841330338653549 0 0.27899922157627788 0.1740987885831469 0 0.28838527260411961 0.16768800255462621 0 0.29057456817046978 0.17841330338653549 0 0.28838527260411961 0.16768800255462621 0 0.29057456817046978 0.17841330338653549 0 0.2990812202460017 0.16972771789266669 0 0.29057456817046978 0.17841330338653549 0 0.30085032626191438 0.18018504882584371 0 0.2990812202460017 0.16972771789266669 0 0.29057456817046978 0.17841330338653549 0 0.30085032626191438 0.18018504882584371 0 0.29442149412013968 0.19018242885082931 0 0.30085032626191438 0.18018504882584371 0 0.29442149412013968 0.19018242885082931 0 0.3080553032197017 0.1887293017033026 0 0.30085032626191438 0.18018504882584371 0 0.31056514142368619 0.1744383831500049 0 0.2990812202460017 0.16972771789266669 0 0.30085032626191438 0.18018504882584371 0 0.31056514142368619 0.1744383831500049 0 0.3080553032197017 0.1887293017033026 0 0.29642958482603432 0.1586868689393966 0 0.30747502192119819 0.16230778928688711 0 0.30151933753066762 0.14970454816787401 0 0.29642958482603432 0.1586868689393966 0 0.2990812202460017 0.16972771789266669 0 0.30747502192119819 0.16230778928688711 0 0.31056514142368619 0.1744383831500049 0 0.2990812202460017 0.16972771789266669 0 0.30747502192119819 0.16230778928688711 0 0.30747502192119819 0.16230778928688711 0 0.30151933753066762 0.14970454816787401 0 0.3129765302581462 0.1494710021231663 0 0.30151933753066762 0.14970454816787401 0 0.29882590938581222 0.14264553562683399 0 0.30718649112507979 0.14443915855455869 0 0.30151933753066762 0.14970454816787401 0 0.30718649112507979 0.14443915855455869 0 0.3129765302581462 0.1494710021231663 0 0.29882590938581222 0.14264553562683399 0 0.30718649112507979 0.14443915855455869 0 0.31229822968882548 0.13781435906697939 0 0.30718649112507979 0.14443915855455869 0 0.31229822968882548 0.13781435906697939 0 0.3129765302581462 0.1494710021231663 0 0.31229822968882548 0.13781435906697939 0 0.28502845800881449 0.13413009067030229 0 0.31229822968882548 0.13781435906697939 0 0.29671346303214241 0.12961196471325551 0 0.28502845800881449 0.13413009067030229 0 0.29882590938581222 0.14264553562683399 0 0.31229822968882548 0.13781435906697939 0 0.28502845800881449 0.13413009067030229 0 0.2991284260398443 0.1226428311133997 0 0.31156748461804079 0.12537242366950921 0 0.30438347209902411 0.12928289016934871 0 0.31229822968882548 0.13781435906697939 0 0.31156748461804079 0.12537242366950921 0 0.30438347209902411 0.12928289016934871 0 0.31229822968882548 0.13781435906697939 0 0.30438347209902411 0.12928289016934871 0 0.29671346303214241 0.12961196471325551 0 0.2991284260398443 0.1226428311133997 0 0.30438347209902411 0.12928289016934871 0 0.29671346303214241 0.12961196471325551 0 0.27515289576754948 0.1294134834453334 0 0.28502845800881449 0.13413009067030229 0 0.28728297910773942 0.14762879531159581 0 0.28707615928971691 0.1208096883177448 0 0.29671346303214241 0.12961196471325551 0 0.28502845800881449 0.13413009067030229 0 0.28707615928971691 0.1208096883177448 0 0.27515289576754948 0.1294134834453334 0 0.28502845800881449 0.13413009067030229 0 0.27716137478162928 0.15889869399298601 0 0.29642958482603432 0.1586868689393966 0 0.28728297910773942 0.14762879531159581 0 0.29642958482603432 0.1586868689393966 0 0.30151933753066762 0.14970454816787401 0 0.28728297910773942 0.14762879531159581 0 0.30151933753066762 0.14970454816787401 0 0.29882590938581222 0.14264553562683399 0 0.28728297910773942 0.14762879531159581 0 0.29882590938581222 0.14264553562683399 0 0.28502845800881449 0.13413009067030229 0 0.28728297910773942 0.14762879531159581 0 0.2459873280094696 0.23707215699401071 0 0.27381195783464701 0.24213208581531279 0 0.2459873280094696 0.23707215699401071 0 0.27381195783464701 0.24213208581531279 0 0.27283394916361492 0.24742619336605559 0 0.2459873280094696 0.23707215699401071 0 0.27283394916361492 0.24742619336605559 0 0.2459873280094696 0.23707215699401071 0 0.25877170878786238 0.25302463852503437 0 0.27283394916361492 0.24742619336605559 0 0.2459873280094696 0.23707215699401071 0 0.24763005152173001 0.25910176257370959 0 0.25877170878786238 0.25302463852503437 0 0.24332195560292991 0.2175119837032847 0 0.2459873280094696 0.23707215699401071 0 0.26947725056793032 0.22188821543332771 0 0.2459873280094696 0.23707215699401071 0 0.27381195783464701 0.24213208581531279 0 0.26947725056793032 0.22188821543332771 0 0.24332195560292991 0.2175119837032847 0 0.26947725056793032 0.22188821543332771 0 0.27381195783464701 0.24213208581531279 0 0.26947725056793032 0.22188821543332771 0 0.29563254553293061 0.22626444716337071 0 0.26947725056793032 0.22188821543332771 0 0.26383894902510108 0.20488334565775601 0 0.28252807440433819 0.20448568929014271 0 0.24828008483854189 0.20295934428596721 0 0.24332195560292991 0.2175119837032847 0 0.26383894902510108 0.20488334565775601 0 0.24332195560292991 0.2175119837032847 0 0.26947725056793032 0.22188821543332771 0 0.26383894902510108 0.20488334565775601 0 0.26688833639653942 0.18474270353269559 0 0.26383894902510108 0.20488334565775601 0 0.25113643024109478 0.19094495075723769 0 0.24828008483854189 0.20295934428596721 0 0.26383894902510108 0.20488334565775601 0 0.25113643024109478 0.19094495075723769 0 0.26688833639653942 0.18474270353269559 0 0.26383894902510108 0.20488334565775601 0 0.27369942293731819 0.19569303942008121 0 0.26383894902510108 0.20488334565775601 0 0.27369942293731819 0.19569303942008121 0 0.28252807440433819 0.20448568929014271 0 0.28165513110548479 0.1855437801635878 0 0.27369942293731819 0.19569303942008121 0 0.28252807440433819 0.20448568929014271 0 0.26688833639653942 0.18474270353269559 0 0.28165513110548479 0.1855437801635878 0 0.27369942293731819 0.19569303942008121 0 0.28165513110548479 0.1855437801635878 0 0.29442149412013968 0.19018242885082931 0 0.28252807440433819 0.20448568929014271 0 0.29442149412013968 0.19018242885082931 0 0.30168066081365352 0.2029210297493958 0 0.28252807440433819 0.20448568929014271 0 0.29442149412013968 0.19018242885082931 0 0.3080553032197017 0.1887293017033026 0 0.30168066081365352 0.2029210297493958 0 0.3080553032197017 0.1887293017033026 0 0.30168066081365352 0.2029210297493958 0 0.31674655555173881 0.19902842766084339 0 0.30168066081365352 0.2029210297493958 0 0.29563254553293061 0.22626444716337071 0 0.31377845179643721 0.21458276756770189 0 0.30168066081365352 0.2029210297493958 0 0.31377845179643721 0.21458276756770189 0 0.31674655555173881 0.19902842766084339 0 0.30168066081365352 0.2029210297493958 0 0.28252807440433819 0.20448568929014271 0 0.29563254553293061 0.22626444716337071 0 0.26947725056793032 0.22188821543332771 0 0.28252807440433819 0.20448568929014271 0 0.29563254553293061 0.22626444716337071 0 0.26947725056793032 0.22188821543332771 0 0.29563254553293061 0.22626444716337071 0 0.29563254553293061 0.22626444716337071 0 0.3217878404979308 0.23064067889341369 0 0.31377845179643721 0.21458276756770189 0 0.29563254553293061 0.22626444716337071 0 0.3217878404979308 0.23064067889341369 0 0.29563254553293061 0.22626444716337071 0 0.3016365876598241 0.24719201463661561 0 0.3217878404979308 0.23064067889341369 0 0.27381195783464701 0.24213208581531279 0 0.29563254553293061 0.22626444716337071 0 0.3016365876598241 0.24719201463661561 0 0.27381195783464701 0.24213208581531279 0 0.3016365876598241 0.24719201463661561 0 0.27381195783464701 0.24213208581531279 0 0.27283394916361492 0.24742619336605559 0 0.3016365876598241 0.24719201463661561 0 0.32946121748500129 0.25225194345791829 0 0.3217878404979308 0.23064067889341369 0 0.34556910970536658 0.23921390462248199 0 0.32946121748500129 0.25225194345791829 0 0.3016365876598241 0.24719201463661561 0 0.3217878404979308 0.23064067889341369 0 0.32946121748500129 0.25225194345791829 0 0.3016365876598241 0.24719201463661561 0 0.3217878404979308 0.23064067889341369 0 0.33460182177363001 0.21999966289075409 0 0.31377845179643721 0.21458276756770189 0 0.3217878404979308 0.23064067889341369 0 0.33460182177363001 0.21999966289075409 0 0.34556910970536658 0.23921390462248199 0 0.33460182177363001 0.21999966289075409 0 0.3278776259658665 0.2076214509036243 0 0.34419695055865512 0.20542025302645439 0 0.33460182177363001 0.21999966289075409 0 0.31377845179643721 0.21458276756770189 0 0.3278776259658665 0.2076214509036243 0 0.31377845179643721 0.21458276756770189 0 0.3278776259658665 0.2076214509036243 0 0.31674655555173881 0.19902842766084339 0 0.3278776259658665 0.2076214509036243 0 0.31674655555173881 0.19902842766084339 0 0.32893527636844411 0.194937601908272 0 0.3080553032197017 0.1887293017033026 0 0.31674655555173881 0.19902842766084339 0 0.32122387935841612 0.1836610840160959 0 0.31674655555173881 0.19902842766084339 0 0.32893527636844411 0.194937601908272 0 0.32122387935841612 0.1836610840160959 0 0.32893527636844411 0.194937601908272 0 0.34419695055865512 0.20542025302645439 0 0.33967484433078321 0.18584068278097349 0 0.32893527636844411 0.194937601908272 0 0.32122387935841612 0.1836610840160959 0 0.33967484433078321 0.18584068278097349 0 0.3278776259658665 0.2076214509036243 0 0.32893527636844411 0.194937601908272 0 0.34419695055865512 0.20542025302645439 0 0.35368837148756882 0.19334260062126429 0 0.34419695055865512 0.20542025302645439 0 0.33967484433078321 0.18584068278097349 0 0.35368837148756882 0.19334260062126429 0 0.36735815001373812 0.20351917688449569 0 0.34419695055865512 0.20542025302645439 0 0.36735815001373812 0.20351917688449569 0 0.36699199379966768 0.18628457072029089 0 0.38367398474104891 0.18179268717308689 0 0.35368837148756882 0.19334260062126429 0 0.36735815001373812 0.20351917688449569 0 0.36699199379966768 0.18628457072029089 0 0.36735815001373812 0.20351917688449569 0 0.35440095211752448 0.2225189223308488 0 0.37280151553833601 0.22024831863616021 0 0.36735815001373812 0.20351917688449569 0 0.37280151553833601 0.22024831863616021 0 0.38406378734192298 0.20777210545990279 0 0.36735815001373812 0.20351917688449569 0 0.34419695055865512 0.20542025302645439 0 0.35440095211752448 0.2225189223308488 0 0.33460182177363001 0.21999966289075409 0 0.34419695055865512 0.20542025302645439 0 0.35440095211752448 0.2225189223308488 0 0.35440095211752448 0.2225189223308488 0 0.37293454716760283 0.2396311516560117 0 0.34556910970536658 0.23921390462248199 0 0.33460182177363001 0.21999966289075409 0 0.35440095211752448 0.2225189223308488 0 0.34556910970536658 0.23921390462248199 0 0.35440095211752448 0.2225189223308488 0 0.37280151553833601 0.22024831863616021 0 0.37293454716760283 0.2396311516560117 0 0.32946121748500129 0.25225194345791829 0 0.35728584731017871 0.25731187227922109 0 0.34556910970536658 0.23921390462248199 0 0.35728584731017871 0.25731187227922109 0 0.37293454716760283 0.2396311516560117 0 0.34556910970536658 0.23921390462248199 0 0.33789665254535572 0.15537308983460499 0 0.33956800136883641 0.14149862746365649 0 0.32484504322689201 0.150618498474763 0 0.33789665254535572 0.15537308983460499 0 0.32484504322689201 0.150618498474763 0 0.32925575641373173 0.1625602653078303 0 0.33789665254535572 0.15537308983460499 0 0.33956800136883641 0.14149862746365649 0 0.35085012880757988 0.15547460686614431 0 0.31847051852819058 0.13586426255884801 0 0.34441400131097022 0.1288917011053414 0 0.32933038512457441 0.1245201253257071 0 0.31847051852819058 0.13586426255884801 0 0.34441400131097022 0.1288917011053414 0 0.33956800136883641 0.14149862746365649 0 0.31847051852819058 0.13586426255884801 0 0.34441400131097022 0.1288917011053414 0 0.31229822968882548 0.13781435906697939 0 0.33956800136883641 0.14149862746365649 0 0.31229822968882548 0.13781435906697939 0 0.33956800136883641 0.14149862746365649 0 0.31847051852819058 0.13586426255884801 0 0.32933038512457441 0.1245201253257071 0 0.3207185438207466 0.1263919595033525 0 0.31847051852819058 0.13586426255884801 0 0.31156748461804079 0.12537242366950921 0 0.3207185438207466 0.1263919595033525 0 0.31847051852819058 0.13586426255884801 0 0.31229822968882548 0.13781435906697939 0 0.31156748461804079 0.12537242366950921 0 0.31847051852819058 0.13586426255884801 0 0.31229822968882548 0.13781435906697939 0 0.33956800136883641 0.14149862746365649 0 0.32484504322689201 0.150618498474763 0 0.31229822968882548 0.13781435906697939 0 0.32484504322689201 0.150618498474763 0 0.3129765302581462 0.1494710021231663 0 0.32484504322689201 0.150618498474763 0 0.3129765302581462 0.1494710021231663 0 0.31772009751989111 0.15842714336302041 0 0.30747502192119819 0.16230778928688711 0 0.3129765302581462 0.1494710021231663 0 0.31772009751989111 0.15842714336302041 0 0.30747502192119819 0.16230778928688711 0 0.31772009751989111 0.15842714336302041 0 0.32080742045079952 0.16866520015094741 0 0.31056514142368619 0.1744383831500049 0 0.30747502192119819 0.16230778928688711 0 0.32080742045079952 0.16866520015094741 0 0.32080742045079952 0.16866520015094741 0 0.33131907253280629 0.1738795647946571 0 0.32925575641373173 0.1625602653078303 0 0.32484504322689201 0.150618498474763 0 0.31772009751989111 0.15842714336302041 0 0.32925575641373173 0.1625602653078303 0 0.31772009751989111 0.15842714336302041 0 0.32080742045079952 0.16866520015094741 0 0.32925575641373173 0.1625602653078303 0 0.31056514142368619 0.1744383831500049 0 0.3080553032197017 0.1887293017033026 0 0.32122387935841612 0.1836610840160959 0 0.31056514142368619 0.1744383831500049 0 0.32080742045079952 0.16866520015094741 0 0.32122387935841612 0.1836610840160959 0 0.32080742045079952 0.16866520015094741 0 0.32122387935841612 0.1836610840160959 0 0.33131907253280629 0.1738795647946571 0 0.33131907253280629 0.1738795647946571 0 0.33967484433078321 0.18584068278097349 0 0.34294625220664587 0.1683980952289891 0 0.32122387935841612 0.1836610840160959 0 0.33131907253280629 0.1738795647946571 0 0.33967484433078321 0.18584068278097349 0 0.33131907253280629 0.1738795647946571 0 0.32925575641373173 0.1625602653078303 0 0.34294625220664587 0.1683980952289891 0 0.33789665254535572 0.15537308983460499 0 0.32925575641373173 0.1625602653078303 0 0.34294625220664587 0.1683980952289891 0 0.34294625220664587 0.1683980952289891 0 0.35531914635495271 0.16562513299740311 0 0.35085012880757988 0.15547460686614431 0 0.33789665254535572 0.15537308983460499 0 0.34294625220664587 0.1683980952289891 0 0.35085012880757988 0.15547460686614431 0 0.34294625220664587 0.1683980952289891 0 0.35531914635495271 0.16562513299740311 0 0.35387202203434698 0.17803066266241011 0 0.35531914635495271 0.16562513299740311 0 0.35387202203434698 0.17803066266241011 0 0.36550295271590683 0.1690726970215666 0 0.35531914635495271 0.16562513299740311 0 0.36342437601028388 0.15714960320790561 0 0.35085012880757988 0.15547460686614431 0 0.33967484433078321 0.18584068278097349 0 0.34294625220664587 0.1683980952289891 0 0.35387202203434698 0.17803066266241011 0 0.35368837148756882 0.19334260062126429 0 0.33967484433078321 0.18584068278097349 0 0.35387202203434698 0.17803066266241011 0 0.35368837148756882 0.19334260062126429 0 0.35387202203434698 0.17803066266241011 0 0.36699199379966768 0.18628457072029089 0 0.37486327834919952 0.17324080595030389 0 0.36699199379966768 0.18628457072029089 0 0.36550295271590683 0.1690726970215666 0 0.35387202203434698 0.17803066266241011 0 0.36699199379966768 0.18628457072029089 0 0.36550295271590683 0.1690726970215666 0 0.36342437601028388 0.15714960320790561 0 0.36550295271590683 0.1690726970215666 0 0.38328418214017468 0.15581326888627101 0 0.37486327834919952 0.17324080595030389 0 0.36550295271590683 0.1690726970215666 0 0.38328418214017468 0.15581326888627101 0 0.35531914635495271 0.16562513299740311 0 0.36342437601028388 0.15714960320790561 0 0.36550295271590683 0.1690726970215666 0 0.36342437601028388 0.15714960320790561 0 0.36683777304884752 0.14518289586033359 0 0.38328418214017468 0.15581326888627101 0 0.36342437601028388 0.15714960320790561 0 0.36683777304884752 0.14518289586033359 0 0.35085012880757988 0.15547460686614431 0 0.33956800136883641 0.14149862746365649 0 0.36683777304884752 0.14518289586033359 0 0.33956800136883641 0.14149862746365649 0 0.36683777304884752 0.14518289586033359 0 0.35085012880757988 0.15547460686614431 0 0.37035748409374952 0.12191913965183331 0 0.34441400131097022 0.1288917011053414 0 0.33956800136883641 0.14149862746365649 0 0.34441400131097022 0.1288917011053414 0 0.35985245571789548 0.13256521397634091 0 0.37035748409374952 0.12191913965183331 0 0.34441400131097022 0.1288917011053414 0 0.35985245571789548 0.13256521397634091 0 0.33956800136883641 0.14149862746365649 0 0.36683777304884752 0.14518289586033359 0 0.35985245571789548 0.13256521397634091 0 0.36683777304884752 0.14518289586033359 0 0.37024230120578611 0.13336796185197819 0 0.3828943795393005 0.1298338505994551 0 0.36683777304884752 0.14518289586033359 0 0.35985245571789548 0.13256521397634091 0 0.37024230120578611 0.13336796185197819 0 0.35985245571789548 0.13256521397634091 0 0.37024230120578611 0.13336796185197819 0 0.37169283910029199 0.12815165521797289 0 0.37024230120578611 0.13336796185197819 0 0.37169283910029199 0.12815165521797289 0 0.3828943795393005 0.1298338505994551 0 0.37035748409374952 0.12191913965183331 0 0.35985245571789548 0.13256521397634091 0 0.37169283910029199 0.12815165521797289 0 0.37169283910029199 0.12815165521797289 0 0.3828943795393005 0.1298338505994551 0 0.37511757494472903 0.123072110010257 0 0.3828943795393005 0.1298338505994551 0 0.39816792615439378 0.12760480203569169 0 0.39443703245191569 0.14316330482662179 0 0.39816792615439378 0.12760480203569169 0 0.39443703245191569 0.14316330482662179 0 0.40813897635800228 0.13879757292358971 0 0.40355831469332321 0.14905262061052801 0 0.39443703245191569 0.14316330482662179 0 0.39831584160420508 0.1589856433255693 0 0.39443703245191569 0.14316330482662179 0 0.38328418214017468 0.15581326888627101 0 0.39831584160420508 0.1589856433255693 0 0.40355831469332321 0.14905262061052801 0 0.39831584160420508 0.1589856433255693 0 0.41313230378900101 0.1549252007201132 0 0.40355831469332321 0.14905262061052801 0 0.39443703245191569 0.14316330482662179 0 0.40813897635800228 0.13879757292358971 0 0.3828943795393005 0.1298338505994551 0 0.39443703245191569 0.14316330482662179 0 0.38328418214017468 0.15581326888627101 0 0.36683777304884752 0.14518289586033359 0 0.3828943795393005 0.1298338505994551 0 0.38328418214017468 0.15581326888627101 0 0.3828943795393005 0.1298338505994551 0 0.38328418214017468 0.15581326888627101 0 0.38328418214017468 0.15581326888627101 0 0.38367398474104891 0.18179268717308689 0 0.37486327834919952 0.17324080595030389 0 0.38328418214017468 0.15581326888627101 0 0.38367398474104891 0.18179268717308689 0 0.38328418214017468 0.15581326888627101 0 0.38367398474104891 0.18179268717308689 0 0.39626047774709761 0.17356948839180519 0 0.37486327834919952 0.17324080595030389 0 0.36699199379966768 0.18628457072029089 0 0.38367398474104891 0.18179268717308689 0 0.38367398474104891 0.18179268717308689 0 0.39626047774709761 0.17356948839180519 0 0.39402839101454218 0.18926537882500041 0 0.41201559310989622 0.1717711692121752 0 0.39402839101454218 0.18926537882500041 0 0.40911253846621609 0.1927355572029634 0 0.41201559310989622 0.1717711692121752 0 0.39402839101454218 0.18926537882500041 0 0.39626047774709761 0.17356948839180519 0 0.41201559310989622 0.1717711692121752 0 0.39402839101454218 0.18926537882500041 0 0.38328418214017468 0.15581326888627101 0 0.39626047774709761 0.17356948839180519 0 0.39831584160420508 0.1589856433255693 0 0.39626047774709761 0.17356948839180519 0 0.39831584160420508 0.1589856433255693 0 0.41201559310989622 0.1717711692121752 0 0.39831584160420508 0.1589856433255693 0 0.41201559310989622 0.1717711692121752 0 0.41313230378900101 0.1549252007201132 0 0.41201559310989622 0.1717711692121752 0 0.43000279520525009 0.1542769595993502 0 0.41201559310989622 0.1717711692121752 0 0.43000279520525009 0.1542769595993502 0 0.41313230378900101 0.1549252007201132 0 0.41201559310989622 0.1717711692121752 0 0.42496471626184562 0.18478050847474101 0 0.40911253846621609 0.1927355572029634 0 0.42496471626184562 0.18478050847474101 0 0.42886790669691233 0.1683305758749721 0 0.44390934378202151 0.1869955505783234 0 0.41201559310989622 0.1717711692121752 0 0.42496471626184562 0.18478050847474101 0 0.42886790669691233 0.1683305758749721 0 0.42886790669691233 0.1683305758749721 0 0.44390934378202151 0.1869955505783234 0 0.41201559310989622 0.1717711692121752 0 0.42886790669691233 0.1683305758749721 0 0.43000279520525009 0.1542769595993502 0 0.42886790669691233 0.1683305758749721 0 0.43000279520525009 0.1542769595993502 0 0.44221599041969212 0.16183818438693329 0 0.43000279520525009 0.1542769595993502 0 0.42332430940078591 0.1392784445062823 0 0.4479899973006039 0.1367827499865252 0 0.43000279520525009 0.1542769595993502 0 0.42332430940078591 0.1392784445062823 0 0.41313230378900101 0.1549252007201132 0 0.429848517254516 0.1255917524949702 0 0.42332430940078591 0.1392784445062823 0 0.41384889774502859 0.12525543762671809 0 0.429848517254516 0.1255917524949702 0 0.42332430940078591 0.1392784445062823 0 0.4479899973006039 0.1367827499865252 0 0.39816792615439378 0.12760480203569169 0 0.41384889774502859 0.12525543762671809 0 0.40813897635800228 0.13879757292358971 0 0.42332430940078591 0.1392784445062823 0 0.41384889774502859 0.12525543762671809 0 0.40813897635800228 0.13879757292358971 0 0.40355831469332321 0.14905262061052801 0 0.40813897635800228 0.13879757292358971 0 0.41313230378900101 0.1549252007201132 0 0.42332430940078591 0.1392784445062823 0 0.40813897635800228 0.13879757292358971 0 0.41313230378900101 0.1549252007201132 0 0.38511047713535562 0.2623718011005241 0 0.37293454716760283 0.2396311516560117 0 0.39933451681408499 0.24222051247515669 0 0.37293454716760283 0.2396311516560117 0 0.39933451681408499 0.24222051247515669 0 0.39045396999845727 0.2225958518425987 0 0.37280151553833601 0.22024831863616021 0 0.37293454716760283 0.2396311516560117 0 0.39045396999845727 0.2225958518425987 0 0.39933451681408499 0.24222051247515669 0 0.39045396999845727 0.2225958518425987 0 0.41502085935247712 0.2184770015477572 0 0.39045396999845727 0.2225958518425987 0 0.39965272480706299 0.2061417744041574 0 0.38406378734192298 0.20777210545990279 0 0.39045396999845727 0.2225958518425987 0 0.39965272480706299 0.2061417744041574 0 0.41502085935247712 0.2184770015477572 0 0.37280151553833601 0.22024831863616021 0 0.39045396999845727 0.2225958518425987 0 0.38406378734192298 0.20777210545990279 0 0.36735815001373812 0.20351917688449569 0 0.38367398474104891 0.18179268717308689 0 0.38406378734192298 0.20777210545990279 0 0.38367398474104891 0.18179268717308689 0 0.38406378734192298 0.20777210545990279 0 0.38367398474104891 0.18179268717308689 0 0.38406378734192298 0.20777210545990279 0 0.39402839101454218 0.18926537882500041 0 0.39965272480706299 0.2061417744041574 0 0.38406378734192298 0.20777210545990279 0 0.39402839101454218 0.18926537882500041 0 0.39965272480706299 0.2061417744041574 0 0.39402839101454218 0.18926537882500041 0 0.40911253846621609 0.1927355572029634 0 0.42496471626184562 0.18478050847474101 0 0.40911253846621609 0.1927355572029634 0 0.43133039545531981 0.20312972213906441 0 0.42496471626184562 0.18478050847474101 0 0.43133039545531981 0.20312972213906441 0 0.44390934378202151 0.1869955505783234 0 0.43133039545531981 0.20312972213906441 0 0.41502085935247712 0.2184770015477572 0 0.43839838412078092 0.2247149777195776 0 0.40911253846621609 0.1927355572029634 0 0.41502085935247712 0.2184770015477572 0 0.40911253846621609 0.1927355572029634 0 0.43133039545531981 0.20312972213906441 0 0.41502085935247712 0.2184770015477572 0 0.39965272480706299 0.2061417744041574 0 0.40911253846621609 0.1927355572029634 0 0.41502085935247712 0.2184770015477572 0 0.41502085935247712 0.2184770015477572 0 0.42092918023873821 0.24421844589255121 0 0.41502085935247712 0.2184770015477572 0 0.42092918023873821 0.24421844589255121 0 0.43839838412078092 0.2247149777195776 0 0.42092918023873821 0.24421844589255121 0 0.44272868649399699 0.2414724783298311 0 0.43839838412078092 0.2247149777195776 0 0.44089414042045799 0.25771217685885472 0 0.42092918023873821 0.24421844589255121 0 0.44272868649399699 0.2414724783298311 0 0.39933451681408499 0.24222051247515669 0 0.41502085935247712 0.2184770015477572 0 0.42092918023873821 0.24421844589255121 0 0.46750550623703407 0.25349570762290419 0 0.4569230610569987 0.24819013429900669 0 0.47278153852907701 0.24486280325581439 0 0.4569230610569987 0.24819013429900669 0 0.45723446189795819 0.23161380727854039 0 0.47278153852907701 0.24486280325581439 0 0.4569230610569987 0.24819013429900669 0 0.44272868649399699 0.2414724783298311 0 0.45723446189795819 0.23161380727854039 0 0.44089414042045799 0.25771217685885472 0 0.4569230610569987 0.24819013429900669 0 0.44272868649399699 0.2414724783298311 0 0.43839838412078092 0.2247149777195776 0 0.45723446189795819 0.23161380727854039 0 0.45895078086713059 0.20566052528167461 0 0.44272868649399699 0.2414724783298311 0 0.43839838412078092 0.2247149777195776 0 0.45723446189795819 0.23161380727854039 0 0.45723446189795819 0.23161380727854039 0 0.47399221795223978 0.22432549998502579 0 0.47278153852907701 0.24486280325581439 0 0.45723446189795819 0.23161380727854039 0 0.45895078086713059 0.20566052528167461 0 0.47399221795223978 0.22432549998502579 0 0.45895078086713059 0.20566052528167461 0 0.47399221795223978 0.22432549998502579 0 0.43133039545531981 0.20312972213906441 0 0.43839838412078092 0.2247149777195776 0 0.45895078086713059 0.20566052528167461 0 0.43133039545531981 0.20312972213906441 0 0.45895078086713059 0.20566052528167461 0 0.44390934378202151 0.1869955505783234 0 0.45895078086713059 0.20566052528167461 0 0.44390934378202151 0.1869955505783234 0 0.45895078086713059 0.20566052528167461 0 0.44390934378202151 0.1869955505783234 0 0.47471792995388828 0.18435875067661631 0 0.45895078086713059 0.20566052528167461 0 0.47967819324703809 0.2043502093285503 0 0.47471792995388828 0.18435875067661631 0 0.5 0.20006456793442701 0 0.47967819324703809 0.2043502093285503 0 0.47471792995388828 0.18435875067661631 0 0.5 0.20006456793442701 0 0.48813206750880261 0.21755351138133391 0 0.47967819324703809 0.2043502093285503 0 0.5 0.20006456793442701 0 0.48813206750880261 0.21755351138133391 0 0.5 0.22779789293978581 0 0.45895078086713059 0.20566052528167461 0 0.47967819324703809 0.2043502093285503 0 0.47399221795223978 0.22432549998502579 0 0.48813206750880261 0.21755351138133391 0 0.47967819324703809 0.2043502093285503 0 0.47399221795223978 0.22432549998502579 0 0.48813206750880261 0.21755351138133391 0 0.47399221795223978 0.22432549998502579 0 0.48903365503734891 0.24299047468837701 0 0.47399221795223978 0.22432549998502579 0 0.48903365503734891 0.24299047468837701 0 0.48813206750880261 0.21755351138133391 0 0.5 0.22779789293978581 0 0.48903365503734891 0.24299047468837701 0 0.5 0.25553121794514477 0 0.5 0.22779789293978581 0 0.48903365503734891 0.24299047468837701 0 0.48489893488970792 0.25686202981026901 0 0.48903365503734891 0.24299047468837701 0 0.47278153852907701 0.24486280325581439 0 0.47399221795223978 0.22432549998502579 0 0.48903365503734891 0.24299047468837701 0 0.47278153852907701 0.24486280325581439 0 0.4479899973006039 0.1367827499865252 0 0.46030990911367259 0.16280508589549539 0 0.47332178232586258 0.14483424446409521 0 0.4479899973006039 0.1367827499865252 0 0.47332178232586258 0.14483424446409521 0 0.46597719939595772 0.11928854037370019 0 0.4479899973006039 0.1367827499865252 0 0.46597719939595772 0.11928854037370019 0 0.429848517254516 0.1255917524949702 0 0.4479899973006039 0.1367827499865252 0 0.44441253831551758 0.1138689947079024 0 0.43000279520525009 0.1542769595993502 0 0.4479899973006039 0.1367827499865252 0 0.44221599041969212 0.16183818438693329 0 0.43000279520525009 0.1542769595993502 0 0.4479899973006039 0.1367827499865252 0 0.4479899973006039 0.1367827499865252 0 0.44221599041969212 0.16183818438693329 0 0.46030990911367259 0.16280508589549539 0 0.44221599041969212 0.16183818438693329 0 0.44390934378202151 0.1869955505783234 0 0.46030990911367259 0.16280508589549539 0 0.42886790669691233 0.1683305758749721 0 0.44221599041969212 0.16183818438693329 0 0.44390934378202151 0.1869955505783234 0 0.44390934378202151 0.1869955505783234 0 0.46030990911367259 0.16280508589549539 0 0.47471792995388828 0.18435875067661631 0 0.46030990911367259 0.16280508589549539 0 0.48162298028441808 0.16304382698580119 0 0.47332178232586258 0.14483424446409521 0 0.46030990911367259 0.16280508589549539 0 0.48162298028441808 0.16304382698580119 0 0.47471792995388828 0.18435875067661631 0 0.5 0.20006456793442701 0 0.47471792995388828 0.18435875067661631 0 0.5 0.17233124292906801 0 0.48162298028441808 0.16304382698580119 0 0.47471792995388828 0.18435875067661631 0 0.5 0.17233124292906801 0 0.48162298028441808 0.16304382698580119 0 0.5 0.17233124292906801 0 0.5 0.14459791792370899 0 0.48162298028441808 0.16304382698580119 0 0.5 0.14459791792370899 0 0.47332178232586258 0.14483424446409521 0 0.47332178232586258 0.14483424446409521 0 0.48369720064842647 0.1280225697211729 0 0.46597719939595772 0.11928854037370019 0 0.5 0.14459791792370899 0 0.48369720064842647 0.1280225697211729 0 0.5 0.1168645929183502 0 0.5 0.14459791792370899 0 0.47332178232586258 0.14483424446409521 0 0.48369720064842647 0.1280225697211729 0 0.48369720064842647 0.1280225697211729 0 0.5 0.1168645929183502 0 0.47911227232856668 0.09907818001940101 0 0.5 0.1168645929183502 0 0.47911227232856668 0.09907818001940101 0 0.5 0.089131267912991197 0 0.48369720064842647 0.1280225697211729 0 0.47911227232856668 0.09907818001940101 0 0.46597719939595772 0.11928854037370019 0 0.48592231416185638 0.0752646054103117 0 0.5 0.089131267912991197 0 0.5 0.06139794290763223 0 0.47911227232856668 0.09907818001940101 0 0.48592231416185638 0.0752646054103117 0 0.5 0.089131267912991197 0 0.47911227232856668 0.09907818001940101 0 0.48592231416185638 0.0752646054103117 0 0.46599422920766509 0.071585542922595516 0 0.48592231416185638 0.0752646054103117 0 0.46599422920766509 0.071585542922595516 0 0.47969083044660421 0.050503904472553283 0 0.47911227232856668 0.09907818001940101 0 0.46599422920766509 0.071585542922595516 0 0.45660210543223351 0.096238293732025512 0 0.46599422920766509 0.071585542922595516 0 0.44319262383460789 0.070531660330671375 0 0.45660210543223351 0.096238293732025512 0 0.44319262383460789 0.070531660330671375 0 0.45660210543223351 0.096238293732025512 0 0.43559540491542181 0.095634413362833848 0 0.46597719939595772 0.11928854037370019 0 0.45660210543223351 0.096238293732025512 0 0.44441253831551758 0.1138689947079024 0 0.47911227232856668 0.09907818001940101 0 0.46597719939595772 0.11928854037370019 0 0.45660210543223351 0.096238293732025512 0 0.45660210543223351 0.096238293732025512 0 0.44441253831551758 0.1138689947079024 0 0.43559540491542181 0.095634413362833848 0 0.4479899973006039 0.1367827499865252 0 0.46597719939595772 0.11928854037370019 0 0.44441253831551758 0.1138689947079024 0 0.429848517254516 0.1255917524949702 0 0.44441253831551758 0.1138689947079024 0 0.42416274095453271 0.1101558860989641 0 0.429848517254516 0.1255917524949702 0 0.41384889774502859 0.12525543762671809 0 0.42416274095453271 0.1101558860989641 0 0.41384889774502859 0.12525543762671809 0 0.42416274095453271 0.1101558860989641 0 0.40716605829359193 0.1120264799895512 0 0.39816792615439378 0.12760480203569169 0 0.41384889774502859 0.12525543762671809 0 0.40716605829359193 0.1120264799895512 0 0.40716605829359193 0.1120264799895512 0 0.41525133388600899 0.093407911538609431 0 0.39656535672550852 0.092974877928873267 0 0.42416274095453271 0.1101558860989641 0 0.40716605829359193 0.1120264799895512 0 0.41525133388600899 0.093407911538609431 0 0.42416274095453271 0.1101558860989641 0 0.43559540491542181 0.095634413362833848 0 0.41525133388600899 0.093407911538609431 0 0.44441253831551758 0.1138689947079024 0 0.42416274095453271 0.1101558860989641 0 0.43559540491542181 0.095634413362833848 0 0.43559540491542181 0.095634413362833848 0 0.4195547633014628 0.073570994746074828 0 0.41525133388600899 0.093407911538609431 0 0.43559540491542181 0.095634413362833848 0 0.4195547633014628 0.073570994746074828 0 0.44319262383460789 0.070531660330671375 0 0.43559540491542181 0.095634413362833848 0 0.4195547633014628 0.073570994746074828 0 0.44319262383460789 0.070531660330671375 0 0.4195547633014628 0.073570994746074828 0 0.42728191937221521 0.050914286525162993 0 0.4195547633014628 0.073570994746074828 0 0.39780951386322527 0.071813900777571313 0 0.40351412168750378 0.051507576129315842 0 0.4195547633014628 0.073570994746074828 0 0.40351412168750378 0.051507576129315842 0 0.4195547633014628 0.073570994746074828 0 0.41525133388600899 0.093407911538609431 0 0.39780951386322527 0.071813900777571313 0 0.41525133388600899 0.093407911538609431 0 0.39656535672550852 0.092974877928873267 0 0.39780951386322527 0.071813900777571313 0 0.37400882161871279 0.083619613235024759 0 0.37883567044039879 0.062600723425798879 0 0.39780951386322527 0.071813900777571313 0 0.37883567044039879 0.062600723425798879 0 0.3909554563133032 0.056876008487314757 0 0.37400882161871279 0.083619613235024759 0 0.39780951386322527 0.071813900777571313 0 0.37883567044039879 0.062600723425798879 0 0.37400882161871279 0.083619613235024759 0 0.39656535672550852 0.092974877928873267 0 0.38808178026068268 0.10392801007035141 0 0.37400882161871279 0.083619613235024759 0 0.39656535672550852 0.092974877928873267 0 0.39780951386322527 0.071813900777571313 0 0.37455144446510141 0.10193275935197101 0 0.37400882161871279 0.083619613235024759 0 0.38808178026068268 0.10392801007035141 0 0.37455144446510141 0.10193275935197101 0 0.38808178026068268 0.10392801007035141 0 0.37815432920295677 0.1109533992790251 0 0.37035748409374952 0.12191913965183331 0 0.38876177119367089 0.116972809820693 0 0.37035748409374952 0.12191913965183331 0 0.37511757494472903 0.123072110010257 0 0.38876177119367089 0.116972809820693 0 0.37035748409374952 0.12191913965183331 0 0.37815432920295677 0.1109533992790251 0 0.38876177119367089 0.116972809820693 0 0.3828943795393005 0.1298338505994551 0 0.37511757494472903 0.123072110010257 0 0.38876177119367089 0.116972809820693 0 0.3828943795393005 0.1298338505994551 0 0.39816792615439378 0.12760480203569169 0 0.38876177119367089 0.116972809820693 0 0.38808178026068268 0.10392801007035141 0 0.37815432920295677 0.1109533992790251 0 0.38876177119367089 0.116972809820693 0 0.40716605829359193 0.1120264799895512 0 0.38876177119367089 0.116972809820693 0 0.39816792615439378 0.12760480203569169 0 0.40716605829359193 0.1120264799895512 0 0.38876177119367089 0.116972809820693 0 0.40716605829359193 0.1120264799895512 0 0.38808178026068268 0.10392801007035141 0 0.38876177119367089 0.116972809820693 0 0.40716605829359193 0.1120264799895512 0 0.39656535672550852 0.092974877928873267 0 0.38808178026068268 0.10392801007035141 0 0.39895333728429933 0.027539300906755181 0 0.38848936808377088 0.020562943807347231 0 0.4122691541308795 0.010257189796790951 0 0.39895333728429933 0.027539300906755181 0 0.38848936808377088 0.020562943807347231 0 0.38747348007354487 0.029444157512556919 0 0.39212595536292472 0.0047271407553128551 0 0.4122691541308795 0.010257189796790951 0 0.40542454288086849 -0.004070234290400764 0 0.38848936808377088 0.020562943807347231 0 0.4122691541308795 0.010257189796790951 0 0.39212595536292472 0.0047271407553128551 0 0.38848936808377088 0.020562943807347231 0 0.4122691541308795 0.010257189796790951 0 0.39212595536292472 0.0047271407553128551 0 0.38120377069012762 0.010554394007073271 0 0.36845156083710567 -0.0060515153414843056 0 0.36934971840039982 0.01412264887454192 0 0.38120377069012762 0.010554394007073271 0 0.38848936808377088 0.020562943807347231 0 0.39212595536292472 0.0047271407553128551 0 0.38120377069012762 0.010554394007073271 0 0.38848936808377088 0.020562943807347231 0 0.39212595536292472 0.0047271407553128551 0 0.38848936808377088 0.020562943807347231 0 0.38848936808377088 0.020562943807347231 0 0.38747348007354487 0.029444157512556919 0 0.38366251926208489 0.041581833616573027 0 0.38848936808377088 0.020562943807347231 0 0.38366251926208489 0.041581833616573027 0 0.36096242836060388 0.032492650360987897 0 0.38848936808377088 0.020562943807347231 0 0.38366251926208489 0.041581833616573027 0 0.37883567044039879 0.062600723425798879 0 0.38366251926208489 0.041581833616573027 0 0.3909554563133032 0.056876008487314757 0 0.37883567044039879 0.062600723425798879 0 0.38366251926208489 0.041581833616573027 0 0.36884998715724038 0.048654936693666287 0 0.37883567044039879 0.062600723425798879 0 0.38366251926208489 0.041581833616573027 0 0.38366251926208489 0.041581833616573027 0 0.40351412168750378 0.051507576129315842 0 0.3909554563133032 0.056876008487314757 0 0.39780951386322527 0.071813900777571313 0 0.40351412168750378 0.051507576129315842 0 0.3909554563133032 0.056876008487314757 0 0.38747348007354487 0.029444157512556919 0 0.40351412168750378 0.051507576129315842 0 0.39895333728429933 0.027539300906755181 0 0.40351412168750378 0.051507576129315842 0 0.40867742594100492 0.02913313449165824 0 0.39895333728429933 0.027539300906755181 0 0.38747348007354487 0.029444157512556919 0 0.40351412168750378 0.051507576129315842 0 0.38747348007354487 0.029444157512556919 0 0.38366251926208489 0.041581833616573027 0 0.40351412168750378 0.051507576129315842 0 0.40351412168750378 0.051507576129315842 0 0.41712069737947322 0.039684074088297272 0 0.40867742594100492 0.02913313449165824 0 0.41712069737947322 0.039684074088297272 0 0.42900932251716922 0.027181299207052031 0 0.40867742594100492 0.02913313449165824 0 0.40351412168750378 0.051507576129315842 0 0.41712069737947322 0.039684074088297272 0 0.42728191937221521 0.050914286525162993 0 0.4195547633014628 0.073570994746074828 0 0.40351412168750378 0.051507576129315842 0 0.42728191937221521 0.050914286525162993 0 0.41712069737947322 0.039684074088297272 0 0.42728191937221521 0.050914286525162993 0 0.42900932251716922 0.027181299207052031 0 0.42728191937221521 0.050914286525162993 0 0.42900932251716922 0.027181299207052031 0 0.45357816737839107 0.043281393992262968 0 0.42900932251716922 0.027181299207052031 0 0.40867742594100492 0.02913313449165824 0 0.4122691541308795 0.010257189796790951 0 0.39895333728429933 0.027539300906755181 0 0.40867742594100492 0.02913313449165824 0 0.4122691541308795 0.010257189796790951 0 0.4122691541308795 0.010257189796790951 0 0.42733427856619571 -0.0085863840744332814 0 0.43604894017798812 -4.8564213765240817e-05 0 0.42900932251716922 0.027181299207052031 0 0.4122691541308795 0.010257189796790951 0 0.43604894017798812 -4.8564213765240817e-05 0 0.4122691541308795 0.010257189796790951 0 0.43604894017798812 -4.8564213765240817e-05 0 0.45021491583924189 0.016350560368503721 0 0.45982872622509668 -0.01035431822432146 0 0.43604894017798812 -4.8564213765240817e-05 0 0.42900932251716922 0.027181299207052031 0 0.45021491583924189 0.016350560368503721 0 0.43604894017798812 -4.8564213765240817e-05 0 0.42900932251716922 0.027181299207052031 0 0.45021491583924189 0.016350560368503721 0 0.45357816737839107 0.043281393992262968 0 0.45021491583924189 0.016350560368503721 0 0.45357816737839107 0.043281393992262968 0 0.47265027193171238 0.017829323700243871 0 0.45021491583924189 0.016350560368503721 0 0.47265027193171238 0.017829323700243871 0 0.45982872622509668 -0.01035431822432146 0 0.45357816737839107 0.043281393992262968 0 0.47969083044660421 0.050503904472553283 0 0.47265027193171238 0.017829323700243871 0 0.44319262383460789 0.070531660330671375 0 0.42728191937221521 0.050914286525162993 0 0.45357816737839107 0.043281393992262968 0 0.46599422920766509 0.071585542922595516 0 0.44319262383460789 0.070531660330671375 0 0.45357816737839107 0.043281393992262968 0 0.46599422920766509 0.071585542922595516 0 0.45357816737839107 0.043281393992262968 0 0.47969083044660421 0.050503904472553283 0 0.47969083044660421 0.050503904472553283 0 0.5 0.033664617902273368 0 0.47265027193171238 0.017829323700243871 0 0.48592231416185638 0.0752646054103117 0 0.47969083044660421 0.050503904472553283 0 0.5 0.06139794290763223 0 0.47969083044660421 0.050503904472553283 0 0.5 0.033664617902273368 0 0.5 0.06139794290763223 0 0.5 0.033664617902273368 0 0.47265027193171238 0.017829323700243871 0 0.5 0.0059312928969145204 0 0.47265027193171238 0.017829323700243871 0 0.5 0.0059312928969145204 0 0.48261795830076532 -0.0084137270416950408 0 0.5 0.0059312928969145204 0 0.48261795830076532 -0.0084137270416950408 0 0.5 -0.021802032108444391 0 0.47265027193171238 0.017829323700243871 0 0.48261795830076532 -0.0084137270416950408 0 0.45982872622509668 -0.01035431822432146 0 0.48261795830076532 -0.0084137270416950408 0 0.48385521188952352 -0.03103713942335571 0 0.45982872622509668 -0.01035431822432146 0 0.48385521188952352 -0.03103713942335571 0 0.46768790053651399 -0.040232759786602873 0 0.45982872622509668 -0.01035431822432146 0 0.48261795830076532 -0.0084137270416950408 0 0.48385521188952352 -0.03103713942335571 0 0.5 -0.021802032108444391 0 0.48385521188952352 -0.03103713942335571 0 0.49518245524492172 -0.045789595090724652 0 0.49482530481253351 -0.04804557135493729 0 0.5 -0.021802032108444391 0 0.49518245524492172 -0.045789595090724652 0 0.49999999999998263 -0.049535357113803247 0 0.48385521188952352 -0.03103713942335571 0 0.5 -0.021802032108444391 0 0.49518245524492172 -0.045789595090724652 0 0.49482530481253351 -0.04804557135493729 0 0.47636674367150789 -0.060588545727567042 0 0.49016972248203172 -0.07745302065780417 0 0.49999999999998263 -0.049535357113803247 0 0.49482530481253351 -0.04804557135493729 0 0.49016972248203172 -0.07745302065780417 0 0.49999999999998263 -0.049535357113803247 0 0.49482530481253351 -0.04804557135493729 0 0.49518245524492172 -0.045789595090724652 0 0.49999999999998263 -0.049535357113803247 0 0.49482530481253351 -0.04804557135493729 0 0.49518245524492172 -0.045789595090724652 0 0.49482530481253351 -0.04804557135493729 0 0.49482530481253351 -0.04804557135493729 0 0.47636674367150789 -0.060588545727567042 0 0.46768790053651399 -0.040232759786602873 0 0.49482530481253351 -0.04804557135493729 0 0.46768790053651399 -0.040232759786602873 0 0.48385521188952352 -0.03103713942335571 0 0.49482530481253351 -0.04804557135493729 0 0.46768790053651399 -0.040232759786602873 0 0.46768790053651399 -0.040232759786602873 0 0.44055049626049481 -0.03241994821826754 0 0.47636674367150789 -0.060588545727567042 0 0.46768790053651399 -0.040232759786602873 0 0.44971823816913109 -0.058611894661768998 0 0.46768790053651399 -0.040232759786602873 0 0.44971823816913109 -0.058611894661768998 0 0.44055049626049481 -0.03241994821826754 0 0.44971823816913109 -0.058611894661768998 0 0.44055049626049481 -0.03241994821826754 0 0.42776585910878662 -0.047462582859365887 0 0.44055049626049481 -0.03241994821826754 0 0.43862233638968018 -0.01433991032473066 0 0.45982872622509668 -0.01035431822432146 0 0.45982872622509668 -0.01035431822432146 0 0.43604894017798812 -4.8564213765240817e-05 0 0.43862233638968018 -0.01433991032473066 0 0.45982872622509668 -0.01035431822432146 0 0.43604894017798812 -4.8564213765240817e-05 0 0.46768790053651399 -0.040232759786602873 0 0.44055049626049481 -0.03241994821826754 0 0.45982872622509668 -0.01035431822432146 0 0.47499259514944292 -0.1202547269832886 0 0.48551414015152222 -0.10686046996066979 0 0.48085855782101261 -0.13626791926353529 0 0.47418157221881441 -0.11112465676427991 0 0.47528951870947961 -0.09927779745641295 0 0.46093003486481321 -0.11810563265674839 0 0.48551414015152222 -0.10686046996066979 0 0.48085855782101261 -0.13626791926353529 0 0.47499259514944292 -0.1202547269832886 0 0.46093003486481321 -0.11810563265674839 0 0.47239045088042492 -0.13005034139104371 0 0.47499259514944292 -0.1202547269832886 0 0.47418157221881441 -0.11112465676427991 0 0.46093003486481321 -0.11810563265674839 0 0.47499259514944292 -0.1202547269832886 0 0.47418157221881441 -0.11112465676427991 0 0.48551414015152222 -0.10686046996066979 0 0.48986304781109291 -0.1242692167884092 0 0.49384429699065369 -0.1173080088948287 0 0.48551414015152222 -0.10686046996066979 0 0.48986304781109291 -0.1242692167884092 0 0.48551414015152222 -0.10686046996066979 0 0.48085855782101261 -0.13626791926353529 0 0.49384429699065369 -0.1173080088948287 0 0.5 -0.1051480109548549 0 0.5 -0.13295433787538069 0 0.48986304781109291 -0.1242692167884092 0 0.49384429699065369 -0.1173080088948287 0 0.5 -0.13295433787538069 0 0.49384429699065369 -0.1173080088948287 0 0.48551414015152222 -0.10686046996066979 0 0.5 -0.1051480109548549 0 0.48551414015152222 -0.10686046996066979 0 0.5 -0.1051480109548549 0 0.49016972248203172 -0.07745302065780417 0 0.48551414015152222 -0.10686046996066979 0 0.47528951870947961 -0.09927779745641295 0 0.4786949329242487 -0.090297096352784045 0 0.47418157221881441 -0.11112465676427991 0 0.48551414015152222 -0.10686046996066979 0 0.47528951870947961 -0.09927779745641295 0 0.47494193394216588 -0.078729965701305249 0 0.4786949329242487 -0.090297096352784045 0 0.46755934933604398 -0.089164227987728051 0 0.47528951870947961 -0.09927779745641295 0 0.4786949329242487 -0.090297096352784045 0 0.46755934933604398 -0.089164227987728051 0 0.47494193394216588 -0.078729965701305249 0 0.4786949329242487 -0.090297096352784045 0 0.49016972248203172 -0.07745302065780417 0 0.48551414015152222 -0.10686046996066979 0 0.49016972248203172 -0.07745302065780417 0 0.5 -0.1051480109548549 0 0.49016972248203172 -0.07745302065780417 0 0.5 -0.077341684034329061 0 0.48551414015152222 -0.10686046996066979 0 0.4786949329242487 -0.090297096352784045 0 0.49016972248203172 -0.07745302065780417 0 0.49999999999998263 -0.049535357113803247 0 0.49016972248203172 -0.07745302065780417 0 0.5 -0.077341684034329061 0 0.49482530481253351 -0.04804557135493729 0 0.49016972248203172 -0.07745302065780417 0 0.47636674367150789 -0.060588545727567042 0 0.47494193394216588 -0.078729965701305249 0 0.49016972248203172 -0.07745302065780417 0 0.47636674367150789 -0.060588545727567042 0 0.47494193394216588 -0.078729965701305249 0 0.4592808493329405 -0.078369632624057675 0 0.47636674367150789 -0.060588545727567042 0 0.44971823816913109 -0.058611894661768998 0 0.4592808493329405 -0.078369632624057675 0 0.47636674367150789 -0.060588545727567042 0 0.4592808493329405 -0.078369632624057675 0 0.44971823816913109 -0.058611894661768998 0 0.44126951216661869 -0.079236189142810429 0 0.42731029070553322 -0.068277018127587574 0 0.44971823816913109 -0.058611894661768998 0 0.44126951216661869 -0.079236189142810429 0 0.4592808493329405 -0.078369632624057675 0 0.4592808493329405 -0.078369632624057675 0 0.44219495499437311 -0.096150719520548239 0 0.44126951216661869 -0.079236189142810429 0 0.4592808493329405 -0.078369632624057675 0 0.44219495499437311 -0.096150719520548239 0 0.47494193394216588 -0.078729965701305249 0 0.4592808493329405 -0.078369632624057675 0 0.46755934933604398 -0.089164227987728051 0 0.4592808493329405 -0.078369632624057675 0 0.46755934933604398 -0.089164227987728051 0 0.44219495499437311 -0.096150719520548239 0 0.46755934933604398 -0.089164227987728051 0 0.46093003486481321 -0.11810563265674839 0 0.46755934933604398 -0.089164227987728051 0 0.44219495499437311 -0.096150719520548239 0 0.46093003486481321 -0.11810563265674839 0 0.47528951870947961 -0.09927779745641295 0 0.46755934933604398 -0.089164227987728051 0 0.46093003486481321 -0.11810563265674839 0 0.441730170532879 -0.1159420230490274 0 0.46093003486481321 -0.11810563265674839 0 0.44582693855797939 -0.1311402400572215 0 0.44219495499437311 -0.096150719520548239 0 0.441730170532879 -0.1159420230490274 0 0.46093003486481321 -0.11810563265674839 0 0.42510906065580589 -0.11393180641703871 0 0.40802316631723889 -0.13171289331352951 0 0.40725115801851319 -0.1169919833964142 0 0.42510906065580589 -0.11393180641703871 0 0.40802316631723889 -0.13171289331352951 0 0.40725115801851319 -0.1169919833964142 0 0.42510906065580589 -0.11393180641703871 0 0.4147200547274239 -0.1079547067436207 0 0.40725115801851319 -0.1169919833964142 0 0.4147200547274239 -0.1079547067436207 0 0.40692444267373179 -0.1088204768843429 0 0.441730170532879 -0.1159420230490274 0 0.42510906065580589 -0.11393180641703871 0 0.43087782981676859 -0.131879285754128 0 0.44219495499437311 -0.096150719520548239 0 0.42510906065580589 -0.11393180641703871 0 0.44219495499437311 -0.096150719520548239 0 0.441730170532879 -0.1159420230490274 0 0.42510906065580589 -0.11393180641703871 0 0.44219495499437311 -0.096150719520548239 0 0.42510906065580589 -0.11393180641703871 0 0.4234909377050316 -0.092737982748798881 0 0.42510906065580589 -0.11393180641703871 0 0.4147200547274239 -0.1079547067436207 0 0.4234909377050316 -0.092737982748798881 0 0.4147200547274239 -0.1079547067436207 0 0.40904120664506322 -0.09935874077938342 0 0.4234909377050316 -0.092737982748798881 0 0.4147200547274239 -0.1079547067436207 0 0.40692444267373179 -0.1088204768843429 0 0.40904120664506322 -0.09935874077938342 0 0.40904120664506322 -0.09935874077938342 0 0.4234909377050316 -0.092737982748798881 0 0.40226126486411301 -0.082186696628613137 0 0.4234909377050316 -0.092737982748798881 0 0.42731029070553322 -0.068277018127587574 0 0.40226126486411301 -0.082186696628613137 0 0.44126951216661869 -0.079236189142810429 0 0.4234909377050316 -0.092737982748798881 0 0.42731029070553322 -0.068277018127587574 0 0.44126951216661869 -0.079236189142810429 0 0.44219495499437311 -0.096150719520548239 0 0.4234909377050316 -0.092737982748798881 0 0.42731029070553322 -0.068277018127587574 0 0.40226126486411301 -0.082186696628613137 0 0.40783717842429862 -0.053396916639273179 0 0.40226126486411301 -0.082186696628613137 0 0.40783717842429862 -0.053396916639273179 0 0.38429333219820472 -0.067131704106828338 0 0.40226126486411301 -0.082186696628613137 0 0.40783717842429862 -0.053396916639273179 0 0.38429333219820472 -0.067131704106828338 0 0.38199460798391838 -0.085246791459625215 0 0.40226126486411301 -0.082186696628613137 0 0.38199460798391838 -0.085246791459625215 0 0.40226126486411301 -0.082186696628613137 0 0.39106825526090561 -0.1007030293946076 0 0.40226126486411301 -0.082186696628613137 0 0.39106825526090561 -0.1007030293946076 0 0.39668535130392929 -0.1109764766179535 0 0.40904120664506322 -0.09935874077938342 0 0.40226126486411301 -0.082186696628613137 0 0.39668535130392929 -0.1109764766179535 0 0.40226126486411301 -0.082186696628613137 0 0.39668535130392929 -0.1109764766179535 0 0.40692444267373179 -0.1088204768843429 0 0.40904120664506322 -0.09935874077938342 0 0.39668535130392929 -0.1109764766179535 0 0.39106825526090561 -0.1007030293946076 0 0.39668535130392929 -0.1109764766179535 0 0.39106825526090561 -0.1007030293946076 0 0.3799934613124491 -0.1141351934829782 0 0.39668535130392929 -0.1109764766179535 0 0.38199460798391838 -0.085246791459625215 0 0.39106825526090561 -0.1007030293946076 0 0.37706007999693841 -0.1011775095245466 0 0.39106825526090561 -0.1007030293946076 0 0.37706007999693841 -0.1011775095245466 0 0.3799934613124491 -0.1141351934829782 0 0.3799934613124491 -0.1141351934829782 0 0.39668535130392929 -0.1109764766179535 0 0.3932705088567644 -0.1286081277708763 0 0.3799934613124491 -0.1141351934829782 0 0.37104303648388809 -0.1272612894930944 0 0.3932705088567644 -0.1286081277708763 0 0.40224748518751269 -0.1211494002184121 0 0.3932705088567644 -0.1286081277708763 0 0.39668535130392929 -0.1109764766179535 0 0.3932705088567644 -0.1286081277708763 0 0.39668535130392929 -0.1109764766179535 0 0.40224748518751269 -0.1211494002184121 0 0.3932705088567644 -0.1286081277708763 0 0.40725115801851319 -0.1169919833964142 0 0.39668535130392929 -0.1109764766179535 0 0.40224748518751269 -0.1211494002184121 0 0.39668535130392929 -0.1109764766179535 0 0.40224748518751269 -0.1211494002184121 0 0.40725115801851319 -0.1169919833964142 0 0.40692444267373179 -0.1088204768843429 0 0.39668535130392929 -0.1109764766179535 0 0.40725115801851319 -0.1169919833964142 0 0.40224748518751269 -0.1211494002184121 0 0.40725115801851319 -0.1169919833964142 0 0.40224748518751269 -0.1211494002184121 0 0.40802316631723889 -0.13171289331352951 0 0.42156842614681772 -0.015954947998216139 0 0.41341309198447568 -0.024607136649931451 0 0.42934924071862562 -0.02029033689286578 0 0.41341309198447568 -0.024607136649931451 0 0.41617709331797431 -0.010335934375633319 0 0.42156842614681772 -0.015954947998216139 0 0.41341309198447568 -0.024607136649931451 0 0.41617709331797431 -0.010335934375633319 0 0.41341309198447568 -0.024607136649931451 0 0.40231254689356027 -0.037392070823486202 0 0.40309603266908228 -0.02802239201193971 0 0.41341309198447568 -0.024607136649931451 0 0.41078796895048542 -0.01389090533175278 0 0.39783226839882679 -0.020121444594939791 0 0.41341309198447568 -0.024607136649931451 0 0.41078796895048542 -0.01389090533175278 0 0.41617709331797431 -0.010335934375633319 0 0.41078796895048542 -0.01389090533175278 0 0.41617709331797431 -0.010335934375633319 0 0.40542454288086849 -0.004070234290400764 0 0.4122691541308795 0.010257189796790951 0 0.41617709331797431 -0.010335934375633319 0 0.40542454288086849 -0.004070234290400764 0 0.4122691541308795 0.010257189796790951 0 0.41617709331797431 -0.010335934375633319 0 0.42733427856619571 -0.0085863840744332814 0 0.42156842614681772 -0.015954947998216139 0 0.41617709331797431 -0.010335934375633319 0 0.42733427856619571 -0.0085863840744332814 0 0.42156842614681772 -0.015954947998216139 0 0.42733427856619571 -0.0085863840744332814 0 0.42934924071862562 -0.02029033689286578 0 0.43862233638968018 -0.01433991032473066 0 0.42733427856619571 -0.0085863840744332814 0 0.43604894017798812 -4.8564213765240817e-05 0 0.43862233638968018 -0.01433991032473066 0 0.42733427856619571 -0.0085863840744332814 0 0.42934924071862562 -0.02029033689286578 0 0.44055049626049481 -0.03241994821826754 0 0.43862233638968018 -0.01433991032473066 0 0.42934924071862562 -0.02029033689286578 0 0.44055049626049481 -0.03241994821826754 0 0.41341309198447568 -0.024607136649931451 0 0.42934924071862562 -0.02029033689286578 0 0.44055049626049481 -0.03241994821826754 0 0.41341309198447568 -0.024607136649931451 0 0.44055049626049481 -0.03241994821826754 0 0.41341309198447568 -0.024607136649931451 0 0.42776585910878662 -0.047462582859365887 0 0.44971823816913109 -0.058611894661768998 0 0.42731029070553322 -0.068277018127587574 0 0.42776585910878662 -0.047462582859365887 0 0.42731029070553322 -0.068277018127587574 0 0.42776585910878662 -0.047462582859365887 0 0.40783717842429862 -0.053396916639273179 0 0.41341309198447568 -0.024607136649931451 0 0.42776585910878662 -0.047462582859365887 0 0.40783717842429862 -0.053396916639273179 0 0.41341309198447568 -0.024607136649931451 0 0.40783717842429862 -0.053396916639273179 0 0.40231254689356027 -0.037392070823486202 0 0.41341309198447568 -0.024607136649931451 0 0.40783717842429862 -0.053396916639273179 0 0.40231254689356027 -0.037392070823486202 0 0.3981973431289102 -0.028872790202489229 0 0.40309603266908228 -0.02802239201193971 0 0.40231254689356027 -0.037392070823486202 0 0.38732801778773829 -0.04651698367670077 0 0.38934459454031273 -0.029067224222560958 0 0.40783717842429862 -0.053396916639273179 0 0.40231254689356027 -0.037392070823486202 0 0.38732801778773829 -0.04651698367670077 0 0.40231254689356027 -0.037392070823486202 0 0.38934459454031273 -0.029067224222560958 0 0.3981973431289102 -0.028872790202489229 0 0.38429333219820472 -0.067131704106828338 0 0.40783717842429862 -0.053396916639273179 0 0.38732801778773829 -0.04651698367670077 0 0.38429333219820472 -0.067131704106828338 0 0.38732801778773829 -0.04651698367670077 0 0.37042415964797237 -0.053058901563766692 0 0.38732801778773829 -0.04651698367670077 0 0.37068698927403948 -0.035605583580554698 0 0.37042415964797237 -0.053058901563766692 0 0.38732801778773829 -0.04651698367670077 0 0.38934459454031273 -0.029067224222560958 0 0.37068698927403948 -0.035605583580554698 0 0.38934459454031273 -0.029067224222560958 0 0.36983137800827248 -0.01206003687362641 0 0.37068698927403948 -0.035605583580554698 0 0.38934459454031273 -0.029067224222560958 0 0.39783226839882679 -0.020121444594939791 0 0.36983137800827248 -0.01206003687362641 0 0.39783226839882679 -0.020121444594939791 0 0.36983137800827248 -0.01206003687362641 0 0.38934459454031273 -0.029067224222560958 0 0.3981973431289102 -0.028872790202489229 0 0.39783226839882679 -0.020121444594939791 0 0.41341309198447568 -0.024607136649931451 0 0.39783226839882679 -0.020121444594939791 0 0.41341309198447568 -0.024607136649931451 0 0.39783226839882679 -0.020121444594939791 0 0.40309603266908228 -0.02802239201193971 0 0.3981973431289102 -0.028872790202489229 0 0.39783226839882679 -0.020121444594939791 0 0.40309603266908228 -0.02802239201193971 0 0.39212595536292472 0.0047271407553128551 0 0.39576254264207811 -0.011108662296721609 0 0.39212595536292472 0.0047271407553128551 0 0.40542454288086849 -0.004070234290400764 0 0.39576254264207811 -0.011108662296721609 0 0.41078796895048542 -0.01389090533175278 0 0.39783226839882679 -0.020121444594939791 0 0.39576254264207811 -0.011108662296721609 0 0.41078796895048542 -0.01389090533175278 0 0.39576254264207811 -0.011108662296721609 0 0.41078796895048542 -0.01389090533175278 0 0.40542454288086849 -0.004070234290400764 0 0.39576254264207811 -0.011108662296721609 0 0.39783226839882679 -0.020121444594939791 0 0.39576254264207811 -0.011108662296721609 0 0.39576254264207811 -0.011108662296721609 0 0.36983137800827248 -0.01206003687362641 0 0.36845156083710567 -0.0060515153414843056 0 0.39576254264207811 -0.011108662296721609 0 0.36845156083710567 -0.0060515153414843056 0 0.39212595536292472 0.0047271407553128551 0 0.39576254264207811 -0.011108662296721609 0 0.36845156083710567 -0.0060515153414843056 0 0.39783226839882679 -0.020121444594939791 0 0.39576254264207811 -0.011108662296721609 0 0.36983137800827248 -0.01206003687362641 0 0.36983137800827248 -0.01206003687362641 0 0.36845156083710567 -0.0060515153414843056 0 0.34183048761771712 -0.0039986291523161147 0 0.36983137800827248 -0.01206003687362641 0 0.35223914962217417 -0.02278106829858554 0 0.37068698927403948 -0.035605583580554698 0 0.36983137800827248 -0.01206003687362641 0 0.35223914962217417 -0.02278106829858554 0 0.34183048761771712 -0.0039986291523161147 0 0.36983137800827248 -0.01206003687362641 0 0.34183048761771712 -0.0039986291523161147 0 0.36845156083710567 -0.0060515153414843056 0 0.34114057903213352 -0.00099436838624600288 0 0.36845156083710567 -0.0060515153414843056 0 0.34183048761771712 -0.0039986291523161147 0 0.34114057903213352 -0.00099436838624600288 0 0.35223914962217417 -0.02278106829858554 0 0.34183048761771712 -0.0039986291523161147 0 0.33977780877024261 -0.017668132193127541 0 0.31382959722716158 0.0040627785689932028 0 0.34183048761771712 -0.0039986291523161147 0 0.34114057903213352 -0.00099436838624600288 0 0.34183048761771712 -0.0039986291523161147 0 0.33574973546384762 -0.01167659105592548 0 0.32194573769061952 -0.0077676308935595512 0 0.34183048761771712 -0.0039986291523161147 0 0.33574973546384762 -0.01167659105592548 0 0.33977780877024261 -0.017668132193127541 0 0.35223914962217417 -0.02278106829858554 0 0.33977780877024261 -0.017668132193127541 0 0.33879793226643329 -0.029417681387060649 0 0.33574973546384762 -0.01167659105592548 0 0.3302717388810405 -0.020466691071749941 0 0.3196214637881436 -0.021924893160697439 0 0.33977780877024261 -0.017668132193127541 0 0.33879793226643329 -0.029417681387060649 0 0.3302717388810405 -0.020466691071749941 0 0.33879793226643329 -0.029417681387060649 0 0.32862271298124018 -0.028919582591936679 0 0.3302717388810405 -0.020466691071749941 0 0.33574973546384762 -0.01167659105592548 0 0.33977780877024261 -0.017668132193127541 0 0.3302717388810405 -0.020466691071749941 0 0.3302717388810405 -0.020466691071749941 0 0.32526768976560849 -0.02407540610795475 0 0.3196214637881436 -0.021924893160697439 0 0.33574973546384762 -0.01167659105592548 0 0.3196214637881436 -0.021924893160697439 0 0.32862271298124018 -0.028919582591936679 0 0.3302717388810405 -0.020466691071749941 0 0.32526768976560849 -0.02407540610795475 0 0.32862271298124018 -0.028919582591936679 0 0.32095671603858011 -0.024994897592425049 0 0.3231679364015333 -0.033306441836977792 0 0.32862271298124018 -0.028919582591936679 0 0.32526768976560849 -0.02407540610795475 0 0.32095671603858011 -0.024994897592425049 0 0.32526768976560849 -0.02407540610795475 0 0.32095671603858011 -0.024994897592425049 0 0.3196214637881436 -0.021924893160697439 0 0.32095671603858011 -0.024994897592425049 0 0.3196214637881436 -0.021924893160697439 0 0.31660160940309118 -0.035871797032442469 0 0.32095671603858011 -0.024994897592425049 0 0.3196214637881436 -0.021924893160697439 0 0.33574973546384762 -0.01167659105592548 0 0.3196214637881436 -0.021924893160697439 0 0.32194573769061952 -0.0077676308935595512 0 0.30752965714041391 0.0058765203804442539 0 0.3196214637881436 -0.021924893160697439 0 0.32194573769061952 -0.0077676308935595512 0 0.31382959722716158 0.0040627785689932028 0 0.34183048761771712 -0.0039986291523161147 0 0.32194573769061952 -0.0077676308935595512 0 0.30752965714041391 0.0058765203804442539 0 0.3196214637881436 -0.021924893160697439 0 0.31292981148517318 -0.054457989835630861 0 0.33951515654934239 -0.057829064589421393 0 0.331762206516936 -0.074199649102278678 0 0.31292981148517318 -0.054457989835630861 0 0.32943454752299528 -0.042779626289088678 0 0.31292981148517318 -0.054457989835630861 0 0.32943454752299528 -0.042779626289088678 0 0.33951515654934239 -0.057829064589421393 0 0.31292981148517318 -0.054457989835630861 0 0.31660160940309118 -0.035871797032442469 0 0.32943454752299528 -0.042779626289088678 0 0.32095671603858011 -0.024994897592425049 0 0.31660160940309118 -0.035871797032442469 0 0.3231679364015333 -0.033306441836977792 0 0.32862271298124018 -0.028919582591936679 0 0.3231679364015333 -0.033306441836977792 0 0.32943454752299528 -0.042779626289088678 0 0.31660160940309118 -0.035871797032442469 0 0.3231679364015333 -0.033306441836977792 0 0.32943454752299528 -0.042779626289088678 0 0.33879793226643329 -0.029417681387060649 0 0.32943454752299528 -0.042779626289088678 0 0.35178468962230941 -0.045374559850196158 0 0.33879793226643329 -0.029417681387060649 0 0.32862271298124018 -0.028919582591936679 0 0.32943454752299528 -0.042779626289088678 0 0.32943454752299528 -0.042779626289088678 0 0.33951515654934239 -0.057829064589421393 0 0.35178468962230941 -0.045374559850196158 0 0.33951515654934239 -0.057829064589421393 0 0.35178468962230941 -0.045374559850196158 0 0.35802776935757019 -0.070665676604553529 0 0.35223914962217417 -0.02278106829858554 0 0.35178468962230941 -0.045374559850196158 0 0.37068698927403948 -0.035605583580554698 0 0.35223914962217417 -0.02278106829858554 0 0.33879793226643329 -0.029417681387060649 0 0.35178468962230941 -0.045374559850196158 0 0.35178468962230941 -0.045374559850196158 0 0.37068698927403948 -0.035605583580554698 0 0.37042415964797237 -0.053058901563766692 0 0.35178468962230941 -0.045374559850196158 0 0.37042415964797237 -0.053058901563766692 0 0.35802776935757019 -0.070665676604553529 0 0.38429333219820472 -0.067131704106828338 0 0.38199460798391838 -0.085246791459625215 0 0.35802776935757019 -0.070665676604553529 0 0.38429333219820472 -0.067131704106828338 0 0.37042415964797237 -0.053058901563766692 0 0.35802776935757019 -0.070665676604553529 0 0.38429333219820472 -0.067131704106828338 0 0.35802776935757019 -0.070665676604553529 0 0.38199460798391838 -0.085246791459625215 0 0.36577500316168848 -0.093055365242956031 0 0.35802776935757019 -0.070665676604553529 0 0.38199460798391838 -0.085246791459625215 0 0.37706007999693841 -0.1011775095245466 0 0.36577500316168848 -0.093055365242956031 0 0.35802776935757019 -0.070665676604553529 0 0.34487393367809682 -0.095216741312257352 0 0.331762206516936 -0.074199649102278678 0 0.36577500316168848 -0.093055365242956031 0 0.35802776935757019 -0.070665676604553529 0 0.34487393367809682 -0.095216741312257352 0 0.35802776935757019 -0.070665676604553529 0 0.331762206516936 -0.074199649102278678 0 0.3799934613124491 -0.1141351934829782 0 0.36192545204167298 -0.11208328153174781 0 0.37104303648388809 -0.1272612894930944 0 0.36192545204167298 -0.11208328153174781 0 0.35551888896884759 -0.1297027680154724 0 0.37104303648388809 -0.1272612894930944 0 0.37706007999693841 -0.1011775095245466 0 0.3799934613124491 -0.1141351934829782 0 0.36192545204167298 -0.11208328153174781 0 0.37706007999693841 -0.1011775095245466 0 0.36577500316168848 -0.093055365242956031 0 0.36192545204167298 -0.11208328153174781 0 0.36192545204167298 -0.11208328153174781 0 0.34487393367809682 -0.095216741312257352 0 0.34014121552940491 -0.1203166258242544 0 0.36577500316168848 -0.093055365242956031 0 0.36192545204167298 -0.11208328153174781 0 0.34487393367809682 -0.095216741312257352 0 0.36192545204167298 -0.11208328153174781 0 0.34014121552940491 -0.1203166258242544 0 0.35551888896884759 -0.1297027680154724 0 0.34014121552940491 -0.1203166258242544 0 0.32517348349888747 -0.118580130041643 0 0.32373683991627678 -0.1342707635111336 0 0.34014121552940491 -0.1203166258242544 0 0.32895182275083351 -0.1060869523066566 0 0.32517348349888747 -0.118580130041643 0 0.34487393367809682 -0.095216741312257352 0 0.34014121552940491 -0.1203166258242544 0 0.32895182275083351 -0.1060869523066566 0 0.34487393367809682 -0.095216741312257352 0 0.32895182275083351 -0.1060869523066566 0 0.32681031061177879 -0.089772122834636051 0 0.32895182275083351 -0.1060869523066566 0 0.31743464692623941 -0.099981704590172707 0 0.32681031061177879 -0.089772122834636051 0 0.31743464692623941 -0.099981704590172707 0 0.31638799147784608 -0.1118713826410174 0 0.30885616350321549 -0.1072846913931271 0 0.32895182275083351 -0.1060869523066566 0 0.31743464692623941 -0.099981704590172707 0 0.31638799147784608 -0.1118713826410174 0 0.32895182275083351 -0.1060869523066566 0 0.31638799147784608 -0.1118713826410174 0 0.32517348349888747 -0.118580130041643 0 0.31638799147784608 -0.1118713826410174 0 0.31399575267335023 -0.12250180558336519 0 0.30853123694459123 -0.1170064061326217 0 0.31638799147784608 -0.1118713826410174 0 0.31399575267335023 -0.12250180558336519 0 0.32517348349888747 -0.118580130041643 0 0.33951515654934239 -0.057829064589421393 0 0.35802776935757019 -0.070665676604553529 0 0.331762206516936 -0.074199649102278678 0 0.34487393367809682 -0.095216741312257352 0 0.331762206516936 -0.074199649102278678 0 0.32681031061177879 -0.089772122834636051 0 0.32681031061177879 -0.089772122834636051 0 0.30549664367630158 -0.077733621600003855 0 0.31220284993755582 -0.090742102146006851 0 0.331762206516936 -0.074199649102278678 0 0.32681031061177879 -0.089772122834636051 0 0.30549664367630158 -0.077733621600003855 0 0.31743464692623941 -0.099981704590172707 0 0.32681031061177879 -0.089772122834636051 0 0.31220284993755582 -0.090742102146006851 0 0.31292981148517318 -0.054457989835630861 0 0.331762206516936 -0.074199649102278678 0 0.30549664367630158 -0.077733621600003855 0 0.331762206516936 -0.074199649102278678 0 0.30549664367630158 -0.077733621600003855 0 0.31292981148517318 -0.054457989835630861 0 0.30549664367630158 -0.077733621600003855 0 0.29642507544735103 -0.06613635338217283 0 0.30549664367630158 -0.077733621600003855 0 0.29743178973804058 -0.092817056036521225 0 0.29642507544735103 -0.06613635338217283 0 0.29743178973804058 -0.092817056036521225 0 0.29642507544735103 -0.06613635338217283 0 0.31220284993755582 -0.090742102146006851 0 0.30524841693787119 -0.089877123387424693 0 0.30586238439958702 -0.098215713767166868 0 0.30549664367630158 -0.077733621600003855 0 0.31220284993755582 -0.090742102146006851 0 0.30524841693787119 -0.089877123387424693 0 0.30524841693787119 -0.089877123387424693 0 0.29743178973804058 -0.092817056036521225 0 0.30586238439958702 -0.098215713767166868 0 0.30549664367630158 -0.077733621600003855 0 0.30524841693787119 -0.089877123387424693 0 0.29743178973804058 -0.092817056036521225 0 0.29430385704143641 -0.093334685648855456 0 0.28333646668855839 -0.1038254721913715 0 0.27844545300264117 -0.078858311907156253 0 0.29743178973804058 -0.092817056036521225 0 0.29430385704143641 -0.093334685648855456 0 0.29347904805936648 -0.068220893163732282 0 0.29430385704143641 -0.093334685648855456 0 0.29347904805936648 -0.068220893163732282 0 0.27844545300264117 -0.078858311907156253 0 0.29430385704143641 -0.093334685648855456 0 0.29347904805936648 -0.068220893163732282 0 0.29743178973804058 -0.092817056036521225 0 0.29642507544735103 -0.06613635338217283 0 0.29347904805936648 -0.068220893163732282 0 0.28521560802072671 -0.062721316040594208 0 0.29347904805936648 -0.068220893163732282 0 0.27844545300264117 -0.078858311907156253 0 0.29347904805936648 -0.068220893163732282 0 0.27844545300264117 -0.078858311907156253 0 0.29642507544735103 -0.06613635338217283 0 0.29347904805936648 -0.068220893163732282 0 0.29301224914481439 -0.054007794946804598 0 0.29642507544735103 -0.06613635338217283 0 0.29347904805936648 -0.068220893163732282 0 0.29743178973804058 -0.092817056036521225 0 0.29843850402873079 -0.11949775869086959 0 0.29512866602350563 -0.1184484781339787 0 0.29843850402873079 -0.11949775869086959 0 0.29512866602350563 -0.1184484781339787 0 0.30010147488007238 -0.1276093355582181 0 0.29843850402873079 -0.11949775869086959 0 0.30554459793957989 -0.1238630007756472 0 0.30853123694459123 -0.1170064061326217 0 0.29843850402873079 -0.11949775869086959 0 0.30554459793957989 -0.1238630007756472 0 0.30010147488007238 -0.1276093355582181 0 0.31399575267335023 -0.12250180558336519 0 0.30554459793957989 -0.1238630007756472 0 0.30853123694459123 -0.1170064061326217 0 0.29843850402873079 -0.11949775869086959 0 0.30853123694459123 -0.1170064061326217 0 0.30885616350321549 -0.1072846913931271 0 0.31638799147784608 -0.1118713826410174 0 0.30853123694459123 -0.1170064061326217 0 0.30885616350321549 -0.1072846913931271 0 0.29843850402873079 -0.11949775869086959 0 0.30885616350321549 -0.1072846913931271 0 0.30586238439958702 -0.098215713767166868 0 0.29743178973804058 -0.092817056036521225 0 0.29843850402873079 -0.11949775869086959 0 0.30586238439958702 -0.098215713767166868 0 0.29743178973804058 -0.092817056036521225 0 0.29843850402873079 -0.11949775869086959 0 0.31743464692623941 -0.099981704590172707 0 0.30885616350321549 -0.1072846913931271 0 0.30586238439958702 -0.098215713767166868 0 0.31743464692623941 -0.099981704590172707 0 0.31220284993755582 -0.090742102146006851 0 0.30586238439958702 -0.098215713767166868 0 0.29430385704143641 -0.093334685648855456 0 0.29512866602350563 -0.1184484781339787 0 0.29430385704143641 -0.093334685648855456 0 0.28333646668855839 -0.1038254721913715 0 0.29512866602350563 -0.1184484781339787 0 0.29743178973804058 -0.092817056036521225 0 0.29430385704143641 -0.093334685648855456 0 0.29512866602350563 -0.1184484781339787 0 0.28333646668855839 -0.1038254721913715 0 0.29512866602350563 -0.1184484781339787 0 0.28822748037447399 -0.12879263247558709 0 0.28333646668855839 -0.1038254721913715 0 0.28822748037447399 -0.12879263247558709 0 0.26621118532108262 -0.1119181791838486 0 0.25741251913389712 -0.1305951081492244 0 0.28822748037447399 -0.12879263247558709 0 0.28333646668855839 -0.1038254721913715 0 0.26621118532108262 -0.1119181791838486 0 0.28822748037447399 -0.12879263247558709 0 0.28333646668855839 -0.1038254721913715 0 0.26621118532108262 -0.1119181791838486 0 0.26565518081306061 -0.08790840808238623 0 0.26621118532108262 -0.1119181791838486 0 0.25154255280112903 -0.1006059983499779 0 0.24954668948061209 -0.11284283178631641 0 0.26621118532108262 -0.1119181791838486 0 0.25154255280112903 -0.1006059983499779 0 0.26565518081306061 -0.08790840808238623 0 0.26621118532108262 -0.1119181791838486 0 0.25741251913389712 -0.1305951081492244 0 0.24954668948061209 -0.11284283178631641 0 0.27844545300264117 -0.078858311907156253 0 0.2741393958395883 -0.056877179510702792 0 0.28007443442101287 -0.061799103716356343 0 0.27844545300264117 -0.078858311907156253 0 0.2741393958395883 -0.056877179510702792 0 0.26628957168076178 -0.070692469674316694 0 0.27844545300264117 -0.078858311907156253 0 0.2741393958395883 -0.056877179510702792 0 0.28521560802072671 -0.062721316040594208 0 0.27844545300264117 -0.078858311907156253 0 0.28007443442101287 -0.061799103716356343 0 0.26628957168076178 -0.070692469674316694 0 0.27844545300264117 -0.078858311907156253 0 0.26565518081306061 -0.08790840808238623 0 0.28333646668855839 -0.1038254721913715 0 0.27844545300264117 -0.078858311907156253 0 0.26565518081306061 -0.08790840808238623 0 0.28333646668855839 -0.1038254721913715 0 0.27844545300264117 -0.078858311907156253 0 0.27844545300264117 -0.078858311907156253 0 0.26565518081306061 -0.08790840808238623 0 0.25154255280112903 -0.1006059983499779 0 0.25664035233608162 -0.078361863555500011 0 0.24390890644978661 -0.075150332687283522 0 0.25154255280112903 -0.1006059983499779 0 0.26565518081306061 -0.08790840808238623 0 0.25664035233608162 -0.078361863555500011 0 0.26628957168076178 -0.070692469674316694 0 0.26565518081306061 -0.08790840808238623 0 0.25664035233608162 -0.078361863555500011 0 0.25664035233608162 -0.078361863555500011 0 0.25256726729664603 -0.064532785491330763 0 0.24390890644978661 -0.075150332687283522 0 0.26628957168076178 -0.070692469674316694 0 0.25256726729664603 -0.064532785491330763 0 0.2741393958395883 -0.056877179510702792 0 0.26628957168076178 -0.070692469674316694 0 0.25664035233608162 -0.078361863555500011 0 0.25256726729664603 -0.064532785491330763 0 0.25256726729664603 -0.064532785491330763 0 0.25164978009717781 -0.053061021673298493 0 0.24617004458672351 -0.058202332164817121 0 0.25256726729664603 -0.064532785491330763 0 0.26131371929964131 -0.050907379716302707 0 0.27395317434556299 -0.0509436520349522 0 0.25256726729664603 -0.064532785491330763 0 0.25164978009717781 -0.053061021673298493 0 0.26131371929964131 -0.050907379716302707 0 0.25256726729664603 -0.064532785491330763 0 0.27395317434556299 -0.0509436520349522 0 0.25164978009717781 -0.053061021673298493 0 0.26131371929964131 -0.050907379716302707 0 0.2539732262079259 -0.044675773385505282 0 0.26131371929964131 -0.050907379716302707 0 0.26227784506780882 -0.045421506107560787 0 0.2539732262079259 -0.044675773385505282 0 0.26131371929964131 -0.050907379716302707 0 0.26742863268251632 -0.045985676557136583 0 0.26227784506780882 -0.045421506107560787 0 0.25256726729664603 -0.064532785491330763 0 0.27395317434556299 -0.0509436520349522 0 0.2741393958395883 -0.056877179510702792 0 0.26131371929964131 -0.050907379716302707 0 0.27395317434556299 -0.0509436520349522 0 0.26742863268251632 -0.045985676557136583 0 0.27395317434556299 -0.0509436520349522 0 0.2741393958395883 -0.056877179510702792 0 0.28351618772518777 -0.053458991616202503 0 0.2741393958395883 -0.056877179510702792 0 0.28007443442101287 -0.061799103716356343 0 0.28351618772518777 -0.053458991616202503 0 0.2807394014679111 -0.038000872253349499 0 0.27361436003936901 -0.034999677146069851 0 0.27240238673917438 -0.042113497984529957 0 0.2807394014679111 -0.038000872253349499 0 0.27361436003936901 -0.034999677146069851 0 0.28248009054126683 -0.027824818882371601 0 0.27395317434556299 -0.0509436520349522 0 0.2807394014679111 -0.038000872253349499 0 0.27240238673917438 -0.042113497984529957 0 0.27395317434556299 -0.0509436520349522 0 0.27240238673917438 -0.042113497984529957 0 0.26742863268251632 -0.045985676557136583 0 0.27361436003936901 -0.034999677146069851 0 0.27240238673917438 -0.042113497984529957 0 0.26639580208115188 -0.040117194771298603 0 0.27240238673917438 -0.042113497984529957 0 0.26742863268251632 -0.045985676557136583 0 0.26639580208115188 -0.040117194771298603 0 0.27361436003936901 -0.034999677146069851 0 0.26639580208115188 -0.040117194771298603 0 0.26859201328057281 -0.027442020841521631 0 0.2539732262079259 -0.044675773385505282 0 0.25845033672230949 -0.02738613623275089 0 0.26859201328057281 -0.027442020841521631 0 0.2539732262079259 -0.044675773385505282 0 0.25845033672230949 -0.02738613623275089 0 0.24422464309495209 -0.046986837608536558 0 0.25845033672230949 -0.02738613623275089 0 0.24422464309495209 -0.046986837608536558 0 0.26639580208115188 -0.040117194771298603 0 0.2539732262079259 -0.044675773385505282 0 0.26859201328057281 -0.027442020841521631 0 0.2539732262079259 -0.044675773385505282 0 0.26859201328057281 -0.027442020841521631 0 0.26639580208115188 -0.040117194771298603 0 0.26227784506780882 -0.045421506107560787 0 0.2539732262079259 -0.044675773385505282 0 0.26742863268251632 -0.045985676557136583 0 0.26639580208115188 -0.040117194771298603 0 0.26227784506780882 -0.045421506107560787 0 0.25013504981522988 -0.025019616072594848 0 0.25845033672230949 -0.02738613623275089 0 0.24524507923365879 -0.0330622213940093 0 0.25845033672230949 -0.02738613623275089 0 0.27267603034966698 -0.0077854348569651906 0 0.25845033672230949 -0.02738613623275089 0 0.25886508985187012 -0.013172853544477199 0 0.27267603034966698 -0.0077854348569651906 0 0.25013504981522988 -0.025019616072594848 0 0.25247407830029878 -0.019873092178793648 0 0.25845033672230949 -0.02738613623275089 0 0.25247407830029878 -0.019873092178793648 0 0.25845033672230949 -0.02738613623275089 0 0.25886508985187012 -0.013172853544477199 0 0.25598072684389089 -0.0058943492075353007 0 0.25006914023697918 -0.01208141302270524 0 0.2479891295484222 -0.0022684572774312019 0 0.25894279220913391 0.003459445712386486 0 0.25598072684389089 -0.0058943492075353007 0 0.2479891295484222 -0.0022684572774312019 0 0.25598072684389089 -0.0058943492075353007 0 0.25006914023697918 -0.01208141302270524 0 0.25886508985187012 -0.013172853544477199 0 0.25247407830029878 -0.019873092178793648 0 0.25006914023697918 -0.01208141302270524 0 0.25886508985187012 -0.013172853544477199 0 0.25886508985187012 -0.013172853544477199 0 0.26317147738524183 -0.0038637327990410169 0 0.27267603034966698 -0.0077854348569651906 0 0.25598072684389089 -0.0058943492075353007 0 0.25886508985187012 -0.013172853544477199 0 0.26317147738524183 -0.0038637327990410169 0 0.25894279220913391 0.003459445712386486 0 0.25598072684389089 -0.0058943492075353007 0 0.26317147738524183 -0.0038637327990410169 0 0.27267603034966698 -0.0077854348569651906 0 0.26859201328057281 -0.027442020841521631 0 0.28321080035321983 -0.010208268297538009 0 0.26939274767164711 0.0040745279013861191 0 0.26317147738524183 -0.0038637327990410169 0 0.27267603034966698 -0.0077854348569651906 0 0.28687677889875068 0.001725005618485562 0 0.27267603034966698 -0.0077854348569651906 0 0.28321080035321983 -0.010208268297538009 0 0.26859201328057281 -0.027442020841521631 0 0.28321080035321983 -0.010208268297538009 0 0.25845033672230949 -0.02738613623275089 0 0.27267603034966698 -0.0077854348569651906 0 0.26859201328057281 -0.027442020841521631 0 0.26859201328057281 -0.027442020841521631 0 0.28248009054126683 -0.027824818882371601 0 0.28321080035321983 -0.010208268297538009 0 0.27361436003936901 -0.034999677146069851 0 0.26859201328057281 -0.027442020841521631 0 0.28248009054126683 -0.027824818882371601 0 0.29465383366866438 -0.01919356567853802 0 0.28248009054126683 -0.027824818882371601 0 0.29533908139447967 -0.037354518578573179 0 0.29465383366866438 -0.01919356567853802 0 0.28248009054126683 -0.027824818882371601 0 0.28321080035321983 -0.010208268297538009 0 0.29465383366866438 -0.01919356567853802 0 0.29533908139447967 -0.037354518578573179 0 0.2978295874258669 0.0070254842464454832 0 0.28321080035321983 -0.010208268297538009 0 0.29396858594285019 -0.001032612778502764 0 0.2978295874258669 0.0070254842464454832 0 0.28687677889875068 0.001725005618485562 0 0.28321080035321983 -0.010208268297538009 0 0.29465383366866438 -0.01919356567853802 0 0.28321080035321983 -0.010208268297538009 0 0.29396858594285019 -0.001032612778502764 0 0.2978295874258669 0.0070254842464454832 0 0.28321080035321983 -0.010208268297538009 0 0.29465383366866438 -0.01919356567853802 0 0.29396858594285019 -0.001032612778502764 0 0.30752965714041391 0.0058765203804442539 0 0.29465383366866438 -0.01919356567853802 0 0.29396858594285019 -0.001032612778502764 0 0.30752965714041391 0.0058765203804442539 0 0.3196214637881436 -0.021924893160697439 0 0.29465383366866438 -0.01919356567853802 0 0.3196214637881436 -0.021924893160697439 0 0.29465383366866438 -0.01919356567853802 0 0.29533908139447967 -0.037354518578573179 0 0.3196214637881436 -0.021924893160697439 0 0.29533908139447967 -0.037354518578573179 0 0.3196214637881436 -0.021924893160697439 0 0.31660160940309118 -0.035871797032442469 0 0.29533908139447967 -0.037354518578573179 0 0.31292981148517318 -0.054457989835630861 0 0.31660160940309118 -0.035871797032442469 0 0.29533908139447967 -0.037354518578573179 0 0.31292981148517318 -0.054457989835630861 0 0.29642507544735103 -0.06613635338217283 0 0.31292981148517318 -0.054457989835630861 0 0.29642507544735103 -0.06613635338217283 0 0.29533908139447967 -0.037354518578573179 0 0.29642507544735103 -0.06613635338217283 0 0.29301224914481439 -0.054007794946804598 0 0.29533908139447967 -0.037354518578573179 0 0.27395317434556299 -0.0509436520349522 0 0.28351618772518777 -0.053458991616202503 0 0.29533908139447967 -0.037354518578573179 0 0.29301224914481439 -0.054007794946804598 0 0.28351618772518777 -0.053458991616202503 0 0.29533908139447967 -0.037354518578573179 0 0.29642507544735103 -0.06613635338217283 0 0.29533908139447967 -0.037354518578573179 0 0.29347904805936648 -0.068220893163732282 0 0.29301224914481439 -0.054007794946804598 0 0.28521560802072671 -0.062721316040594208 0 0.29347904805936648 -0.068220893163732282 0 0.29301224914481439 -0.054007794946804598 0 0.28521560802072671 -0.062721316040594208 0 0.29301224914481439 -0.054007794946804598 0 0.28351618772518777 -0.053458991616202503 0 0.28521560802072671 -0.062721316040594208 0 0.28007443442101287 -0.061799103716356343 0 0.28351618772518777 -0.053458991616202503 0 0.27395317434556299 -0.0509436520349522 0 0.29533908139447967 -0.037354518578573179 0 0.27395317434556299 -0.0509436520349522 0 0.2807394014679111 -0.038000872253349499 0 0.29533908139447967 -0.037354518578573179 0 0.2807394014679111 -0.038000872253349499 0 0.28248009054126683 -0.027824818882371601 0 0.29533908139447967 -0.037354518578573179 0 0.30290052143222262 -0.20369411332823331 0 0.28158405213751547 -0.22140539282722879 0 0.30290052143222262 -0.20369411332823331 0 0.28158405213751547 -0.22140539282722879 0 0.27747759048209231 -0.20168759245952969 0 0.28632476970011178 -0.18938030831719929 0 0.30290052143222262 -0.20369411332823331 0 0.2980095077463053 -0.17872695304401809 0 0.28632476970011178 -0.18938030831719929 0 0.30290052143222262 -0.20369411332823331 0 0.27747759048209231 -0.20168759245952969 0 0.30290052143222262 -0.20369411332823331 0 0.2980095077463053 -0.17872695304401809 0 0.32549301828835953 -0.18492261693889581 0 0.30290052143222262 -0.20369411332823331 0 0.2980095077463053 -0.17872695304401809 0 0.30290052143222262 -0.20369411332823331 0 0.30715254712033069 -0.22539943122446929 0 0.28158405213751547 -0.22140539282722879 0 0.30290052143222262 -0.20369411332823331 0 0.30715254712033069 -0.22539943122446929 0 0.30290052143222262 -0.20369411332823331 0 0.30715254712033069 -0.22539943122446929 0 0.32148368101975677 -0.2112815477794289 0 0.31140457280844042 -0.24710474912070499 0 0.29234931722919649 -0.23956849287787771 0 0.29718577407036301 -0.25519814195989071 0 0.30715254712033069 -0.22539943122446929 0 0.31140457280844042 -0.24710474912070499 0 0.29234931722919649 -0.23956849287787771 0 0.30715254712033069 -0.22539943122446929 0 0.31140457280844042 -0.24710474912070499 0 0.29234931722919649 -0.23956849287787771 0 0.27362138757170362 -0.2426007269765893 0 0.28009493911397709 -0.25531812806766069 0 0.29234931722919649 -0.23956849287787771 0 0.28158405213751547 -0.22140539282722879 0 0.27362138757170362 -0.2426007269765893 0 0.30715254712033069 -0.22539943122446929 0 0.29234931722919649 -0.23956849287787771 0 0.28158405213751547 -0.22140539282722879 0 0.28158405213751547 -0.22140539282722879 0 0.26621460642996558 -0.23052855599088379 0 0.27362138757170362 -0.2426007269765893 0 0.28158405213751547 -0.22140539282722879 0 0.26621460642996558 -0.23052855599088379 0 0.26307381511529532 -0.2143756044194241 0 0.26621460642996558 -0.23052855599088379 0 0.27362138757170362 -0.2426007269765893 0 0.26034160768121078 -0.2422716922893062 0 0.27362138757170362 -0.2426007269765893 0 0.26034160768121078 -0.2422716922893062 0 0.26515279713901752 -0.25474276698909742 0 0.26034160768121078 -0.2422716922893062 0 0.26515279713901752 -0.25474276698909742 0 0.25575058308532189 -0.25269357128633052 0 0.26034160768121078 -0.2422716922893062 0 0.25134951441318748 -0.22920843539767929 0 0.2499607574480687 -0.24385609709525671 0 0.25575058308532189 -0.25269357128633052 0 0.2462907050713771 -0.25204034373521428 0 0.2499607574480687 -0.24385609709525671 0 0.26034160768121078 -0.2422716922893062 0 0.25575058308532189 -0.25269357128633052 0 0.2499607574480687 -0.24385609709525671 0 0.26621460642996558 -0.23052855599088379 0 0.25134951441318748 -0.22920843539767929 0 0.26307381511529532 -0.2143756044194241 0 0.26621460642996558 -0.23052855599088379 0 0.26034160768121078 -0.2422716922893062 0 0.25134951441318748 -0.22920843539767929 0 0.25134951441318748 -0.22920843539767929 0 0.26307381511529532 -0.2143756044194241 0 0.24314545538918961 -0.20571013864437751 0 0.26307381511529532 -0.2143756044194241 0 0.2593871514889205 -0.19799184377322379 0 0.24314545538918961 -0.20571013864437751 0 0.26307381511529532 -0.2143756044194241 0 0.27747759048209231 -0.20168759245952969 0 0.2593871514889205 -0.19799184377322379 0 0.28158405213751547 -0.22140539282722879 0 0.26307381511529532 -0.2143756044194241 0 0.27747759048209231 -0.20168759245952969 0 0.27747759048209231 -0.20168759245952969 0 0.2593871514889205 -0.19799184377322379 0 0.269221803856454 -0.185599514949991 0 0.28632476970011178 -0.18938030831719929 0 0.27747759048209231 -0.20168759245952969 0 0.269221803856454 -0.185599514949991 0 0.2593871514889205 -0.19799184377322379 0 0.269221803856454 -0.185599514949991 0 0.2437278363918948 -0.18195096812212239 0 0.260919387449559 -0.16579352929295721 0 0.269221803856454 -0.185599514949991 0 0.2437278363918948 -0.18195096812212239 0 0.260919387449559 -0.16579352929295721 0 0.28401442498348639 -0.17719336780422379 0 0.260919387449559 -0.16579352929295721 0 0.27757308642867828 -0.16101723958663619 0 0.28401442498348639 -0.17719336780422379 0 0.260919387449559 -0.16579352929295721 0 0.27757308642867828 -0.16101723958663619 0 0.27224003922127837 -0.1473222684895614 0 0.260919387449559 -0.16579352929295721 0 0.269221803856454 -0.185599514949991 0 0.28401442498348639 -0.17719336780422379 0 0.28632476970011178 -0.18938030831719929 0 0.269221803856454 -0.185599514949991 0 0.28401442498348639 -0.17719336780422379 0 0.260919387449559 -0.16579352929295721 0 0.25452239946831973 -0.14829655140993131 0 0.27224003922127837 -0.1473222684895614 0 0.260919387449559 -0.16579352929295721 0 0.25452239946831973 -0.14829655140993131 0 0.23782434991563151 -0.15439369078169049 0 0.25741251913389712 -0.1305951081492244 0 0.25452239946831973 -0.14829655140993131 0 0.27224003922127837 -0.1473222684895614 0 0.27757308642867828 -0.16101723958663619 0 0.27224003922127837 -0.1473222684895614 0 0.2931184940603897 -0.15375979275980259 0 0.25741251913389712 -0.1305951081492244 0 0.27224003922127837 -0.1473222684895614 0 0.28822748037447399 -0.12879263247558709 0 0.29512866602350563 -0.1184484781339787 0 0.2959534750055749 -0.1435622706191019 0 0.29512866602350563 -0.1184484781339787 0 0.28822748037447399 -0.12879263247558709 0 0.2959534750055749 -0.1435622706191019 0 0.2959534750055749 -0.1435622706191019 0 0.2931184940603897 -0.15375979275980259 0 0.29606782433269818 -0.16881524064208181 0 0.28822748037447399 -0.12879263247558709 0 0.2959534750055749 -0.1435622706191019 0 0.2931184940603897 -0.15375979275980259 0 0.28822748037447399 -0.12879263247558709 0 0.2931184940603897 -0.15375979275980259 0 0.27224003922127837 -0.1473222684895614 0 0.28822748037447399 -0.12879263247558709 0 0.2931184940603897 -0.15375979275980259 0 0.2959534750055749 -0.1435622706191019 0 0.29606782433269818 -0.16881524064208181 0 0.2959534750055749 -0.1435622706191019 0 0.30786991093933941 -0.1327242262548293 0 0.31334084787329858 -0.14560100496875439 0 0.2959534750055749 -0.1435622706191019 0 0.30589655906226038 -0.156608858018214 0 0.31334084787329858 -0.14560100496875439 0 0.30589655906226038 -0.156608858018214 0 0.31666093946419188 -0.15748088094218049 0 0.31334084787329858 -0.14560100496875439 0 0.29512866602350563 -0.1184484781339787 0 0.2959534750055749 -0.1435622706191019 0 0.30010147488007238 -0.1276093355582181 0 0.2959534750055749 -0.1435622706191019 0 0.30786991093933941 -0.1327242262548293 0 0.30010147488007238 -0.1276093355582181 0 0.31399575267335023 -0.12250180558336519 0 0.30554459793957989 -0.1238630007756472 0 0.30786991093933941 -0.1327242262548293 0 0.30554459793957989 -0.1238630007756472 0 0.30786991093933941 -0.1327242262548293 0 0.30010147488007238 -0.1276093355582181 0 0.28401442498348639 -0.17719336780422379 0 0.29606782433269818 -0.16881524064208181 0 0.2980095077463053 -0.17872695304401809 0 0.28632476970011178 -0.18938030831719929 0 0.28401442498348639 -0.17719336780422379 0 0.2980095077463053 -0.17872695304401809 0 0.27757308642867828 -0.16101723958663619 0 0.2931184940603897 -0.15375979275980259 0 0.28401442498348639 -0.17719336780422379 0 0.2931184940603897 -0.15375979275980259 0 0.28401442498348639 -0.17719336780422379 0 0.29606782433269818 -0.16881524064208181 0 0.2931184940603897 -0.15375979275980259 0 0.29606782433269818 -0.16881524064208181 0 0.29606782433269818 -0.16881524064208181 0 0.30589655906226038 -0.156608858018214 0 0.31145366373618227 -0.1686264437044486 0 0.2959534750055749 -0.1435622706191019 0 0.29606782433269818 -0.16881524064208181 0 0.30589655906226038 -0.156608858018214 0 0.30589655906226038 -0.156608858018214 0 0.31145366373618227 -0.1686264437044486 0 0.31666093946419188 -0.15748088094218049 0 0.31145366373618227 -0.1686264437044486 0 0.2980095077463053 -0.17872695304401809 0 0.32549301828835953 -0.18492261693889581 0 0.29606782433269818 -0.16881524064208181 0 0.31145366373618227 -0.1686264437044486 0 0.2980095077463053 -0.17872695304401809 0 0.29606782433269818 -0.16881524064208181 0 0.2980095077463053 -0.17872695304401809 0 0.31145366373618227 -0.1686264437044486 0 0.32549301828835953 -0.18492261693889581 0 0.32738776678709508 -0.16545123116759969 0 0.31145366373618227 -0.1686264437044486 0 0.32738776678709508 -0.16545123116759969 0 0.31666093946419188 -0.15748088094218049 0 0.32738776678709508 -0.16545123116759969 0 0.31666093946419188 -0.15748088094218049 0 0.32968898845727718 -0.1497650634196834 0 0.32738776678709508 -0.16545123116759969 0 0.32968898845727718 -0.1497650634196834 0 0.34808551514449421 -0.1661511205495555 0 0.32549301828835953 -0.18492261693889581 0 0.32738776678709508 -0.16545123116759969 0 0.34808551514449421 -0.1661511205495555 0 0.32549301828835953 -0.18492261693889581 0 0.34808551514449421 -0.1661511205495555 0 0.32549301828835953 -0.18492261693889581 0 0.34808551514449421 -0.1661511205495555 0 0.34521429895780248 -0.1968392362703156 0 0.30786991093933941 -0.1327242262548293 0 0.32373683991627678 -0.1342707635111336 0 0.31334084787329858 -0.14560100496875439 0 0.31399575267335023 -0.12250180558336519 0 0.32517348349888747 -0.118580130041643 0 0.32373683991627678 -0.1342707635111336 0 0.31399575267335023 -0.12250180558336519 0 0.30786991093933941 -0.1327242262548293 0 0.32373683991627678 -0.1342707635111336 0 0.32373683991627678 -0.1342707635111336 0 0.31334084787329858 -0.14560100496875439 0 0.32968898845727718 -0.1497650634196834 0 0.31666093946419188 -0.15748088094218049 0 0.31334084787329858 -0.14560100496875439 0 0.32968898845727718 -0.1497650634196834 0 0.32373683991627678 -0.1342707635111336 0 0.32968898845727718 -0.1497650634196834 0 0.34485783347551252 -0.1433779188078016 0 0.32968898845727718 -0.1497650634196834 0 0.34485783347551252 -0.1433779188078016 0 0.34808551514449421 -0.1661511205495555 0 0.34014121552940491 -0.1203166258242544 0 0.32373683991627678 -0.1342707635111336 0 0.34485783347551252 -0.1433779188078016 0 0.34014121552940491 -0.1203166258242544 0 0.35551888896884759 -0.1297027680154724 0 0.34485783347551252 -0.1433779188078016 0 0.35551888896884759 -0.1297027680154724 0 0.34485783347551252 -0.1433779188078016 0 0.37067801200062889 -0.1473796241602153 0 0.34485783347551252 -0.1433779188078016 0 0.37067801200062889 -0.1473796241602153 0 0.34808551514449421 -0.1661511205495555 0 0.35551888896884759 -0.1297027680154724 0 0.37067801200062889 -0.1473796241602153 0 0.37104303648388809 -0.1272612894930944 0 0.34808551514449421 -0.1661511205495555 0 0.36752808638216261 -0.17990459429682831 0 0.34521429895780248 -0.1968392362703156 0 0.34808551514449421 -0.1661511205495555 0 0.37072349948513561 -0.1630779710757761 0 0.36752808638216261 -0.17990459429682831 0 0.37067801200062889 -0.1473796241602153 0 0.34808551514449421 -0.1661511205495555 0 0.37072349948513561 -0.1630779710757761 0 0.37067801200062889 -0.1473796241602153 0 0.34808551514449421 -0.1661511205495555 0 0.37072349948513561 -0.1630779710757761 0 0.36752808638216261 -0.17990459429682831 0 0.38565700028273392 -0.16791849986101029 0 0.36752808638216261 -0.17990459429682831 0 0.36890805570422369 -0.19954003101511669 0 0.34521429895780248 -0.1968392362703156 0 0.36752808638216261 -0.17990459429682831 0 0.36890805570422369 -0.19954003101511669 0 0.38551481473406651 -0.18910273675150999 0 0.36890805570422369 -0.19954003101511669 0 0.35851964138810982 -0.2171827375251118 0 0.37645297458065691 -0.21353851220024839 0 0.35851964138810982 -0.2171827375251118 0 0.34521429895780248 -0.1968392362703156 0 0.33865146772119931 -0.2184974665014994 0 0.36890805570422369 -0.19954003101511669 0 0.35851964138810982 -0.2171827375251118 0 0.34521429895780248 -0.1968392362703156 0 0.32549301828835953 -0.18492261693889581 0 0.34521429895780248 -0.1968392362703156 0 0.32148368101975677 -0.2112815477794289 0 0.34521429895780248 -0.1968392362703156 0 0.33865146772119931 -0.2184974665014994 0 0.32148368101975677 -0.2112815477794289 0 0.30290052143222262 -0.20369411332823331 0 0.32549301828835953 -0.18492261693889581 0 0.32148368101975677 -0.2112815477794289 0 0.30290052143222262 -0.20369411332823331 0 0.32549301828835953 -0.18492261693889581 0 0.31140457280844042 -0.24710474912070499 0 0.32841487832378857 -0.23419691532036521 0 0.32909477526671738 -0.25319804842994992 0 0.30715254712033069 -0.22539943122446929 0 0.31140457280844042 -0.24710474912070499 0 0.32841487832378857 -0.23419691532036521 0 0.30715254712033069 -0.22539943122446929 0 0.32148368101975677 -0.2112815477794289 0 0.32841487832378857 -0.23419691532036521 0 0.33865146772119931 -0.2184974665014994 0 0.32841487832378857 -0.23419691532036521 0 0.34678876975393269 -0.23153157971564481 0 0.33865146772119931 -0.2184974665014994 0 0.32148368101975677 -0.2112815477794289 0 0.32841487832378857 -0.23419691532036521 0 0.32841487832378857 -0.23419691532036521 0 0.34542116247921317 -0.24786541093840589 0 0.32909477526671738 -0.25319804842994992 0 0.32841487832378857 -0.23419691532036521 0 0.34542116247921317 -0.24786541093840589 0 0.34678876975393269 -0.23153157971564481 0 0.34542116247921317 -0.24786541093840589 0 0.36282952759798831 -0.23490181410806829 0 0.36211004630048071 -0.25874315800932568 0 0.34542116247921317 -0.24786541093840589 0 0.34678876975393269 -0.23153157971564481 0 0.36282952759798831 -0.23490181410806829 0 0.35851964138810982 -0.2171827375251118 0 0.33865146772119931 -0.2184974665014994 0 0.34678876975393269 -0.23153157971564481 0 0.35851964138810982 -0.2171827375251118 0 0.34678876975393269 -0.23153157971564481 0 0.36282952759798831 -0.23490181410806829 0 0.35851964138810982 -0.2171827375251118 0 0.37179579398026102 -0.22561915142401329 0 0.36282952759798831 -0.23490181410806829 0 0.35851964138810982 -0.2171827375251118 0 0.37179579398026102 -0.22561915142401329 0 0.37645297458065691 -0.21353851220024839 0 0.37179579398026102 -0.22561915142401329 0 0.36282952759798831 -0.23490181410806829 0 0.37754581309809132 -0.23651361028518689 0 0.36282952759798831 -0.23490181410806829 0 0.36876625398544938 -0.24898888889403961 0 0.36211004630048071 -0.25874315800932568 0 0.36282952759798831 -0.23490181410806829 0 0.36211004630048071 -0.25874315800932568 0 0.36282952759798831 -0.23490181410806829 0 0.36876625398544938 -0.24898888889403961 0 0.37754581309809132 -0.23651361028518689 0 0.37754581309809132 -0.23651361028518689 0 0.39300219267510322 -0.23842714914515989 0 0.3871149211879113 -0.25548270742864421 0 0.39300219267510322 -0.23842714914515989 0 0.3871149211879113 -0.25548270742864421 0 0.40207495352916539 -0.25113417058953519 0 0.39300219267510322 -0.23842714914515989 0 0.40723458142941671 -0.23497076085713389 0 0.40207495352916539 -0.25113417058953519 0 0.39851670543712209 -0.2244771902628257 0 0.41039622944065363 -0.2185270516157129 0 0.40723458142941671 -0.23497076085713389 0 0.39300219267510322 -0.23842714914515989 0 0.39851670543712209 -0.2244771902628257 0 0.40723458142941671 -0.23497076085713389 0 0.39300219267510322 -0.23842714914515989 0 0.39851670543712209 -0.2244771902628257 0 0.38505811203634721 -0.22522643630241351 0 0.39851670543712209 -0.2244771902628257 0 0.38505811203634721 -0.22522643630241351 0 0.39303519244684892 -0.21278300449704671 0 0.37754581309809132 -0.23651361028518689 0 0.39300219267510322 -0.23842714914515989 0 0.38505811203634721 -0.22522643630241351 0 0.37179579398026102 -0.22561915142401329 0 0.37754581309809132 -0.23651361028518689 0 0.38505811203634721 -0.22522643630241351 0 0.37179579398026102 -0.22561915142401329 0 0.38505811203634721 -0.22522643630241351 0 0.37645297458065691 -0.21353851220024839 0 0.38505811203634721 -0.22522643630241351 0 0.37645297458065691 -0.21353851220024839 0 0.39303519244684892 -0.21278300449704671 0 0.36890805570422369 -0.19954003101511669 0 0.37645297458065691 -0.21353851220024839 0 0.38544293285627962 -0.20314808770867229 0 0.37645297458065691 -0.21353851220024839 0 0.38544293285627962 -0.20314808770867229 0 0.39303519244684892 -0.21278300449704671 0 0.36890805570422369 -0.19954003101511669 0 0.38544293285627962 -0.20314808770867229 0 0.38551481473406651 -0.18910273675150999 0 0.38544293285627962 -0.20314808770867229 0 0.38551481473406651 -0.18910273675150999 0 0.40330362681560211 -0.20077615407943949 0 0.38551481473406651 -0.18910273675150999 0 0.40330362681560211 -0.20077615407943949 0 0.39995041381356911 -0.1868338584648204 0 0.40330362681560211 -0.20077615407943949 0 0.4125958117473455 -0.19170302267586259 0 0.39995041381356911 -0.1868338584648204 0 0.40330362681560211 -0.20077615407943949 0 0.39303519244684892 -0.21278300449704671 0 0.41039622944065363 -0.2185270516157129 0 0.38544293285627962 -0.20314808770867229 0 0.40330362681560211 -0.20077615407943949 0 0.39303519244684892 -0.21278300449704671 0 0.39851670543712209 -0.2244771902628257 0 0.39303519244684892 -0.21278300449704671 0 0.41039622944065363 -0.2185270516157129 0 0.40330362681560211 -0.20077615407943949 0 0.41039622944065363 -0.2185270516157129 0 0.42189732607146729 -0.20211324892629831 0 0.41039622944065363 -0.2185270516157129 0 0.42189732607146729 -0.20211324892629831 0 0.42790605200351661 -0.22140108800821251 0 0.40330362681560211 -0.20077615407943949 0 0.4125958117473455 -0.19170302267586259 0 0.42189732607146729 -0.20211324892629831 0 0.4125958117473455 -0.19170302267586259 0 0.42189732607146729 -0.20211324892629831 0 0.42233780496578233 -0.18319904235883591 0 0.42189732607146729 -0.20211324892629831 0 0.43389642119060762 -0.191962199940241 0 0.42233780496578233 -0.18319904235883591 0 0.42189732607146729 -0.20211324892629831 0 0.43389642119060762 -0.191962199940241 0 0.43723926749718739 -0.20471492206911249 0 0.43723926749718739 -0.20471492206911249 0 0.42790605200351661 -0.22140108800821251 0 0.44233814121790038 -0.22173902575952509 0 0.42189732607146729 -0.20211324892629831 0 0.43723926749718739 -0.20471492206911249 0 0.42790605200351661 -0.22140108800821251 0 0.43048550082884018 -0.24614270293406881 0 0.44233814121790038 -0.22173902575952509 0 0.42790605200351661 -0.22140108800821251 0 0.43048550082884018 -0.24614270293406881 0 0.44233814121790038 -0.22173902575952509 0 0.42790605200351661 -0.22140108800821251 0 0.43048550082884018 -0.24614270293406881 0 0.42088007225406548 -0.23367140350055049 0 0.43048550082884018 -0.24614270293406881 0 0.44582088554477811 -0.24525862245079941 0 0.43357426810421817 -0.25015303326672972 0 0.43048550082884018 -0.24614270293406881 0 0.42846035594967069 -0.25031232086228522 0 0.43357426810421817 -0.25015303326672972 0 0.43048550082884018 -0.24614270293406881 0 0.43357426810421817 -0.25015303326672972 0 0.43048550082884018 -0.24614270293406881 0 0.418537335240391 -0.2435876000290193 0 0.42846035594967069 -0.25031232086228522 0 0.43048550082884018 -0.24614270293406881 0 0.42846035594967069 -0.25031232086228522 0 0.43048550082884018 -0.24614270293406881 0 0.42088007225406548 -0.23367140350055049 0 0.43048550082884018 -0.24614270293406881 0 0.418537335240391 -0.2435876000290193 0 0.42088007225406548 -0.23367140350055049 0 0.418537335240391 -0.2435876000290193 0 0.40723458142941671 -0.23497076085713389 0 0.42088007225406548 -0.23367140350055049 0 0.418537335240391 -0.2435876000290193 0 0.40723458142941671 -0.23497076085713389 0 0.40207495352916539 -0.25113417058953519 0 0.418537335240391 -0.2435876000290193 0 0.40207495352916539 -0.25113417058953519 0 0.42846035594967069 -0.25031232086228522 0 0.41039622944065363 -0.2185270516157129 0 0.40723458142941671 -0.23497076085713389 0 0.42088007225406548 -0.23367140350055049 0 0.41039622944065363 -0.2185270516157129 0 0.42790605200351661 -0.22140108800821251 0 0.42088007225406548 -0.23367140350055049 0 0.3932705088567644 -0.1286081277708763 0 0.38946375456974969 -0.1482633138159434 0 0.40032650034539519 -0.13972272199131119 0 0.3932705088567644 -0.1286081277708763 0 0.38946375456974969 -0.1482633138159434 0 0.40224748518751269 -0.1211494002184121 0 0.40802316631723889 -0.13171289331352951 0 0.40224748518751269 -0.1211494002184121 0 0.40096691517672778 -0.13029828582353201 0 0.3932705088567644 -0.1286081277708763 0 0.40224748518751269 -0.1211494002184121 0 0.40096691517672778 -0.13029828582353201 0 0.40802316631723889 -0.13171289331352951 0 0.40096691517672778 -0.13029828582353201 0 0.40032650034539519 -0.13972272199131119 0 0.40802316631723889 -0.13171289331352951 0 0.40032650034539519 -0.13972272199131119 0 0.40802316631723889 -0.13171289331352951 0 0.40096691517672778 -0.13029828582353201 0 0.40032650034539519 -0.13972272199131119 0 0.3932705088567644 -0.1286081277708763 0 0.37067801200062889 -0.1473796241602153 0 0.37104303648388809 -0.1272612894930944 0 0.3932705088567644 -0.1286081277708763 0 0.37067801200062889 -0.1473796241602153 0 0.3932705088567644 -0.1286081277708763 0 0.37067801200062889 -0.1473796241602153 0 0.37072349948513561 -0.1630779710757761 0 0.38946375456974969 -0.1482633138159434 0 0.37067801200062889 -0.1473796241602153 0 0.3932705088567644 -0.1286081277708763 0 0.38946375456974969 -0.1482633138159434 0 0.40032650034539519 -0.13972272199131119 0 0.38946375456974969 -0.1482633138159434 0 0.40103769468862932 -0.15735650722112959 0 0.38946375456974969 -0.1482633138159434 0 0.40103769468862932 -0.15735650722112959 0 0.38565700028273392 -0.16791849986101029 0 0.40103769468862932 -0.15735650722112959 0 0.38565700028273392 -0.16791849986101029 0 0.40804365254297231 -0.17415516972609171 0 0.37072349948513561 -0.1630779710757761 0 0.38946375456974969 -0.1482633138159434 0 0.38565700028273392 -0.16791849986101029 0 0.38946375456974969 -0.1482633138159434 0 0.38565700028273392 -0.16791849986101029 0 0.38551481473406651 -0.18910273675150999 0 0.38565700028273392 -0.16791849986101029 0 0.39995041381356911 -0.1868338584648204 0 0.36752808638216261 -0.17990459429682831 0 0.38551481473406651 -0.18910273675150999 0 0.38565700028273392 -0.16791849986101029 0 0.38565700028273392 -0.16791849986101029 0 0.39995041381356911 -0.1868338584648204 0 0.40804365254297231 -0.17415516972609171 0 0.4125958117473455 -0.19170302267586259 0 0.40804365254297231 -0.17415516972609171 0 0.42233780496578233 -0.18319904235883591 0 0.4125958117473455 -0.19170302267586259 0 0.39995041381356911 -0.1868338584648204 0 0.40804365254297231 -0.17415516972609171 0 0.42233780496578233 -0.18319904235883591 0 0.43537196508735049 -0.18173276810905351 0 0.42169756570229522 -0.15672283071129131 0 0.43389642119060762 -0.191962199940241 0 0.42233780496578233 -0.18319904235883591 0 0.43537196508735049 -0.18173276810905351 0 0.43537196508735049 -0.18173276810905351 0 0.42169756570229522 -0.15672283071129131 0 0.43537196508735049 -0.18173276810905351 0 0.42169756570229522 -0.15672283071129131 0 0.44011919579772352 -0.15902857640534751 0 0.40804365254297231 -0.17415516972609171 0 0.42233780496578233 -0.18319904235883591 0 0.42169756570229522 -0.15672283071129131 0 0.40103769468862932 -0.15735650722112959 0 0.40804365254297231 -0.17415516972609171 0 0.42169756570229522 -0.15672283071129131 0 0.40032650034539519 -0.13972272199131119 0 0.40103769468862932 -0.15735650722112959 0 0.42169756570229522 -0.15672283071129131 0 0.42169756570229522 -0.15672283071129131 0 0.40802316631723889 -0.13171289331352951 0 0.40032650034539519 -0.13972272199131119 0 0.42169756570229522 -0.15672283071129131 0 0.40802316631723889 -0.13171289331352951 0 0.42169756570229522 -0.15672283071129131 0 0.43087782981676859 -0.131879285754128 0 0.44052259681213413 -0.14512254840888281 0 0.42169756570229522 -0.15672283071129131 0 0.44052259681213413 -0.14512254840888281 0 0.44011919579772352 -0.15902857640534751 0 0.42510906065580589 -0.11393180641703871 0 0.43087782981676859 -0.131879285754128 0 0.40802316631723889 -0.13171289331352951 0 0.42169756570229522 -0.15672283071129131 0 0.43087782981676859 -0.131879285754128 0 0.40802316631723889 -0.13171289331352951 0 0.46093003486481321 -0.11810563265674839 0 0.46623847963083442 -0.1374076686568538 0 0.47239045088042492 -0.13005034139104371 0 0.46093003486481321 -0.11810563265674839 0 0.45430072039358249 -0.1470470373257684 0 0.46093003486481321 -0.11810563265674839 0 0.46623847963083442 -0.1374076686568538 0 0.45430072039358249 -0.1470470373257684 0 0.46093003486481321 -0.11810563265674839 0 0.44582693855797939 -0.1311402400572215 0 0.45430072039358249 -0.1470470373257684 0 0.441730170532879 -0.1159420230490274 0 0.43087782981676859 -0.131879285754128 0 0.44582693855797939 -0.1311402400572215 0 0.43087782981676859 -0.131879285754128 0 0.44582693855797939 -0.1311402400572215 0 0.44052259681213413 -0.14512254840888281 0 0.44582693855797939 -0.1311402400572215 0 0.44052259681213413 -0.14512254840888281 0 0.45430072039358249 -0.1470470373257684 0 0.44052259681213413 -0.14512254840888281 0 0.45430072039358249 -0.1470470373257684 0 0.44011919579772352 -0.15902857640534751 0 0.46623847963083442 -0.1374076686568538 0 0.45430072039358249 -0.1470470373257684 0 0.46795215833203208 -0.14958538313512479 0 0.45430072039358249 -0.1470470373257684 0 0.46795215833203208 -0.14958538313512479 0 0.46249654728105127 -0.15875526896169859 0 0.46249654728105127 -0.15875526896169859 0 0.44767140592235177 -0.17598844199478861 0 0.4590637049386419 -0.17656280063954849 0 0.46795215833203208 -0.14958538313512479 0 0.46765797362325351 -0.16960743348544691 0 0.46249654728105127 -0.15875526896169859 0 0.46765797362325351 -0.16960743348544691 0 0.46249654728105127 -0.15875526896169859 0 0.4590637049386419 -0.17656280063954849 0 0.45430072039358249 -0.1470470373257684 0 0.46249654728105127 -0.15875526896169859 0 0.44767140592235177 -0.17598844199478861 0 0.46249654728105127 -0.15875526896169859 0 0.4590637049386419 -0.17656280063954849 0 0.45430072039358249 -0.1470470373257684 0 0.44011919579772352 -0.15902857640534751 0 0.44767140592235177 -0.17598844199478861 0 0.45430072039358249 -0.1470470373257684 0 0.44767140592235177 -0.17598844199478861 0 0.44767140592235177 -0.17598844199478861 0 0.45131049953134228 -0.18433764364674099 0 0.4590637049386419 -0.17656280063954849 0 0.43537196508735049 -0.18173276810905351 0 0.44011919579772352 -0.15902857640534751 0 0.44767140592235177 -0.17598844199478861 0 0.43389642119060762 -0.191962199940241 0 0.43537196508735049 -0.18173276810905351 0 0.44405046135624082 -0.18412940313962539 0 0.43537196508735049 -0.18173276810905351 0 0.44767140592235177 -0.17598844199478861 0 0.44405046135624082 -0.18412940313962539 0 0.44405046135624082 -0.18412940313962539 0 0.45131049953134228 -0.18433764364674099 0 0.4501360628432447 -0.19063724014234421 0 0.44767140592235177 -0.17598844199478861 0 0.44405046135624082 -0.18412940313962539 0 0.45131049953134228 -0.18433764364674099 0 0.46765797362325351 -0.16960743348544691 0 0.4590637049386419 -0.17656280063954849 0 0.45563086259623248 -0.19437033231739831 0 0.4590637049386419 -0.17656280063954849 0 0.45563086259623248 -0.19437033231739831 0 0.46765797362325351 -0.16960743348544691 0 0.45563086259623248 -0.19437033231739831 0 0.46765797362325351 -0.16960743348544691 0 0.46817453342310178 -0.17984984725849121 0 0.45563086259623248 -0.19437033231739831 0 0.45131049953134228 -0.18433764364674099 0 0.4590637049386419 -0.17656280063954849 0 0.45563086259623248 -0.19437033231739831 0 0.46817453342310178 -0.17984984725849121 0 0.47868008644015098 -0.18364062408913809 0 0.4864423059537345 -0.17561039486471769 0 0.46817453342310178 -0.17984984725849121 0 0.47868008644015098 -0.18364062408913809 0 0.47427671796452459 -0.19390449174425081 0 0.4864423059537345 -0.17561039486471769 0 0.5 -0.16076066479590659 0 0.5 -0.1885669917164324 0 0.47868008644015098 -0.18364062408913809 0 0.4864423059537345 -0.17561039486471769 0 0.5 -0.1885669917164324 0 0.4864423059537345 -0.17561039486471769 0 0.5 -0.16076066479590659 0 0.4874204893839118 -0.1629257968797283 0 0.5 -0.16076066479590659 0 0.4874204893839118 -0.1629257968797283 0 0.48836632050416018 -0.15319142364385391 0 0.46765797362325351 -0.16960743348544691 0 0.47968508465027437 -0.14484453465349531 0 0.46817453342310178 -0.17984984725849121 0 0.4864423059537345 -0.17561039486471769 0 0.47621222687475862 -0.15989320835224299 0 0.46765797362325351 -0.16960743348544691 0 0.46817453342310178 -0.17984984725849121 0 0.47621222687475862 -0.15989320835224299 0 0.4864423059537345 -0.17561039486471769 0 0.4874204893839118 -0.1629257968797283 0 0.47621222687475862 -0.15989320835224299 0 0.46817453342310178 -0.17984984725849121 0 0.47621222687475862 -0.15989320835224299 0 0.4874204893839118 -0.1629257968797283 0 0.47621222687475862 -0.15989320835224299 0 0.48836632050416018 -0.15319142364385391 0 0.46765797362325351 -0.16960743348544691 0 0.47621222687475862 -0.15989320835224299 0 0.47968508465027437 -0.14484453465349531 0 0.47621222687475862 -0.15989320835224299 0 0.48424992032641551 -0.13993656944599481 0 0.47621222687475862 -0.15989320835224299 0 0.48836632050416018 -0.15319142364385391 0 0.48424992032641551 -0.13993656944599481 0 0.46795215833203208 -0.14958538313512479 0 0.46765797362325351 -0.16960743348544691 0 0.47968508465027437 -0.14484453465349531 0 0.47621222687475862 -0.15989320835224299 0 0.47968508465027437 -0.14484453465349531 0 0.48424992032641551 -0.13993656944599481 0 0.46623847963083442 -0.1374076686568538 0 0.46795215833203208 -0.14958538313512479 0 0.47424994269801352 -0.1397372940967013 0 0.46795215833203208 -0.14958538313512479 0 0.47968508465027437 -0.14484453465349531 0 0.47424994269801352 -0.1397372940967013 0 0.47968508465027437 -0.14484453465349531 0 0.47994759956173211 -0.14051186616834291 0 0.47424994269801352 -0.1397372940967013 0 0.47968508465027437 -0.14484453465349531 0 0.48424992032641551 -0.13993656944599481 0 0.47994759956173211 -0.14051186616834291 0 0.5 -0.16076066479590659 0 0.48836632050416018 -0.15319142364385391 0 0.5 -0.13295433787538069 0 0.48836632050416018 -0.15319142364385391 0 0.5 -0.13295433787538069 0 0.48424992032641551 -0.13993656944599481 0 0.48916266477234061 -0.13224727383335569 0 0.48085855782101261 -0.13626791926353529 0 0.48424992032641551 -0.13993656944599481 0 0.5 -0.13295433787538069 0 0.48916266477234061 -0.13224727383335569 0 0.48424992032641551 -0.13993656944599481 0 0.48986304781109291 -0.1242692167884092 0 0.5 -0.13295433787538069 0 0.48916266477234061 -0.13224727383335569 0 0.48986304781109291 -0.1242692167884092 0 0.48916266477234061 -0.13224727383335569 0 0.48085855782101261 -0.13626791926353529 0 0.47499259514944292 -0.1202547269832886 0 0.48085855782101261 -0.13626791926353529 0 0.47239045088042492 -0.13005034139104371 0 0.48085855782101261 -0.13626791926353529 0 0.48424992032641551 -0.13993656944599481 0 0.47994759956173211 -0.14051186616834291 0 0.48085855782101261 -0.13626791926353529 0 0.47994759956173211 -0.14051186616834291 0 0.47424994269801352 -0.1397372940967013 0 0.48085855782101261 -0.13626791926353529 0 0.47424994269801352 -0.1397372940967013 0 0.47239045088042492 -0.13005034139104371 0 0.46623847963083442 -0.1374076686568538 0 0.47424994269801352 -0.1397372940967013 0 0.47239045088042492 -0.13005034139104371 0 0.45735248248792831 -0.2263504469462593 0 0.45606595353113982 -0.2348942090935259 0 0.45040787416373163 -0.22146407059246401 0 0.4593659812364308 -0.22004368230368379 0 0.45735248248792831 -0.2263504469462593 0 0.45040787416373163 -0.22146407059246401 0 0.4593659812364308 -0.22004368230368379 0 0.45735248248792831 -0.2263504469462593 0 0.47005683011064803 -0.22590290220369119 0 0.4593659812364308 -0.22004368230368379 0 0.46586242272604061 -0.21273545752659301 0 0.47005683011064803 -0.22590290220369119 0 0.45735248248792831 -0.2263504469462593 0 0.45606595353113982 -0.2348942090935259 0 0.47005683011064803 -0.22590290220369119 0 0.46661169077989217 -0.2415165845456661 0 0.45606595353113982 -0.2348942090935259 0 0.47005683011064803 -0.22590290220369119 0 0.46661169077989217 -0.2415165845456661 0 0.45571617873614662 -0.24946335937342859 0 0.47785808936807489 -0.24877368548012899 0 0.45571617873614662 -0.24946335937342859 0 0.47785808936807489 -0.24877368548012899 0 0.46661169077989217 -0.2415165845456661 0 0.45518121600666411 -0.24259067484840299 0 0.45571617873614662 -0.24946335937342859 0 0.46661169077989217 -0.2415165845456661 0 0.45518121600666411 -0.24259067484840299 0 0.45606595353113982 -0.2348942090935259 0 0.45571617873614662 -0.24946335937342859 0 0.43357426810421817 -0.25015303326672972 0 0.43048550082884018 -0.24614270293406881 0 0.44582088554477811 -0.24525862245079941 0 0.44233814121790038 -0.22173902575952509 0 0.45571617873614662 -0.24946335937342859 0 0.44582088554477811 -0.24525862245079941 0 0.43357426810421817 -0.25015303326672972 0 0.45518121600666411 -0.24259067484840299 0 0.45606595353113982 -0.2348942090935259 0 0.44582088554477811 -0.24525862245079941 0 0.45518121600666411 -0.24259067484840299 0 0.45571617873614662 -0.24946335937342859 0 0.44582088554477811 -0.24525862245079941 0 0.44582088554477811 -0.24525862245079941 0 0.44233814121790038 -0.22173902575952509 0 0.45040787416373163 -0.22146407059246401 0 0.44582088554477811 -0.24525862245079941 0 0.45040787416373163 -0.22146407059246401 0 0.45606595353113982 -0.2348942090935259 0 0.44582088554477811 -0.24525862245079941 0 0.45040787416373163 -0.22146407059246401 0 0.43723926749718739 -0.20471492206911249 0 0.44233814121790038 -0.22173902575952509 0 0.45499486278268447 -0.1976695187341285 0 0.45040787416373163 -0.22146407059246401 0 0.45499486278268447 -0.1976695187341285 0 0.44233814121790038 -0.22173902575952509 0 0.45040787416373163 -0.22146407059246401 0 0.45499486278268447 -0.1976695187341285 0 0.44233814121790038 -0.22173902575952509 0 0.45499486278268447 -0.1976695187341285 0 0.43723926749718739 -0.20471492206911249 0 0.44395992212319679 -0.19308347956624619 0 0.45499486278268447 -0.1976695187341285 0 0.43389642119060762 -0.191962199940241 0 0.44405046135624082 -0.18412940313962539 0 0.44395992212319679 -0.19308347956624619 0 0.43389642119060762 -0.191962199940241 0 0.43723926749718739 -0.20471492206911249 0 0.44395992212319679 -0.19308347956624619 0 0.44395992212319679 -0.19308347956624619 0 0.45499486278268447 -0.1976695187341285 0 0.45131049953134228 -0.18433764364674099 0 0.4501360628432447 -0.19063724014234421 0 0.45563086259623248 -0.19437033231739831 0 0.44395992212319679 -0.19308347956624619 0 0.4501360628432447 -0.19063724014234421 0 0.45499486278268447 -0.1976695187341285 0 0.44405046135624082 -0.18412940313962539 0 0.44395992212319679 -0.19308347956624619 0 0.4501360628432447 -0.19063724014234421 0 0.46817453342310178 -0.17984984725849121 0 0.46013683997144489 -0.19980648616473931 0 0.47427671796452459 -0.19390449174425081 0 0.46817453342310178 -0.17984984725849121 0 0.46013683997144489 -0.19980648616473931 0 0.46817453342310178 -0.17984984725849121 0 0.45563086259623248 -0.19437033231739831 0 0.46013683997144489 -0.19980648616473931 0 0.4501360628432447 -0.19063724014234421 0 0.45563086259623248 -0.19437033231739831 0 0.45499486278268447 -0.1976695187341285 0 0.45499486278268447 -0.1976695187341285 0 0.46013683997144489 -0.19980648616473931 0 0.45563086259623248 -0.19437033231739831 0 0.45499486278268447 -0.1976695187341285 0 0.45563086259623248 -0.19437033231739831 0 0.45499486278268447 -0.1976695187341285 0 0.46013683997144489 -0.19980648616473931 0 0.46013683997144489 -0.19980648616473931 0 0.46586242272604061 -0.21273545752659301 0 0.48006841998572208 -0.20808990240084899 0 0.45040787416373163 -0.22146407059246401 0 0.45499486278268447 -0.1976695187341285 0 0.4548395438527213 -0.21295904373074681 0 0.4593659812364308 -0.22004368230368379 0 0.45040787416373163 -0.22146407059246401 0 0.4548395438527213 -0.21295904373074681 0 0.4593659812364308 -0.22004368230368379 0 0.4548395438527213 -0.21295904373074681 0 0.46586242272604061 -0.21273545752659301 0 0.46013683997144489 -0.19980648616473931 0 0.4548395438527213 -0.21295904373074681 0 0.45499486278268447 -0.1976695187341285 0 0.46013683997144489 -0.19980648616473931 0 0.4548395438527213 -0.21295904373074681 0 0.46013683997144489 -0.19980648616473931 0 0.4548395438527213 -0.21295904373074681 0 0.46586242272604061 -0.21273545752659301 0 0.46013683997144489 -0.19980648616473931 0 0.48006841998572208 -0.20808990240084899 0 0.46586242272604061 -0.21273545752659301 0 0.48006841998572208 -0.20808990240084899 0 0.47005683011064803 -0.22590290220369119 0 0.46013683997144489 -0.19980648616473931 0 0.48006841998572208 -0.20808990240084899 0 0.47427671796452459 -0.19390449174425081 0 0.47868008644015098 -0.18364062408913809 0 0.47427671796452459 -0.19390449174425081 0 0.5 -0.1885669917164324 0 0.48006841998572208 -0.20808990240084899 0 0.47427671796452459 -0.19390449174425081 0 0.5 -0.1885669917164324 0 0.48006841998572208 -0.20808990240084899 0 0.5 -0.1885669917164324 0 0.49999999999999961 -0.21637331863695819 0 0.48006841998572208 -0.20808990240084899 0 0.49999999999999961 -0.21637331863695819 0 0.48006841998572208 -0.20808990240084899 0 0.49999999999999961 -0.21637331863695819 0 0.4862545149737133 -0.22430099187442659 0 0.49999999999999961 -0.21637331863695819 0 0.5 -0.2322286651118938 0 0.4862545149737133 -0.22430099187442659 0 0.5 -0.2322286651118938 0 0.4862545149737133 -0.22430099187442659 0 0.48731543898686108 -0.23834171508702701 0 0.4862545149737133 -0.22430099187442659 0 0.47005683011064803 -0.22590290220369119 0 0.48731543898686108 -0.23834171508702701 0 0.48006841998572208 -0.20808990240084899 0 0.4862545149737133 -0.22430099187442659 0 0.47005683011064803 -0.22590290220369119 0 0.46661169077989217 -0.2415165845456661 0 0.47005683011064803 -0.22590290220369119 0 0.48731543898686108 -0.23834171508702701 0 0.46661169077989217 -0.2415165845456661 0 0.47785808936807489 -0.24877368548012899 0 0.48731543898686108 -0.23834171508702701 0 0.47785808936807489 -0.24877368548012899 0 0.50000000000000333 -0.24808401158682941 0 0.48731543898686108 -0.23834171508702701 0 0.5 -0.2322286651118938 0 0.50000000000000333 -0.24808401158682941 0 0.48731543898686108 -0.23834171508702701 0 0.47785808936807489 -0.24877368548012899 0 0.50000000000000333 -0.24808401158682941 0 0.50000000000000333 -0.24808401158682941 0 0.48656724266228879 -0.26126228076250718 0 0.5 -0.26842994380811291 0 0.47785808936807489 -0.24877368548012899 0 0.50000000000000333 -0.24808401158682941 0 0.48656724266228879 -0.26126228076250718 0 0.5 -0.26842994380811291 0 0.48208681399926079 -0.27581357356502773 0 0.50000000000000111 -0.28877587602939642 0 0.48656724266228879 -0.26126228076250718 0 0.5 -0.26842994380811291 0 0.48208681399926079 -0.27581357356502773 0 0.48208681399926079 -0.27581357356502773 0 0.46068671901070851 -0.28535474144655731 0 0.48208681399926079 -0.27581357356502773 0 0.46768981413575761 -0.2649492641288182 0 0.46068671901070851 -0.28535474144655731 0 0.48656724266228879 -0.26126228076250718 0 0.48208681399926079 -0.27581357356502773 0 0.46768981413575761 -0.2649492641288182 0 0.47785808936807489 -0.24877368548012899 0 0.48656724266228879 -0.26126228076250718 0 0.46768981413575761 -0.2649492641288182 0 0.45571617873614662 -0.24946335937342859 0 0.47785808936807489 -0.24877368548012899 0 0.46768981413575761 -0.2649492641288182 0 0.45571617873614662 -0.24946335937342859 0 0.46768981413575761 -0.2649492641288182 0 0.44713049355746243 -0.26775388735664418 0 0.46768981413575761 -0.2649492641288182 0 0.44713049355746243 -0.26775388735664418 0 0.46068671901070851 -0.28535474144655731 0 0.44713049355746243 -0.26775388735664418 0 0.46068671901070851 -0.28535474144655731 0 0.45571617873614662 -0.24946335937342859 0 0.44713049355746243 -0.26775388735664418 0 0.43357426810421817 -0.25015303326672972 0 0.44713049355746243 -0.26775388735664418 0 0.43357426810421817 -0.25015303326672972 0 0.43808872290812301 -0.29542998993102848 0 0.44582747314286902 -0.31276753443956201 0 0.43031487288344161 -0.31703067604683871 0 0.43808872290812301 -0.29542998993102848 0 0.45932525709009708 -0.30194153040829069 0 0.44582747314286902 -0.31276753443956201 0 0.43808872290812301 -0.29542998993102848 0 0.46068671901070851 -0.28535474144655731 0 0.45932525709009708 -0.30194153040829069 0 0.43808872290812301 -0.29542998993102848 0 0.46068671901070851 -0.28535474144655731 0 0.44713049355746243 -0.26775388735664418 0 0.43808872290812301 -0.29542998993102848 0 0.46068671901070851 -0.28535474144655731 0 0.46068671901070851 -0.28535474144655731 0 0.47654280981399377 -0.30594164756046982 0 0.46068671901070851 -0.28535474144655731 0 0.45932525709009708 -0.30194153040829069 0 0.47654280981399377 -0.30594164756046982 0 0.45932525709009708 -0.30194153040829069 0 0.46020140703816609 -0.31790014661013011 0 0.44582747314286902 -0.31276753443956201 0 0.47654280981399377 -0.30594164756046982 0 0.46020140703816609 -0.31790014661013011 0 0.45932525709009708 -0.30194153040829069 0 0.47654280981399377 -0.30594164756046982 0 0.46020140703816609 -0.31790014661013011 0 0.47654280981399377 -0.30594164756046982 0 0.48452590656705868 -0.31630657706248883 0 0.48208681399926079 -0.27581357356502773 0 0.46068671901070851 -0.28535474144655731 0 0.47654280981399377 -0.30594164756046982 0 0.48208681399926079 -0.27581357356502773 0 0.47654280981399377 -0.30594164756046982 0 0.50000000000000111 -0.28877587602939642 0 0.50000000000000111 -0.28877587602939642 0 0.5 -0.31627016595707702 0 0.48452590656705868 -0.31630657706248883 0 0.47654280981399377 -0.30594164756046982 0 0.50000000000000111 -0.28877587602939642 0 0.47654280981399377 -0.30594164756046982 0 0.50000000000000111 -0.28877587602939642 0 0.48452590656705868 -0.31630657706248883 0 0.5 -0.31627016595707702 0 0.48452590656705868 -0.31630657706248883 0 0.4798244965011923 -0.33203805400226027 0 0.5 -0.31627016595707702 0 0.4798244965011923 -0.33203805400226027 0 0.5 -0.34376445588475768 0 0.4798244965011923 -0.33203805400226027 0 0.46847105179670839 -0.34389899480205388 0 0.46020140703816609 -0.31790014661013011 0 0.47654280981399377 -0.30594164756046982 0 0.47527365498010271 -0.31804660630883719 0 0.46020140703816609 -0.31790014661013011 0 0.48452590656705868 -0.31630657706248883 0 0.4798244965011923 -0.33203805400226027 0 0.47527365498010271 -0.31804660630883719 0 0.4798244965011923 -0.33203805400226027 0 0.47527365498010271 -0.31804660630883719 0 0.46020140703816609 -0.31790014661013011 0 0.47654280981399377 -0.30594164756046982 0 0.48452590656705868 -0.31630657706248883 0 0.47527365498010271 -0.31804660630883719 0 0.49999999999999711 -0.37125874581243851 0 0.48806042456369142 -0.35612155968098341 0 0.47674069655525092 -0.3698978429939776 0 0.4798244965011923 -0.33203805400226027 0 0.48806042456369142 -0.35612155968098341 0 0.5 -0.34376445588475768 0 0.49999999999999711 -0.37125874581243851 0 0.48806042456369142 -0.35612155968098341 0 0.5 -0.34376445588475768 0 0.4798244965011923 -0.33203805400226027 0 0.48806042456369142 -0.35612155968098341 0 0.46847105179670839 -0.34389899480205388 0 0.48806042456369142 -0.35612155968098341 0 0.47674069655525092 -0.3698978429939776 0 0.46847105179670839 -0.34389899480205388 0 0.47674069655525092 -0.3698978429939776 0 0.46847105179670839 -0.34389899480205388 0 0.47674069655525092 -0.3698978429939776 0 0.45392603783110008 -0.37108838658624999 0 0.46847105179670839 -0.34389899480205388 0 0.45392603783110008 -0.37108838658624999 0 0.46847105179670839 -0.34389899480205388 0 0.44672977628043381 -0.35017364189741718 0 0.45392603783110008 -0.37108838658624999 0 0.44672977628043381 -0.35017364189741718 0 0.42785183481717409 -0.36595316276467199 0 0.45392603783110008 -0.37108838658624999 0 0.42785183481717409 -0.36595316276467199 0 0.43242581624588322 -0.38730115333965082 0 0.46847105179670839 -0.34389899480205388 0 0.46020140703816609 -0.31790014661013011 0 0.46847105179670839 -0.34389899480205388 0 0.46020140703816609 -0.31790014661013011 0 0.45431986664039198 -0.33607192194780172 0 0.46847105179670839 -0.34389899480205388 0 0.44672977628043381 -0.35017364189741718 0 0.45431986664039198 -0.33607192194780172 0 0.44672977628043381 -0.35017364189741718 0 0.44127539957872802 -0.33175003730325792 0 0.42823689835664952 -0.34636857782623809 0 0.44672977628043381 -0.35017364189741718 0 0.45431986664039198 -0.33607192194780172 0 0.44127539957872802 -0.33175003730325792 0 0.46020140703816609 -0.31790014661013011 0 0.45431986664039198 -0.33607192194780172 0 0.44127539957872802 -0.33175003730325792 0 0.44127539957872802 -0.33175003730325792 0 0.44582747314286902 -0.31276753443956201 0 0.43031487288344161 -0.31703067604683871 0 0.46020140703816609 -0.31790014661013011 0 0.44127539957872802 -0.33175003730325792 0 0.46020140703816609 -0.31790014661013011 0 0.44127539957872802 -0.33175003730325792 0 0.44582747314286902 -0.31276753443956201 0 0.44127539957872802 -0.33175003730325792 0 0.43031487288344161 -0.31703067604683871 0 0.41707429101309201 -0.3297381436533145 0 0.44127539957872802 -0.33175003730325792 0 0.41707429101309201 -0.3297381436533145 0 0.42823689835664952 -0.34636857782623809 0 0.41707429101309201 -0.3297381436533145 0 0.42823689835664952 -0.34636857782623809 0 0.40866613474490449 -0.35252068697126149 0 0.41707429101309201 -0.3297381436533145 0 0.39289273070295128 -0.31558048689996993 0 0.41549072680553711 -0.30550523841549909 0 0.43031487288344161 -0.31703067604683871 0 0.41707429101309201 -0.3297381436533145 0 0.41549072680553711 -0.30550523841549909 0 0.44672977628043381 -0.35017364189741718 0 0.42785183481717409 -0.36595316276467199 0 0.42823689835664952 -0.34636857782623809 0 0.42785183481717409 -0.36595316276467199 0 0.40866613474490449 -0.35252068697126149 0 0.42785183481717409 -0.36595316276467199 0 0.42823689835664952 -0.34636857782623809 0 0.40866613474490449 -0.35252068697126149 0 0.42785183481717409 -0.36595316276467199 0 0.4111933065081313 -0.36805982019164402 0 0.41287057948892703 -0.38518927514730122 0 0.42785183481717409 -0.36595316276467199 0 0.40866613474490449 -0.35252068697126149 0 0.4111933065081313 -0.36805982019164402 0 0.39290052262193498 -0.35565000096393579 0 0.38249634533461108 -0.36797477098799591 0 0.39650622041158878 -0.3765742856902482 0 0.4111933065081313 -0.36805982019164402 0 0.39290052262193498 -0.35565000096393579 0 0.39650622041158878 -0.3765742856902482 0 0.40866613474490449 -0.35252068697126149 0 0.39290052262193498 -0.35565000096393579 0 0.38948043467263488 -0.33908821117785082 0 0.40866613474490449 -0.35252068697126149 0 0.38948043467263488 -0.33908821117785082 0 0.40866613474490449 -0.35252068697126149 0 0.4111933065081313 -0.36805982019164402 0 0.39290052262193498 -0.35565000096393579 0 0.39290052262193498 -0.35565000096393579 0 0.37818146540529818 -0.34934783795600571 0 0.38249634533461108 -0.36797477098799591 0 0.39290052262193498 -0.35565000096393579 0 0.37818146540529818 -0.34934783795600571 0 0.38948043467263488 -0.33908821117785082 0 0.37818146540529818 -0.34934783795600571 0 0.38249634533461108 -0.36797477098799591 0 0.37305712147220338 -0.36102055586376819 0 0.41707429101309201 -0.3297381436533145 0 0.40866613474490449 -0.35252068697126149 0 0.38948043467263488 -0.33908821117785082 0 0.41707429101309201 -0.3297381436533145 0 0.39289273070295128 -0.31558048689996993 0 0.38948043467263488 -0.33908821117785082 0 0.37818146540529818 -0.34934783795600571 0 0.38948043467263488 -0.33908821117785082 0 0.37212478857772979 -0.33864880005647208 0 0.38948043467263488 -0.33908821117785082 0 0.37029473460036533 -0.32565573538444043 0 0.38948043467263488 -0.33908821117785082 0 0.37029473460036533 -0.32565573538444043 0 0.37212478857772979 -0.33864880005647208 0 0.39289273070295128 -0.31558048689996993 0 0.38064079273778262 -0.31288188218018531 0 0.37029473460036533 -0.32565573538444043 0 0.39289273070295128 -0.31558048689996993 0 0.37029473460036533 -0.32565573538444043 0 0.39289273070295128 -0.31558048689996993 0 0.38948043467263488 -0.33908821117785082 0 0.37029473460036533 -0.32565573538444043 0 0.38064079273778262 -0.31288188218018531 0 0.37804720550635529 -0.30651687721429538 0 0.38870969627640167 -0.30439929484627132 0 0.38064079273778262 -0.31288188218018531 0 0.37804720550635529 -0.30651687721429538 0 0.37325959660283969 -0.31225701655594912 0 0.37804720550635529 -0.30651687721429538 0 0.38032829646105881 -0.29636137241382532 0 0.36761344479238373 -0.29508033606196837 0 0.37804720550635529 -0.30651687721429538 0 0.38870969627640167 -0.30439929484627132 0 0.38032829646105881 -0.29636137241382532 0 0.38870969627640167 -0.30439929484627132 0 0.3879772147484597 -0.29176707856862888 0 0.38032829646105881 -0.29636137241382532 0 0.39289273070295128 -0.31558048689996993 0 0.38064079273778262 -0.31288188218018531 0 0.38870969627640167 -0.30439929484627132 0 0.39289273070295128 -0.31558048689996993 0 0.39985527598894161 -0.30920798579428682 0 0.41549072680553711 -0.30550523841549909 0 0.39985527598894161 -0.30920798579428682 0 0.39681295496079538 -0.29611275996065012 0 0.40939030264251791 -0.28957609748361951 0 0.39985527598894161 -0.30920798579428682 0 0.40939030264251791 -0.28957609748361951 0 0.39289273070295128 -0.31558048689996993 0 0.41549072680553711 -0.30550523841549909 0 0.39289273070295128 -0.31558048689996993 0 0.38870969627640167 -0.30439929484627132 0 0.39985527598894161 -0.30920798579428682 0 0.38870969627640167 -0.30439929484627132 0 0.39681295496079538 -0.29611275996065012 0 0.3879772147484597 -0.29176707856862888 0 0.38870969627640167 -0.30439929484627132 0 0.39985527598894161 -0.30920798579428682 0 0.39681295496079538 -0.29611275996065012 0 0.39922652050867191 -0.28295197323892363 0 0.39681295496079538 -0.29611275996065012 0 0.40939030264251791 -0.28957609748361951 0 0.39922652050867191 -0.28295197323892363 0 0.39681295496079538 -0.29611275996065012 0 0.3879772147484597 -0.29176707856862888 0 0.39922652050867191 -0.28295197323892363 0 0.3879772147484597 -0.29176707856862888 0 0.38840358504398731 -0.28029486931936831 0 0.3879772147484597 -0.29176707856862888 0 0.37929392098169401 -0.28404327537796259 0 0.38840358504398731 -0.28029486931936831 0 0.38032829646105881 -0.29636137241382532 0 0.37929392098169401 -0.28404327537796259 0 0.36761344479238373 -0.29508033606196837 0 0.3879772147484597 -0.29176707856862888 0 0.38032829646105881 -0.29636137241382532 0 0.37929392098169401 -0.28404327537796259 0 0.37929392098169401 -0.28404327537796259 0 0.38326599173650672 -0.27147868498013239 0 0.3725796289452375 -0.26579697317357759 0 0.37929392098169401 -0.28404327537796259 0 0.38326599173650672 -0.27147868498013239 0 0.38840358504398731 -0.28029486931936831 0 0.38326599173650672 -0.27147868498013239 0 0.38840358504398731 -0.28029486931936831 0 0.39544519547575041 -0.26880031542545191 0 0.37754581309809132 -0.23651361028518689 0 0.3725796289452375 -0.26579697317357759 0 0.37754581309809132 -0.23651361028518689 0 0.3871149211879113 -0.25548270742864421 0 0.3725796289452375 -0.26579697317357759 0 0.38326599173650672 -0.27147868498013239 0 0.3871149211879113 -0.25548270742864421 0 0.39544519547575041 -0.26880031542545191 0 0.38326599173650672 -0.27147868498013239 0 0.3871149211879113 -0.25548270742864421 0 0.3725796289452375 -0.26579697317357759 0 0.3871149211879113 -0.25548270742864421 0 0.40207495352916539 -0.25113417058953519 0 0.39544519547575041 -0.26880031542545191 0 0.40207495352916539 -0.25113417058953519 0 0.39544519547575041 -0.26880031542545191 0 0.41892532929609411 -0.26994420917295231 0 0.39922652050867191 -0.28295197323892363 0 0.39544519547575041 -0.26880031542545191 0 0.41892532929609411 -0.26994420917295231 0 0.39922652050867191 -0.28295197323892363 0 0.38840358504398731 -0.28029486931936831 0 0.39544519547575041 -0.26880031542545191 0 0.41892532929609411 -0.26994420917295231 0 0.40939030264251791 -0.28957609748361951 0 0.41892532929609411 -0.26994420917295231 0 0.42674472615619141 -0.28201696019190231 0 0.40939030264251791 -0.28957609748361951 0 0.39922652050867191 -0.28295197323892363 0 0.41892532929609411 -0.26994420917295231 0 0.40939030264251791 -0.28957609748361951 0 0.40207495352916539 -0.25113417058953519 0 0.41892532929609411 -0.26994420917295231 0 0.42846035594967069 -0.25031232086228522 0 0.40207495352916539 -0.25113417058953519 0 0.42846035594967069 -0.25031232086228522 0 0.44713049355746243 -0.26775388735664418 0 0.4314427817274139 -0.26389233879167029 0 0.43357426810421817 -0.25015303326672972 0 0.41892532929609411 -0.26994420917295231 0 0.42846035594967069 -0.25031232086228522 0 0.41892532929609411 -0.26994420917295231 0 0.42846035594967069 -0.25031232086228522 0 0.4314427817274139 -0.26389233879167029 0 0.42846035594967069 -0.25031232086228522 0 0.4314427817274139 -0.26389233879167029 0 0.43357426810421817 -0.25015303326672972 0 0.42846035594967069 -0.25031232086228522 0 0.43357426810421817 -0.25015303326672972 0 0.41892532929609411 -0.26994420917295231 0 0.4314427817274139 -0.26389233879167029 0 0.42674472615619141 -0.28201696019190231 0 0.44713049355746243 -0.26775388735664418 0 0.4314427817274139 -0.26389233879167029 0 0.42674472615619141 -0.28201696019190231 0 0.43808872290812301 -0.29542998993102848 0 0.42674472615619141 -0.28201696019190231 0 0.41549072680553711 -0.30550523841549909 0 0.44713049355746243 -0.26775388735664418 0 0.43808872290812301 -0.29542998993102848 0 0.42674472615619141 -0.28201696019190231 0 0.43808872290812301 -0.29542998993102848 0 0.43031487288344161 -0.31703067604683871 0 0.41549072680553711 -0.30550523841549909 0 0.43808872290812301 -0.29542998993102848 0 0.41549072680553711 -0.30550523841549909 0 0.39985527598894161 -0.30920798579428682 0 0.41549072680553711 -0.30550523841549909 0 0.40939030264251791 -0.28957609748361951 0 0.42674472615619141 -0.28201696019190231 0 0.41549072680553711 -0.30550523841549909 0 0.40939030264251791 -0.28957609748361951 0 0.43773802119989941 -0.49999999999999978 0 0.45890943729545802 -0.4823892052391901 0 0.4796611806106722 -0.48718440019654963 0 0.43773802119989941 -0.49999999999999978 0 0.44535189907423273 -0.48425652050154361 0 0.43773802119989941 -0.49999999999999978 0 0.44535189907423273 -0.48425652050154361 0 0.45890943729545802 -0.4823892052391901 0 0.43920548674920379 -0.47249175324936749 0 0.44535189907423273 -0.48425652050154361 0 0.45296577694856682 -0.46851304100308783 0 0.43920548674920379 -0.47249175324936749 0 0.44535189907423273 -0.48425652050154361 0 0.42866409193048188 -0.47676758270227471 0 0.44535189907423273 -0.48425652050154361 0 0.45589009982111051 -0.4775459799915327 0 0.45296577694856682 -0.46851304100308783 0 0.44535189907423273 -0.48425652050154361 0 0.45296577694856682 -0.46851304100308783 0 0.45589009982111051 -0.4775459799915327 0 0.45890943729545802 -0.4823892052391901 0 0.46145872075250199 -0.4714816097570898 0 0.44535189907423273 -0.48425652050154361 0 0.45589009982111051 -0.4775459799915327 0 0.45890943729545802 -0.4823892052391901 0 0.45890943729545802 -0.4823892052391901 0 0.46145872075250199 -0.4714816097570898 0 0.47563876839417468 -0.4748936591889994 0 0.46145872075250199 -0.4714816097570898 0 0.45296577694856682 -0.46851304100308783 0 0.45589009982111051 -0.4775459799915327 0 0.46145872075250199 -0.4714816097570898 0 0.45296577694856682 -0.46851304100308783 0 0.43773802119989941 -0.49999999999999978 0 0.4796611806106722 -0.48718440019654963 0 0.5 -0.5 0 0.4796611806106722 -0.48718440019654963 0 0.5 -0.5 0 0.5 -0.47026069904804169 0 0.5 -0.47026069904804169 0 0.47563876839417468 -0.4748936591889994 0 0.47905351322328699 -0.46315238170412548 0 0.4796611806106722 -0.48718440019654963 0 0.5 -0.47026069904804169 0 0.47563876839417468 -0.4748936591889994 0 0.46145872075250199 -0.4714816097570898 0 0.47563876839417468 -0.4748936591889994 0 0.47905351322328699 -0.46315238170412548 0 0.45890943729545802 -0.4823892052391901 0 0.4796611806106722 -0.48718440019654963 0 0.47563876839417468 -0.4748936591889994 0 0.47905351322328699 -0.46315238170412548 0 0.45899603635761982 -0.45604406436020939 0 0.47905351322328699 -0.46315238170412548 0 0.4788951805990147 -0.44564391983896778 0 0.45899603635761982 -0.45604406436020939 0 0.5 -0.47026069904804169 0 0.47905351322328699 -0.46315238170412548 0 0.5 -0.44373220895607401 0 0.5 -0.47026069904804169 0 0.47905351322328699 -0.46315238170412548 0 0.5 -0.44373220895607401 0 0.4788951805990147 -0.44564391983896778 0 0.48552804520920678 -0.42799216931292611 0 0.47905351322328699 -0.46315238170412548 0 0.5 -0.44373220895607401 0 0.4788951805990147 -0.44564391983896778 0 0.4788951805990147 -0.44564391983896778 0 0.45899603635761982 -0.45604406436020939 0 0.46924702726821282 -0.43484773472326599 0 0.45899603635761982 -0.45604406436020939 0 0.46924702726821282 -0.43484773472326599 0 0.45899603635761982 -0.45604406436020939 0 0.44838303037477362 -0.43447900987216292 0 0.46924702726821282 -0.43484773472326599 0 0.46145872075250199 -0.4714816097570898 0 0.47905351322328699 -0.46315238170412548 0 0.45899603635761982 -0.45604406436020939 0 0.46145872075250199 -0.4714816097570898 0 0.45899603635761982 -0.45604406436020939 0 0.45296577694856682 -0.46851304100308783 0 0.45899603635761982 -0.45604406436020939 0 0.45296577694856682 -0.46851304100308783 0 0.44562172027540892 -0.45801600689332289 0 0.45296577694856682 -0.46851304100308783 0 0.42984017904353489 -0.46042986879056458 0 0.43920548674920379 -0.47249175324936749 0 0.45296577694856682 -0.46851304100308783 0 0.42984017904353489 -0.46042986879056458 0 0.44562172027540892 -0.45801600689332289 0 0.43764883001816302 -0.44847867026387339 0 0.42984017904353489 -0.46042986879056458 0 0.45899603635761982 -0.45604406436020939 0 0.44562172027540892 -0.45801600689332289 0 0.45296577694856682 -0.46851304100308783 0 0.45296577694856682 -0.46851304100308783 0 0.42984017904353489 -0.46042986879056458 0 0.45899603635761982 -0.45604406436020939 0 0.44562172027540892 -0.45801600689332289 0 0.43764883001816302 -0.44847867026387339 0 0.45899603635761982 -0.45604406436020939 0 0.43764883001816302 -0.44847867026387339 0 0.44838303037477362 -0.43447900987216292 0 0.43764883001816302 -0.44847867026387339 0 0.44838303037477362 -0.43447900987216292 0 0.43199803478474752 -0.43480066315574151 0 0.45899603635761982 -0.45604406436020939 0 0.43764883001816302 -0.44847867026387339 0 0.44838303037477362 -0.43447900987216292 0 0.43524810038533429 -0.42324892749070769 0 0.43199803478474752 -0.43480066315574151 0 0.44838303037477362 -0.43447900987216292 0 0.45481320319103757 -0.41743251132042969 0 0.43524810038533429 -0.42324892749070769 0 0.45481320319103757 -0.41743251132042969 0 0.43477646914432833 -0.40550992295969079 0 0.43524810038533429 -0.42324892749070769 0 0.45481320319103757 -0.41743251132042969 0 0.46680969583490778 -0.41274858841526157 0 0.46924702726821282 -0.43484773472326599 0 0.45481320319103757 -0.41743251132042969 0 0.46680969583490778 -0.41274858841526157 0 0.46697148891275431 -0.40002921638500172 0 0.44838303037477362 -0.43447900987216292 0 0.45481320319103757 -0.41743251132042969 0 0.46924702726821282 -0.43484773472326599 0 0.5 -0.44373220895607401 0 0.48552804520920678 -0.42799216931292611 0 0.5 -0.40208557795999961 0 0.46924702726821282 -0.43484773472326599 0 0.48552804520920678 -0.42799216931292611 0 0.47949801817880677 -0.41365140508632309 0 0.4788951805990147 -0.44564391983896778 0 0.46924702726821282 -0.43484773472326599 0 0.48552804520920678 -0.42799216931292611 0 0.46924702726821282 -0.43484773472326599 0 0.47949801817880677 -0.41365140508632309 0 0.48552804520920678 -0.42799216931292611 0 0.47949801817880677 -0.41365140508632309 0 0.5 -0.40208557795999961 0 0.46680969583490778 -0.41274858841526157 0 0.46924702726821282 -0.43484773472326599 0 0.47949801817880677 -0.41365140508632309 0 0.46680969583490778 -0.41274858841526157 0 0.47949801817880677 -0.41365140508632309 0 0.47485796399023311 -0.40328323013715978 0 0.47949801817880677 -0.41365140508632309 0 0.47485796399023311 -0.40328323013715978 0 0.48501034131379339 -0.39589669118590137 0 0.46680969583490778 -0.41274858841526157 0 0.47485796399023311 -0.40328323013715978 0 0.46697148891275431 -0.40002921638500172 0 0.47485796399023311 -0.40328323013715978 0 0.47548297721973709 -0.39513831255209197 0 0.46697148891275431 -0.40002921638500172 0 0.47548297721973709 -0.39513831255209197 0 0.47310568845609052 -0.38536867418522291 0 0.46697148891275431 -0.40002921638500172 0 0.47548297721973709 -0.39513831255209197 0 0.48501034131379339 -0.39589669118590137 0 0.47310568845609052 -0.38536867418522291 0 0.47485796399023311 -0.40328323013715978 0 0.47548297721973709 -0.39513831255209197 0 0.48501034131379339 -0.39589669118590137 0 0.47949801817880677 -0.41365140508632309 0 0.48974900908940078 -0.39245507544938019 0 0.47949801817880677 -0.41365140508632309 0 0.5 -0.40208557795999961 0 0.48974900908940078 -0.39245507544938019 0 0.47949801817880677 -0.41365140508632309 0 0.48974900908940078 -0.39245507544938019 0 0.48501034131379339 -0.39589669118590137 0 0.49999999999999711 -0.37125874581243851 0 0.5 -0.40208557795999961 0 0.48974900908940078 -0.39245507544938019 0 0.49999999999999711 -0.37125874581243851 0 0.47674069655525092 -0.3698978429939776 0 0.48974900908940078 -0.39245507544938019 0 0.49999999999999711 -0.37125874581243851 0 0.48974900908940078 -0.39245507544938019 0 0.47674069655525092 -0.3698978429939776 0 0.48501034131379339 -0.39589669118590137 0 0.47310568845609052 -0.38536867418522291 0 0.47674069655525092 -0.3698978429939776 0 0.48974900908940078 -0.39245507544938019 0 0.48501034131379339 -0.39589669118590137 0 0.47674069655525092 -0.3698978429939776 0 0.48501034131379339 -0.39589669118590137 0 0.45392603783110008 -0.37108838658624999 0 0.47310568845609052 -0.38536867418522291 0 0.45155556879862868 -0.3944603689424081 0 0.47674069655525092 -0.3698978429939776 0 0.45392603783110008 -0.37108838658624999 0 0.47310568845609052 -0.38536867418522291 0 0.45481320319103757 -0.41743251132042969 0 0.46697148891275431 -0.40002921638500172 0 0.45155556879862868 -0.3944603689424081 0 0.47310568845609052 -0.38536867418522291 0 0.46697148891275431 -0.40002921638500172 0 0.45155556879862868 -0.3944603689424081 0 0.45481320319103757 -0.41743251132042969 0 0.45155556879862868 -0.3944603689424081 0 0.43477646914432833 -0.40550992295969079 0 0.45155556879862868 -0.3944603689424081 0 0.43242581624588322 -0.38730115333965082 0 0.43477646914432833 -0.40550992295969079 0 0.45392603783110008 -0.37108838658624999 0 0.45155556879862868 -0.3944603689424081 0 0.43242581624588322 -0.38730115333965082 0 0.42785183481717409 -0.36595316276467199 0 0.43242581624588322 -0.38730115333965082 0 0.41287057948892703 -0.38518927514730122 0 0.43242581624588322 -0.38730115333965082 0 0.43477646914432833 -0.40550992295969079 0 0.41749483707519452 -0.40538692165420498 0 0.43242581624588322 -0.38730115333965082 0 0.41749483707519452 -0.40538692165420498 0 0.41287057948892703 -0.38518927514730122 0 0.41749483707519452 -0.40538692165420498 0 0.41287057948892703 -0.38518927514730122 0 0.40336078828097621 -0.40362515372992341 0 0.4111933065081313 -0.36805982019164402 0 0.41287057948892703 -0.38518927514730122 0 0.39650622041158878 -0.3765742856902482 0 0.41287057948892703 -0.38518927514730122 0 0.39650622041158878 -0.3765742856902482 0 0.39372170841196569 -0.3925803949292499 0 0.38249634533461108 -0.36797477098799591 0 0.39650622041158878 -0.3765742856902482 0 0.37900977316023637 -0.39091548517495972 0 0.39650622041158878 -0.3765742856902482 0 0.37900977316023637 -0.39091548517495972 0 0.39372170841196569 -0.3925803949292499 0 0.38249634533461108 -0.36797477098799591 0 0.37900977316023637 -0.39091548517495972 0 0.36724772315424481 -0.38247146420994571 0 0.37900977316023637 -0.39091548517495972 0 0.39372170841196569 -0.3925803949292499 0 0.37842665921942997 -0.40887405987875969 0 0.37900977316023637 -0.39091548517495972 0 0.37842665921942997 -0.40887405987875969 0 0.36824105802713031 -0.4000969440192842 0 0.39372170841196569 -0.3925803949292499 0 0.39194747191700757 -0.41402513481906722 0 0.37842665921942997 -0.40887405987875969 0 0.41287057948892703 -0.38518927514730122 0 0.39372170841196569 -0.3925803949292499 0 0.40336078828097621 -0.40362515372992341 0 0.39372170841196569 -0.3925803949292499 0 0.40336078828097621 -0.40362515372992341 0 0.39194747191700757 -0.41402513481906722 0 0.40336078828097621 -0.40362515372992341 0 0.39194747191700757 -0.41402513481906722 0 0.41036500379586138 -0.42217021861448573 0 0.39194747191700757 -0.41402513481906722 0 0.37842665921942997 -0.40887405987875969 0 0.3754845505291648 -0.42231636227288599 0 0.39194747191700757 -0.41402513481906722 0 0.38276612650569841 -0.43173139982273478 0 0.39495441733924969 -0.43334788207120151 0 0.39194747191700757 -0.41402513481906722 0 0.3754845505291648 -0.42231636227288599 0 0.38276612650569841 -0.43173139982273478 0 0.38276612650569841 -0.43173139982273478 0 0.39495441733924969 -0.43334788207120151 0 0.38358898323347101 -0.44426352436551808 0 0.39495441733924969 -0.43334788207120151 0 0.41630162367870638 -0.44091327616753739 0 0.39194747191700757 -0.41402513481906722 0 0.39495441733924969 -0.43334788207120151 0 0.41036500379586138 -0.42217021861448573 0 0.41036500379586138 -0.42217021861448573 0 0.42295569064062533 -0.42699492369753778 0 0.41630162367870638 -0.44091327616753739 0 0.39495441733924969 -0.43334788207120151 0 0.41036500379586138 -0.42217021861448573 0 0.41630162367870638 -0.44091327616753739 0 0.41749483707519452 -0.40538692165420498 0 0.40336078828097621 -0.40362515372992341 0 0.41036500379586138 -0.42217021861448573 0 0.41749483707519452 -0.40538692165420498 0 0.41036500379586138 -0.42217021861448573 0 0.42458756094721539 -0.41613405657310448 0 0.41036500379586138 -0.42217021861448573 0 0.42458756094721539 -0.41613405657310448 0 0.42295569064062533 -0.42699492369753778 0 0.43477646914432833 -0.40550992295969079 0 0.41749483707519452 -0.40538692165420498 0 0.42458756094721539 -0.41613405657310448 0 0.43477646914432833 -0.40550992295969079 0 0.42458756094721539 -0.41613405657310448 0 0.43524810038533429 -0.42324892749070769 0 0.43199803478474752 -0.43480066315574151 0 0.42295569064062533 -0.42699492369753778 0 0.41630162367870638 -0.44091327616753739 0 0.43524810038533429 -0.42324892749070769 0 0.43199803478474752 -0.43480066315574151 0 0.42295569064062533 -0.42699492369753778 0 0.42458756094721539 -0.41613405657310448 0 0.43524810038533429 -0.42324892749070769 0 0.42295569064062533 -0.42699492369753778 0 0.43764883001816302 -0.44847867026387339 0 0.41630162367870638 -0.44091327616753739 0 0.43764883001816302 -0.44847867026387339 0 0.42984017904353489 -0.46042986879056458 0 0.41630162367870638 -0.44091327616753739 0 0.43764883001816302 -0.44847867026387339 0 0.43199803478474752 -0.43480066315574151 0 0.41630162367870638 -0.44091327616753739 0 0.42984017904353489 -0.46042986879056458 0 0.41583716859034447 -0.46620520778226737 0 0.42866409193048188 -0.47676758270227471 0 0.42984017904353489 -0.46042986879056458 0 0.4067145811385029 -0.45234669657804139 0 0.42984017904353489 -0.46042986879056458 0 0.41583716859034447 -0.46620520778226737 0 0.4067145811385029 -0.45234669657804139 0 0.41583716859034447 -0.46620520778226737 0 0.4067145811385029 -0.45234669657804139 0 0.40148396946935899 -0.46677367853588281 0 0.42984017904353489 -0.46042986879056458 0 0.4067145811385029 -0.45234669657804139 0 0.41630162367870638 -0.44091327616753739 0 0.4067145811385029 -0.45234669657804139 0 0.38358898323347101 -0.44426352436551808 0 0.39182712026942329 -0.45690385307896481 0 0.39495441733924969 -0.43334788207120151 0 0.4067145811385029 -0.45234669657804139 0 0.41630162367870638 -0.44091327616753739 0 0.39495441733924969 -0.43334788207120151 0 0.4067145811385029 -0.45234669657804139 0 0.38358898323347101 -0.44426352436551808 0 0.4067145811385029 -0.45234669657804139 0 0.38358898323347101 -0.44426352436551808 0 0.38358898323347101 -0.44426352436551808 0 0.37514595674159079 -0.45476526552439389 0 0.39182712026942329 -0.45690385307896481 0 0.38276612650569841 -0.43173139982273478 0 0.38358898323347101 -0.44426352436551808 0 0.36596817218281208 -0.43846752572535042 0 0.37514595674159079 -0.45476526552439389 0 0.38538716437757631 -0.46842775420537441 0 0.39182712026942329 -0.45690385307896481 0 0.37514595674159079 -0.45476526552439389 0 0.38538716437757631 -0.46842775420537441 0 0.37212180294075042 -0.46808428500039262 0 0.38538716437757631 -0.46842775420537441 0 0.39182712026942329 -0.45690385307896481 0 0.40148396946935899 -0.46677367853588281 0 0.4067145811385029 -0.45234669657804139 0 0.39182712026942329 -0.45690385307896481 0 0.40148396946935899 -0.46677367853588281 0 0.39434508200087892 -0.48168095957978257 0 0.4057717135424021 -0.48929931529832937 0 0.41138522724611992 -0.47610642689805982 0 0.38538716437757631 -0.46842775420537441 0 0.40148396946935899 -0.46677367853588281 0 0.39434508200087892 -0.48168095957978257 0 0.40148396946935899 -0.46677367853588281 0 0.39434508200087892 -0.48168095957978257 0 0.41138522724611992 -0.47610642689805982 0 0.38538716437757631 -0.46842775420537441 0 0.39434508200087892 -0.48168095957978257 0 0.37586822855092661 -0.48439202442808083 0 0.38538716437757631 -0.46842775420537441 0 0.37586822855092661 -0.48439202442808083 0 0.37212180294075042 -0.46808428500039262 0 0.39434508200087892 -0.48168095957978257 0 0.37586822855092661 -0.48439202442808083 0 0.39289039342582149 -0.5 0 0.37586822855092661 -0.48439202442808083 0 0.39289039342582149 -0.5 0 0.3704665795387827 -0.49999999999999961 0 0.39434508200087892 -0.48168095957978257 0 0.39289039342582149 -0.5 0 0.4057717135424021 -0.48929931529832937 0 0.39289039342582149 -0.5 0 0.4057717135424021 -0.48929931529832937 0 0.41531420731286051 -0.5 0 0.4057717135424021 -0.48929931529832937 0 0.41138522724611992 -0.47610642689805982 0 0.425256426736628 -0.48969697811313823 0 0.4057717135424021 -0.48929931529832937 0 0.41531420731286051 -0.5 0 0.425256426736628 -0.48969697811313823 0 0.41583716859034447 -0.46620520778226737 0 0.41138522724611992 -0.47610642689805982 0 0.42866409193048188 -0.47676758270227471 0 0.41138522724611992 -0.47610642689805982 0 0.42866409193048188 -0.47676758270227471 0 0.425256426736628 -0.48969697811313823 0 0.41583716859034447 -0.46620520778226737 0 0.40148396946935899 -0.46677367853588281 0 0.41138522724611992 -0.47610642689805982 0 0.44535189907423273 -0.48425652050154361 0 0.42866409193048188 -0.47676758270227471 0 0.425256426736628 -0.48969697811313823 0 0.43920548674920379 -0.47249175324936749 0 0.42984017904353489 -0.46042986879056458 0 0.42866409193048188 -0.47676758270227471 0 0.43773802119989941 -0.49999999999999978 0 0.44535189907423273 -0.48425652050154361 0 0.425256426736628 -0.48969697811313823 0 0.43773802119989941 -0.49999999999999978 0 0.41531420731286051 -0.5 0 0.425256426736628 -0.48969697811313823 0 0.32577547594680167 -0.48549728563522948 0 0.313100747974287 -0.5 0 0.34178366375653479 -0.5 0 0.32577547594680167 -0.48549728563522948 0 0.33309118936964399 -0.46704031311580291 0 0.30810638268294871 -0.47012115952174682 0 0.353331436476917 -0.48488928282810861 0 0.33309118936964399 -0.46704031311580291 0 0.32577547594680167 -0.48549728563522948 0 0.353331436476917 -0.48488928282810861 0 0.33309118936964399 -0.46704031311580291 0 0.32577547594680167 -0.48549728563522948 0 0.353331436476917 -0.48488928282810861 0 0.32577547594680167 -0.48549728563522948 0 0.34178366375653479 -0.5 0 0.353331436476917 -0.48488928282810861 0 0.34178366375653479 -0.5 0 0.353331436476917 -0.48488928282810861 0 0.3704665795387827 -0.49999999999999961 0 0.353331436476917 -0.48488928282810861 0 0.3704665795387827 -0.49999999999999961 0 0.37586822855092661 -0.48439202442808083 0 0.353331436476917 -0.48488928282810861 0 0.37586822855092661 -0.48439202442808083 0 0.353331436476917 -0.48488928282810861 0 0.3704665795387827 -0.49999999999999961 0 0.37586822855092661 -0.48439202442808083 0 0.353331436476917 -0.48488928282810861 0 0.36174609683149922 -0.47333229839911978 0 0.37586822855092661 -0.48439202442808083 0 0.36174609683149922 -0.47333229839911978 0 0.37212180294075042 -0.46808428500039262 0 0.353331436476917 -0.48488928282810861 0 0.3511187368843669 -0.46644655109408317 0 0.33309118936964399 -0.46704031311580291 0 0.353331436476917 -0.48488928282810861 0 0.36174609683149922 -0.47333229839911978 0 0.3511187368843669 -0.46644655109408317 0 0.3511187368843669 -0.46644655109408317 0 0.34821094164401439 -0.44963138573543099 0 0.33309118936964399 -0.46704031311580291 0 0.3511187368843669 -0.46644655109408317 0 0.36000734278227892 -0.4581682973830864 0 0.34821094164401439 -0.44963138573543099 0 0.36174609683149922 -0.47333229839911978 0 0.3511187368843669 -0.46644655109408317 0 0.36000734278227892 -0.4581682973830864 0 0.36174609683149922 -0.47333229839911978 0 0.36000734278227892 -0.4581682973830864 0 0.37212180294075042 -0.46808428500039262 0 0.37514595674159079 -0.45476526552439389 0 0.36000734278227892 -0.4581682973830864 0 0.37212180294075042 -0.46808428500039262 0 0.38358898323347101 -0.44426352436551808 0 0.37514595674159079 -0.45476526552439389 0 0.36596817218281208 -0.43846752572535042 0 0.37514595674159079 -0.45476526552439389 0 0.36000734278227892 -0.4581682973830864 0 0.36596817218281208 -0.43846752572535042 0 0.36596817218281208 -0.43846752572535042 0 0.34821094164401439 -0.44963138573543099 0 0.34622956703096991 -0.43300533851794337 0 0.36000734278227892 -0.4581682973830864 0 0.36596817218281208 -0.43846752572535042 0 0.34821094164401439 -0.44963138573543099 0 0.34821094164401439 -0.44963138573543099 0 0.33295970409203041 -0.44505156475946112 0 0.34622956703096991 -0.43300533851794337 0 0.34821094164401439 -0.44963138573543099 0 0.33295970409203041 -0.44505156475946112 0 0.33309118936964399 -0.46704031311580291 0 0.33295970409203041 -0.44505156475946112 0 0.33309118936964399 -0.46704031311580291 0 0.31285094226236981 -0.44919134340349842 0 0.33309118936964399 -0.46704031311580291 0 0.31285094226236981 -0.44919134340349842 0 0.33309118936964399 -0.46704031311580291 0 0.31285094226236981 -0.44919134340349842 0 0.30810638268294871 -0.47012115952174682 0 0.33295970409203041 -0.44505156475946112 0 0.31285094226236981 -0.44919134340349842 0 0.32443481461114221 -0.42819348402864749 0 0.31285094226236981 -0.44919134340349842 0 0.32443481461114221 -0.42819348402864749 0 0.30716585811758268 -0.42152601893676211 0 0.32443481461114221 -0.42819348402864749 0 0.3377381929345476 -0.41993594981441068 0 0.31826237910007699 -0.40611857650776678 0 0.32443481461114221 -0.42819348402864749 0 0.31826237910007699 -0.40611857650776678 0 0.30716585811758268 -0.42152601893676211 0 0.3377381929345476 -0.41993594981441068 0 0.33955155732169001 -0.40481801647484189 0 0.31826237910007699 -0.40611857650776678 0 0.32443481461114221 -0.42819348402864749 0 0.3377381929345476 -0.41993594981441068 0 0.34622956703096991 -0.43300533851794337 0 0.33295970409203041 -0.44505156475946112 0 0.32443481461114221 -0.42819348402864749 0 0.34622956703096991 -0.43300533851794337 0 0.3377381929345476 -0.41993594981441068 0 0.34622956703096991 -0.43300533851794337 0 0.35818280584871282 -0.41603879828427831 0 0.36596817218281208 -0.43846752572535042 0 0.34622956703096991 -0.43300533851794337 0 0.35818280584871282 -0.41603879828427831 0 0.3754845505291648 -0.42231636227288599 0 0.36596817218281208 -0.43846752572535042 0 0.35818280584871282 -0.41603879828427831 0 0.3754845505291648 -0.42231636227288599 0 0.38276612650569841 -0.43173139982273478 0 0.36596817218281208 -0.43846752572535042 0 0.37842665921942997 -0.40887405987875969 0 0.3754845505291648 -0.42231636227288599 0 0.35818280584871282 -0.41603879828427831 0 0.37842665921942997 -0.40887405987875969 0 0.35818280584871282 -0.41603879828427831 0 0.36824105802713031 -0.4000969440192842 0 0.3377381929345476 -0.41993594981441068 0 0.35818280584871282 -0.41603879828427831 0 0.33955155732169001 -0.40481801647484189 0 0.35818280584871282 -0.41603879828427831 0 0.35120943534252291 -0.3914849644630724 0 0.33955155732169001 -0.40481801647484189 0 0.35818280584871282 -0.41603879828427831 0 0.35120943534252291 -0.3914849644630724 0 0.36824105802713031 -0.4000969440192842 0 0.37900977316023637 -0.39091548517495972 0 0.36824105802713031 -0.4000969440192842 0 0.36724772315424481 -0.38247146420994571 0 0.35120943534252291 -0.3914849644630724 0 0.36824105802713031 -0.4000969440192842 0 0.36724772315424481 -0.38247146420994571 0 0.36724772315424481 -0.38247146420994571 0 0.3553956415560332 -0.375446985373177 0 0.36664078794155069 -0.36853845970684512 0 0.35120943534252291 -0.3914849644630724 0 0.3553956415560332 -0.375446985373177 0 0.34024068493209042 -0.37145909403295352 0 0.35120943534252291 -0.3914849644630724 0 0.36724772315424481 -0.38247146420994571 0 0.3553956415560332 -0.375446985373177 0 0.35120943534252291 -0.3914849644630724 0 0.33045907805143321 -0.38798152631774108 0 0.34024068493209042 -0.37145909403295352 0 0.33045907805143321 -0.38798152631774108 0 0.34024068493209042 -0.37145909403295352 0 0.32473595581008968 -0.36877041147622941 0 0.33045907805143321 -0.38798152631774108 0 0.33955155732169001 -0.40481801647484189 0 0.31826237910007699 -0.40611857650776678 0 0.35120943534252291 -0.3914849644630724 0 0.33045907805143321 -0.38798152631774108 0 0.33955155732169001 -0.40481801647484189 0 0.33045907805143321 -0.38798152631774108 0 0.31826237910007699 -0.40611857650776678 0 0.30852465471842783 -0.38296478278532459 0 0.33045907805143321 -0.38798152631774108 0 0.30852465471842783 -0.38296478278532459 0 0.32473595581008968 -0.36877041147622941 0 0.30852465471842783 -0.38296478278532459 0 0.30157177088572762 -0.39984768184154418 0 0.28524522637625171 -0.38748256695808048 0 0.31826237910007699 -0.40611857650776678 0 0.30852465471842783 -0.38296478278532459 0 0.30157177088572762 -0.39984768184154418 0 0.30157177088572762 -0.39984768184154418 0 0.28524522637625171 -0.38748256695808048 0 0.28909827497095891 -0.41314244090476959 0 0.30852465471842783 -0.38296478278532459 0 0.28524522637625171 -0.38748256695808048 0 0.29576167506738288 -0.36584798696867898 0 0.28524522637625171 -0.38748256695808048 0 0.26194523537769671 -0.38343407302417171 0 0.27628411724202862 -0.36524783617958329 0 0.26194523537769671 -0.38343407302417171 0 0.2677956642119742 -0.40840362680373948 0 0.24730388124056729 -0.40448370284608931 0 0.28524522637625171 -0.38748256695808048 0 0.26194523537769671 -0.38343407302417171 0 0.2677956642119742 -0.40840362680373948 0 0.28524522637625171 -0.38748256695808048 0 0.2677956642119742 -0.40840362680373948 0 0.28909827497095891 -0.41314244090476959 0 0.2677956642119742 -0.40840362680373948 0 0.27472650047210662 -0.43131219108599711 0 0.28909827497095891 -0.41314244090476959 0 0.2677956642119742 -0.40840362680373948 0 0.24845486683426421 -0.43056678600332871 0 0.24730388124056729 -0.40448370284608931 0 0.2677956642119742 -0.40840362680373948 0 0.27472650047210662 -0.43131219108599711 0 0.24845486683426421 -0.43056678600332871 0 0.27472650047210662 -0.43131219108599711 0 0.26710508502781599 -0.44926171113960661 0 0.24845486683426421 -0.43056678600332871 0 0.27472650047210662 -0.43131219108599711 0 0.29418269027227539 -0.43431919247607059 0 0.28909827497095891 -0.41314244090476959 0 0.29418269027227539 -0.43431919247607059 0 0.28909827497095891 -0.41314244090476959 0 0.30716585811758268 -0.42152601893676211 0 0.31826237910007699 -0.40611857650776678 0 0.30157177088572762 -0.39984768184154418 0 0.30716585811758268 -0.42152601893676211 0 0.30157177088572762 -0.39984768184154418 0 0.28909827497095891 -0.41314244090476959 0 0.30716585811758268 -0.42152601893676211 0 0.31285094226236981 -0.44919134340349842 0 0.29418269027227539 -0.43431919247607059 0 0.30716585811758268 -0.42152601893676211 0 0.31285094226236981 -0.44919134340349842 0 0.29418269027227539 -0.43431919247607059 0 0.28597809560131299 -0.4567624239266439 0 0.31285094226236981 -0.44919134340349842 0 0.28597809560131299 -0.4567624239266439 0 0.30810638268294871 -0.47012115952174682 0 0.28597809560131299 -0.4567624239266439 0 0.27356505094757272 -0.46654042127887851 0 0.28658471780149791 -0.47429793876749549 0 0.28597809560131299 -0.4567624239266439 0 0.28658471780149791 -0.47429793876749549 0 0.30810638268294871 -0.47012115952174682 0 0.27472650047210662 -0.43131219108599711 0 0.29418269027227539 -0.43431919247607059 0 0.28597809560131299 -0.4567624239266439 0 0.27472650047210662 -0.43131219108599711 0 0.28597809560131299 -0.4567624239266439 0 0.26710508502781599 -0.44926171113960661 0 0.26710508502781599 -0.44926171113960661 0 0.25055382002994903 -0.45112655962101422 0 0.24845486683426421 -0.43056678600332871 0 0.25055382002994903 -0.45112655962101422 0 0.25749380142066591 -0.46566674131117769 0 0.24452211955108941 -0.47321082899062988 0 0.26710508502781599 -0.44926171113960661 0 0.25055382002994903 -0.45112655962101422 0 0.25749380142066591 -0.46566674131117769 0 0.26710508502781599 -0.44926171113960661 0 0.25749380142066591 -0.46566674131117769 0 0.27356505094757272 -0.46654042127887851 0 0.28597809560131299 -0.4567624239266439 0 0.26710508502781599 -0.44926171113960661 0 0.27356505094757272 -0.46654042127887851 0 0.25749380142066591 -0.46566674131117769 0 0.27356505094757272 -0.46654042127887851 0 0.27066355488657068 -0.48671329124946883 0 0.27356505094757272 -0.46654042127887851 0 0.27066355488657068 -0.48671329124946883 0 0.28658471780149791 -0.47429793876749549 0 0.27066355488657068 -0.48671329124946883 0 0.24310759435645521 -0.48732129405658853 0 0.24452211955108941 -0.47321082899062988 0 0.25749380142066591 -0.46566674131117769 0 0.27066355488657068 -0.48671329124946883 0 0.24452211955108941 -0.47321082899062988 0 0.25573491640979129 -0.5 0 0.27066355488657068 -0.48671329124946883 0 0.24310759435645521 -0.48732129405658853 0 0.27066355488657068 -0.48671329124946883 0 0.24310759435645521 -0.48732129405658853 0 0.25573491640979129 -0.5 0 0.27066355488657068 -0.48671329124946883 0 0.2844178321920392 -0.5 0 0.27066355488657068 -0.48671329124946883 0 0.2844178321920392 -0.5 0 0.29821951541668618 -0.48610528844234918 0 0.27066355488657068 -0.48671329124946883 0 0.29821951541668618 -0.48610528844234918 0 0.27066355488657068 -0.48671329124946883 0 0.28658471780149791 -0.47429793876749549 0 0.29821951541668618 -0.48610528844234918 0 0.28658471780149791 -0.47429793876749549 0 0.30810638268294871 -0.47012115952174682 0 0.29821951541668618 -0.48610528844234918 0 0.32577547594680167 -0.48549728563522948 0 0.30810638268294871 -0.47012115952174682 0 0.29821951541668618 -0.48610528844234918 0 0.313100747974287 -0.5 0 0.2844178321920392 -0.5 0 0.29821951541668618 -0.48610528844234918 0 0.32577547594680167 -0.48549728563522948 0 0.29821951541668618 -0.48610528844234918 0 0.32577547594680167 -0.48549728563522948 0 0.313100747974287 -0.5 0 0.29821951541668618 -0.48610528844234918 0 0.330274064289036 -0.28402767586280209 0 0.34332234684577362 -0.29793808318023329 0 0.34457666422559302 -0.26801309975333321 0 0.330274064289036 -0.28402767586280209 0 0.34332234684577362 -0.29793808318023329 0 0.32977293544345387 -0.30596193421111573 0 0.34332234684577362 -0.29793808318023329 0 0.32977293544345387 -0.30596193421111573 0 0.34206802946595682 -0.32786306660713371 0 0.31744302567780058 -0.29875438106107682 0 0.32081511337912821 -0.31891284763754968 0 0.29956219729229971 -0.30996262866796498 0 0.32977293544345387 -0.30596193421111573 0 0.31744302567780058 -0.29875438106107682 0 0.32081511337912821 -0.31891284763754968 0 0.31744302567780058 -0.29875438106107682 0 0.315203972569992 -0.28599406388836862 0 0.30893165249025939 -0.29458973757352408 0 0.330274064289036 -0.28402767586280209 0 0.32977293544345387 -0.30596193421111573 0 0.31744302567780058 -0.29875438106107682 0 0.330274064289036 -0.28402767586280209 0 0.31744302567780058 -0.29875438106107682 0 0.315203972569992 -0.28599406388836862 0 0.31616400359283131 -0.27140021809428472 0 0.31565659849655159 -0.26881006701694032 0 0.34457666422559302 -0.26801309975333321 0 0.31616400359283131 -0.27140021809428472 0 0.31565659849655159 -0.26881006701694032 0 0.330274064289036 -0.28402767586280209 0 0.315203972569992 -0.28599406388836862 0 0.31616400359283131 -0.27140021809428472 0 0.31140457280844042 -0.24710474912070499 0 0.31565659849655159 -0.26881006701694032 0 0.31140457280844042 -0.24710474912070499 0 0.31565659849655159 -0.26881006701694032 0 0.32909477526671738 -0.25319804842994992 0 0.34542116247921317 -0.24786541093840589 0 0.32909477526671738 -0.25319804842994992 0 0.34457666422559302 -0.26801309975333321 0 0.31565659849655159 -0.26881006701694032 0 0.32909477526671738 -0.25319804842994992 0 0.34457666422559302 -0.26801309975333321 0 0.31565659849655159 -0.26881006701694032 0 0.34457666422559302 -0.26801309975333321 0 0.330274064289036 -0.28402767586280209 0 0.31616400359283131 -0.27140021809428472 0 0.34457666422559302 -0.26801309975333321 0 0.35327842571551671 -0.2677733001931194 0 0.36211004630048071 -0.25874315800932568 0 0.36139056500297317 -0.28258450191058321 0 0.34457666422559302 -0.26801309975333321 0 0.35327842571551671 -0.2677733001931194 0 0.36139056500297317 -0.28258450191058321 0 0.34457666422559302 -0.26801309975333321 0 0.35327842571551671 -0.2677733001931194 0 0.34542116247921317 -0.24786541093840589 0 0.35327842571551671 -0.2677733001931194 0 0.36211004630048071 -0.25874315800932568 0 0.34542116247921317 -0.24786541093840589 0 0.34457666422559302 -0.26801309975333321 0 0.34542116247921317 -0.24786541093840589 0 0.34457666422559302 -0.26801309975333321 0 0.35327842571551671 -0.2677733001931194 0 0.36876625398544938 -0.24898888889403961 0 0.37754581309809132 -0.23651361028518689 0 0.3725796289452375 -0.26579697317357759 0 0.36876625398544938 -0.24898888889403961 0 0.36211004630048071 -0.25874315800932568 0 0.3725796289452375 -0.26579697317357759 0 0.36211004630048071 -0.25874315800932568 0 0.36139056500297317 -0.28258450191058321 0 0.36211004630048071 -0.25874315800932568 0 0.3725796289452375 -0.26579697317357759 0 0.36139056500297317 -0.28258450191058321 0 0.3725796289452375 -0.26579697317357759 0 0.36761344479238373 -0.29508033606196837 0 0.3725796289452375 -0.26579697317357759 0 0.36139056500297317 -0.28258450191058321 0 0.36761344479238373 -0.29508033606196837 0 0.36139056500297317 -0.28258450191058321 0 0.36067108370546558 -0.30642584581184062 0 0.36139056500297317 -0.28258450191058321 0 0.36761344479238373 -0.29508033606196837 0 0.36067108370546558 -0.30642584581184062 0 0.37929392098169401 -0.28404327537796259 0 0.3725796289452375 -0.26579697317357759 0 0.36761344479238373 -0.29508033606196837 0 0.34332234684577362 -0.29793808318023329 0 0.36139056500297317 -0.28258450191058321 0 0.36067108370546558 -0.30642584581184062 0 0.34332234684577362 -0.29793808318023329 0 0.34457666422559302 -0.26801309975333321 0 0.34332234684577362 -0.29793808318023329 0 0.34457666422559302 -0.26801309975333321 0 0.36139056500297317 -0.28258450191058321 0 0.34332234684577362 -0.29793808318023329 0 0.36067108370546558 -0.30642584581184062 0 0.35385294866325562 -0.31815161708919842 0 0.37804720550635529 -0.30651687721429538 0 0.36761344479238373 -0.29508033606196837 0 0.37325959660283969 -0.31225701655594912 0 0.36761344479238373 -0.29508033606196837 0 0.37325959660283969 -0.31225701655594912 0 0.36522996683296982 -0.32210974174446261 0 0.36761344479238373 -0.29508033606196837 0 0.3626472606395299 -0.32436369895035932 0 0.36761344479238373 -0.29508033606196837 0 0.36067108370546558 -0.30642584581184062 0 0.3626472606395299 -0.32436369895035932 0 0.36067108370546558 -0.30642584581184062 0 0.35995160240795782 -0.33026718971309799 0 0.37325959660283969 -0.31225701655594912 0 0.36522996683296982 -0.32210974174446261 0 0.37029473460036533 -0.32565573538444043 0 0.36761344479238373 -0.29508033606196837 0 0.3626472606395299 -0.32436369895035932 0 0.36522996683296982 -0.32210974174446261 0 0.36067108370546558 -0.30642584581184062 0 0.3626472606395299 -0.32436369895035932 0 0.35995160240795782 -0.33026718971309799 0 0.38064079273778262 -0.31288188218018531 0 0.37325959660283969 -0.31225701655594912 0 0.37029473460036533 -0.32565573538444043 0 0.3626472606395299 -0.32436369895035932 0 0.37029473460036533 -0.32565573538444043 0 0.35995160240795782 -0.33026718971309799 0 0.37029473460036533 -0.32565573538444043 0 0.35995160240795782 -0.33026718971309799 0 0.3626472606395299 -0.32436369895035932 0 0.36522996683296982 -0.32210974174446261 0 0.37029473460036533 -0.32565573538444043 0 0.36522996683296982 -0.32210974174446261 0 0.37029473460036533 -0.32565573538444043 0 0.35995160240795782 -0.33026718971309799 0 0.35941557651728179 -0.34802939929915899 0 0.37029473460036533 -0.32565573538444043 0 0.37212478857772979 -0.33864880005647208 0 0.35995160240795782 -0.33026718971309799 0 0.3654326502107581 -0.34245967622864359 0 0.35995160240795782 -0.33026718971309799 0 0.35941557651728179 -0.34802939929915899 0 0.37212478857772979 -0.33864880005647208 0 0.3654326502107581 -0.34245967622864359 0 0.37040156667629781 -0.34671437794913718 0 0.37212478857772979 -0.33864880005647208 0 0.3654326502107581 -0.34245967622864359 0 0.35995160240795782 -0.33026718971309799 0 0.35995160240795782 -0.33026718971309799 0 0.35941557651728179 -0.34802939929915899 0 0.34162477060798069 -0.33843815246039383 0 0.35941557651728179 -0.34802939929915899 0 0.34146637893605181 -0.3422169952266676 0 0.34162477060798069 -0.33843815246039383 0 0.35995160240795782 -0.33026718971309799 0 0.34162477060798069 -0.33843815246039383 0 0.35995160240795782 -0.33026718971309799 0 0.34764647170350632 -0.33021231032179682 0 0.34162477060798069 -0.33843815246039383 0 0.35995160240795782 -0.33026718971309799 0 0.34764647170350632 -0.33021231032179682 0 0.35274785573456591 -0.3260756163463463 0 0.34764647170350632 -0.33021231032179682 0 0.34206802946595682 -0.32786306660713371 0 0.34162477060798069 -0.33843815246039383 0 0.34764647170350632 -0.33021231032179682 0 0.34206802946595682 -0.32786306660713371 0 0.35385294866325562 -0.31815161708919842 0 0.35274785573456591 -0.3260756163463463 0 0.34206802946595682 -0.32786306660713371 0 0.34764647170350632 -0.33021231032179682 0 0.35274785573456591 -0.3260756163463463 0 0.34206802946595682 -0.32786306660713371 0 0.34332234684577362 -0.29793808318023329 0 0.35385294866325562 -0.31815161708919842 0 0.34206802946595682 -0.32786306660713371 0 0.36067108370546558 -0.30642584581184062 0 0.35995160240795782 -0.33026718971309799 0 0.35385294866325562 -0.31815161708919842 0 0.35995160240795782 -0.33026718971309799 0 0.35385294866325562 -0.31815161708919842 0 0.35274785573456591 -0.3260756163463463 0 0.38249634533461108 -0.36797477098799591 0 0.36724772315424481 -0.38247146420994571 0 0.36664078794155069 -0.36853845970684512 0 0.38249634533461108 -0.36797477098799591 0 0.36664078794155069 -0.36853845970684512 0 0.37305712147220338 -0.36102055586376819 0 0.3553956415560332 -0.375446985373177 0 0.36664078794155069 -0.36853845970684512 0 0.35901533294662008 -0.36129221050145399 0 0.36664078794155069 -0.36853845970684512 0 0.37305712147220338 -0.36102055586376819 0 0.36517854466496658 -0.35714892472411869 0 0.36664078794155069 -0.36853845970684512 0 0.36517854466496658 -0.35714892472411869 0 0.35901533294662008 -0.36129221050145399 0 0.36517854466496658 -0.35714892472411869 0 0.35941557651728179 -0.34802939929915899 0 0.35901533294662008 -0.36129221050145399 0 0.36517854466496658 -0.35714892472411869 0 0.36469303305047901 -0.34973837317986511 0 0.35941557651728179 -0.34802939929915899 0 0.36517854466496658 -0.35714892472411869 0 0.37030234625384911 -0.35279401393457888 0 0.36469303305047901 -0.34973837317986511 0 0.37818146540529818 -0.34934783795600571 0 0.37305712147220338 -0.36102055586376819 0 0.37030234625384911 -0.35279401393457888 0 0.37305712147220338 -0.36102055586376819 0 0.36517854466496658 -0.35714892472411869 0 0.37030234625384911 -0.35279401393457888 0 0.37818146540529818 -0.34934783795600571 0 0.37212478857772979 -0.33864880005647208 0 0.37040156667629781 -0.34671437794913718 0 0.37818146540529818 -0.34934783795600571 0 0.37030234625384911 -0.35279401393457888 0 0.37040156667629781 -0.34671437794913718 0 0.37030234625384911 -0.35279401393457888 0 0.37040156667629781 -0.34671437794913718 0 0.36469303305047901 -0.34973837317986511 0 0.3654326502107581 -0.34245967622864359 0 0.37040156667629781 -0.34671437794913718 0 0.36469303305047901 -0.34973837317986511 0 0.36469303305047901 -0.34973837317986511 0 0.35941557651728179 -0.34802939929915899 0 0.3654326502107581 -0.34245967622864359 0 0.36469303305047901 -0.34973837317986511 0 0.35941557651728179 -0.34802939929915899 0 0.35003449333301101 -0.35574942476505861 0 0.34024068493209042 -0.37145909403295352 0 0.34146637893605181 -0.3422169952266676 0 0.35941557651728179 -0.34802939929915899 0 0.35003449333301101 -0.35574942476505861 0 0.34146637893605181 -0.3422169952266676 0 0.35941557651728179 -0.34802939929915899 0 0.34146637893605181 -0.3422169952266676 0 0.35941557651728179 -0.34802939929915899 0 0.35901533294662008 -0.36129221050145399 0 0.35941557651728179 -0.34802939929915899 0 0.35003449333301101 -0.35574942476505861 0 0.35901533294662008 -0.36129221050145399 0 0.35003449333301101 -0.35574942476505861 0 0.35901533294662008 -0.36129221050145399 0 0.34024068493209042 -0.37145909403295352 0 0.3553956415560332 -0.375446985373177 0 0.35901533294662008 -0.36129221050145399 0 0.34024068493209042 -0.37145909403295352 0 0.34024068493209042 -0.37145909403295352 0 0.33264239376833749 -0.35548373211026962 0 0.32473595581008968 -0.36877041147622941 0 0.34024068493209042 -0.37145909403295352 0 0.33264239376833749 -0.35548373211026962 0 0.34146637893605181 -0.3422169952266676 0 0.34024068493209042 -0.37145909403295352 0 0.34146637893605181 -0.3422169952266676 0 0.33264239376833749 -0.35548373211026962 0 0.32969677432389999 -0.34883746930945858 0 0.32350037713642671 -0.3535383953733186 0 0.33264239376833749 -0.35548373211026962 0 0.33484083241944268 -0.34588391539316982 0 0.34146637893605181 -0.3422169952266676 0 0.33264239376833749 -0.35548373211026962 0 0.33484083241944268 -0.34588391539316982 0 0.32969677432389999 -0.34883746930945858 0 0.33484083241944268 -0.34588391539316982 0 0.32969677432389999 -0.34883746930945858 0 0.33080291213000951 -0.34437854531234752 0 0.32969677432389999 -0.34883746930945858 0 0.33080291213000951 -0.34437854531234752 0 0.32576759743036687 -0.34544500479448842 0 0.32576759743036687 -0.34544500479448842 0 0.32008489300350967 -0.34478001059398899 0 0.32350037713642671 -0.3535383953733186 0 0.32969677432389999 -0.34883746930945858 0 0.32576759743036687 -0.34544500479448842 0 0.32350037713642671 -0.3535383953733186 0 0.32576759743036687 -0.34544500479448842 0 0.32008489300350967 -0.34478001059398899 0 0.3230261242077439 -0.3426129045732173 0 0.32008489300350967 -0.34478001059398899 0 0.31455300750316167 -0.34989325112993808 0 0.32350037713642671 -0.3535383953733186 0 0.32008489300350967 -0.34478001059398899 0 0.31455300750316167 -0.34989325112993808 0 0.31278358272303802 -0.34129775444127147 0 0.31455300750316167 -0.34989325112993808 0 0.32350037713642671 -0.3535383953733186 0 0.31266700858965563 -0.36105898834543543 0 0.33264239376833749 -0.35548373211026962 0 0.32350037713642671 -0.3535383953733186 0 0.32473595581008968 -0.36877041147622941 0 0.30852465471842783 -0.38296478278532459 0 0.31266700858965563 -0.36105898834543543 0 0.32473595581008968 -0.36877041147622941 0 0.32350037713642671 -0.3535383953733186 0 0.31266700858965563 -0.36105898834543543 0 0.32473595581008968 -0.36877041147622941 0 0.34332234684577362 -0.29793808318023329 0 0.34206802946595682 -0.32786306660713371 0 0.32977293544345387 -0.30596193421111573 0 0.34206802946595682 -0.32786306660713371 0 0.32081511337912821 -0.31891284763754968 0 0.34206802946595682 -0.32786306660713371 0 0.32602109842812482 -0.32927153728442071 0 0.32081511337912821 -0.31891284763754968 0 0.34206802946595682 -0.32786306660713371 0 0.32081511337912821 -0.31891284763754968 0 0.34206802946595682 -0.32786306660713371 0 0.34162477060798069 -0.33843815246039383 0 0.33801441914131958 -0.33597980122333287 0 0.34206802946595682 -0.32786306660713371 0 0.34162477060798069 -0.33843815246039383 0 0.34206802946595682 -0.32786306660713371 0 0.33503975802439162 -0.33352730776002742 0 0.32602109842812482 -0.32927153728442071 0 0.34206802946595682 -0.32786306660713371 0 0.33801441914131958 -0.33597980122333287 0 0.33503975802439162 -0.33352730776002742 0 0.34146637893605181 -0.3422169952266676 0 0.34162477060798069 -0.33843815246039383 0 0.33664845261102122 -0.34065682884787418 0 0.34146637893605181 -0.3422169952266676 0 0.34162477060798069 -0.33843815246039383 0 0.34162477060798069 -0.33843815246039383 0 0.33801441914131958 -0.33597980122333287 0 0.33664845261102122 -0.34065682884787418 0 0.34162477060798069 -0.33843815246039383 0 0.33664845261102122 -0.34065682884787418 0 0.33801441914131958 -0.33597980122333287 0 0.33664845261102122 -0.34065682884787418 0 0.334556636173299 -0.33621284741772872 0 0.33484083241944268 -0.34588391539316982 0 0.34146637893605181 -0.3422169952266676 0 0.33664845261102122 -0.34065682884787418 0 0.34146637893605181 -0.3422169952266676 0 0.33664845261102122 -0.34065682884787418 0 0.33080291213000951 -0.34437854531234752 0 0.33664845261102122 -0.34065682884787418 0 0.32753883147517121 -0.34023469067202677 0 0.33664845261102122 -0.34065682884787418 0 0.334556636173299 -0.33621284741772872 0 0.32852391491646382 -0.33468745183968091 0 0.33484083241944268 -0.34588391539316982 0 0.33080291213000951 -0.34437854531234752 0 0.33664845261102122 -0.34065682884787418 0 0.33503975802439162 -0.33352730776002742 0 0.32852391491646382 -0.33468745183968091 0 0.32602109842812482 -0.32927153728442071 0 0.334556636173299 -0.33621284741772872 0 0.33503975802439162 -0.33352730776002742 0 0.32852391491646382 -0.33468745183968091 0 0.33801441914131958 -0.33597980122333287 0 0.334556636173299 -0.33621284741772872 0 0.33503975802439162 -0.33352730776002742 0 0.32753883147517121 -0.34023469067202677 0 0.31871317492192791 -0.33999191223236508 0 0.30992165968220392 -0.33200201743577268 0 0.32852391491646382 -0.33468745183968091 0 0.32602109842812482 -0.32927153728442071 0 0.30992165968220392 -0.33200201743577268 0 0.33664845261102122 -0.34065682884787418 0 0.32852391491646382 -0.33468745183968091 0 0.30992165968220392 -0.33200201743577268 0 0.33664845261102122 -0.34065682884787418 0 0.32753883147517121 -0.34023469067202677 0 0.30992165968220392 -0.33200201743577268 0 0.32602109842812482 -0.32927153728442071 0 0.31516553794356478 -0.32688419612254632 0 0.30992165968220392 -0.33200201743577268 0 0.33664845261102122 -0.34065682884787418 0 0.30992165968220392 -0.33200201743577268 0 0.32753883147517121 -0.34023469067202677 0 0.3230261242077439 -0.3426129045732173 0 0.31871317492192791 -0.33999191223236508 0 0.33080291213000951 -0.34437854531234752 0 0.32576759743036687 -0.34544500479448842 0 0.32753883147517121 -0.34023469067202677 0 0.32576759743036687 -0.34544500479448842 0 0.32753883147517121 -0.34023469067202677 0 0.3230261242077439 -0.3426129045732173 0 0.32008489300350967 -0.34478001059398899 0 0.3230261242077439 -0.3426129045732173 0 0.31871317492192791 -0.33999191223236508 0 0.31871317492192791 -0.33999191223236508 0 0.31278358272303802 -0.34129775444127147 0 0.30992165968220392 -0.33200201743577268 0 0.32008489300350967 -0.34478001059398899 0 0.31871317492192791 -0.33999191223236508 0 0.31278358272303802 -0.34129775444127147 0 0.32602109842812482 -0.32927153728442071 0 0.31516553794356478 -0.32688419612254632 0 0.32081511337912821 -0.31891284763754968 0 0.31516553794356478 -0.32688419612254632 0 0.32081511337912821 -0.31891284763754968 0 0.29956219729229971 -0.30996262866796498 0 0.31516553794356478 -0.32688419612254632 0 0.30992165968220392 -0.33200201743577268 0 0.29956219729229971 -0.30996262866796498 0 0.30992165968220392 -0.33200201743577268 0 0.28319486675338662 -0.32334720602367162 0 0.29956219729229971 -0.30996262866796498 0 0.32081511337912821 -0.31891284763754968 0 0.29956219729229971 -0.30996262866796498 0 0.31516553794356478 -0.32688419612254632 0 0.29956219729229971 -0.30996262866796498 0 0.31278358272303802 -0.34129775444127147 0 0.30544777269898171 -0.33968681455295602 0 0.30372917606317851 -0.34879110689567611 0 0.31278358272303802 -0.34129775444127147 0 0.30992165968220392 -0.33200201743577268 0 0.30544777269898171 -0.33968681455295602 0 0.30992165968220392 -0.33200201743577268 0 0.30544777269898171 -0.33968681455295602 0 0.29535667232750618 -0.33665637943910393 0 0.30544777269898171 -0.33968681455295602 0 0.29535667232750618 -0.33665637943910393 0 0.30372917606317851 -0.34879110689567611 0 0.30992165968220392 -0.33200201743577268 0 0.29535667232750618 -0.33665637943910393 0 0.28319486675338662 -0.32334720602367162 0 0.29535667232750618 -0.33665637943910393 0 0.28811986741475609 -0.34954264064797458 0 0.28056009198101312 -0.33712721632873971 0 0.29535667232750618 -0.33665637943910393 0 0.28319486675338662 -0.32334720602367162 0 0.28056009198101312 -0.33712721632873971 0 0.30992165968220392 -0.33200201743577268 0 0.28319486675338662 -0.32334720602367162 0 0.30852465471842783 -0.38296478278532459 0 0.31266700858965563 -0.36105898834543543 0 0.29576167506738288 -0.36584798696867898 0 0.31266700858965563 -0.36105898834543543 0 0.30372917606317851 -0.34879110689567611 0 0.29576167506738288 -0.36584798696867898 0 0.31455300750316167 -0.34989325112993808 0 0.31266700858965563 -0.36105898834543543 0 0.30372917606317851 -0.34879110689567611 0 0.31455300750316167 -0.34989325112993808 0 0.31278358272303802 -0.34129775444127147 0 0.30372917606317851 -0.34879110689567611 0 0.30372917606317851 -0.34879110689567611 0 0.28811986741475609 -0.34954264064797458 0 0.29576167506738288 -0.36584798696867898 0 0.29535667232750618 -0.33665637943910393 0 0.30372917606317851 -0.34879110689567611 0 0.28811986741475609 -0.34954264064797458 0 0.28811986741475609 -0.34954264064797458 0 0.29576167506738288 -0.36584798696867898 0 0.27628411724202862 -0.36524783617958329 0 0.28524522637625171 -0.38748256695808048 0 0.29576167506738288 -0.36584798696867898 0 0.27628411724202862 -0.36524783617958329 0 0.27628411724202862 -0.36524783617958329 0 0.26970242523906313 -0.3463930650348116 0 0.25620327224306561 -0.36049072758523892 0 0.28811986741475609 -0.34954264064797458 0 0.27628411724202862 -0.36524783617958329 0 0.26970242523906313 -0.3463930650348116 0 0.28811986741475609 -0.34954264064797458 0 0.26970242523906313 -0.3463930650348116 0 0.28056009198101312 -0.33712721632873971 0 0.26970242523906313 -0.3463930650348116 0 0.25620327224306561 -0.36049072758523892 0 0.25110761996098008 -0.33756133299550262 0 0.26194523537769671 -0.38343407302417171 0 0.27628411724202862 -0.36524783617958329 0 0.25620327224306561 -0.36049072758523892 0 0.26194523537769671 -0.38343407302417171 0 0.25620327224306561 -0.36049072758523892 0 0.2380746425401753 -0.37739124482652259 0 0.28319486675338662 -0.32334720602367162 0 0.25646807382456938 -0.31469239461157061 0 0.28319486675338662 -0.32334720602367162 0 0.25646807382456938 -0.31469239461157061 0 0.26668910057358802 -0.30550764638795852 0 0.28319486675338662 -0.32334720602367162 0 0.26642662817035351 -0.32969679049813649 0 0.25646807382456938 -0.31469239461157061 0 0.26970242523906313 -0.3463930650348116 0 0.26642662817035351 -0.32969679049813649 0 0.28056009198101312 -0.33712721632873971 0 0.28319486675338662 -0.32334720602367162 0 0.26642662817035351 -0.32969679049813649 0 0.28056009198101312 -0.33712721632873971 0 0.26970242523906313 -0.3463930650348116 0 0.26642662817035351 -0.32969679049813649 0 0.25110761996098008 -0.33756133299550262 0 0.26642662817035351 -0.32969679049813649 0 0.25110761996098008 -0.33756133299550262 0 0.25646807382456938 -0.31469239461157061 0 0.26020915296869068 -0.2933899210744732 0 0.26668910057358802 -0.30550764638795852 0 0.24613976577650579 -0.30323365481969039 0 0.25646807382456938 -0.31469239461157061 0 0.26668910057358802 -0.30550764638795852 0 0.24613976577650579 -0.30323365481969039 0 0.26020915296869068 -0.2933899210744732 0 0.25058364390229548 -0.28023087545190861 0 0.26295470628353768 -0.27026240406269297 0 0.26020915296869068 -0.2933899210744732 0 0.25058364390229548 -0.28023087545190861 0 0.24053263080688631 -0.28510356727772701 0 0.26020915296869068 -0.2933899210744732 0 0.24053263080688631 -0.28510356727772701 0 0.26020915296869068 -0.2933899210744732 0 0.28125845178791892 -0.29011251636532881 0 0.26295470628353768 -0.27026240406269297 0 0.26020915296869068 -0.2933899210744732 0 0.27988567513049512 -0.30167627487121951 0 0.28125845178791892 -0.29011251636532881 0 0.26020915296869068 -0.2933899210744732 0 0.26668910057358802 -0.30550764638795852 0 0.27988567513049512 -0.30167627487121951 0 0.26020915296869068 -0.2933899210744732 0 0.27988567513049512 -0.30167627487121951 0 0.28319486675338662 -0.32334720602367162 0 0.26668910057358802 -0.30550764638795852 0 0.27988567513049512 -0.30167627487121951 0 0.27988567513049512 -0.30167627487121951 0 0.29956219729229971 -0.30996262866796498 0 0.28125845178791892 -0.29011251636532881 0 0.29956219729229971 -0.30996262866796498 0 0.27988567513049512 -0.30167627487121951 0 0.28125845178791892 -0.29011251636532881 0 0.29956219729229971 -0.30996262866796498 0 0.28319486675338662 -0.32334720602367162 0 0.27988567513049512 -0.30167627487121951 0 0.29956219729229971 -0.30996262866796498 0 0.28125845178791892 -0.29011251636532881 0 0.30351741442094582 -0.28364787667668517 0 0.29956219729229971 -0.30996262866796498 0 0.30351741442094582 -0.28364787667668517 0 0.30893165249025939 -0.29458973757352408 0 0.29956219729229971 -0.30996262866796498 0 0.315203972569992 -0.28599406388836862 0 0.30351741442094582 -0.28364787667668517 0 0.30893165249025939 -0.29458973757352408 0 0.31744302567780058 -0.29875438106107682 0 0.30893165249025939 -0.29458973757352408 0 0.29956219729229971 -0.30996262866796498 0 0.31140457280844042 -0.24710474912070499 0 0.31565659849655159 -0.26881006701694032 0 0.29718577407036301 -0.25519814195989071 0 0.31565659849655159 -0.26881006701694032 0 0.29718577407036301 -0.25519814195989071 0 0.28930565239004458 -0.26953623553981648 0 0.31565659849655159 -0.26881006701694032 0 0.28930565239004458 -0.26953623553981648 0 0.31565659849655159 -0.26881006701694032 0 0.30351741442094582 -0.28364787667668517 0 0.28930565239004458 -0.26953623553981648 0 0.315203972569992 -0.28599406388836862 0 0.31616400359283131 -0.27140021809428472 0 0.30351741442094582 -0.28364787667668517 0 0.31616400359283131 -0.27140021809428472 0 0.31565659849655159 -0.26881006701694032 0 0.30351741442094582 -0.28364787667668517 0 0.28125845178791892 -0.29011251636532881 0 0.30351741442094582 -0.28364787667668517 0 0.28930565239004458 -0.26953623553981648 0 0.29234931722919649 -0.23956849287787771 0 0.29718577407036301 -0.25519814195989071 0 0.28009493911397709 -0.25531812806766069 0 0.29718577407036301 -0.25519814195989071 0 0.28930565239004458 -0.26953623553981648 0 0.28009493911397709 -0.25531812806766069 0 0.28009493911397709 -0.25531812806766069 0 0.26295470628353768 -0.27026240406269297 0 0.26515279713901752 -0.25474276698909742 0 0.28930565239004458 -0.26953623553981648 0 0.28009493911397709 -0.25531812806766069 0 0.26295470628353768 -0.27026240406269297 0 0.27362138757170362 -0.2426007269765893 0 0.28009493911397709 -0.25531812806766069 0 0.26515279713901752 -0.25474276698909742 0 0.28930565239004458 -0.26953623553981648 0 0.26295470628353768 -0.27026240406269297 0 0.28125845178791892 -0.29011251636532881 0 0.28930565239004458 -0.26953623553981648 0 0.26295470628353768 -0.27026240406269297 0 0.28125845178791892 -0.29011251636532881 0 0.26295470628353768 -0.27026240406269297 0 0.26295470628353768 -0.27026240406269297 0 0.25920525151110962 -0.26619618175379239 0 0.2333624491378041 -0.27107789530058801 0 0.26295470628353768 -0.27026240406269297 0 0.25920525151110962 -0.26619618175379239 0 0.26515279713901752 -0.25474276698909742 0 0.25909559454287789 -0.26033526294480458 0 0.25575058308532189 -0.25269357128633052 0 0.26295470628353768 -0.27026240406269297 0 0.25920525151110962 -0.26619618175379239 0 0.25909559454287789 -0.26033526294480458 0 0.26295470628353768 -0.27026240406269297 0 0.26515279713901752 -0.25474276698909742 0 0.25909559454287789 -0.26033526294480458 0 0.25920525151110962 -0.26619618175379239 0 0.25909559454287789 -0.26033526294480458 0 0.2525593813984649 -0.26013433662011259 0 0.2525593813984649 -0.26013433662011259 0 0.25575058308532189 -0.25269357128633052 0 0.2462907050713771 -0.25204034373521428 0 0.25909559454287789 -0.26033526294480458 0 0.2525593813984649 -0.26013433662011259 0 0.25575058308532189 -0.25269357128633052 0 0.2525593813984649 -0.26013433662011259 0 0.2372713891187809 -0.25677075628574592 0 0.2333624491378041 -0.27107789530058801 0 0.2525593813984649 -0.26013433662011259 0 0.2462907050713771 -0.25204034373521428 0 0.2372713891187809 -0.25677075628574592 0 0.2525593813984649 -0.26013433662011259 0 0.2372713891187809 -0.25677075628574592 0 0.2462907050713771 -0.25204034373521428 0 0.2372713891187809 -0.25677075628574592 0 0.2374752251495614 -0.24157268794541539 0 0.26295470628353768 -0.27026240406269297 0 0.2333624491378041 -0.27107789530058801 0 0.25058364390229548 -0.28023087545190861 0 0.2333624491378041 -0.27107789530058801 0 0.24053263080688631 -0.28510356727772701 0 0.25920525151110962 -0.26619618175379239 0 0.2525593813984649 -0.26013433662011259 0 0.2333624491378041 -0.27107789530058801 0 0.25058364390229548 -0.28023087545190861 0 0.26295470628353768 -0.27026240406269297 0 0.2333624491378041 -0.27107789530058801 0 0.2333624491378041 -0.27107789530058801 0 0.22391874229476511 -0.2824004848955064 0 0.24053263080688631 -0.28510356727772701 0 0.2333624491378041 -0.27107789530058801 0 0.22198339683909701 -0.25340717595137879 0 0.22391874229476511 -0.2824004848955064 0 0.22198339683909701 -0.25340717595137879 0 0.21277476220729311 -0.27908963951381288 0 0.22391874229476511 -0.2824004848955064 0 0.22198339683909701 -0.25340717595137879 0 0.22391874229476511 -0.2824004848955064 0 0.2372713891187809 -0.25677075628574592 0 0.2333624491378041 -0.27107789530058801 0 0.22198339683909701 -0.25340717595137879 0 0.2372713891187809 -0.25677075628574592 0 0.22198339683909701 -0.25340717595137879 0 0.2374752251495614 -0.24157268794541539 0 0.2372713891187809 -0.25677075628574592 0 0.22198339683909701 -0.25340717595137879 0 0.22198339683909701 -0.25340717595137879 0 0.19767743283581299 -0.26201501502554969 0 0.19815896102696709 -0.24816545406213189 0 0.22198339683909701 -0.25340717595137879 0 0.19815896102696709 -0.24816545406213189 0 0.22198339683909701 -0.25340717595137879 0 0.2070014623020448 -0.26844420161526761 0 0.19767743283581299 -0.26201501502554969 0 0.22198339683909701 -0.25340717595137879 0 0.21277476220729311 -0.27908963951381288 0 0.2070014623020448 -0.26844420161526761 0 0.21277476220729311 -0.27908963951381288 0 0.19627752834655959 -0.27465633278028612 0 0.20552852767052071 -0.28818040814850709 0 0.21277476220729311 -0.27908963951381288 0 0.2070014623020448 -0.26844420161526761 0 0.19627752834655959 -0.27465633278028612 0 0.2070014623020448 -0.26844420161526761 0 0.19627752834655959 -0.27465633278028612 0 0.19767743283581299 -0.26201501502554969 0 0.19627752834655959 -0.27465633278028612 0 0.19767743283581299 -0.26201501502554969 0 0.1861358052291735 -0.26379397041404468 0 0.19767743283581299 -0.26201501502554969 0 0.1861358052291735 -0.26379397041404468 0 0.19815896102696709 -0.24816545406213189 0 0.1861358052291735 -0.26379397041404468 0 0.18066177981631051 -0.25348299893649828 0 0.19815896102696709 -0.24816545406213189 0 0.20129939135720101 -0.31175464383988888 0 0.20552852767052071 -0.28818040814850709 0 0.1861316223780578 -0.30340045511113362 0 0.20552852767052071 -0.28818040814850709 0 0.18615950714984131 -0.28714944863913389 0 0.1861316223780578 -0.30340045511113362 0 0.19627752834655959 -0.27465633278028612 0 0.20552852767052071 -0.28818040814850709 0 0.18615950714984131 -0.28714944863913389 0 0.21277476220729311 -0.27908963951381288 0 0.20552852767052071 -0.28818040814850709 0 0.22391874229476511 -0.2824004848955064 0 0.20552852767052071 -0.28818040814850709 0 0.21283890344555609 -0.30228465628523993 0 0.22391874229476511 -0.2824004848955064 0 0.20129939135720101 -0.31175464383988888 0 0.20552852767052071 -0.28818040814850709 0 0.21283890344555609 -0.30228465628523993 0 0.225854087750432 -0.31139379383963389 0 0.22391874229476511 -0.2824004848955064 0 0.21283890344555609 -0.30228465628523993 0 0.225854087750432 -0.31139379383963389 0 0.22391874229476511 -0.2824004848955064 0 0.225854087750432 -0.31139379383963389 0 0.22391874229476511 -0.2824004848955064 0 0.24053263080688631 -0.28510356727772701 0 0.26020915296869068 -0.2933899210744732 0 0.24053263080688631 -0.28510356727772701 0 0.24613976577650579 -0.30323365481969039 0 0.225854087750432 -0.31139379383963389 0 0.24053263080688631 -0.28510356727772701 0 0.24613976577650579 -0.30323365481969039 0 0.225854087750432 -0.31139379383963389 0 0.24613976577650579 -0.30323365481969039 0 0.24147179610371719 -0.32145365581003182 0 0.25110761996098008 -0.33756133299550262 0 0.25646807382456938 -0.31469239461157061 0 0.24147179610371719 -0.32145365581003182 0 0.25646807382456938 -0.31469239461157061 0 0.24613976577650579 -0.30323365481969039 0 0.24147179610371719 -0.32145365581003182 0 0.25110761996098008 -0.33756133299550262 0 0.24147179610371719 -0.32145365581003182 0 0.2277894332060989 -0.3403871027837615 0 0.225854087750432 -0.31139379383963389 0 0.24147179610371719 -0.32145365581003182 0 0.2277894332060989 -0.3403871027837615 0 0.225854087750432 -0.31139379383963389 0 0.2277894332060989 -0.3403871027837615 0 0.2131017443993804 -0.32550716011161479 0 0.225854087750432 -0.31139379383963389 0 0.2277894332060989 -0.3403871027837615 0 0.25620327224306561 -0.36049072758523892 0 0.23939100935974761 -0.35412122659527612 0 0.2380746425401753 -0.37739124482652259 0 0.25110761996098008 -0.33756133299550262 0 0.2277894332060989 -0.3403871027837615 0 0.23939100935974761 -0.35412122659527612 0 0.25620327224306561 -0.36049072758523892 0 0.25110761996098008 -0.33756133299550262 0 0.23939100935974761 -0.35412122659527612 0 0.2277894332060989 -0.3403871027837615 0 0.23939100935974761 -0.35412122659527612 0 0.22160146260088931 -0.35672021721344238 0 0.2277894332060989 -0.3403871027837615 0 0.22160146260088931 -0.35672021721344238 0 0.21393580002607371 -0.34141846605291087 0 0.23939100935974761 -0.35412122659527612 0 0.22160146260088931 -0.35672021721344238 0 0.2380746425401753 -0.37739124482652259 0 0.22160146260088931 -0.35672021721344238 0 0.21646245367279571 -0.38358476595235552 0 0.22160146260088931 -0.35672021721344238 0 0.2380746425401753 -0.37739124482652259 0 0.21646245367279571 -0.38358476595235552 0 0.22160146260088931 -0.35672021721344238 0 0.19836301469614079 -0.36402790855933592 0 0.2025217842010896 -0.37807387373583923 0 0.22160146260088931 -0.35672021721344238 0 0.21646245367279571 -0.38358476595235552 0 0.2025217842010896 -0.37807387373583923 0 0.22160146260088931 -0.35672021721344238 0 0.20535211274276649 -0.35018034328080122 0 0.21393580002607371 -0.34141846605291087 0 0.22160146260088931 -0.35672021721344238 0 0.20535211274276649 -0.35018034328080122 0 0.19836301469614079 -0.36402790855933592 0 0.20535211274276649 -0.35018034328080122 0 0.19180082998577391 -0.35029167033112268 0 0.20100079568597551 -0.33875735092892167 0 0.19180082998577391 -0.35029167033112268 0 0.19836301469614079 -0.36402790855933592 0 0.18636698824462991 -0.36225910140511608 0 0.19180082998577391 -0.35029167033112268 0 0.18636698824462991 -0.36225910140511608 0 0.18448777755487131 -0.35210036546502188 0 0.20535211274276649 -0.35018034328080122 0 0.19180082998577391 -0.35029167033112268 0 0.19836301469614079 -0.36402790855933592 0 0.19836301469614079 -0.36402790855933592 0 0.19083927531350181 -0.37426462870353422 0 0.18636698824462991 -0.36225910140511608 0 0.19836301469614079 -0.36402790855933592 0 0.19083927531350181 -0.37426462870353422 0 0.2025217842010896 -0.37807387373583923 0 0.20129939135720101 -0.31175464383988888 0 0.21283890344555609 -0.30228465628523993 0 0.2131017443993804 -0.32550716011161479 0 0.21283890344555609 -0.30228465628523993 0 0.225854087750432 -0.31139379383963389 0 0.2131017443993804 -0.32550716011161479 0 0.2277894332060989 -0.3403871027837615 0 0.2131017443993804 -0.32550716011161479 0 0.21393580002607371 -0.34141846605291087 0 0.2131017443993804 -0.32550716011161479 0 0.21393580002607371 -0.34141846605291087 0 0.20100079568597551 -0.33875735092892167 0 0.20535211274276649 -0.35018034328080122 0 0.21393580002607371 -0.34141846605291087 0 0.20100079568597551 -0.33875735092892167 0 0.19180082998577391 -0.35029167033112268 0 0.20100079568597551 -0.33875735092892167 0 0.1840044286915227 -0.33601373309634508 0 0.20100079568597551 -0.33875735092892167 0 0.19352690233448341 -0.32516644492614982 0 0.1840044286915227 -0.33601373309634508 0 0.2131017443993804 -0.32550716011161479 0 0.20100079568597551 -0.33875735092892167 0 0.19352690233448341 -0.32516644492614982 0 0.20129939135720101 -0.31175464383988888 0 0.2131017443993804 -0.32550716011161479 0 0.19352690233448341 -0.32516644492614982 0 0.20129939135720101 -0.31175464383988888 0 0.19352690233448341 -0.32516644492614982 0 0.1861316223780578 -0.30340045511113362 0 0.19352690233448341 -0.32516644492614982 0 0.17526094699071121 -0.32121364916979261 0 0.1840044286915227 -0.33601373309634508 0 0.19352690233448341 -0.32516644492614982 0 0.17526094699071121 -0.32121364916979261 0 0.1861316223780578 -0.30340045511113362 0 0.17526094699071121 -0.32121364916979261 0 0.1840044286915227 -0.33601373309634508 0 0.17670370261134591 -0.35101137430815987 0 0.17526094699071121 -0.32121364916979261 0 0.16632300769682529 -0.33914532989683449 0 0.17670370261134591 -0.35101137430815987 0 0.17526094699071121 -0.32121364916979261 0 0.17670370261134591 -0.35101137430815987 0 0.16632300769682529 -0.33914532989683449 0 0.15635532043033851 -0.32762317205032648 0 0.15384528835215919 -0.34888323103730828 0 0.17526094699071121 -0.32121364916979261 0 0.16632300769682529 -0.33914532989683449 0 0.15635532043033851 -0.32762317205032648 0 0.17526094699071121 -0.32121364916979261 0 0.15635532043033851 -0.32762317205032648 0 0.16613015085753399 -0.29794196337136208 0 0.19083927531350181 -0.37426462870353422 0 0.18636698824462991 -0.36225910140511608 0 0.17814645823198061 -0.38080909944652741 0 0.17670370261134591 -0.35101137430815987 0 0.1695008882053643 -0.3539014675276998 0 0.17814645823198061 -0.38080909944652741 0 0.17670370261134591 -0.35101137430815987 0 0.17814645823198061 -0.38080909944652741 0 0.18636698824462991 -0.36225910140511608 0 0.17670370261134591 -0.35101137430815987 0 0.17814645823198061 -0.38080909944652741 0 0.18636698824462991 -0.36225910140511608 0 0.18448777755487131 -0.35210036546502188 0 0.17670370261134591 -0.35101137430815987 0 0.18448777755487131 -0.35210036546502188 0 0.18424918471087839 -0.34735428580016242 0 0.17670370261134591 -0.35101137430815987 0 0.19180082998577391 -0.35029167033112268 0 0.1840044286915227 -0.33601373309634508 0 0.18424918471087839 -0.34735428580016242 0 0.1840044286915227 -0.33601373309634508 0 0.18424918471087839 -0.34735428580016242 0 0.17670370261134591 -0.35101137430815987 0 0.19180082998577391 -0.35029167033112268 0 0.18448777755487131 -0.35210036546502188 0 0.18424918471087839 -0.34735428580016242 0 0.16632300769682529 -0.33914532989683449 0 0.1695008882053643 -0.3539014675276998 0 0.15384528835215919 -0.34888323103730828 0 0.1695008882053643 -0.3539014675276998 0 0.15622266046030589 -0.36560529067035252 0 0.15384528835215919 -0.34888323103730828 0 0.16632300769682529 -0.33914532989683449 0 0.17670370261134591 -0.35101137430815987 0 0.1695008882053643 -0.3539014675276998 0 0.1695008882053643 -0.3539014675276998 0 0.15622266046030589 -0.36560529067035252 0 0.1662516937484437 -0.37945746017663878 0 0.1695008882053643 -0.3539014675276998 0 0.17814645823198061 -0.38080909944652741 0 0.1662516937484437 -0.37945746017663878 0 0.1695008882053643 -0.3539014675276998 0 0.1662516937484437 -0.37945746017663878 0 0.15622266046030589 -0.36560529067035252 0 0.15384528835215919 -0.34888323103730828 0 0.13913284643621729 -0.36987147755796063 0 0.15622266046030589 -0.36560529067035252 0 0.13913284643621729 -0.36987147755796063 0 0.15122325216971341 -0.38057118911269922 0 0.15384528835215919 -0.34888323103730828 0 0.13913284643621729 -0.36987147755796063 0 0.1385684583736729 -0.34280877879487409 0 0.1385684583736729 -0.34280877879487409 0 0.1245186505824013 -0.36113750934922573 0 0.1203073559828662 -0.34481831064573482 0 0.13913284643621729 -0.36987147755796063 0 0.1385684583736729 -0.34280877879487409 0 0.13913284643621729 -0.36987147755796063 0 0.1385684583736729 -0.34280877879487409 0 0.1245186505824013 -0.36113750934922573 0 0.13913284643621729 -0.36987147755796063 0 0.12672469353237761 -0.38193719477194499 0 0.1245186505824013 -0.36113750934922573 0 0.15635532043033851 -0.32762317205032648 0 0.13800407031112841 -0.31574608003178772 0 0.16613015085753399 -0.29794196337136208 0 0.15635532043033851 -0.32762317205032648 0 0.15384528835215919 -0.34888323103730828 0 0.1385684583736729 -0.34280877879487409 0 0.15635532043033851 -0.32762317205032648 0 0.1385684583736729 -0.34280877879487409 0 0.13800407031112841 -0.31574608003178772 0 0.1385684583736729 -0.34280877879487409 0 0.13800407031112841 -0.31574608003178772 0 0.1385684583736729 -0.34280877879487409 0 0.1252730154641265 -0.33501756179834041 0 0.127277047630593 -0.32368123984794023 0 0.1385684583736729 -0.34280877879487409 0 0.1252730154641265 -0.33501756179834041 0 0.1203073559828662 -0.34481831064573482 0 0.13800407031112841 -0.31574608003178772 0 0.127277047630593 -0.32368123984794023 0 0.1207194796176513 -0.31206082339016011 0 0.1385684583736729 -0.34280877879487409 0 0.13800407031112841 -0.31574608003178772 0 0.127277047630593 -0.32368123984794023 0 0.13800407031112841 -0.31574608003178772 0 0.13743968224858391 -0.28868338126870119 0 0.1207194796176513 -0.31206082339016011 0 0.13800407031112841 -0.31574608003178772 0 0.13743968224858391 -0.28868338126870119 0 0.13800407031112841 -0.31574608003178772 0 0.13743968224858391 -0.28868338126870119 0 0.16613015085753399 -0.29794196337136208 0 0.13743968224858391 -0.28868338126870119 0 0.16013622185265231 -0.27370264407204231 0 0.16613015085753399 -0.29794196337136208 0 0.13743968224858391 -0.28868338126870119 0 0.13687529418603939 -0.26162068250561471 0 0.13743968224858391 -0.28868338126870119 0 0.13687529418603939 -0.26162068250561471 0 0.12122917553908071 -0.27280048239714111 0 0.13687529418603939 -0.26162068250561471 0 0.15867772839633809 -0.25707915377424612 0 0.15532271566916761 -0.23874085795770611 0 0.13687529418603939 -0.26162068250561471 0 0.16013622185265231 -0.27370264407204231 0 0.15867772839633809 -0.25707915377424612 0 0.13743968224858391 -0.28868338126870119 0 0.13687529418603939 -0.26162068250561471 0 0.16013622185265231 -0.27370264407204231 0 0.16013622185265231 -0.27370264407204231 0 0.17163424862532001 -0.26348395238230132 0 0.17866520103123101 -0.27392164610568698 0 0.16013622185265231 -0.27370264407204231 0 0.15867772839633809 -0.25707915377424612 0 0.17163424862532001 -0.26348395238230132 0 0.15867772839633809 -0.25707915377424612 0 0.17163424862532001 -0.26348395238230132 0 0.17304535898525439 -0.24904788565112909 0 0.17163424862532001 -0.26348395238230132 0 0.18066177981631051 -0.25348299893649828 0 0.17304535898525439 -0.24904788565112909 0 0.17163424862532001 -0.26348395238230132 0 0.1861358052291735 -0.26379397041404468 0 0.18066177981631051 -0.25348299893649828 0 0.19627752834655959 -0.27465633278028612 0 0.17866520103123101 -0.27392164610568698 0 0.18615950714984131 -0.28714944863913389 0 0.19627752834655959 -0.27465633278028612 0 0.1861358052291735 -0.26379397041404468 0 0.17866520103123101 -0.27392164610568698 0 0.17163424862532001 -0.26348395238230132 0 0.1861358052291735 -0.26379397041404468 0 0.17866520103123101 -0.27392164610568698 0 0.17866520103123101 -0.27392164610568698 0 0.18615950714984131 -0.28714944863913389 0 0.16613015085753399 -0.29794196337136208 0 0.18615950714984131 -0.28714944863913389 0 0.1861316223780578 -0.30340045511113362 0 0.16613015085753399 -0.29794196337136208 0 0.17526094699071121 -0.32121364916979261 0 0.1861316223780578 -0.30340045511113362 0 0.16613015085753399 -0.29794196337136208 0 0.16013622185265231 -0.27370264407204231 0 0.17866520103123101 -0.27392164610568698 0 0.16613015085753399 -0.29794196337136208 0 0.19650118937966099 -0.48458767462136337 0 0.18247472509388471 -0.47020227486163019 0 0.1839174807145193 -0.49999999999999789 0 0.19650118937966099 -0.48458767462136337 0 0.2054847406710314 -0.5 0 0.1839174807145193 -0.49999999999999789 0 0.19650118937966099 -0.48458767462136337 0 0.1995265252191368 -0.47051219141525807 0 0.18247472509388471 -0.47020227486163019 0 0.19650118937966099 -0.48458767462136337 0 0.1995265252191368 -0.47051219141525807 0 0.21142085222808771 -0.48158275099342862 0 0.1995265252191368 -0.47051219141525807 0 0.21142085222808771 -0.48158275099342862 0 0.21140626781342409 -0.46122374827882839 0 0.21142085222808771 -0.48158275099342862 0 0.23068219321441441 -0.47630316546961982 0 0.21140626781342409 -0.46122374827882839 0 0.19650118937966099 -0.48458767462136337 0 0.21142085222808771 -0.48158275099342862 0 0.2054847406710314 -0.5 0 0.21142085222808771 -0.48158275099342862 0 0.2054847406710314 -0.5 0 0.22705200062754341 -0.49999999999999972 0 0.21142085222808771 -0.48158275099342862 0 0.22705200062754341 -0.49999999999999972 0 0.23068219321441441 -0.47630316546961982 0 0.22705200062754341 -0.49999999999999972 0 0.24310759435645521 -0.48732129405658853 0 0.23068219321441441 -0.47630316546961982 0 0.22705200062754341 -0.49999999999999972 0 0.23068219321441441 -0.47630316546961982 0 0.25573491640979129 -0.5 0 0.22705200062754341 -0.49999999999999972 0 0.24310759435645521 -0.48732129405658853 0 0.24310759435645521 -0.48732129405658853 0 0.24452211955108941 -0.47321082899062988 0 0.23068219321441441 -0.47630316546961982 0 0.23068219321441441 -0.47630316546961982 0 0.23431238580128549 -0.45260633093924002 0 0.23068219321441441 -0.47630316546961982 0 0.23431238580128549 -0.45260633093924002 0 0.21140626781342409 -0.46122374827882839 0 0.24452211955108941 -0.47321082899062988 0 0.23068219321441441 -0.47630316546961982 0 0.23431238580128549 -0.45260633093924002 0 0.25055382002994903 -0.45112655962101422 0 0.24452211955108941 -0.47321082899062988 0 0.23431238580128549 -0.45260633093924002 0 0.25055382002994903 -0.45112655962101422 0 0.23431238580128549 -0.45260633093924002 0 0.24845486683426421 -0.43056678600332871 0 0.23431238580128549 -0.45260633093924002 0 0.2061844358166085 -0.43731386343018219 0 0.22816721351006641 -0.42382217308135922 0 0.23431238580128549 -0.45260633093924002 0 0.21140626781342409 -0.46122374827882839 0 0.2061844358166085 -0.43731386343018219 0 0.21140626781342409 -0.46122374827882839 0 0.1958295915806266 -0.45496450832104018 0 0.2061844358166085 -0.43731386343018219 0 0.1995265252191368 -0.47051219141525807 0 0.1958295915806266 -0.45496450832104018 0 0.18247472509388471 -0.47020227486163019 0 0.1995265252191368 -0.47051219141525807 0 0.21140626781342409 -0.46122374827882839 0 0.1958295915806266 -0.45496450832104018 0 0.1958295915806266 -0.45496450832104018 0 0.2061844358166085 -0.43731386343018219 0 0.18103196947325001 -0.44040454972326271 0 0.19189840580791451 -0.42494462472696731 0 0.2061844358166085 -0.43731386343018219 0 0.18103196947325001 -0.44040454972326271 0 0.19189840580791451 -0.42494462472696731 0 0.1954291475964339 -0.41062193775622902 0 0.2113234447447021 -0.41044931469126889 0 0.19189840580791451 -0.42494462472696731 0 0.1954291475964339 -0.41062193775622902 0 0.17958921385261531 -0.41060682458489489 0 0.19189840580791451 -0.42494462472696731 0 0.2113234447447021 -0.41044931469126889 0 0.2061844358166085 -0.43731386343018219 0 0.2113234447447021 -0.41044931469126889 0 0.2061844358166085 -0.43731386343018219 0 0.22816721351006641 -0.42382217308135922 0 0.2113234447447021 -0.41044931469126889 0 0.2061844358166085 -0.43731386343018219 0 0.23431238580128549 -0.45260633093924002 0 0.22816721351006641 -0.42382217308135922 0 0.24845486683426421 -0.43056678600332871 0 0.22816721351006641 -0.42382217308135922 0 0.24845486683426421 -0.43056678600332871 0 0.24730388124056729 -0.40448370284608931 0 0.22816721351006641 -0.42382217308135922 0 0.22802948983690591 -0.39972126622214238 0 0.24730388124056729 -0.40448370284608931 0 0.2113234447447021 -0.41044931469126889 0 0.22816721351006641 -0.42382217308135922 0 0.22802948983690591 -0.39972126622214238 0 0.22802948983690591 -0.39972126622214238 0 0.24730388124056729 -0.40448370284608931 0 0.2380746425401753 -0.37739124482652259 0 0.26194523537769671 -0.38343407302417171 0 0.24730388124056729 -0.40448370284608931 0 0.2380746425401753 -0.37739124482652259 0 0.22802948983690591 -0.39972126622214238 0 0.2380746425401753 -0.37739124482652259 0 0.21646245367279571 -0.38358476595235552 0 0.21646245367279571 -0.38358476595235552 0 0.19890552598050351 -0.3964869870217847 0 0.2025217842010896 -0.37807387373583923 0 0.2113234447447021 -0.41044931469126889 0 0.22802948983690591 -0.39972126622214238 0 0.21646245367279571 -0.38358476595235552 0 0.2113234447447021 -0.41044931469126889 0 0.21646245367279571 -0.38358476595235552 0 0.2113234447447021 -0.41044931469126889 0 0.21646245367279571 -0.38358476595235552 0 0.19890552598050351 -0.3964869870217847 0 0.1954291475964339 -0.41062193775622902 0 0.2113234447447021 -0.41044931469126889 0 0.19890552598050351 -0.3964869870217847 0 0.1954291475964339 -0.41062193775622902 0 0.19890552598050351 -0.3964869870217847 0 0.17958921385261531 -0.41060682458489489 0 0.19890552598050351 -0.3964869870217847 0 0.19000045151593811 -0.3880482826985161 0 0.17958921385261531 -0.41060682458489489 0 0.19890552598050351 -0.3964869870217847 0 0.19000045151593811 -0.3880482826985161 0 0.2025217842010896 -0.37807387373583923 0 0.19083927531350181 -0.37426462870353422 0 0.19000045151593811 -0.3880482826985161 0 0.2025217842010896 -0.37807387373583923 0 0.19083927531350181 -0.37426462870353422 0 0.19000045151593811 -0.3880482826985161 0 0.17814645823198061 -0.38080909944652741 0 0.17814645823198061 -0.38080909944652741 0 0.17958921385261531 -0.41060682458489489 0 0.19000045151593811 -0.3880482826985161 0 0.17814645823198061 -0.38080909944652741 0 0.17958921385261531 -0.41060682458489489 0 0.17814645823198061 -0.38080909944652741 0 0.17073561596382039 -0.39301209499015272 0 0.17958921385261531 -0.41060682458489489 0 0.16300249929152311 -0.40501345282557782 0 0.1662516937484437 -0.37945746017663878 0 0.1548118257048379 -0.39098754083749682 0 0.17073561596382039 -0.39301209499015272 0 0.16300249929152311 -0.40501345282557782 0 0.1662516937484437 -0.37945746017663878 0 0.17073561596382039 -0.39301209499015272 0 0.16300249929152311 -0.40501345282557782 0 0.17958921385261531 -0.41060682458489489 0 0.16300249929152311 -0.40501345282557782 0 0.1662516937484437 -0.37945746017663878 0 0.1662516937484437 -0.37945746017663878 0 0.15122325216971341 -0.38057118911269922 0 0.1548118257048379 -0.39098754083749682 0 0.17814645823198061 -0.38080909944652741 0 0.17073561596382039 -0.39301209499015272 0 0.1662516937484437 -0.37945746017663878 0 0.15622266046030589 -0.36560529067035252 0 0.1662516937484437 -0.37945746017663878 0 0.15122325216971341 -0.38057118911269922 0 0.15122325216971341 -0.38057118911269922 0 0.13969723449876181 -0.39693417632104711 0 0.1548118257048379 -0.39098754083749682 0 0.13913284643621729 -0.36987147755796063 0 0.15122325216971341 -0.38057118911269922 0 0.13969723449876181 -0.39693417632104711 0 0.13913284643621729 -0.36987147755796063 0 0.12672469353237761 -0.38193719477194499 0 0.13969723449876181 -0.39693417632104711 0 0.13913284643621729 -0.36987147755796063 0 0.13969723449876181 -0.39693417632104711 0 0.12672469353237761 -0.38193719477194499 0 0.13969723449876181 -0.39693417632104711 0 0.1219351525082772 -0.40864131998943182 0 0.16300249929152311 -0.40501345282557782 0 0.13969723449876181 -0.39693417632104711 0 0.1524997256598466 -0.41582351463554701 0 0.16300249929152311 -0.40501345282557782 0 0.13969723449876181 -0.39693417632104711 0 0.1548118257048379 -0.39098754083749682 0 0.13969723449876181 -0.39693417632104711 0 0.1524997256598466 -0.41582351463554701 0 0.14026162256130631 -0.42399687508413381 0 0.13969723449876181 -0.39693417632104711 0 0.14026162256130631 -0.42399687508413381 0 0.13969723449876181 -0.39693417632104711 0 0.14026162256130631 -0.42399687508413381 0 0.1219351525082772 -0.40864131998943182 0 0.1272554141007321 -0.42571201066291808 0 0.14026162256130631 -0.42399687508413381 0 0.1219351525082772 -0.40864131998943182 0 0.13018508541287829 -0.43658956786597553 0 0.14026162256130631 -0.42399687508413381 0 0.14082601062385081 -0.45105957384722029 0 0.13018508541287829 -0.43658956786597553 0 0.1272554141007321 -0.42571201066291808 0 0.14026162256130631 -0.42399687508413381 0 0.1524997256598466 -0.41582351463554701 0 0.14026162256130631 -0.42399687508413381 0 0.15975330483460251 -0.43056944547451692 0 0.14026162256130631 -0.42399687508413381 0 0.15975330483460251 -0.43056944547451692 0 0.14082601062385081 -0.45105957384722029 0 0.16300249929152311 -0.40501345282557782 0 0.15975330483460251 -0.43056944547451692 0 0.17958921385261531 -0.41060682458489489 0 0.16300249929152311 -0.40501345282557782 0 0.15975330483460251 -0.43056944547451692 0 0.16300249929152311 -0.40501345282557782 0 0.1524997256598466 -0.41582351463554701 0 0.15975330483460251 -0.43056944547451692 0 0.15975330483460251 -0.43056944547451692 0 0.17958921385261531 -0.41060682458489489 0 0.18103196947325001 -0.44040454972326271 0 0.17958921385261531 -0.41060682458489489 0 0.18103196947325001 -0.44040454972326271 0 0.19189840580791451 -0.42494462472696731 0 0.17958921385261531 -0.41060682458489489 0 0.18103196947325001 -0.44040454972326271 0 0.18103196947325001 -0.44040454972326271 0 0.16491961284223791 -0.45249038001545161 0 0.18247472509388471 -0.47020227486163019 0 0.18103196947325001 -0.44040454972326271 0 0.18247472509388471 -0.47020227486163019 0 0.1958295915806266 -0.45496450832104018 0 0.18103196947325001 -0.44040454972326271 0 0.18247472509388471 -0.47020227486163019 0 0.16491961284223791 -0.45249038001545161 0 0.1605120541856016 -0.47021605617062739 0 0.18247472509388471 -0.47020227486163019 0 0.15975330483460251 -0.43056944547451692 0 0.18103196947325001 -0.44040454972326271 0 0.16491961284223791 -0.45249038001545161 0 0.15975330483460251 -0.43056944547451692 0 0.16491961284223791 -0.45249038001545161 0 0.14082601062385081 -0.45105957384722029 0 0.14026162256130631 -0.42399687508413381 0 0.14082601062385081 -0.45105957384722029 0 0.14082601062385081 -0.45105957384722029 0 0.12543676829432579 -0.44683393452868708 0 0.12531186358948529 -0.45757018679138572 0 0.13018508541287829 -0.43658956786597553 0 0.14082601062385081 -0.45105957384722029 0 0.12543676829432579 -0.44683393452868708 0 0.14082601062385081 -0.45105957384722029 0 0.12842365125323091 -0.46593607888014599 0 0.13328939848609819 -0.47119455711627289 0 0.14082601062385081 -0.45105957384722029 0 0.14139039868639619 -0.47812227261030682 0 0.13328939848609819 -0.47119455711627289 0 0.12842365125323091 -0.46593607888014599 0 0.12531186358948529 -0.45757018679138572 0 0.1232316263288145 -0.46410889533344052 0 0.12842365125323091 -0.46593607888014599 0 0.1245497287119053 -0.47085317529077592 0 0.12311265484265969 -0.46777846846391841 0 0.14082601062385081 -0.45105957384722029 0 0.12842365125323091 -0.46593607888014599 0 0.12531186358948529 -0.45757018679138572 0 0.16491961284223791 -0.45249038001545161 0 0.14082601062385081 -0.45105957384722029 0 0.1605120541856016 -0.47021605617062739 0 0.14082601062385081 -0.45105957384722029 0 0.14139039868639619 -0.47812227261030682 0 0.14082601062385081 -0.45105957384722029 0 0.14139039868639619 -0.47812227261030682 0 0.1605120541856016 -0.47021605617062739 0 0.14139039868639619 -0.47812227261030682 0 0.15939735020609169 -0.48906113630515408 0 0.1605120541856016 -0.47021605617062739 0 0.14139039868639619 -0.47812227261030682 0 0.15939735020609169 -0.48906113630515408 0 0.14139039868639619 -0.47812227261030682 0 0.13328939848609819 -0.47119455711627289 0 0.13520794413867351 -0.47916570768291911 0 0.14139039868639619 -0.47812227261030682 0 0.13520794413867351 -0.47916570768291911 0 0.13309005864575499 -0.48654881223837643 0 0.13328939848609819 -0.47119455711627289 0 0.13520794413867351 -0.47916570768291911 0 0.1282166063692238 -0.47963436787526348 0 0.13520794413867351 -0.47916570768291911 0 0.1282166063692238 -0.47963436787526348 0 0.13309005864575499 -0.48654881223837643 0 0.12842365125323091 -0.46593607888014599 0 0.1275076222339897 -0.47406719287555171 0 0.1245497287119053 -0.47085317529077592 0 0.12842365125323091 -0.46593607888014599 0 0.13328939848609819 -0.47119455711627289 0 0.1275076222339897 -0.47406719287555171 0 0.13328939848609819 -0.47119455711627289 0 0.1282166063692238 -0.47963436787526348 0 0.1275076222339897 -0.47406719287555171 0 0.1282166063692238 -0.47963436787526348 0 0.1275076222339897 -0.47406719287555171 0 0.12271037357175291 -0.47562361121234281 0 0.14139039868639619 -0.47812227261030682 0 0.13309005864575499 -0.48654881223837643 0 0.1417493920694651 -0.49533619053082339 0 0.1325088383252874 -0.49999999999999689 0 0.11946717228548211 -0.4870343347309507 0 0.1325088383252874 -0.49999999999999689 0 0.13309005864575499 -0.48654881223837643 0 0.11946717228548211 -0.4870343347309507 0 0.1282166063692238 -0.47963436787526348 0 0.13309005864575499 -0.48654881223837643 0 0.11946717228548211 -0.4870343347309507 0 0.1325088383252874 -0.49999999999999689 0 0.13309005864575499 -0.48654881223837643 0 0.1417493920694651 -0.49533619053082339 0 0.1325088383252874 -0.49999999999999689 0 0.1417493920694651 -0.49533619053082339 0 0.15495657002553739 -0.5 0 0.14139039868639619 -0.47812227261030682 0 0.14937342774687271 -0.49062989986157102 0 0.15939735020609169 -0.48906113630515408 0 0.14139039868639619 -0.47812227261030682 0 0.1417493920694651 -0.49533619053082339 0 0.14139039868639619 -0.47812227261030682 0 0.1417493920694651 -0.49533619053082339 0 0.14937342774687271 -0.49062989986157102 0 0.1417493920694651 -0.49533619053082339 0 0.14937342774687271 -0.49062989986157102 0 0.15495657002553739 -0.5 0 0.14937342774687271 -0.49062989986157102 0 0.15495657002553739 -0.5 0 0.15939735020609169 -0.48906113630515408 0 0.15939735020609169 -0.48906113630515408 0 0.17467337585270831 -0.48420504396041608 0 0.1774043017257875 -0.50000000000000111 0 0.15939735020609169 -0.48906113630515408 0 0.1774043017257875 -0.50000000000000111 0 0.15495657002553739 -0.5 0 0.15939735020609169 -0.48906113630515408 0 0.1774043017257875 -0.50000000000000111 0 0.15939735020609169 -0.48906113630515408 0 0.1605120541856016 -0.47021605617062739 0 0.17467337585270831 -0.48420504396041608 0 0.1605120541856016 -0.47021605617062739 0 0.17467337585270831 -0.48420504396041608 0 0.18247472509388471 -0.47020227486163019 0 0.18247472509388471 -0.47020227486163019 0 0.1839174807145193 -0.49999999999999789 0 0.17467337585270831 -0.48420504396041608 0 0.18247472509388471 -0.47020227486163019 0 0.1839174807145193 -0.49999999999999789 0 0.17467337585270831 -0.48420504396041608 0 0.1839174807145193 -0.49999999999999789 0 0.1774043017257875 -0.50000000000000111 0 0.065949985054517032 -0.48884997455687013 0 0.080677891680827868 -0.48404188118506331 0 0.084758324792090334 -0.49999999999999989 0 0.065949985054517032 -0.48884997455687013 0 0.084758324792090334 -0.49999999999999989 0 0.055728539092515517 -0.5 0 0.065949985054517032 -0.48884997455687013 0 0.069113753880103546 -0.47032146630200872 0 0.080677891680827868 -0.48404188118506331 0 0.065949985054517032 -0.48884997455687013 0 0.069113753880103546 -0.47032146630200872 0 0.057596711449277201 -0.48334309492942701 0 0.069113753880103546 -0.47032146630200872 0 0.080677891680827868 -0.48404188118506331 0 0.088790870678748121 -0.47481427013272492 0 0.069113753880103546 -0.47032146630200872 0 0.088790870678748121 -0.47481427013272492 0 0.09506323621333454 -0.46277261346061632 0 0.080677891680827868 -0.48404188118506331 0 0.088790870678748121 -0.47481427013272492 0 0.094776523998680279 -0.48622369493371298 0 0.080677891680827868 -0.48404188118506331 0 0.084758324792090334 -0.49999999999999989 0 0.094776523998680279 -0.48622369493371298 0 0.084758324792090334 -0.49999999999999989 0 0.10099043700106421 -0.499999999999999 0 0.094776523998680279 -0.48622369493371298 0 0.084758324792090334 -0.49999999999999989 0 0.094776523998680279 -0.48622369493371298 0 0.10099043700106421 -0.499999999999999 0 0.1064255062456735 -0.47406866946190801 0 0.10099043700106421 -0.499999999999999 0 0.094776523998680279 -0.48622369493371298 0 0.1064255062456735 -0.47406866946190801 0 0.10099043700106421 -0.499999999999999 0 0.11946717228548211 -0.4870343347309507 0 0.1064255062456735 -0.47406866946190801 0 0.1325088383252874 -0.49999999999999689 0 0.1167496376631757 -0.5 0 0.11946717228548211 -0.4870343347309507 0 0.10099043700106421 -0.499999999999999 0 0.1167496376631757 -0.5 0 0.11946717228548211 -0.4870343347309507 0 0.12074084002908721 -0.47045370359981148 0 0.12271037357175291 -0.47562361121234281 0 0.11625567037499381 -0.47238364776222469 0 0.12074084002908721 -0.47045370359981148 0 0.11625567037499381 -0.47238364776222469 0 0.1192823524431306 -0.4663394170250621 0 0.12074084002908721 -0.47045370359981148 0 0.1245497287119053 -0.47085317529077592 0 0.12271037357175291 -0.47562361121234281 0 0.12074084002908721 -0.47045370359981148 0 0.1245497287119053 -0.47085317529077592 0 0.12311265484265969 -0.46777846846391841 0 0.1275076222339897 -0.47406719287555171 0 0.1245497287119053 -0.47085317529077592 0 0.12271037357175291 -0.47562361121234281 0 0.1282166063692238 -0.47963436787526348 0 0.11946717228548211 -0.4870343347309507 0 0.12271037357175291 -0.47562361121234281 0 0.11946717228548211 -0.4870343347309507 0 0.12271037357175291 -0.47562361121234281 0 0.11625567037499381 -0.47238364776222469 0 0.11946717228548211 -0.4870343347309507 0 0.1064255062456735 -0.47406866946190801 0 0.11946717228548211 -0.4870343347309507 0 0.11625567037499381 -0.47238364776222469 0 0.1064255062456735 -0.47406866946190801 0 0.11625567037499381 -0.47238364776222469 0 0.1064255062456735 -0.47406866946190801 0 0.11129693947086181 -0.46795476393154728 0 0.1064255062456735 -0.47406866946190801 0 0.10479472320527 -0.47244738986742602 0 0.1075632658294263 -0.46864028970971422 0 0.1064255062456735 -0.47406866946190801 0 0.1075632658294263 -0.46864028970971422 0 0.11129693947086181 -0.46795476393154728 0 0.088790870678748121 -0.47481427013272492 0 0.094776523998680279 -0.48622369493371298 0 0.10479472320527 -0.47244738986742602 0 0.1064255062456735 -0.47406866946190801 0 0.1075632658294263 -0.46864028970971422 0 0.088790870678748121 -0.47481427013272492 0 0.10479472320527 -0.47244738986742602 0 0.09506323621333454 -0.46277261346061632 0 0.10479472320527 -0.47244738986742602 0 0.1075632658294263 -0.46864028970971422 0 0.1064255062456735 -0.47406866946190801 0 0.10479472320527 -0.47244738986742602 0 0.094776523998680279 -0.48622369493371298 0 0.1064255062456735 -0.47406866946190801 0 0.10479472320527 -0.47244738986742602 0 0.094776523998680279 -0.48622369493371298 0 0.10479472320527 -0.47244738986742602 0 0.10479472320527 -0.47244738986742602 0 0.09506323621333454 -0.46277261346061632 0 0.1060131744550812 -0.45411466011360518 0 0.1075632658294263 -0.46864028970971422 0 0.11260152047704799 -0.44460220652757759 0 0.09506323621333454 -0.46277261346061632 0 0.10011436795704159 -0.45274002486564408 0 0.091519926973447546 -0.44626784630584138 0 0.09506323621333454 -0.46277261346061632 0 0.10386028492466159 -0.46021350167150438 0 0.09506323621333454 -0.46277261346061632 0 0.10386028492466159 -0.46021350167150438 0 0.10011436795704159 -0.45274002486564408 0 0.10386028492466159 -0.46021350167150438 0 0.1060131744550812 -0.45411466011360518 0 0.10011436795704159 -0.45274002486564408 0 0.10386028492466159 -0.46021350167150438 0 0.1060131744550812 -0.45411466011360518 0 0.1075632658294263 -0.46864028970971422 0 0.10479472320527 -0.47244738986742602 0 0.09506323621333454 -0.46277261346061632 0 0.1075632658294263 -0.46864028970971422 0 0.09506323621333454 -0.46277261346061632 0 0.10386028492466159 -0.46021350167150438 0 0.1075632658294263 -0.46864028970971422 0 0.1075632658294263 -0.46864028970971422 0 0.1123560704600764 -0.46204957042440498 0 0.11260152047704799 -0.44460220652757759 0 0.1075632658294263 -0.46864028970971422 0 0.1123560704600764 -0.46204957042440498 0 0.1075632658294263 -0.46864028970971422 0 0.11129693947086181 -0.46795476393154728 0 0.1123560704600764 -0.46204957042440498 0 0.1075632658294263 -0.46864028970971422 0 0.11260152047704799 -0.44460220652757759 0 0.11129693947086181 -0.46795476393154728 0 0.1123560704600764 -0.46204957042440498 0 0.11129693947086181 -0.46795476393154728 0 0.1149697984784732 -0.46556593525158491 0 0.1123560704600764 -0.46204957042440498 0 0.11625567037499381 -0.47238364776222469 0 0.1149697984784732 -0.46556593525158491 0 0.1192823524431306 -0.4663394170250621 0 0.11625567037499381 -0.47238364776222469 0 0.11129693947086181 -0.46795476393154728 0 0.1149697984784732 -0.46556593525158491 0 0.1149697984784732 -0.46556593525158491 0 0.1123560704600764 -0.46204957042440498 0 0.118705430672609 -0.46205297743075813 0 0.1123560704600764 -0.46204957042440498 0 0.11635977570981471 -0.45654396370023359 0 0.118705430672609 -0.46205297743075813 0 0.1123560704600764 -0.46204957042440498 0 0.11635977570981471 -0.45654396370023359 0 0.12531186358948529 -0.45757018679138572 0 0.11635977570981471 -0.45654396370023359 0 0.118705430672609 -0.46205297743075813 0 0.12543676829432579 -0.44683393452868708 0 0.12531186358948529 -0.45757018679138572 0 0.11635977570981471 -0.45654396370023359 0 0.12531186358948529 -0.45757018679138572 0 0.1232316263288145 -0.46410889533344052 0 0.118705430672609 -0.46205297743075813 0 0.1232316263288145 -0.46410889533344052 0 0.12311265484265969 -0.46777846846391841 0 0.1192823524431306 -0.4663394170250621 0 0.12842365125323091 -0.46593607888014599 0 0.1232316263288145 -0.46410889533344052 0 0.12311265484265969 -0.46777846846391841 0 0.12074084002908721 -0.47045370359981148 0 0.12311265484265969 -0.46777846846391841 0 0.1192823524431306 -0.4663394170250621 0 0.1149697984784732 -0.46556593525158491 0 0.1192823524431306 -0.4663394170250621 0 0.118705430672609 -0.46205297743075813 0 0.1232316263288145 -0.46410889533344052 0 0.1192823524431306 -0.4663394170250621 0 0.118705430672609 -0.46205297743075813 0 0.1123560704600764 -0.46204957042440498 0 0.11714561148417681 -0.43534544520691831 0 0.1123560704600764 -0.46204957042440498 0 0.11260152047704799 -0.44460220652757759 0 0.11714561148417681 -0.43534544520691831 0 0.1123560704600764 -0.46204957042440498 0 0.11635977570981471 -0.45654396370023359 0 0.11714561148417681 -0.43534544520691831 0 0.12543676829432579 -0.44683393452868708 0 0.11635977570981471 -0.45654396370023359 0 0.11714561148417681 -0.43534544520691831 0 0.13018508541287829 -0.43658956786597553 0 0.12543676829432579 -0.44683393452868708 0 0.11714561148417681 -0.43534544520691831 0 0.10592643308722841 -0.44437727779358549 0 0.083881602994700072 -0.43088647549478237 0 0.10592643308722841 -0.44437727779358549 0 0.091519926973447546 -0.44626784630584138 0 0.083881602994700072 -0.43088647549478237 0 0.11260152047704799 -0.44460220652757759 0 0.10592643308722841 -0.44437727779358549 0 0.1086116799951807 -0.43095684568344572 0 0.1060131744550812 -0.45411466011360518 0 0.10592643308722841 -0.44437727779358549 0 0.10011436795704159 -0.45274002486564408 0 0.1060131744550812 -0.45411466011360518 0 0.11260152047704799 -0.44460220652757759 0 0.10592643308722841 -0.44437727779358549 0 0.10592643308722841 -0.44437727779358549 0 0.10011436795704159 -0.45274002486564408 0 0.091519926973447546 -0.44626784630584138 0 0.09506323621333454 -0.46277261346061632 0 0.073976492589610171 -0.44180875358221461 0 0.09506323621333454 -0.46277261346061632 0 0.091519926973447546 -0.44626784630584138 0 0.073976492589610171 -0.44180875358221461 0 0.091519926973447546 -0.44626784630584138 0 0.073976492589610171 -0.44180875358221461 0 0.083881602994700072 -0.43088647549478237 0 0.069113753880103546 -0.47032146630200872 0 0.09506323621333454 -0.46277261346061632 0 0.09506323621333454 -0.46277261346061632 0 0.075948319170580939 -0.45709497223106438 0 0.073976492589610171 -0.44180875358221461 0 0.069113753880103546 -0.47032146630200872 0 0.09506323621333454 -0.46277261346061632 0 0.075948319170580939 -0.45709497223106438 0 0.069113753880103546 -0.47032146630200872 0 0.075948319170580939 -0.45709497223106438 0 0.064267892493667544 -0.45245405090636609 0 0.064267892493667544 -0.45245405090636609 0 0.073976492589610171 -0.44180875358221461 0 0.061221704008603092 -0.43412854505433712 0 0.075948319170580939 -0.45709497223106438 0 0.064267892493667544 -0.45245405090636609 0 0.073976492589610171 -0.44180875358221461 0 0.083881602994700072 -0.43088647549478237 0 0.061836772902171017 -0.41739567319598042 0 0.061221704008603092 -0.43412854505433712 0 0.073976492589610171 -0.44180875358221461 0 0.083881602994700072 -0.43088647549478237 0 0.061221704008603092 -0.43412854505433712 0 0.083881602994700072 -0.43088647549478237 0 0.061836772902171017 -0.41739567319598042 0 0.087852613914545186 -0.40334306140395609 0 0.070156507476487037 -0.39917662383738439 0 0.061836772902171017 -0.41739567319598042 0 0.087852613914545186 -0.40334306140395609 0 0.061836772902171017 -0.41739567319598042 0 0.090204007114443943 -0.4177400312392191 0 0.087852613914545186 -0.40334306140395609 0 0.061836772902171017 -0.41739567319598042 0 0.090204007114443943 -0.4177400312392191 0 0.083881602994700072 -0.43088647549478237 0 0.061836772902171017 -0.41739567319598042 0 0.090204007114443943 -0.4177400312392191 0 0.083881602994700072 -0.43088647549478237 0 0.10022705322515101 -0.42809075962971732 0 0.10592643308722841 -0.44437727779358549 0 0.083881602994700072 -0.43088647549478237 0 0.10022705322515101 -0.42809075962971732 0 0.10592643308722841 -0.44437727779358549 0 0.10022705322515101 -0.42809075962971732 0 0.1086116799951807 -0.43095684568344572 0 0.10022705322515101 -0.42809075962971732 0 0.1086116799951807 -0.43095684568344572 0 0.10561771621597441 -0.41891116251106192 0 0.11260152047704799 -0.44460220652757759 0 0.11714561148417681 -0.43534544520691831 0 0.11763977512467 -0.42056412334544119 0 0.11714561148417681 -0.43534544520691831 0 0.1219351525082772 -0.40864131998943182 0 0.11260152047704799 -0.44460220652757759 0 0.11763977512467 -0.42056412334544119 0 0.11260152047704799 -0.44460220652757759 0 0.1086116799951807 -0.43095684568344572 0 0.11763977512467 -0.42056412334544119 0 0.1272554141007321 -0.42571201066291808 0 0.11714561148417681 -0.43534544520691831 0 0.1219351525082772 -0.40864131998943182 0 0.1086116799951807 -0.43095684568344572 0 0.11763977512467 -0.42056412334544119 0 0.10561771621597441 -0.41891116251106192 0 0.13018508541287829 -0.43658956786597553 0 0.1272554141007321 -0.42571201066291808 0 0.11714561148417681 -0.43534544520691831 0 0.1219351525082772 -0.40864131998943182 0 0.11763977512467 -0.42056412334544119 0 0.1226780297722921 -0.39652604016330478 0 0.11763977512467 -0.42056412334544119 0 0.1063857367604352 -0.40565829933023112 0 0.1226780297722921 -0.39652604016330478 0 0.11714561148417681 -0.43534544520691831 0 0.1219351525082772 -0.40864131998943182 0 0.11763977512467 -0.42056412334544119 0 0.11763977512467 -0.42056412334544119 0 0.1226780297722921 -0.39652604016330478 0 0.11763977512467 -0.42056412334544119 0 0.10561771621597441 -0.41891116251106192 0 0.1063857367604352 -0.40565829933023112 0 0.090204007114443943 -0.4177400312392191 0 0.1063857367604352 -0.40565829933023112 0 0.087852613914545186 -0.40334306140395609 0 0.090204007114443943 -0.4177400312392191 0 0.10561771621597441 -0.41891116251106192 0 0.1063857367604352 -0.40565829933023112 0 0.090204007114443943 -0.4177400312392191 0 0.10022705322515101 -0.42809075962971732 0 0.10561771621597441 -0.41891116251106192 0 0.1063857367604352 -0.40565829933023112 0 0.11269819459067421 -0.38831450138448881 0 0.097085641119374302 -0.38571424072610178 0 0.1063857367604352 -0.40565829933023112 0 0.097085641119374302 -0.38571424072610178 0 0.087852613914545186 -0.40334306140395609 0 0.12672469353237761 -0.38193719477194499 0 0.1219351525082772 -0.40864131998943182 0 0.1063857367604352 -0.40565829933023112 0 0.1226780297722921 -0.39652604016330478 0 0.11269819459067421 -0.38831450138448881 0 0.12672469353237761 -0.38193719477194499 0 0.1219351525082772 -0.40864131998943182 0 0.1226780297722921 -0.39652604016330478 0 0.12672469353237761 -0.38193719477194499 0 0.11269819459067421 -0.38831450138448881 0 0.1080928822255358 -0.3703790814713866 0 0.12672469353237761 -0.38193719477194499 0 0.1226780297722921 -0.39652604016330478 0 0.11269819459067421 -0.38831450138448881 0 0.11269819459067421 -0.38831450138448881 0 0.097085641119374302 -0.38571424072610178 0 0.1080928822255358 -0.3703790814713866 0 0.097085641119374302 -0.38571424072610178 0 0.078524092076429908 -0.38558307009035819 0 0.085574671404253372 -0.36606529366265911 0 0.097085641119374302 -0.38571424072610178 0 0.078524092076429908 -0.38558307009035819 0 0.087852613914545186 -0.40334306140395609 0 0.078524092076429908 -0.38558307009035819 0 0.087852613914545186 -0.40334306140395609 0 0.070156507476487037 -0.39917662383738439 0 0.078524092076429908 -0.38558307009035819 0 0.070156507476487037 -0.39917662383738439 0 0.064141871653705745 -0.38905297891460661 0 0.070156507476487037 -0.39917662383738439 0 0.058427186835583247 -0.40050833558202109 0 0.061836772902171017 -0.41739567319598042 0 0.070156507476487037 -0.39917662383738439 0 0.064141871653705745 -0.38905297891460661 0 0.058427186835583247 -0.40050833558202109 0 0.078524092076429908 -0.38558307009035819 0 0.064141871653705745 -0.38905297891460661 0 0.064781398010314309 -0.37536455347105108 0 0.078524092076429908 -0.38558307009035819 0 0.064781398010314309 -0.37536455347105108 0 0.085574671404253372 -0.36606529366265911 0 0.064781398010314309 -0.37536455347105108 0 0.05115882120843647 -0.38571757356542352 0 0.043890455581289831 -0.3709268115488259 0 0.05115882120843647 -0.38571757356542352 0 0.043890455581289831 -0.3709268115488259 0 0.064141871653705745 -0.38905297891460661 0 0.064781398010314309 -0.37536455347105108 0 0.05115882120843647 -0.38571757356542352 0 0.064141871653705745 -0.38905297891460661 0 0.05115882120843647 -0.38571757356542352 0 0.058427186835583247 -0.40050833558202109 0 0.05115882120843647 -0.38571757356542352 0 0.058427186835583247 -0.40050833558202109 0 0.05115882120843647 -0.38571757356542352 0 0.058427186835583247 -0.40050833558202109 0 0.039291666751458072 -0.38953557003537942 0 0.058427186835583247 -0.40050833558202109 0 0.03861507037192409 -0.403184658796582 0 0.039291666751458072 -0.38953557003537942 0 0.039291666751458072 -0.38953557003537942 0 0.030780854092194759 -0.38031894893150719 0 0.043890455581289831 -0.3709268115488259 0 0.05115882120843647 -0.38571757356542352 0 0.039291666751458072 -0.38953557003537942 0 0.043890455581289831 -0.3709268115488259 0 0.030780854092194759 -0.38031894893150719 0 0.043890455581289831 -0.3709268115488259 0 0.030780854092194759 -0.38031894893150719 0 0.0132535835722172 -0.37610527220974688 0 0.01539336784167648 -0.38897364439718468 0 0.039291666751458072 -0.38953557003537942 0 0.030780854092194759 -0.38031894893150719 0 0.01539336784167648 -0.38897364439718468 0 0.030780854092194759 -0.38031894893150719 0 0.0132535835722172 -0.37610527220974688 0 0.022072978528308879 -0.36937310690127451 0 -0.0078283346885702904 -0.37476262999778609 0 -0.0023576536845698339 -0.39611583857600319 0 0.01539336784167648 -0.38897364439718468 0 -0.0078283346885702904 -0.37476262999778609 0 0.01539336784167648 -0.38897364439718468 0 -0.0078283346885702904 -0.37476262999778609 0 0.0132535835722172 -0.37610527220974688 0 0.01539336784167648 -0.38897364439718468 0 -0.0023576536845698339 -0.39611583857600319 0 -0.0081630895937607941 -0.41129335178386173 0 0.01158543002224671 -0.40754374071996963 0 -0.0023576536845698339 -0.39611583857600319 0 0.01539336784167648 -0.38897364439718468 0 0.01158543002224671 -0.40754374071996963 0 0.03861507037192409 -0.403184658796582 0 0.039291666751458072 -0.38953557003537942 0 0.01539336784167648 -0.38897364439718468 0 0.03861507037192409 -0.403184658796582 0 0.01539336784167648 -0.38897364439718468 0 0.026736383496206509 -0.41290648431754168 0 0.01539336784167648 -0.38897364439718468 0 0.026736383496206509 -0.41290648431754168 0 0.01158543002224671 -0.40754374071996963 0 0.03861507037192409 -0.403184658796582 0 0.01539336784167648 -0.38897364439718468 0 0.026736383496206509 -0.41290648431754168 0 0.01158543002224671 -0.40754374071996963 0 0.01747615232015888 -0.42514842909431222 0 0.026736383496206509 -0.41290648431754168 0 0.01747615232015888 -0.42514842909431222 0 0.02768083642208749 -0.42593076319487821 0 0.01158543002224671 -0.40754374071996963 0 0.0026957591361241309 -0.41958824334712869 0 0.01747615232015888 -0.42514842909431222 0 -0.0081630895937607941 -0.41129335178386173 0 0.01158543002224671 -0.40754374071996963 0 0.0026957591361241309 -0.41958824334712869 0 0.0026957591361241309 -0.41958824334712869 0 0.003851027954898749 -0.43172418954792041 0 0.01747615232015888 -0.42514842909431222 0 0.003851027954898749 -0.43172418954792041 0 0.01410030331848921 -0.43483725365991388 0 0.01747615232015888 -0.42514842909431222 0 0.003851027954898749 -0.43172418954792041 0 0.01410030331848921 -0.43483725365991388 0 0.011432193992105429 -0.44462200732167467 0 0.01747615232015888 -0.42514842909431222 0 0.023728282280598981 -0.43798020184644493 0 0.01410030331848921 -0.43483725365991388 0 0.01747615232015888 -0.42514842909431222 0 0.023728282280598981 -0.43798020184644493 0 0.01747615232015888 -0.42514842909431222 0 0.02768083642208749 -0.42593076319487821 0 0.023728282280598981 -0.43798020184644493 0 0.026736383496206509 -0.41290648431754168 0 0.02768083642208749 -0.42593076319487821 0 0.042782527591385587 -0.42768793752121392 0 0.042782527591385587 -0.42768793752121392 0 0.023728282280598981 -0.43798020184644493 0 0.02768083642208749 -0.42593076319487821 0 0.042782527591385587 -0.42768793752121392 0 0.023728282280598981 -0.43798020184644493 0 0.042782527591385587 -0.42768793752121392 0 0.038339333849137569 -0.44224603439757942 0 0.023728282280598981 -0.43798020184644493 0 0.03861507037192409 -0.403184658796582 0 0.026736383496206509 -0.41290648431754168 0 0.042782527591385587 -0.42768793752121392 0 0.03861507037192409 -0.403184658796582 0 0.042782527591385587 -0.42768793752121392 0 0.061836772902171017 -0.41739567319598042 0 0.03861507037192409 -0.403184658796582 0 0.061836772902171017 -0.41739567319598042 0 0.058427186835583247 -0.40050833558202109 0 0.03861507037192409 -0.403184658796582 0 0.061836772902171017 -0.41739567319598042 0 0.042782527591385587 -0.42768793752121392 0 0.061836772902171017 -0.41739567319598042 0 0.061221704008603092 -0.43412854505433712 0 0.042782527591385587 -0.42768793752121392 0 0.061836772902171017 -0.41739567319598042 0 0.042782527591385587 -0.42768793752121392 0 0.061221704008603092 -0.43412854505433712 0 0.052693917870023622 -0.44730825455084611 0 0.064267892493667544 -0.45245405090636609 0 0.061221704008603092 -0.43412854505433712 0 0.052693917870023622 -0.44730825455084611 0 0.069113753880103546 -0.47032146630200872 0 0.064267892493667544 -0.45245405090636609 0 0.052594011880735161 -0.46258963849414558 0 0.064267892493667544 -0.45245405090636609 0 0.052693917870023622 -0.44730825455084611 0 0.052594011880735161 -0.46258963849414558 0 0.033446276913734967 -0.45792526049492271 0 0.024747075647264399 -0.46972246297684461 0 0.043164271546872197 -0.4778703191434 0 0.052693917870023622 -0.44730825455084611 0 0.052594011880735161 -0.46258963849414558 0 0.033446276913734967 -0.45792526049492271 0 0.052594011880735161 -0.46258963849414558 0 0.033446276913734967 -0.45792526049492271 0 0.043164271546872197 -0.4778703191434 0 0.033446276913734967 -0.45792526049492271 0 0.043164271546872197 -0.4778703191434 0 0.042782527591385587 -0.42768793752121392 0 0.052693917870023622 -0.44730825455084611 0 0.038339333849137569 -0.44224603439757942 0 0.033446276913734967 -0.45792526049492271 0 0.038339333849137569 -0.44224603439757942 0 0.023728282280598981 -0.43798020184644493 0 0.052693917870023622 -0.44730825455084611 0 0.033446276913734967 -0.45792526049492271 0 0.038339333849137569 -0.44224603439757942 0 0.023728282280598981 -0.43798020184644493 0 0.011432193992105429 -0.44462200732167467 0 0.01779212199045099 -0.45571080357091009 0 0.033446276913734967 -0.45792526049492271 0 0.023728282280598981 -0.43798020184644493 0 0.033446276913734967 -0.45792526049492271 0 0.023728282280598981 -0.43798020184644493 0 0.01779212199045099 -0.45571080357091009 0 0.023728282280598981 -0.43798020184644493 0 0.011432193992105429 -0.44462200732167467 0 0.01410030331848921 -0.43483725365991388 0 0.023728282280598981 -0.43798020184644493 0 0.011432193992105429 -0.44462200732167467 0 -0.01027783979290609 -0.4450418277695869 0 0.011432193992105429 -0.44462200732167467 0 0.0031349746952128348 -0.45732154608844711 0 -0.01027783979290609 -0.4450418277695869 0 0.003851027954898749 -0.43172418954792041 0 0.011432193992105429 -0.44462200732167467 0 0.011432193992105429 -0.44462200732167467 0 0.0031349746952128348 -0.45732154608844711 0 0.01779212199045099 -0.45571080357091009 0 -0.00094907817261298132 -0.47112804672216879 0 0.0031349746952128348 -0.45732154608844711 0 0.01026392841378935 -0.46669334269712659 0 0.0031349746952128348 -0.45732154608844711 0 0.01026392841378935 -0.46669334269712659 0 0.01779212199045099 -0.45571080357091009 0 0.01026392841378935 -0.46669334269712659 0 0.01779212199045099 -0.45571080357091009 0 0.024747075647264399 -0.46972246297684461 0 0.033446276913734967 -0.45792526049492271 0 0.01779212199045099 -0.45571080357091009 0 0.024747075647264399 -0.46972246297684461 0 0.024747075647264399 -0.46972246297684461 0 0.019392481307258409 -0.48478566889839131 0 0.043164271546872197 -0.4778703191434 0 0.01026392841378935 -0.46669334269712659 0 0.024747075647264399 -0.46972246297684461 0 0.019392481307258409 -0.48478566889839131 0 0.01026392841378935 -0.46669334269712659 0 0.0053352152350804568 -0.4807791696356124 0 0.019392481307258409 -0.48478566889839131 0 -0.0043176495648967151 -0.48070428616945038 0 -0.00094907817261298132 -0.47112804672216879 0 0.0053352152350804568 -0.4807791696356124 0 -0.00094907817261298132 -0.47112804672216879 0 0.01026392841378935 -0.46669334269712659 0 0.0053352152350804568 -0.4807791696356124 0 -0.0023310323066341181 -0.5 0 -0.0043793089323552817 -0.49170101865338262 0 0.019392481307258409 -0.48478566889839131 0 -0.0043793089323552817 -0.49170101865338262 0 0.019392481307258409 -0.48478566889839131 0 -0.0043793089323552817 -0.49170101865338262 0 0.0053352152350804568 -0.4807791696356124 0 0.019392481307258409 -0.48478566889839131 0 -0.0023310323066341181 -0.5 0 0.019392481307258409 -0.48478566889839131 0 0.026698753392940699 -0.5 0 0.019392481307258409 -0.48478566889839131 0 0.026698753392940699 -0.5 0 0.035353585390671842 -0.48974665193930511 0 0.035353585390671842 -0.48974665193930511 0 0.043164271546872197 -0.4778703191434 0 0.052158835315616027 -0.49633061971542908 0 0.026698753392940699 -0.5 0 0.055728539092515517 -0.5 0 0.052158835315616027 -0.49633061971542908 0 0.026698753392940699 -0.5 0 0.035353585390671842 -0.48974665193930511 0 0.052158835315616027 -0.49633061971542908 0 0.019392481307258409 -0.48478566889839131 0 0.035353585390671842 -0.48974665193930511 0 0.043164271546872197 -0.4778703191434 0 0.019392481307258409 -0.48478566889839131 0 0.043164271546872197 -0.4778703191434 0 0.069113753880103546 -0.47032146630200872 0 0.052594011880735161 -0.46258963849414558 0 0.043164271546872197 -0.4778703191434 0 0.069113753880103546 -0.47032146630200872 0 0.043164271546872197 -0.4778703191434 0 0.057596711449277201 -0.48334309492942701 0 0.069113753880103546 -0.47032146630200872 0 0.043164271546872197 -0.4778703191434 0 0.043164271546872197 -0.4778703191434 0 0.057596711449277201 -0.48334309492942701 0 0.052158835315616027 -0.49633061971542908 0 0.065949985054517032 -0.48884997455687013 0 0.057596711449277201 -0.48334309492942701 0 0.052158835315616027 -0.49633061971542908 0 0.043164271546872197 -0.4778703191434 0 0.052158835315616027 -0.49633061971542908 0 0.065949985054517032 -0.48884997455687013 0 0.055728539092515517 -0.5 0 0.052158835315616027 -0.49633061971542908 0 0.091646396761647708 -0.28947790237370968 0 0.07071546022358817 -0.28620470259943642 0 0.079999995207784586 -0.26983589460815821 0 0.091646396761647708 -0.28947790237370968 0 0.072783535289555654 -0.30157633939854622 0 0.07071546022358817 -0.28620470259943642 0 0.091646396761647708 -0.28947790237370968 0 0.087363613427391865 -0.30807629250996549 0 0.072783535289555654 -0.30157633939854622 0 0.072783535289555654 -0.30157633939854622 0 0.073259594084162577 -0.32259772896999273 0 0.056038135353808333 -0.31320409925325249 0 0.087363613427391865 -0.30807629250996549 0 0.072783535289555654 -0.30157633939854622 0 0.073259594084162577 -0.32259772896999273 0 0.072783535289555654 -0.30157633939854622 0 0.07071546022358817 -0.28620470259943642 0 0.04944647540011983 -0.29680206833493911 0 0.07071546022358817 -0.28620470259943642 0 0.079999995207784586 -0.26983589460815821 0 0.059700898458833078 -0.27333130828182889 0 0.06835359365392131 -0.25019388684260668 0 0.079999995207784586 -0.26983589460815821 0 0.08421140423371333 -0.243891226620808 0 0.06835359365392131 -0.25019388684260668 0 0.079999995207784586 -0.26983589460815821 0 0.06835359365392131 -0.25019388684260668 0 0.079999995207784586 -0.26983589460815821 0 0.059700898458833078 -0.27333130828182889 0 0.079999995207784586 -0.26983589460815821 0 0.097662046653794854 -0.25561444261418242 0 0.08421140423371333 -0.243891226620808 0 0.079999995207784586 -0.26983589460815821 0 0.1034904733698796 -0.27103876000237981 0 0.097662046653794854 -0.25561444261418242 0 0.091646396761647708 -0.28947790237370968 0 0.079999995207784586 -0.26983589460815821 0 0.091646396761647708 -0.28947790237370968 0 0.079999995207784586 -0.26983589460815821 0 0.1034904733698796 -0.27103876000237981 0 0.1034904733698796 -0.27103876000237981 0 0.097662046653794854 -0.25561444261418242 0 0.1147239364606354 -0.25215539330366038 0 0.13687529418603939 -0.26162068250561471 0 0.1147239364606354 -0.25215539330366038 0 0.1223190960555403 -0.2394332616338683 0 0.1034904733698796 -0.27103876000237981 0 0.1147239364606354 -0.25215539330366038 0 0.12122917553908071 -0.27280048239714111 0 0.13687529418603939 -0.26162068250561471 0 0.1147239364606354 -0.25215539330366038 0 0.12122917553908071 -0.27280048239714111 0 0.1034904733698796 -0.27103876000237981 0 0.12122917553908071 -0.27280048239714111 0 0.11361649143026541 -0.29050419490534962 0 0.13743968224858391 -0.28868338126870119 0 0.12122917553908071 -0.27280048239714111 0 0.11361649143026541 -0.29050419490534962 0 0.091646396761647708 -0.28947790237370968 0 0.11361649143026541 -0.29050419490534962 0 0.10329279831551071 -0.3091199101392611 0 0.091646396761647708 -0.28947790237370968 0 0.1034904733698796 -0.27103876000237981 0 0.11361649143026541 -0.29050419490534962 0 0.091646396761647708 -0.28947790237370968 0 0.10329279831551071 -0.3091199101392611 0 0.091646396761647708 -0.28947790237370968 0 0.087363613427391865 -0.30807629250996549 0 0.10329279831551071 -0.3091199101392611 0 0.11361649143026541 -0.29050419490534962 0 0.10329279831551071 -0.3091199101392611 0 0.1207194796176513 -0.31206082339016011 0 0.13743968224858391 -0.28868338126870119 0 0.11361649143026541 -0.29050419490534962 0 0.1207194796176513 -0.31206082339016011 0 0.10329279831551071 -0.3091199101392611 0 0.11030782598785099 -0.32334328523235578 0 0.1149391998693738 -0.32876191790481257 0 0.10329279831551071 -0.3091199101392611 0 0.1207194796176513 -0.31206082339016011 0 0.1149391998693738 -0.32876191790481257 0 0.127277047630593 -0.32368123984794023 0 0.1207194796176513 -0.31206082339016011 0 0.1149391998693738 -0.32876191790481257 0 0.1252730154641265 -0.33501756179834041 0 0.127277047630593 -0.32368123984794023 0 0.1149391998693738 -0.32876191790481257 0 0.11030782598785099 -0.32334328523235578 0 0.1149391998693738 -0.32876191790481257 0 0.1071562875265276 -0.34088406714172798 0 0.1252730154641265 -0.33501756179834041 0 0.1149391998693738 -0.32876191790481257 0 0.1203073559828662 -0.34481831064573482 0 0.1149391998693738 -0.32876191790481257 0 0.1071562875265276 -0.34088406714172798 0 0.1203073559828662 -0.34481831064573482 0 0.11030782598785099 -0.32334328523235578 0 0.1071562875265276 -0.34088406714172798 0 0.088168702518997374 -0.33920446067117932 0 0.11030782598785099 -0.32334328523235578 0 0.088168702518997374 -0.33920446067117932 0 0.11030782598785099 -0.32334328523235578 0 0.092685396428672781 -0.32103820683708328 0 0.088168702518997374 -0.33920446067117932 0 0.10329279831551071 -0.3091199101392611 0 0.11030782598785099 -0.32334328523235578 0 0.092685396428672781 -0.32103820683708328 0 0.087363613427391865 -0.30807629250996549 0 0.10329279831551071 -0.3091199101392611 0 0.092685396428672781 -0.32103820683708328 0 0.10329279831551071 -0.3091199101392611 0 0.1149391998693738 -0.32876191790481257 0 0.1245186505824013 -0.36113750934922573 0 0.111761677400382 -0.35565256239397869 0 0.1080928822255358 -0.3703790814713866 0 0.12672469353237761 -0.38193719477194499 0 0.1245186505824013 -0.36113750934922573 0 0.1080928822255358 -0.3703790814713866 0 0.1245186505824013 -0.36113750934922573 0 0.111761677400382 -0.35565256239397869 0 0.1203073559828662 -0.34481831064573482 0 0.1071562875265276 -0.34088406714172798 0 0.111761677400382 -0.35565256239397869 0 0.1203073559828662 -0.34481831064573482 0 0.1071562875265276 -0.34088406714172798 0 0.09828664694928807 -0.35383226801130691 0 0.088168702518997374 -0.33920446067117932 0 0.1071562875265276 -0.34088406714172798 0 0.111761677400382 -0.35565256239397869 0 0.09828664694928807 -0.35383226801130691 0 0.097085641119374302 -0.38571424072610178 0 0.1080928822255358 -0.3703790814713866 0 0.085574671404253372 -0.36606529366265911 0 0.111761677400382 -0.35565256239397869 0 0.09828664694928807 -0.35383226801130691 0 0.1080928822255358 -0.3703790814713866 0 0.09828664694928807 -0.35383226801130691 0 0.1080928822255358 -0.3703790814713866 0 0.085574671404253372 -0.36606529366265911 0 0.085574671404253372 -0.36606529366265911 0 0.066029579050143783 -0.35506563611000291 0 0.088168702518997374 -0.33920446067117932 0 0.09828664694928807 -0.35383226801130691 0 0.085574671404253372 -0.36606529366265911 0 0.088168702518997374 -0.33920446067117932 0 0.066029579050143783 -0.35506563611000291 0 0.088168702518997374 -0.33920446067117932 0 0.064781398010314309 -0.37536455347105108 0 0.085574671404253372 -0.36606529366265911 0 0.066029579050143783 -0.35506563611000291 0 0.066029579050143783 -0.35506563611000291 0 0.088168702518997374 -0.33920446067117932 0 0.073259594084162577 -0.32259772896999273 0 0.066029579050143783 -0.35506563611000291 0 0.073259594084162577 -0.32259772896999273 0 0.048222299164917798 -0.333319266554439 0 0.092685396428672781 -0.32103820683708328 0 0.088168702518997374 -0.33920446067117932 0 0.073259594084162577 -0.32259772896999273 0 0.087363613427391865 -0.30807629250996549 0 0.092685396428672781 -0.32103820683708328 0 0.073259594084162577 -0.32259772896999273 0 0.073259594084162577 -0.32259772896999273 0 0.056038135353808333 -0.31320409925325249 0 0.048222299164917798 -0.333319266554439 0 0.056038135353808333 -0.31320409925325249 0 0.048222299164917798 -0.333319266554439 0 0.036478772830285791 -0.31172509300834528 0 0.048222299164917798 -0.333319266554439 0 0.033610930591278822 -0.35000849021355163 0 0.023331405601267931 -0.32909016887827719 0 0.048222299164917798 -0.333319266554439 0 0.023331405601267931 -0.32909016887827719 0 0.036478772830285791 -0.31172509300834528 0 0.066029579050143783 -0.35506563611000291 0 0.048355778033110031 -0.35315995845717169 0 0.043890455581289831 -0.3709268115488259 0 0.066029579050143783 -0.35506563611000291 0 0.043890455581289831 -0.3709268115488259 0 0.064781398010314309 -0.37536455347105108 0 0.066029579050143783 -0.35506563611000291 0 0.043890455581289831 -0.3709268115488259 0 0.066029579050143783 -0.35506563611000291 0 0.048222299164917798 -0.333319266554439 0 0.048355778033110031 -0.35315995845717169 0 0.048222299164917798 -0.333319266554439 0 0.048355778033110031 -0.35315995845717169 0 0.033610930591278822 -0.35000849021355163 0 0.048355778033110031 -0.35315995845717169 0 0.033610930591278822 -0.35000849021355163 0 0.043890455581289831 -0.3709268115488259 0 0.033610930591278822 -0.35000849021355163 0 0.03286340713970079 -0.36889202113574671 0 0.043890455581289831 -0.3709268115488259 0 0.033610930591278822 -0.35000849021355163 0 0.043890455581289831 -0.3709268115488259 0 0.030780854092194759 -0.38031894893150719 0 0.03286340713970079 -0.36889202113574671 0 0.043890455581289831 -0.3709268115488259 0 0.033610930591278822 -0.35000849021355163 0 0.03286340713970079 -0.36889202113574671 0 0.022072978528308879 -0.36937310690127451 0 0.030780854092194759 -0.38031894893150719 0 0.03286340713970079 -0.36889202113574671 0 0.022072978528308879 -0.36937310690127451 0 0.033610930591278822 -0.35000849021355163 0 0.022072978528308879 -0.36937310690127451 0 0.014393680356963701 -0.35536411395587292 0 0.033610930591278822 -0.35000849021355163 0 0.014393680356963701 -0.35536411395587292 0 0.0105762414372169 -0.3395135522035268 0 -0.00014080085946228561 -0.35082738964002957 0 0.014393680356963701 -0.35536411395587292 0 0.0105762414372169 -0.3395135522035268 0 -0.00014080085946228561 -0.35082738964002957 0 0.014393680356963701 -0.35536411395587292 0 0.0058490520874761691 -0.36709803082098191 0 0.022072978528308879 -0.36937310690127451 0 0.014393680356963701 -0.35536411395587292 0 0.0058490520874761691 -0.36709803082098191 0 0.022072978528308879 -0.36937310690127451 0 0.0058490520874761691 -0.36709803082098191 0 0.0132535835722172 -0.37610527220974688 0 0.022072978528308879 -0.36937310690127451 0 0.0058490520874761691 -0.36709803082098191 0 -0.0078283346885702904 -0.37476262999778609 0 0.0132535835722172 -0.37610527220974688 0 0.0058490520874761691 -0.36709803082098191 0 0.023331405601267931 -0.32909016887827719 0 0.013051880611257029 -0.30817184754300292 0 0.023331405601267931 -0.32909016887827719 0 0.013051880611257029 -0.30817184754300292 0 0.036478772830285791 -0.31172509300834528 0 0.033610930591278822 -0.35000849021355163 0 0.023331405601267931 -0.32909016887827719 0 0.0105762414372169 -0.3395135522035268 0 0.033610930591278822 -0.35000849021355163 0 0.023331405601267931 -0.32909016887827719 0 0.023331405601267931 -0.32909016887827719 0 0.0105762414372169 -0.3395135522035268 0 3.5896068887442723e-05 -0.32803491845883598 0 -0.00014080085946228561 -0.35082738964002957 0 0.0105762414372169 -0.3395135522035268 0 3.5896068887442723e-05 -0.32803491845883598 0 -0.0063780240591087903 -0.31078717533589839 0 3.5896068887442723e-05 -0.32803491845883598 0 0.013051880611257029 -0.30817184754300292 0 0.023331405601267931 -0.32909016887827719 0 3.5896068887442723e-05 -0.32803491845883598 0 0.013051880611257029 -0.30817184754300292 0 0.013051880611257029 -0.30817184754300292 0 0.0027723556212477219 -0.28725352620772771 0 0.0027723556212477219 -0.28725352620772771 0 0.026109415510684009 -0.29202779727133188 0 -0.0017476628817073611 -0.27805551369469472 0 0.0027723556212477219 -0.28725352620772771 0 0.01602201902671789 -0.28191194131808539 0 0.013051880611257029 -0.30817184754300292 0 0.0027723556212477219 -0.28725352620772771 0 0.026109415510684009 -0.29202779727133188 0 0.0027723556212477219 -0.28725352620772771 0 0.026109415510684009 -0.29202779727133188 0 0.01602201902671789 -0.28191194131808539 0 -0.0074917523477661804 -0.29461577546968681 0 0.013051880611257029 -0.30817184754300292 0 0.0027723556212477219 -0.28725352620772771 0 -0.0017476628817073611 -0.27805551369469472 0 0.0027723556212477219 -0.28725352620772771 0 0.026109415510684009 -0.29202779727133188 0 0.01602201902671789 -0.28191194131808539 0 0.036314123194761641 -0.27872041929058161 0 0.013051880611257029 -0.30817184754300292 0 0.026109415510684009 -0.29202779727133188 0 0.036478772830285791 -0.31172509300834528 0 0.026109415510684009 -0.29202779727133188 0 0.036478772830285791 -0.31172509300834528 0 0.04944647540011983 -0.29680206833493911 0 0.026109415510684009 -0.29202779727133188 0 0.04944647540011983 -0.29680206833493911 0 0.036314123194761641 -0.27872041929058161 0 0.026109415510684009 -0.29202779727133188 0 0.04944647540011983 -0.29680206833493911 0 0.04944647540011983 -0.29680206833493911 0 0.059700898458833078 -0.27333130828182889 0 0.036314123194761641 -0.27872041929058161 0 0.07071546022358817 -0.28620470259943642 0 0.04944647540011983 -0.29680206833493911 0 0.059700898458833078 -0.27333130828182889 0 0.072783535289555654 -0.30157633939854622 0 0.04944647540011983 -0.29680206833493911 0 0.056038135353808333 -0.31320409925325249 0 0.036478772830285791 -0.31172509300834528 0 0.04944647540011983 -0.29680206833493911 0 0.072783535289555654 -0.30157633939854622 0 0.056038135353808333 -0.31320409925325249 0 0.04944647540011983 -0.29680206833493911 0 0.06835359365392131 -0.25019388684260668 0 0.044986508142045613 -0.25948109579330381 0 0.047362788675733028 -0.24199119006041811 0 0.06835359365392131 -0.25019388684260668 0 0.059700898458833078 -0.27333130828182889 0 0.044986508142045613 -0.25948109579330381 0 0.06835359365392131 -0.25019388684260668 0 0.044986508142045613 -0.25948109579330381 0 0.059700898458833078 -0.27333130828182889 0 0.036314123194761641 -0.27872041929058161 0 0.044986508142045613 -0.25948109579330381 0 0.036314123194761641 -0.27872041929058161 0 0.044986508142045613 -0.25948109579330381 0 0.02161942263016943 -0.26876830474400021 0 0.044986508142045613 -0.25948109579330381 0 0.02161942263016943 -0.26876830474400021 0 0.044986508142045613 -0.25948109579330381 0 0.029973277209287209 -0.25054958921230208 0 0.02161942263016943 -0.26876830474400021 0 0.044986508142045613 -0.25948109579330381 0 0.029973277209287209 -0.25054958921230208 0 0.047362788675733028 -0.24199119006041811 0 0.029973277209287209 -0.25054958921230208 0 0.015960739131678031 -0.25406337006458851 0 0.02161942263016943 -0.26876830474400021 0 0.01602201902671789 -0.28191194131808539 0 0.036314123194761641 -0.27872041929058161 0 0.02161942263016943 -0.26876830474400021 0 -0.0017476628817073611 -0.27805551369469472 0 0.01602201902671789 -0.28191194131808539 0 0.02161942263016943 -0.26876830474400021 0 -0.0017476628817073611 -0.27805551369469472 0 0.02161942263016943 -0.26876830474400021 0 -0.0017476628817073611 -0.27805551369469472 0 0.02161942263016943 -0.26876830474400021 0 0.0057386521092319797 -0.26220041049146298 0 0.015960739131678031 -0.25406337006458851 0 0.02161942263016943 -0.26876830474400021 0 0.0057386521092319797 -0.26220041049146298 0 0.015960739131678031 -0.25406337006458851 0 0.0057386521092319797 -0.26220041049146298 0 0.0025328853753160741 -0.24958102673793139 0 0.0010854142569982001 -0.23807309260292489 0 0.010575476039053681 -0.22730954243123891 0 0.017210747296828609 -0.24036453645492739 0 0.0010854142569982001 -0.23807309260292489 0 0.0025328853753160741 -0.24958102673793139 0 0.017210747296828609 -0.24036453645492739 0 0.015960739131678031 -0.25406337006458851 0 0.0025328853753160741 -0.24958102673793139 0 0.017210747296828609 -0.24036453645492739 0 -0.0061584899570064598 -0.22962027277065361 0 0.0010854142569982001 -0.23807309260292489 0 0.010575476039053681 -0.22730954243123891 0 -0.0061584899570064598 -0.22962027277065361 0 0.010575476039053681 -0.22730954243123891 0 0.0064165675551885711 -0.21575046092143421 0 -0.0061584899570064598 -0.22962027277065361 0 0.0064165675551885711 -0.21575046092143421 0 0.010575476039053681 -0.22730954243123891 0 0.0064165675551885711 -0.21575046092143421 0 0.021509429760601551 -0.21557394742371069 0 0.010575476039053681 -0.22730954243123891 0 0.0064165675551885711 -0.21575046092143421 0 0.010575476039053681 -0.22730954243123891 0 0.02225812238200572 -0.22838936745028471 0 0.017210747296828609 -0.24036453645492739 0 0.010575476039053681 -0.22730954243123891 0 0.02225812238200572 -0.22838936745028471 0 0.021509429760601551 -0.21557394742371069 0 0.02225812238200572 -0.22838936745028471 0 0.029479073121619459 -0.22118232130399371 0 0.021509429760601551 -0.21557394742371069 0 0.02225812238200572 -0.22838936745028471 0 0.029479073121619459 -0.22118232130399371 0 0.031866256870133697 -0.23515517363185631 0 0.029973277209287209 -0.25054958921230208 0 0.017210747296828609 -0.24036453645492739 0 0.031866256870133697 -0.23515517363185631 0 0.02225812238200572 -0.22838936745028471 0 0.017210747296828609 -0.24036453645492739 0 0.031866256870133697 -0.23515517363185631 0 0.029973277209287209 -0.25054958921230208 0 0.015960739131678031 -0.25406337006458851 0 0.017210747296828609 -0.24036453645492739 0 -0.0015622250741301779 -0.1935745667631632 0 0.01896638504685547 -0.20190848785827681 0 0.0091962193441852118 -0.18107109871456811 0 -0.0015622250741301779 -0.1935745667631632 0 0.0064165675551885711 -0.21575046092143421 0 0.01896638504685547 -0.20190848785827681 0 -0.0015622250741301779 -0.1935745667631632 0 0.0064165675551885711 -0.21575046092143421 0 0.0064165675551885711 -0.21575046092143421 0 0.01896638504685547 -0.20190848785827681 0 0.0064165675551885711 -0.21575046092143421 0 0.021509429760601551 -0.21557394742371069 0 0.01896638504685547 -0.20190848785827681 0 0.029479073121619459 -0.22118232130399371 0 0.021509429760601551 -0.21557394742371069 0 0.033558692489570878 -0.21195100443687931 0 0.021509429760601551 -0.21557394742371069 0 0.029251690937081031 -0.20258635003767089 0 0.033558692489570878 -0.21195100443687931 0 0.021509429760601551 -0.21557394742371069 0 0.01896638504685547 -0.20190848785827681 0 0.029251690937081031 -0.20258635003767089 0 0.01896638504685547 -0.20190848785827681 0 0.031516202538524517 -0.1880665147951214 0 0.0091962193441852118 -0.18107109871456811 0 0.01896638504685547 -0.20190848785827681 0 0.029251690937081031 -0.20258635003767089 0 0.031516202538524517 -0.1880665147951214 0 0.01896638504685547 -0.20190848785827681 0 0.031516202538524517 -0.1880665147951214 0 0.043838458457815248 -0.18986676967386279 0 0.039506267971797952 -0.20154200132731501 0 0.055741541871671067 -0.19352675789948551 0 0.043838458457815248 -0.18986676967386279 0 0.031516202538524517 -0.1880665147951214 0 0.039506267971797952 -0.20154200132731501 0 0.031516202538524517 -0.1880665147951214 0 0.039506267971797952 -0.20154200132731501 0 0.029251690937081031 -0.20258635003767089 0 0.031516202538524517 -0.1880665147951214 0 0.039506267971797952 -0.20154200132731501 0 0.039506267971797952 -0.20154200132731501 0 0.033558692489570878 -0.21195100443687931 0 0.047496333405074677 -0.2150174878595065 0 0.039506267971797952 -0.20154200132731501 0 0.047496333405074677 -0.2150174878595065 0 0.029251690937081031 -0.20258635003767089 0 0.039506267971797952 -0.20154200132731501 0 0.033558692489570878 -0.21195100443687931 0 0.033558692489570878 -0.21195100443687931 0 0.047496333405074677 -0.2150174878595065 0 0.033558692489570878 -0.21195100443687931 0 0.047496333405074677 -0.2150174878595065 0 0.039554961726260877 -0.22474601638733641 0 0.039506267971797952 -0.20154200132731501 0 0.047496333405074677 -0.2150174878595065 0 0.05523956109653505 -0.20714630445374671 0 0.047496333405074677 -0.2150174878595065 0 0.05523956109653505 -0.20714630445374671 0 0.064206587222380762 -0.21869398638814641 0 0.047496333405074677 -0.2150174878595065 0 0.064206587222380762 -0.21869398638814641 0 0.039506267971797952 -0.20154200132731501 0 0.05523956109653505 -0.20714630445374671 0 0.055741541871671067 -0.19352675789948551 0 0.05523956109653505 -0.20714630445374671 0 0.055741541871671067 -0.19352675789948551 0 0.069247075011750078 -0.20695128879428309 0 0.055741541871671067 -0.19352675789948551 0 0.069247075011750078 -0.20695128879428309 0 0.029973277209287209 -0.25054958921230208 0 0.031866256870133697 -0.23515517363185631 0 0.047362788675733028 -0.24199119006041811 0 0.031866256870133697 -0.23515517363185631 0 0.039554961726260877 -0.22474601638733641 0 0.047362788675733028 -0.24199119006041811 0 0.029479073121619459 -0.22118232130399371 0 0.031866256870133697 -0.23515517363185631 0 0.039554961726260877 -0.22474601638733641 0 0.029479073121619459 -0.22118232130399371 0 0.033558692489570878 -0.21195100443687931 0 0.039554961726260877 -0.22474601638733641 0 0.047496333405074677 -0.2150174878595065 0 0.05536207860111314 -0.2282833045590259 0 0.064206587222380762 -0.21869398638814641 0 0.05536207860111314 -0.2282833045590259 0 0.063311866646695691 -0.24149928944984211 0 0.064206587222380762 -0.21869398638814641 0 0.039554961726260877 -0.22474601638733641 0 0.05536207860111314 -0.2282833045590259 0 0.047362788675733028 -0.24199119006041811 0 0.047496333405074677 -0.2150174878595065 0 0.039554961726260877 -0.22474601638733641 0 0.05536207860111314 -0.2282833045590259 0 0.047496333405074677 -0.2150174878595065 0 0.05536207860111314 -0.2282833045590259 0 0.05536207860111314 -0.2282833045590259 0 0.063311866646695691 -0.24149928944984211 0 0.06835359365392131 -0.25019388684260668 0 0.047362788675733028 -0.24199119006041811 0 0.063311866646695691 -0.24149928944984211 0 0.05536207860111314 -0.2282833045590259 0 0.047362788675733028 -0.24199119006041811 0 0.063311866646695691 -0.24149928944984211 0 0.06835359365392131 -0.25019388684260668 0 0.08421140423371333 -0.243891226620808 0 0.06835359365392131 -0.25019388684260668 0 0.063311866646695691 -0.24149928944984211 0 0.063311866646695691 -0.24149928944984211 0 0.074219814037010917 -0.24224782663387789 0 0.081086434463253185 -0.23335707181355411 0 0.06835359365392131 -0.25019388684260668 0 0.063311866646695691 -0.24149928944984211 0 0.074219814037010917 -0.24224782663387789 0 0.06835359365392131 -0.25019388684260668 0 0.074219814037010917 -0.24224782663387789 0 0.08421140423371333 -0.243891226620808 0 0.08421140423371333 -0.243891226620808 0 0.081086434463253185 -0.23335707181355411 0 0.10006921481350529 -0.2375885663990091 0 0.08421140423371333 -0.243891226620808 0 0.10006921481350529 -0.2375885663990091 0 0.074219814037010917 -0.24224782663387789 0 0.08421140423371333 -0.243891226620808 0 0.081086434463253185 -0.23335707181355411 0 0.081086434463253185 -0.23335707181355411 0 0.085851572697872774 -0.2234561975504171 0 0.10006921481350529 -0.2375885663990091 0 0.085851572697872774 -0.2234561975504171 0 0.08275260815182911 -0.2203758196890806 0 0.098293187803831117 -0.21887499219370271 0 0.085851572697872774 -0.2234561975504171 0 0.10006921481350529 -0.2375885663990091 0 0.081086434463253185 -0.23335707181355411 0 0.085851572697872774 -0.2234561975504171 0 0.080916841039686133 -0.2223704849167896 0 0.085851572697872774 -0.2234561975504171 0 0.080916841039686133 -0.2223704849167896 0 0.085851572697872774 -0.2234561975504171 0 0.08275260815182911 -0.2203758196890806 0 0.080916841039686133 -0.2223704849167896 0 0.085851572697872774 -0.2234561975504171 0 0.08275260815182911 -0.2203758196890806 0 0.08275260815182911 -0.2203758196890806 0 0.080916841039686133 -0.2223704849167896 0 0.063311866646695691 -0.24149928944984211 0 0.080916841039686133 -0.2223704849167896 0 0.063311866646695691 -0.24149928944984211 0 0.080916841039686133 -0.2223704849167896 0 0.064206587222380762 -0.21869398638814641 0 0.080916841039686133 -0.2223704849167896 0 0.064206587222380762 -0.21869398638814641 0 0.063311866646695691 -0.24149928944984211 0 0.081086434463253185 -0.23335707181355411 0 0.080916841039686133 -0.2223704849167896 0 0.080916841039686133 -0.2223704849167896 0 0.064206587222380762 -0.21869398638814641 0 0.069247075011750078 -0.20695128879428309 0 0.05523956109653505 -0.20714630445374671 0 0.064206587222380762 -0.21869398638814641 0 0.069247075011750078 -0.20695128879428309 0 0.08275260815182911 -0.2203758196890806 0 0.069247075011750078 -0.20695128879428309 0 0.08275260815182911 -0.2203758196890806 0 0.080916841039686133 -0.2223704849167896 0 0.069247075011750078 -0.20695128879428309 0 0.055741541871671067 -0.19352675789948551 0 0.069247075011750078 -0.20695128879428309 0 0.070887819862862286 -0.1914088031202833 0 0.069247075011750078 -0.20695128879428309 0 0.070887819862862286 -0.1914088031202833 0 0.082832551139222166 -0.19914513048671481 0 0.070887819862862286 -0.1914088031202833 0 0.082832551139222166 -0.19914513048671481 0 0.081821336385090343 -0.18186245165470949 0 0.082832551139222166 -0.19914513048671481 0 0.097084301305641635 -0.20480362112478781 0 0.095405874932467813 -0.18887779734800569 0 0.082832551139222166 -0.19914513048671481 0 0.095405874932467813 -0.18887779734800569 0 0.081821336385090343 -0.18186245165470949 0 0.08275260815182911 -0.2203758196890806 0 0.082832551139222166 -0.19914513048671481 0 0.097084301305641635 -0.20480362112478781 0 0.08275260815182911 -0.2203758196890806 0 0.069247075011750078 -0.20695128879428309 0 0.082832551139222166 -0.19914513048671481 0 0.08275260815182911 -0.2203758196890806 0 0.097084301305641635 -0.20480362112478781 0 0.098293187803831117 -0.21887499219370271 0 0.08275260815182911 -0.2203758196890806 0 0.097084301305641635 -0.20480362112478781 0 0.097084301305641635 -0.20480362112478781 0 0.1146962174531268 -0.21673223195775559 0 0.098293187803831117 -0.21887499219370271 0 0.097084301305641635 -0.20480362112478781 0 0.095405874932467813 -0.18887779734800569 0 0.11141599445945349 -0.1892314225604943 0 0.097084301305641635 -0.20480362112478781 0 0.11141599445945349 -0.1892314225604943 0 0.097084301305641635 -0.20480362112478781 0 0.1210323504124224 -0.2015702574875764 0 0.11141599445945349 -0.1892314225604943 0 0.1210323504124224 -0.2015702574875764 0 0.11141599445945349 -0.1892314225604943 0 0.13523084618428721 -0.18276855246186111 0 0.1210323504124224 -0.2015702574875764 0 0.1146962174531268 -0.21673223195775559 0 0.13583218450739579 -0.2116030352811932 0 0.097084301305641635 -0.20480362112478781 0 0.1210323504124224 -0.2015702574875764 0 0.1146962174531268 -0.21673223195775559 0 0.1110812394106853 -0.22900709064647229 0 0.12594488917549271 -0.2231145762792166 0 0.1363109061234978 -0.23455798374252809 0 0.1110812394106853 -0.22900709064647229 0 0.1223190960555403 -0.2394332616338683 0 0.1363109061234978 -0.23455798374252809 0 0.1110812394106853 -0.22900709064647229 0 0.1363109061234978 -0.23455798374252809 0 0.1146962174531268 -0.21673223195775559 0 0.1110812394106853 -0.22900709064647229 0 0.12594488917549271 -0.2231145762792166 0 0.1110812394106853 -0.22900709064647229 0 0.1223190960555403 -0.2394332616338683 0 0.1084330749156753 -0.23426436422737831 0 0.1147239364606354 -0.25215539330366038 0 0.1223190960555403 -0.2394332616338683 0 0.1084330749156753 -0.23426436422737831 0 0.097662046653794854 -0.25561444261418242 0 0.1147239364606354 -0.25215539330366038 0 0.10006921481350529 -0.2375885663990091 0 0.1147239364606354 -0.25215539330366038 0 0.10006921481350529 -0.2375885663990091 0 0.1084330749156753 -0.23426436422737831 0 0.097662046653794854 -0.25561444261418242 0 0.08421140423371333 -0.243891226620808 0 0.10006921481350529 -0.2375885663990091 0 0.10006921481350529 -0.2375885663990091 0 0.1084330749156753 -0.23426436422737831 0 0.1147239364606354 -0.25215539330366038 0 0.10006921481350529 -0.2375885663990091 0 0.085851572697872774 -0.2234561975504171 0 0.1110812394106853 -0.22900709064647229 0 0.1146962174531268 -0.21673223195775559 0 0.1110812394106853 -0.22900709064647229 0 0.098293187803831117 -0.21887499219370271 0 0.085851572697872774 -0.2234561975504171 0 0.1110812394106853 -0.22900709064647229 0 0.098293187803831117 -0.21887499219370271 0 0.085851572697872774 -0.2234561975504171 0 0.1110812394106853 -0.22900709064647229 0 0.10006921481350529 -0.2375885663990091 0 0.1110812394106853 -0.22900709064647229 0 0.10006921481350529 -0.2375885663990091 0 0.1084330749156753 -0.23426436422737831 0 0.1040552578412003 -0.15282191894301261 0 0.1005807427949069 -0.13366374688330029 0 0.11727103389215909 -0.1361484369810822 0 0.1005807427949069 -0.13366374688330029 0 0.11727103389215909 -0.1361484369810822 0 0.1051359327507693 -0.1227177542784853 0 0.1040552578412003 -0.15282191894301261 0 0.1005807427949069 -0.13366374688330029 0 0.082362828069140165 -0.1319846138898183 0 0.11727103389215909 -0.1361484369810822 0 0.1154331983948798 -0.1174886032934183 0 0.13404900744611239 -0.12609877526333699 0 0.11727103389215909 -0.1361484369810822 0 0.1051359327507693 -0.1227177542784853 0 0.1154331983948798 -0.1174886032934183 0 0.1040552578412003 -0.15282191894301261 0 0.11727103389215909 -0.1361484369810822 0 0.1232701832726428 -0.15427141090171109 0 0.11727103389215909 -0.1361484369810822 0 0.1232701832726428 -0.15427141090171109 0 0.13444198148756639 -0.1449420832838656 0 0.1040552578412003 -0.15282191894301261 0 0.12574768761326591 -0.17365922399620121 0 0.1040552578412003 -0.15282191894301261 0 0.1002282447692335 -0.17458527697826651 0 0.12574768761326591 -0.17365922399620121 0 0.1040552578412003 -0.15282191894301261 0 0.1232701832726428 -0.15427141090171109 0 0.12574768761326591 -0.17365922399620121 0 0.11141599445945349 -0.1892314225604943 0 0.1002282447692335 -0.17458527697826651 0 0.12574768761326591 -0.17365922399620121 0 0.11141599445945349 -0.1892314225604943 0 0.12574768761326591 -0.17365922399620121 0 0.13523084618428721 -0.18276855246186111 0 0.11141599445945349 -0.1892314225604943 0 0.12574768761326591 -0.17365922399620121 0 0.095405874932467813 -0.18887779734800569 0 0.11141599445945349 -0.1892314225604943 0 0.1002282447692335 -0.17458527697826651 0 0.1040552578412003 -0.15282191894301261 0 0.1002282447692335 -0.17458527697826651 0 0.08311303581058499 -0.16124853818171381 0 0.095405874932467813 -0.18887779734800569 0 0.1002282447692335 -0.17458527697826651 0 0.081821336385090343 -0.18186245165470949 0 0.1002282447692335 -0.17458527697826651 0 0.08311303581058499 -0.16124853818171381 0 0.081821336385090343 -0.18186245165470949 0 0.08311303581058499 -0.16124853818171381 0 0.081821336385090343 -0.18186245165470949 0 0.066780308608768796 -0.17493307235476979 0 0.070887819862862286 -0.1914088031202833 0 0.081821336385090343 -0.18186245165470949 0 0.066780308608768796 -0.17493307235476979 0 0.055741541871671067 -0.19352675789948551 0 0.070887819862862286 -0.1914088031202833 0 0.066780308608768796 -0.17493307235476979 0 0.08311303581058499 -0.16124853818171381 0 0.066780308608768796 -0.17493307235476979 0 0.065413952892267702 -0.150678580858252 0 0.065413952892267702 -0.150678580858252 0 0.082362828069140165 -0.1319846138898183 0 0.08311303581058499 -0.16124853818171381 0 0.065413952892267702 -0.150678580858252 0 0.082362828069140165 -0.1319846138898183 0 0.1040552578412003 -0.15282191894301261 0 0.08311303581058499 -0.16124853818171381 0 0.082362828069140165 -0.1319846138898183 0 0.1040552578412003 -0.15282191894301261 0 0.082362828069140165 -0.1319846138898183 0 0.1005807427949069 -0.13366374688330029 0 0.082362828069140165 -0.1319846138898183 0 0.095577299328253623 -0.1174095529111252 0 0.082362828069140165 -0.1319846138898183 0 0.070308403876621794 -0.13238109852993221 0 0.069837722907261313 -0.1199532536492431 0 0.065413952892267702 -0.150678580858252 0 0.082362828069140165 -0.1319846138898183 0 0.070308403876621794 -0.13238109852993221 0 0.082362828069140165 -0.1319846138898183 0 0.069837722907261313 -0.1199532536492431 0 0.065413952892267702 -0.150678580858252 0 0.070308403876621794 -0.13238109852993221 0 0.06118566078759103 -0.13005342953014129 0 0.070308403876621794 -0.13238109852993221 0 0.06118566078759103 -0.13005342953014129 0 0.069837722907261313 -0.1199532536492431 0 0.065413952892267702 -0.150678580858252 0 0.06118566078759103 -0.13005342953014129 0 0.053245925046226952 -0.14076102386291889 0 0.06118566078759103 -0.13005342953014129 0 0.049352038069647858 -0.1295439288512826 0 0.048525659269531229 -0.11802361343548989 0 0.049352038069647858 -0.1295439288512826 0 0.053245925046226952 -0.14076102386291889 0 0.041700188437408421 -0.13409859591225329 0 0.06118566078759103 -0.13005342953014129 0 0.049352038069647858 -0.1295439288512826 0 0.053245925046226952 -0.14076102386291889 0 0.065413952892267702 -0.150678580858252 0 0.053245925046226952 -0.14076102386291889 0 0.048465077715394989 -0.16937254782668559 0 0.053245925046226952 -0.14076102386291889 0 0.040505841312838547 -0.14468304457988079 0 0.048465077715394989 -0.16937254782668559 0 0.040505841312838547 -0.14468304457988079 0 0.03393783807298914 -0.14093707321474161 0 0.030230252537669321 -0.1566253376229266 0 0.040505841312838547 -0.14468304457988079 0 0.030230252537669321 -0.1566253376229266 0 0.040505841312838547 -0.14468304457988079 0 0.03393783807298914 -0.14093707321474161 0 0.041700188437408421 -0.13409859591225329 0 0.03393783807298914 -0.14093707321474161 0 0.041700188437408421 -0.13409859591225329 0 0.024480650806643651 -0.1375151559245551 0 0.041700188437408421 -0.13409859591225329 0 0.042102756807481732 -0.1247829815156095 0 0.031290738437872938 -0.1201921761368282 0 0.049352038069647858 -0.1295439288512826 0 0.041700188437408421 -0.13409859591225329 0 0.042102756807481732 -0.1247829815156095 0 0.053245925046226952 -0.14076102386291889 0 0.040505841312838547 -0.14468304457988079 0 0.041700188437408421 -0.13409859591225329 0 0.055741541871671067 -0.19352675789948551 0 0.066780308608768796 -0.17493307235476979 0 0.048465077715394989 -0.16937254782668559 0 0.043838458457815248 -0.18986676967386279 0 0.055741541871671067 -0.19352675789948551 0 0.048465077715394989 -0.16937254782668559 0 0.066780308608768796 -0.17493307235476979 0 0.065413952892267702 -0.150678580858252 0 0.048465077715394989 -0.16937254782668559 0 0.065413952892267702 -0.150678580858252 0 0.048465077715394989 -0.16937254782668559 0 0.040505841312838547 -0.14468304457988079 0 0.048465077715394989 -0.16937254782668559 0 0.030230252537669321 -0.1566253376229266 0 0.048465077715394989 -0.16937254782668559 0 0.033338822752702377 -0.1705348433046637 0 0.030230252537669321 -0.1566253376229266 0 0.043838458457815248 -0.18986676967386279 0 0.031516202538524517 -0.1880665147951214 0 0.048465077715394989 -0.16937254782668559 0 0.031516202538524517 -0.1880665147951214 0 0.048465077715394989 -0.16937254782668559 0 0.031516202538524517 -0.1880665147951214 0 0.048465077715394989 -0.16937254782668559 0 0.033338822752702377 -0.1705348433046637 0 0.031516202538524517 -0.1880665147951214 0 0.033338822752702377 -0.1705348433046637 0 0.01995466376250531 -0.16856763066597699 0 0.031516202538524517 -0.1880665147951214 0 0.01995466376250531 -0.16856763066597699 0 0.031516202538524517 -0.1880665147951214 0 0.01995466376250531 -0.16856763066597699 0 0.0091962193441852118 -0.18107109871456811 0 0.01995466376250531 -0.16856763066597699 0 0.030230252537669321 -0.1566253376229266 0 0.008868239412810253 -0.14987004135808221 0 0.033338822752702377 -0.1705348433046637 0 0.01995466376250531 -0.16856763066597699 0 0.030230252537669321 -0.1566253376229266 0 0.01995466376250531 -0.16856763066597699 0 0.030230252537669321 -0.1566253376229266 0 -0.0025999653858941639 -0.16131422913783491 0 0.0067086063528142403 -0.16809244781376179 0 0.008868239412810253 -0.14987004135808221 0 0.01995466376250531 -0.16856763066597699 0 0.008868239412810253 -0.14987004135808221 0 0.01995466376250531 -0.16856763066597699 0 0.0067086063528142403 -0.16809244781376179 0 0.008868239412810253 -0.14987004135808221 0 -0.0084927016390539001 -0.17431231470194719 0 0.0067086063528142403 -0.16809244781376179 0 0.0091962193441852118 -0.18107109871456811 0 0.01995466376250531 -0.16856763066597699 0 0.0091962193441852118 -0.18107109871456811 0 0.01995466376250531 -0.16856763066597699 0 0.0067086063528142403 -0.16809244781376179 0 0.0091962193441852118 -0.18107109871456811 0 -0.0015622250741301779 -0.1935745667631632 0 0.0091962193441852118 -0.18107109871456811 0 0.041700188437408421 -0.13409859591225329 0 0.014197789575412951 -0.12328672932727321 0 0.031290738437872938 -0.1201921761368282 0 0.041700188437408421 -0.13409859591225329 0 0.024480650806643651 -0.1375151559245551 0 0.014197789575412951 -0.12328672932727321 0 0.041700188437408421 -0.13409859591225329 0 0.014197789575412951 -0.12328672932727321 0 0.024480650806643651 -0.1375151559245551 0 0.011332123714495041 -0.13546109466502479 0 0.014197789575412951 -0.12328672932727321 0 0.03393783807298914 -0.14093707321474161 0 0.030230252537669321 -0.1566253376229266 0 0.024480650806643651 -0.1375151559245551 0 0.030230252537669321 -0.1566253376229266 0 0.024480650806643651 -0.1375151559245551 0 0.008868239412810253 -0.14987004135808221 0 0.024480650806643651 -0.1375151559245551 0 0.008868239412810253 -0.14987004135808221 0 0.011332123714495041 -0.13546109466502479 0 -0.00221818493688669 -0.13117245205018849 0 -0.0031786103040098569 -0.14705450477373769 0 0.008868239412810253 -0.14987004135808221 0 -0.0031786103040098569 -0.14705450477373769 0 -0.0025999653858941639 -0.16131422913783491 0 0.008868239412810253 -0.14987004135808221 0 -0.00221818493688669 -0.13117245205018849 0 0.008868239412810253 -0.14987004135808221 0 -0.00221818493688669 -0.13117245205018849 0 0.011332123714495041 -0.13546109466502479 0 0.014197789575412951 -0.12328672932727321 0 -0.00221818493688669 -0.13117245205018849 0 0.008868239412810253 -0.14987004135808221 0 0.011332123714495041 -0.13546109466502479 0 -0.013304609286582791 -0.1124748627422944 0 0.014197789575412951 -0.12328672932727321 0 0.014197789575412951 -0.12328672932727321 0 0.020945276257035669 -0.1055296092587116 0 0.0046245275045138064 -0.1076828264142336 0 -0.013304609286582791 -0.1124748627422944 0 0.014197789575412951 -0.12328672932727321 0 0.0046245275045138064 -0.1076828264142336 0 0.014197789575412951 -0.12328672932727321 0 0.020945276257035669 -0.1055296092587116 0 0.031290738437872938 -0.1201921761368282 0 0.020945276257035669 -0.1055296092587116 0 0.031290738437872938 -0.1201921761368282 0 0.040241467446851142 -0.1026788937802551 0 0.020945276257035669 -0.1055296092587116 0 0.028115865357471449 -0.087896533900266943 0 0.040241467446851142 -0.1026788937802551 0 0.020945276257035669 -0.1055296092587116 0 0.0072012692200917657 -0.09144049599341271 0 0.028115865357471449 -0.087896533900266943 0 -0.0070294542012635762 -0.10327829347153671 0 0.0046245275045138064 -0.1076828264142336 0 0.0072012692200917657 -0.09144049599341271 0 0.020945276257035669 -0.1055296092587116 0 0.0046245275045138064 -0.1076828264142336 0 0.0072012692200917657 -0.09144049599341271 0 0.0072012692200917657 -0.09144049599341271 0 0.0054575408194632406 -0.073720759659108445 0 0.018511759797904249 -0.077210571545524964 0 -0.0056293594721457006 -0.082036805430144924 0 0.0072012692200917657 -0.09144049599341271 0 0.0054575408194632406 -0.073720759659108445 0 0.0054575408194632406 -0.073720759659108445 0 0.018354718881549058 -0.065167425818499949 0 0.003426744450576454 -0.054815297075420773 0 -0.0072319765520409062 -0.068818796064575097 0 0.0054575408194632406 -0.073720759659108445 0 0.003426744450576454 -0.054815297075420773 0 0.0054575408194632406 -0.073720759659108445 0 0.018354718881549058 -0.065167425818499949 0 0.018511759797904249 -0.077210571545524964 0 0.018511759797904249 -0.077210571545524964 0 0.028115865357471449 -0.087896533900266943 0 0.033429404710945708 -0.067827642356336801 0 0.018354718881549058 -0.065167425818499949 0 0.018511759797904249 -0.077210571545524964 0 0.033429404710945708 -0.067827642356336801 0 0.0072012692200917657 -0.09144049599341271 0 0.018511759797904249 -0.077210571545524964 0 0.028115865357471449 -0.087896533900266943 0 0.028115865357471449 -0.087896533900266943 0 0.044094628308957058 -0.087651847290754856 0 0.040241467446851142 -0.1026788937802551 0 0.028115865357471449 -0.087896533900266943 0 0.044094628308957058 -0.087651847290754856 0 0.033429404710945708 -0.067827642356336801 0 0.044094628308957058 -0.087651847290754856 0 0.033429404710945708 -0.067827642356336801 0 0.052580487019044733 -0.06457445167855122 0 0.052580487019044733 -0.06457445167855122 0 0.057640786708643768 -0.07951032993234286 0 0.068682665651441266 -0.069637891440837665 0 0.044094628308957058 -0.087651847290754856 0 0.052580487019044733 -0.06457445167855122 0 0.057640786708643768 -0.07951032993234286 0 0.044094628308957058 -0.087651847290754856 0 0.057640786708643768 -0.07951032993234286 0 0.064045145718632748 -0.088800152685812248 0 0.056223070490067702 -0.1049071233711502 0 0.048525659269531229 -0.11802361343548989 0 0.040241467446851142 -0.1026788937802551 0 0.044094628308957058 -0.087651847290754856 0 0.056223070490067702 -0.1049071233711502 0 0.064045145718632748 -0.088800152685812248 0 0.06118566078759103 -0.13005342953014129 0 0.056223070490067702 -0.1049071233711502 0 0.048525659269531229 -0.11802361343548989 0 0.048525659269531229 -0.11802361343548989 0 0.042102756807481732 -0.1247829815156095 0 0.031290738437872938 -0.1201921761368282 0 0.048525659269531229 -0.11802361343548989 0 0.031290738437872938 -0.1201921761368282 0 0.040241467446851142 -0.1026788937802551 0 0.049352038069647858 -0.1295439288512826 0 0.048525659269531229 -0.11802361343548989 0 0.042102756807481732 -0.1247829815156095 0 0.044094628308957058 -0.087651847290754856 0 0.056223070490067702 -0.1049071233711502 0 0.040241467446851142 -0.1026788937802551 0 0.020415517075116841 0.0076517724901667356 0 0.020207185183206099 -0.010785841930981459 0 0.039787151186370009 -0.0039594854922263374 0 0.020207185183206099 -0.010785841930981459 0 0.0047038114401232534 -0.001040937293712483 0 0.0026421611525163911 -0.019923693291100199 0 0.020415517075116841 0.0076517724901667356 0 0.020207185183206099 -0.010785841930981459 0 0.0047038114401232534 -0.001040937293712483 0 0.020207185183206099 -0.010785841930981459 0 0.0026421611525163911 -0.019923693291100199 0 0.018057611388834851 -0.030223969914345401 0 0.0026421611525163911 -0.019923693291100199 0 0.018057611388834851 -0.030223969914345401 0 0.001114662024295677 -0.034644724797188199 0 0.018057611388834851 -0.030223969914345401 0 0.03214982838215158 -0.036550164909951742 0 0.03396684481877061 -0.021771474300517551 0 0.020207185183206099 -0.010785841930981459 0 0.018057611388834851 -0.030223969914345401 0 0.03396684481877061 -0.021771474300517551 0 0.018057611388834851 -0.030223969914345401 0 0.010882918392325341 -0.043546784918672053 0 0.022583515379492949 -0.04946345385366932 0 0.018057611388834851 -0.030223969914345401 0 0.022583515379492949 -0.04946345385366932 0 0.03214982838215158 -0.036550164909951742 0 0.010882918392325341 -0.043546784918672053 0 0.001114662024295677 -0.034644724797188199 0 0.003426744450576454 -0.054815297075420773 0 0.018057611388834851 -0.030223969914345401 0 0.010882918392325341 -0.043546784918672053 0 0.001114662024295677 -0.034644724797188199 0 0.018354718881549058 -0.065167425818499949 0 0.003426744450576454 -0.054815297075420773 0 0.022583515379492949 -0.04946345385366932 0 0.010882918392325341 -0.043546784918672053 0 0.003426744450576454 -0.054815297075420773 0 0.022583515379492949 -0.04946345385366932 0 0.018354718881549058 -0.065167425818499949 0 0.033429404710945708 -0.067827642356336801 0 0.022583515379492949 -0.04946345385366932 0 0.033429404710945708 -0.067827642356336801 0 0.022583515379492949 -0.04946345385366932 0 0.040434423972952403 -0.049093231793294147 0 0.033429404710945708 -0.067827642356336801 0 0.052580487019044733 -0.06457445167855122 0 0.040434423972952403 -0.049093231793294147 0 0.052580487019044733 -0.06457445167855122 0 0.040434423972952403 -0.049093231793294147 0 0.05544232884238081 -0.044875881875575382 0 0.052580487019044733 -0.06457445167855122 0 0.05544232884238081 -0.044875881875575382 0 0.068339170937992105 -0.053424337060716878 0 0.040434423972952403 -0.049093231793294147 0 0.05544232884238081 -0.044875881875575382 0 0.045706746350707102 -0.032198694687932281 0 0.05544232884238081 -0.044875881875575382 0 0.045706746350707102 -0.032198694687932281 0 0.061157621829282929 -0.025231604425866621 0 0.040434423972952403 -0.049093231793294147 0 0.045706746350707102 -0.032198694687932281 0 0.03214982838215158 -0.036550164909951742 0 0.022583515379492949 -0.04946345385366932 0 0.040434423972952403 -0.049093231793294147 0 0.03214982838215158 -0.036550164909951742 0 0.045706746350707102 -0.032198694687932281 0 0.03214982838215158 -0.036550164909951742 0 0.03396684481877061 -0.021771474300517551 0 0.045706746350707102 -0.032198694687932281 0 0.03396684481877061 -0.021771474300517551 0 0.047710046720236987 -0.018368172826886429 0 0.061157621829282929 -0.025231604425866621 0 0.047710046720236987 -0.018368172826886429 0 0.057931869416054299 -0.0086796052278893948 0 0.045706746350707102 -0.032198694687932281 0 0.061157621829282929 -0.025231604425866621 0 0.047710046720236987 -0.018368172826886429 0 0.053306813386582982 0.0056008818424343951 0 0.057931869416054299 -0.0086796052278893948 0 0.039787151186370009 -0.0039594854922263374 0 0.047710046720236987 -0.018368172826886429 0 0.057931869416054299 -0.0086796052278893948 0 0.039787151186370009 -0.0039594854922263374 0 0.053306813386582982 0.0056008818424343951 0 0.065940651683257009 0.0024831850618150888 0 0.057931869416054299 -0.0086796052278893948 0 0.020207185183206099 -0.010785841930981459 0 0.03396684481877061 -0.021771474300517551 0 0.039787151186370009 -0.0039594854922263374 0 0.03396684481877061 -0.021771474300517551 0 0.047710046720236987 -0.018368172826886429 0 0.039787151186370009 -0.0039594854922263374 0 0.07992851590561921 0.0082161523869754144 0 0.085319843464057188 -0.007629982329875426 0 0.074177093133044117 -0.010507922444979889 0 0.07992851590561921 0.0082161523869754144 0 0.085319843464057188 -0.007629982329875426 0 0.09649789417263642 -0.0037639840011086311 0 0.093491186985964037 -0.01472799792969565 0 0.085319843464057188 -0.007629982329875426 0 0.09649789417263642 -0.0037639840011086311 0 0.093491186985964037 -0.01472799792969565 0 0.085319843464057188 -0.007629982329875426 0 0.083581835824733053 -0.016535058395947159 0 0.085319843464057188 -0.007629982329875426 0 0.074177093133044117 -0.010507922444979889 0 0.083581835824733053 -0.016535058395947159 0 0.061157621829282929 -0.025231604425866621 0 0.057931869416054299 -0.0086796052278893948 0 0.074177093133044117 -0.010507922444979889 0 0.065940651683257009 0.0024831850618150888 0 0.057931869416054299 -0.0086796052278893948 0 0.074177093133044117 -0.010507922444979889 0 0.061157621829282929 -0.025231604425866621 0 0.077044537184394621 -0.024954964190685061 0 0.071280738265345076 -0.03811759874850193 0 0.061157621829282929 -0.025231604425866621 0 0.074177093133044117 -0.010507922444979889 0 0.077044537184394621 -0.024954964190685061 0 0.077044537184394621 -0.024954964190685061 0 0.087876518356205288 -0.024854425084499782 0 0.083696735197635597 -0.035074751153617953 0 0.077044537184394621 -0.024954964190685061 0 0.083581835824733053 -0.016535058395947159 0 0.087876518356205288 -0.024854425084499782 0 0.074177093133044117 -0.010507922444979889 0 0.077044537184394621 -0.024954964190685061 0 0.083581835824733053 -0.016535058395947159 0 0.093491186985964037 -0.01472799792969565 0 0.083581835824733053 -0.016535058395947159 0 0.087876518356205288 -0.024854425084499782 0 0.093491186985964037 -0.01472799792969565 0 0.087876518356205288 -0.024854425084499782 0 0.096892307268332672 -0.02266252034611416 0 0.087876518356205288 -0.024854425084499782 0 0.093921030959280866 -0.033511072873054298 0 0.096892307268332672 -0.02266252034611416 0 0.087876518356205288 -0.024854425084499782 0 0.083696735197635597 -0.035074751153617953 0 0.093921030959280866 -0.033511072873054298 0 0.088828324516270887 -0.041348533459236683 0 0.095977453204919599 -0.050472192210401508 0 0.093921030959280866 -0.033511072873054298 0 0.088828324516270887 -0.041348533459236683 0 0.083696735197635597 -0.035074751153617953 0 0.093921030959280866 -0.033511072873054298 0 0.088828324516270887 -0.041348533459236683 0 0.081718078703247488 -0.046336117599872988 0 0.095977453204919599 -0.050472192210401508 0 0.088828324516270887 -0.041348533459236683 0 0.081718078703247488 -0.046336117599872988 0 0.083696735197635597 -0.035074751153617953 0 0.081718078703247488 -0.046336117599872988 0 0.083696735197635597 -0.035074751153617953 0 0.071280738265345076 -0.03811759874850193 0 0.05544232884238081 -0.044875881875575382 0 0.061157621829282929 -0.025231604425866621 0 0.071280738265345076 -0.03811759874850193 0 0.05544232884238081 -0.044875881875575382 0 0.071280738265345076 -0.03811759874850193 0 0.068339170937992105 -0.053424337060716878 0 0.077044537184394621 -0.024954964190685061 0 0.083696735197635597 -0.035074751153617953 0 0.071280738265345076 -0.03811759874850193 0 0.081718078703247488 -0.046336117599872988 0 0.071280738265345076 -0.03811759874850193 0 0.068339170937992105 -0.053424337060716878 0 0.081718078703247488 -0.046336117599872988 0 0.068339170937992105 -0.053424337060716878 0 0.079819511512682115 -0.059373961925762081 0 0.068339170937992105 -0.053424337060716878 0 0.079819511512682115 -0.059373961925762081 0 0.068682665651441266 -0.069637891440837665 0 0.079819511512682115 -0.059373961925762081 0 0.095977453204919599 -0.050472192210401508 0 0.084380189065810102 -0.076999271316981366 0 0.081718078703247488 -0.046336117599872988 0 0.079819511512682115 -0.059373961925762081 0 0.095977453204919599 -0.050472192210401508 0 0.095977453204919599 -0.050472192210401508 0 0.1084893608633546 -0.054995312108922077 0 0.1003826539890946 -0.069656067773248523 0 0.095977453204919599 -0.050472192210401508 0 0.1084893608633546 -0.054995312108922077 0 0.10497618281608501 -0.042163163930312997 0 0.1084893608633546 -0.054995312108922077 0 0.12021542192502691 -0.05736310542253667 0 0.11225492598618329 -0.067700646346746801 0 0.12021542192502691 -0.05736310542253667 0 0.1181844865236701 -0.045884275653046647 0 0.1350650896680477 -0.050994701792827862 0 0.1084893608633546 -0.054995312108922077 0 0.12021542192502691 -0.05736310542253667 0 0.1181844865236701 -0.045884275653046647 0 0.1084893608633546 -0.054995312108922077 0 0.1181844865236701 -0.045884275653046647 0 0.10497618281608501 -0.042163163930312997 0 0.1181844865236701 -0.045884275653046647 0 0.1169603374125384 -0.034526050343312617 0 0.10497618281608501 -0.042163163930312997 0 0.10497618281608501 -0.042163163930312997 0 0.1139069069496291 -0.021464697665753471 0 0.1169603374125384 -0.034526050343312617 0 0.10497618281608501 -0.042163163930312997 0 0.1139069069496291 -0.021464697665753471 0 0.1181844865236701 -0.045884275653046647 0 0.1169603374125384 -0.034526050343312617 0 0.1283586559847627 -0.040725310836502493 0 0.095977453204919599 -0.050472192210401508 0 0.10497618281608501 -0.042163163930312997 0 0.1075747173440291 -0.023945113103821601 0 0.095977453204919599 -0.050472192210401508 0 0.093921030959280866 -0.033511072873054298 0 0.1075747173440291 -0.023945113103821601 0 0.095977453204919599 -0.050472192210401508 0 0.1075747173440291 -0.023945113103821601 0 0.10497618281608501 -0.042163163930312997 0 0.1075747173440291 -0.023945113103821601 0 0.1139069069496291 -0.021464697665753471 0 0.093921030959280866 -0.033511072873054298 0 0.096892307268332672 -0.02266252034611416 0 0.1075747173440291 -0.023945113103821601 0 0.093491186985964037 -0.01472799792969565 0 0.096892307268332672 -0.02266252034611416 0 0.10169828607787421 -0.015923098960230999 0 0.096892307268332672 -0.02266252034611416 0 0.10169828607787421 -0.015923098960230999 0 0.1075747173440291 -0.023945113103821601 0 0.10169828607787421 -0.015923098960230999 0 0.1075747173440291 -0.023945113103821601 0 0.1082483433893755 -0.0084409933366877514 0 0.1169603374125384 -0.034526050343312617 0 0.1213672368215104 -0.025634276355807499 0 0.12969235634276979 -0.031284000123743903 0 0.1169603374125384 -0.034526050343312617 0 0.1213672368215104 -0.025634276355807499 0 0.1139069069496291 -0.021464697665753471 0 0.1213672368215104 -0.025634276355807499 0 0.1139069069496291 -0.021464697665753471 0 0.12490934658110441 -0.01526235729042 0 0.11917198148314 0.002581966002757949 0 0.1075747173440291 -0.023945113103821601 0 0.1139069069496291 -0.021464697665753471 0 0.11917198148314 0.002581966002757949 0 0.1139069069496291 -0.021464697665753471 0 0.1228376310831711 -0.00076623140119310329 0 0.11917198148314 0.002581966002757949 0 0.1075747173440291 -0.023945113103821601 0 0.1082483433893755 -0.0084409933366877514 0 0.1139069069496291 -0.021464697665753471 0 0.12490934658110441 -0.01526235729042 0 0.1228376310831711 -0.00076623140119310329 0 0.1139069069496291 -0.021464697665753471 0 0.1228376310831711 -0.00076623140119310329 0 0.11917198148314 0.002581966002757949 0 0.1075747173440291 -0.023945113103821601 0 0.11917198148314 0.002581966002757949 0 0.1105415625726717 -0.0014271332550589229 0 0.1082483433893755 -0.0084409933366877514 0 0.1078625722471533 0.0022823866337398822 0 0.1105415625726717 -0.0014271332550589229 0 0.1039166904039584 -0.0028966343462391718 0 0.1039166904039584 -0.0028966343462391718 0 0.1082483433893755 -0.0084409933366877514 0 0.10154047648190589 -0.00941290969201335 0 0.1105415625726717 -0.0014271332550589229 0 0.1039166904039584 -0.0028966343462391718 0 0.1082483433893755 -0.0084409933366877514 0 0.10169828607787421 -0.015923098960230999 0 0.1082483433893755 -0.0084409933366877514 0 0.10154047648190589 -0.00941290969201335 0 0.093491186985964037 -0.01472799792969565 0 0.10154047648190589 -0.00941290969201335 0 0.09649789417263642 -0.0037639840011086311 0 0.093491186985964037 -0.01472799792969565 0 0.10169828607787421 -0.015923098960230999 0 0.10154047648190589 -0.00941290969201335 0 0.1039166904039584 -0.0028966343462391718 0 0.10154047648190589 -0.00941290969201335 0 0.09649789417263642 -0.0037639840011086311 0 0.088046088292129038 -0.10430519341125349 0 0.072782924926700548 -0.1035263504235614 0 0.088717560391344957 -0.092993146067331611 0 0.088046088292129038 -0.10430519341125349 0 0.080670658246847674 -0.112136361820053 0 0.072782924926700548 -0.1035263504235614 0 0.088046088292129038 -0.10430519341125349 0 0.088717560391344957 -0.092993146067331611 0 0.100171096126226 -0.096028489315426471 0 0.088046088292129038 -0.10430519341125349 0 0.089116900718008318 -0.11226838151764811 0 0.096817389343646892 -0.1088784313235004 0 0.088046088292129038 -0.10430519341125349 0 0.089116900718008318 -0.11226838151764811 0 0.080670658246847674 -0.112136361820053 0 0.089116900718008318 -0.11226838151764811 0 0.082844213492092533 -0.1195429602861619 0 0.095577299328253623 -0.1174095529111252 0 0.082362828069140165 -0.1319846138898183 0 0.082844213492092533 -0.1195429602861619 0 0.095577299328253623 -0.1174095529111252 0 0.082362828069140165 -0.1319846138898183 0 0.095577299328253623 -0.1174095529111252 0 0.082362828069140165 -0.1319846138898183 0 0.082844213492092533 -0.1195429602861619 0 0.069837722907261313 -0.1199532536492431 0 0.089116900718008318 -0.11226838151764811 0 0.082844213492092533 -0.1195429602861619 0 0.080670658246847674 -0.112136361820053 0 0.080670658246847674 -0.112136361820053 0 0.069837722907261313 -0.1199532536492431 0 0.072782924926700548 -0.1035263504235614 0 0.06118566078759103 -0.13005342953014129 0 0.072782924926700548 -0.1035263504235614 0 0.06118566078759103 -0.13005342953014129 0 0.069837722907261313 -0.1199532536492431 0 0.072782924926700548 -0.1035263504235614 0 0.06118566078759103 -0.13005342953014129 0 0.056223070490067702 -0.1049071233711502 0 0.072782924926700548 -0.1035263504235614 0 0.082844213492092533 -0.1195429602861619 0 0.080670658246847674 -0.112136361820053 0 0.069837722907261313 -0.1199532536492431 0 0.056223070490067702 -0.1049071233711502 0 0.072782924926700548 -0.1035263504235614 0 0.064045145718632748 -0.088800152685812248 0 0.057640786708643768 -0.07951032993234286 0 0.064045145718632748 -0.088800152685812248 0 0.068682665651441266 -0.069637891440837665 0 0.064045145718632748 -0.088800152685812248 0 0.068682665651441266 -0.069637891440837665 0 0.084380189065810102 -0.076999271316981366 0 0.072782924926700548 -0.1035263504235614 0 0.064045145718632748 -0.088800152685812248 0 0.084380189065810102 -0.076999271316981366 0 0.052580487019044733 -0.06457445167855122 0 0.068339170937992105 -0.053424337060716878 0 0.068682665651441266 -0.069637891440837665 0 0.079819511512682115 -0.059373961925762081 0 0.068682665651441266 -0.069637891440837665 0 0.084380189065810102 -0.076999271316981366 0 0.095977453204919599 -0.050472192210401508 0 0.084380189065810102 -0.076999271316981366 0 0.1003826539890946 -0.069656067773248523 0 0.095977453204919599 -0.050472192210401508 0 0.084380189065810102 -0.076999271316981366 0 0.084380189065810102 -0.076999271316981366 0 0.095693843046354268 -0.0841642264331387 0 0.1003826539890946 -0.069656067773248523 0 0.072782924926700548 -0.1035263504235614 0 0.084380189065810102 -0.076999271316981366 0 0.072782924926700548 -0.1035263504235614 0 0.084380189065810102 -0.076999271316981366 0 0.088717560391344957 -0.092993146067331611 0 0.084380189065810102 -0.076999271316981366 0 0.088717560391344957 -0.092993146067331611 0 0.095693843046354268 -0.0841642264331387 0 0.088717560391344957 -0.092993146067331611 0 0.095693843046354268 -0.0841642264331387 0 0.100171096126226 -0.096028489315426471 0 0.095693843046354268 -0.0841642264331387 0 0.1061825878765964 -0.082065358753895937 0 0.100171096126226 -0.096028489315426471 0 0.095693843046354268 -0.0841642264331387 0 0.1061825878765964 -0.082065358753895937 0 0.1003826539890946 -0.069656067773248523 0 0.1061825878765964 -0.082065358753895937 0 0.1152940355071756 -0.093458773729521216 0 0.100171096126226 -0.096028489315426471 0 0.1061825878765964 -0.082065358753895937 0 0.1003826539890946 -0.069656067773248523 0 0.11225492598618329 -0.067700646346746801 0 0.1084893608633546 -0.054995312108922077 0 0.1003826539890946 -0.069656067773248523 0 0.11225492598618329 -0.067700646346746801 0 0.1061825878765964 -0.082065358753895937 0 0.11225492598618329 -0.067700646346746801 0 0.1171317857577618 -0.078667044940758796 0 0.1171317857577618 -0.078667044940758796 0 0.12857779857738699 -0.078718698725873171 0 0.12708324658387871 -0.067240591211139955 0 0.11225492598618329 -0.067700646346746801 0 0.1171317857577618 -0.078667044940758796 0 0.12708324658387871 -0.067240591211139955 0 0.12021542192502691 -0.05736310542253667 0 0.11225492598618329 -0.067700646346746801 0 0.12708324658387871 -0.067240591211139955 0 0.1061825878765964 -0.082065358753895937 0 0.1152940355071756 -0.093458773729521216 0 0.1171317857577618 -0.078667044940758796 0 0.1171317857577618 -0.078667044940758796 0 0.1286838548293292 -0.09135300801218077 0 0.12857779857738699 -0.078718698725873171 0 0.1152940355071756 -0.093458773729521216 0 0.1171317857577618 -0.078667044940758796 0 0.1286838548293292 -0.09135300801218077 0 0.1152940355071756 -0.093458773729521216 0 0.1230450488982011 -0.098166020395255585 0 0.1286838548293292 -0.09135300801218077 0 0.1152940355071756 -0.093458773729521216 0 0.1230450488982011 -0.098166020395255585 0 0.1196469902177196 -0.1061558951397697 0 0.1230450488982011 -0.098166020395255585 0 0.1196469902177196 -0.1061558951397697 0 0.12917406780106669 -0.1036793655145172 0 0.1196469902177196 -0.1061558951397697 0 0.1094725419179296 -0.1044020385603272 0 0.1154331983948798 -0.1174886032934183 0 0.1152940355071756 -0.093458773729521216 0 0.1196469902177196 -0.1061558951397697 0 0.1094725419179296 -0.1044020385603272 0 0.1152940355071756 -0.093458773729521216 0 0.1094725419179296 -0.1044020385603272 0 0.100171096126226 -0.096028489315426471 0 0.1094725419179296 -0.1044020385603272 0 0.096817389343646892 -0.1088784313235004 0 0.100171096126226 -0.096028489315426471 0 0.088046088292129038 -0.10430519341125349 0 0.096817389343646892 -0.1088784313235004 0 0.100171096126226 -0.096028489315426471 0 0.096817389343646892 -0.1088784313235004 0 0.1051359327507693 -0.1227177542784853 0 0.1154331983948798 -0.1174886032934183 0 0.096817389343646892 -0.1088784313235004 0 0.1154331983948798 -0.1174886032934183 0 0.1005807427949069 -0.13366374688330029 0 0.095577299328253623 -0.1174095529111252 0 0.1051359327507693 -0.1227177542784853 0 0.1094725419179296 -0.1044020385603272 0 0.096817389343646892 -0.1088784313235004 0 0.1154331983948798 -0.1174886032934183 0 0.089116900718008318 -0.11226838151764811 0 0.096817389343646892 -0.1088784313235004 0 0.095577299328253623 -0.1174095529111252 0 0.096817389343646892 -0.1088784313235004 0 0.095577299328253623 -0.1174095529111252 0 0.1051359327507693 -0.1227177542784853 0 0.1154331983948798 -0.1174886032934183 0 0.13404900744611239 -0.12609877526333699 0 0.1196469902177196 -0.1061558951397697 0 0.1154331983948798 -0.1174886032934183 0 0.12686113813069899 -0.1114359576666621 0 0.1154331983948798 -0.1174886032934183 0 0.12686113813069899 -0.1114359576666621 0 0.13390982127973511 -0.11942472678041111 0 0.1154331983948798 -0.1174886032934183 0 0.13390982127973511 -0.11942472678041111 0 0.13404900744611239 -0.12609877526333699 0 0.12686113813069899 -0.1114359576666621 0 0.13614161296009411 -0.11043119760519431 0 0.13390982127973511 -0.11942472678041111 0 0.13614161296009411 -0.11043119760519431 0 0.14023431030656019 -0.11642081500581559 0 0.13390982127973511 -0.11942472678041111 0 0.13614161296009411 -0.11043119760519431 0 0.14023431030656019 -0.11642081500581559 0 0.14347338005148061 -0.1082488085161593 0 0.13773130733042549 -0.12113088311922759 0 0.1427320902892944 -0.12257921542734659 0 0.13404900744611239 -0.12609877526333699 0 0.13390982127973511 -0.11942472678041111 0 0.13773130733042549 -0.12113088311922759 0 0.13404900744611239 -0.12609877526333699 0 0.13390982127973511 -0.11942472678041111 0 0.13404900744611239 -0.12609877526333699 0 0.14023431030656019 -0.11642081500581559 0 0.13773130733042549 -0.12113088311922759 0 0.1427320902892944 -0.12257921542734659 0 0.14023431030656019 -0.11642081500581559 0 0.13390982127973511 -0.11942472678041111 0 0.13773130733042549 -0.12113088311922759 0 0.1427320902892944 -0.12257921542734659 0 0.15192118682329561 -0.12273271218809589 0 0.1490682445489844 -0.1279194233146575 0 0.1427320902892944 -0.12257921542734659 0 0.1474293378639818 -0.11515719203513899 0 0.15192118682329561 -0.12273271218809589 0 0.14023431030656019 -0.11642081500581559 0 0.1427320902892944 -0.12257921542734659 0 0.1474293378639818 -0.11515719203513899 0 0.1474293378639818 -0.11515719203513899 0 0.15201290161170181 -0.107226104105896 0 0.14347338005148061 -0.1082488085161593 0 0.14023431030656019 -0.11642081500581559 0 0.1474293378639818 -0.11515719203513899 0 0.14347338005148061 -0.1082488085161593 0 0.1474293378639818 -0.11515719203513899 0 0.15419764536576119 -0.1149677746217292 0 0.15201290161170181 -0.107226104105896 0 0.15419764536576119 -0.1149677746217292 0 0.15201290161170181 -0.107226104105896 0 0.1590985184781393 -0.1107939778183322 0 0.15419764536576119 -0.1149677746217292 0 0.15192118682329561 -0.12273271218809589 0 0.1605262820516872 -0.11892888696118289 0 0.1474293378639818 -0.11515719203513899 0 0.15419764536576119 -0.1149677746217292 0 0.15192118682329561 -0.12273271218809589 0 0.153855148049276 -0.097460838801678593 0 0.15201290161170181 -0.107226104105896 0 0.1462355681673109 -0.099255024001954253 0 0.153855148049276 -0.097460838801678593 0 0.1462355681673109 -0.099255024001954253 0 0.1490737095502995 -0.088653392770718792 0 0.153855148049276 -0.097460838801678593 0 0.15201290161170181 -0.107226104105896 0 0.16008969536972259 -0.10263897543636979 0 0.14347338005148061 -0.1082488085161593 0 0.1462355681673109 -0.099255024001954253 0 0.13800617896953651 -0.1013117005447786 0 0.15201290161170181 -0.107226104105896 0 0.14347338005148061 -0.1082488085161593 0 0.1462355681673109 -0.099255024001954253 0 0.1462355681673109 -0.099255024001954253 0 0.13800617896953651 -0.1013117005447786 0 0.14099209077157121 -0.092629299272494275 0 0.13800617896953651 -0.1013117005447786 0 0.1286838548293292 -0.09135300801218077 0 0.14099209077157121 -0.092629299272494275 0 0.13614161296009411 -0.11043119760519431 0 0.13800617896953651 -0.1013117005447786 0 0.12917406780106669 -0.1036793655145172 0 0.13614161296009411 -0.11043119760519431 0 0.14347338005148061 -0.1082488085161593 0 0.13800617896953651 -0.1013117005447786 0 0.1196469902177196 -0.1061558951397697 0 0.12686113813069899 -0.1114359576666621 0 0.12917406780106669 -0.1036793655145172 0 0.12686113813069899 -0.1114359576666621 0 0.13614161296009411 -0.11043119760519431 0 0.12917406780106669 -0.1036793655145172 0 0.1230450488982011 -0.098166020395255585 0 0.12917406780106669 -0.1036793655145172 0 0.1286838548293292 -0.09135300801218077 0 0.13800617896953651 -0.1013117005447786 0 0.12917406780106669 -0.1036793655145172 0 0.1286838548293292 -0.09135300801218077 0 0.1286838548293292 -0.09135300801218077 0 0.12857779857738699 -0.078718698725873171 0 0.13748132505412469 -0.08396770010957226 0 0.13748132505412469 -0.08396770010957226 0 0.1367334774756912 -0.073531819827653083 0 0.14538989296775451 -0.078880163337803719 0 0.12857779857738699 -0.078718698725873171 0 0.13748132505412469 -0.08396770010957226 0 0.1367334774756912 -0.073531819827653083 0 0.1286838548293292 -0.09135300801218077 0 0.13748132505412469 -0.08396770010957226 0 0.14099209077157121 -0.092629299272494275 0 0.12857779857738699 -0.078718698725873171 0 0.12708324658387871 -0.067240591211139955 0 0.1367334774756912 -0.073531819827653083 0 0.12708324658387871 -0.067240591211139955 0 0.1367334774756912 -0.073531819827653083 0 0.14110971147140131 -0.064913967020147179 0 0.1367334774756912 -0.073531819827653083 0 0.14110971147140131 -0.064913967020147179 0 0.14964674351361701 -0.070099729323911744 0 0.14110971147140131 -0.064913967020147179 0 0.14964674351361701 -0.070099729323911744 0 0.15194569281242609 -0.056105127932606663 0 0.1367334774756912 -0.073531819827653083 0 0.14964674351361701 -0.070099729323911744 0 0.14538989296775451 -0.078880163337803719 0 0.14964674351361701 -0.070099729323911744 0 0.14538989296775451 -0.078880163337803719 0 0.15822082836811369 -0.079982126599630443 0 0.14964674351361701 -0.070099729323911744 0 0.15822082836811369 -0.079982126599630443 0 0.1603896916223197 -0.069044426588861466 0 0.14964674351361701 -0.070099729323911744 0 0.1603896916223197 -0.069044426588861466 0 0.15194569281242609 -0.056105127932606663 0 0.13748132505412469 -0.08396770010957226 0 0.14099209077157121 -0.092629299272494275 0 0.1490737095502995 -0.088653392770718792 0 0.1462355681673109 -0.099255024001954253 0 0.14099209077157121 -0.092629299272494275 0 0.1490737095502995 -0.088653392770718792 0 0.13748132505412469 -0.08396770010957226 0 0.14538989296775451 -0.078880163337803719 0 0.1490737095502995 -0.088653392770718792 0 0.14538989296775451 -0.078880163337803719 0 0.1490737095502995 -0.088653392770718792 0 0.15822082836811369 -0.079982126599630443 0 0.153855148049276 -0.097460838801678593 0 0.1490737095502995 -0.088653392770718792 0 0.1594354292934542 -0.091737259282716963 0 0.1490737095502995 -0.088653392770718792 0 0.1594354292934542 -0.091737259282716963 0 0.15822082836811369 -0.079982126599630443 0 0.1594354292934542 -0.091737259282716963 0 0.15822082836811369 -0.079982126599630443 0 0.1684140015429216 -0.087293140772549349 0 0.15822082836811369 -0.079982126599630443 0 0.1684140015429216 -0.087293140772549349 0 0.1694423915093585 -0.075846288749261012 0 0.1684140015429216 -0.087293140772549349 0 0.1776016981043757 -0.094466756631608209 0 0.16825903644140999 -0.098606158866582916 0 0.1594354292934542 -0.091737259282716963 0 0.1684140015429216 -0.087293140772549349 0 0.16825903644140999 -0.098606158866582916 0 0.15822082836811369 -0.079982126599630443 0 0.1603896916223197 -0.069044426588861466 0 0.1694423915093585 -0.075846288749261012 0 0.1603896916223197 -0.069044426588861466 0 0.1694423915093585 -0.075846288749261012 0 0.17187576892014289 -0.062138750134232333 0 0.17971720707086189 -0.073145871694163048 0 0.17187576892014289 -0.062138750134232333 0 0.19180584502786041 -0.068172372335855602 0 0.17187576892014289 -0.062138750134232333 0 0.19180584502786041 -0.068172372335855602 0 0.1694423915093585 -0.075846288749261012 0 0.17971720707086189 -0.073145871694163048 0 0.17187576892014289 -0.062138750134232333 0 0.1694423915093585 -0.075846288749261012 0 0.17971720707086189 -0.073145871694163048 0 0.17803685153179119 -0.083473416706129469 0 0.17971720707086189 -0.073145871694163048 0 0.18645595400882431 -0.078186102724248294 0 0.19180584502786041 -0.068172372335855602 0 0.1684140015429216 -0.087293140772549349 0 0.17803685153179119 -0.083473416706129469 0 0.1776016981043757 -0.094466756631608209 0 0.1684140015429216 -0.087293140772549349 0 0.1694423915093585 -0.075846288749261012 0 0.17803685153179119 -0.083473416706129469 0 0.17803685153179119 -0.083473416706129469 0 0.18645595400882431 -0.078186102724248294 0 0.18748362772352481 -0.090285751384613616 0 0.17971720707086189 -0.073145871694163048 0 0.17803685153179119 -0.083473416706129469 0 0.18645595400882431 -0.078186102724248294 0 0.17803685153179119 -0.083473416706129469 0 0.18748362772352481 -0.090285751384613616 0 0.1776016981043757 -0.094466756631608209 0 0.1776016981043757 -0.094466756631608209 0 0.1757785255420414 -0.1036637588673371 0 0.18737718651252391 -0.1018645954104864 0 0.18748362772352481 -0.090285751384613616 0 0.1776016981043757 -0.094466756631608209 0 0.18737718651252391 -0.1018645954104864 0 0.1776016981043757 -0.094466756631608209 0 0.1757785255420414 -0.1036637588673371 0 0.16825903644140999 -0.098606158866582916 0 0.1757785255420414 -0.1036637588673371 0 0.17797479248166551 -0.1125427820454727 0 0.16787713834435419 -0.11000951374301229 0 0.1757785255420414 -0.1036637588673371 0 0.18737718651252391 -0.1018645954104864 0 0.17797479248166551 -0.1125427820454727 0 0.18737718651252391 -0.1018645954104864 0 0.18701697985041221 -0.11880972375357141 0 0.17797479248166551 -0.1125427820454727 0 0.18701697985041221 -0.11880972375357141 0 0.173543926957343 -0.1211375462363173 0 0.17990838590865871 -0.12844737664361131 0 0.18701697985041221 -0.11880972375357141 0 0.173543926957343 -0.1211375462363173 0 0.17797479248166551 -0.1125427820454727 0 0.173543926957343 -0.1211375462363173 0 0.17797479248166551 -0.1125427820454727 0 0.16787713834435419 -0.11000951374301229 0 0.173543926957343 -0.1211375462363173 0 0.16787713834435419 -0.11000951374301229 0 0.1605262820516872 -0.11892888696118289 0 0.173543926957343 -0.1211375462363173 0 0.1605262820516872 -0.11892888696118289 0 0.1641162962428066 -0.126449221113482 0 0.15192118682329561 -0.12273271218809589 0 0.1605262820516872 -0.11892888696118289 0 0.1587247560068413 -0.12564209046719049 0 0.1605262820516872 -0.11892888696118289 0 0.1587247560068413 -0.12564209046719049 0 0.1641162962428066 -0.126449221113482 0 0.15419764536576119 -0.1149677746217292 0 0.1605262820516872 -0.11892888696118289 0 0.1590985184781393 -0.1107939778183322 0 0.16787713834435419 -0.11000951374301229 0 0.1605262820516872 -0.11892888696118289 0 0.1590985184781393 -0.1107939778183322 0 0.15201290161170181 -0.107226104105896 0 0.1590985184781393 -0.1107939778183322 0 0.16008969536972259 -0.10263897543636979 0 0.16787713834435419 -0.11000951374301229 0 0.1590985184781393 -0.1107939778183322 0 0.16008969536972259 -0.10263897543636979 0 0.1594354292934542 -0.091737259282716963 0 0.16008969536972259 -0.10263897543636979 0 0.16825903644140999 -0.098606158866582916 0 0.153855148049276 -0.097460838801678593 0 0.1594354292934542 -0.091737259282716963 0 0.16008969536972259 -0.10263897543636979 0 0.1757785255420414 -0.1036637588673371 0 0.16787713834435419 -0.11000951374301229 0 0.16825903644140999 -0.098606158866582916 0 0.16787713834435419 -0.11000951374301229 0 0.16008969536972259 -0.10263897543636979 0 0.16825903644140999 -0.098606158866582916 0 0.1552076984021574 -0.0047487866015848753 0 0.1380919344669613 -0.01469948322874493 0 0.1606476670511833 -0.017066892083396779 0 0.14127976741107601 0.00215554095495248 0 0.1552076984021574 -0.0047487866015848753 0 0.1380919344669613 -0.01469948322874493 0 0.14127976741107601 0.00215554095495248 0 0.1228376310831711 -0.00076623140119310329 0 0.1380919344669613 -0.01469948322874493 0 0.1228376310831711 -0.00076623140119310329 0 0.1380919344669613 -0.01469948322874493 0 0.12490934658110441 -0.01526235729042 0 0.1228376310831711 -0.00076623140119310329 0 0.1380919344669613 -0.01469948322874493 0 0.1380919344669613 -0.01469948322874493 0 0.1415761600091012 -0.038003691908970592 0 0.12969235634276979 -0.031284000123743903 0 0.1213672368215104 -0.025634276355807499 0 0.12490934658110441 -0.01526235729042 0 0.12969235634276979 -0.031284000123743903 0 0.12490934658110441 -0.01526235729042 0 0.1380919344669613 -0.01469948322874493 0 0.12969235634276979 -0.031284000123743903 0 0.1380919344669613 -0.01469948322874493 0 0.15334623785075199 -0.02863273505629621 0 0.1415761600091012 -0.038003691908970592 0 0.1380919344669613 -0.01469948322874493 0 0.15334623785075199 -0.02863273505629621 0 0.1606476670511833 -0.017066892083396779 0 0.1380919344669613 -0.01469948322874493 0 0.15334623785075199 -0.02863273505629621 0 0.15437572795414581 -0.042117567211766717 0 0.1415761600091012 -0.038003691908970592 0 0.15194569281242609 -0.056105127932606663 0 0.15334623785075199 -0.02863273505629621 0 0.15437572795414581 -0.042117567211766717 0 0.1415761600091012 -0.038003691908970592 0 0.1181844865236701 -0.045884275653046647 0 0.1283586559847627 -0.040725310836502493 0 0.1350650896680477 -0.050994701792827862 0 0.1415761600091012 -0.038003691908970592 0 0.12969235634276979 -0.031284000123743903 0 0.1283586559847627 -0.040725310836502493 0 0.1169603374125384 -0.034526050343312617 0 0.12969235634276979 -0.031284000123743903 0 0.1283586559847627 -0.040725310836502493 0 0.1415761600091012 -0.038003691908970592 0 0.1283586559847627 -0.040725310836502493 0 0.1350650896680477 -0.050994701792827862 0 0.1181844865236701 -0.045884275653046647 0 0.1350650896680477 -0.050994701792827862 0 0.12021542192502691 -0.05736310542253667 0 0.12708324658387871 -0.067240591211139955 0 0.1350650896680477 -0.050994701792827862 0 0.12708324658387871 -0.067240591211139955 0 0.14110971147140131 -0.064913967020147179 0 0.1350650896680477 -0.050994701792827862 0 0.14110971147140131 -0.064913967020147179 0 0.15194569281242609 -0.056105127932606663 0 0.1415761600091012 -0.038003691908970592 0 0.1350650896680477 -0.050994701792827862 0 0.15194569281242609 -0.056105127932606663 0 0.1350650896680477 -0.050994701792827862 0 0.15194569281242609 -0.056105127932606663 0 0.14110971147140131 -0.064913967020147179 0 0.1350650896680477 -0.050994701792827862 0 0.15194569281242609 -0.056105127932606663 0 0.15194569281242609 -0.056105127932606663 0 0.16860054123454279 -0.042565986883847551 0 0.15437572795414581 -0.042117567211766717 0 0.15194569281242609 -0.056105127932606663 0 0.16860054123454279 -0.042565986883847551 0 0.1603896916223197 -0.069044426588861466 0 0.15194569281242609 -0.056105127932606663 0 0.17187576892014289 -0.062138750134232333 0 0.15194569281242609 -0.056105127932606663 0 0.165016394264413 -0.053661354003145263 0 0.17187576892014289 -0.062138750134232333 0 0.15194569281242609 -0.056105127932606663 0 0.165016394264413 -0.053661354003145263 0 0.16860054123454279 -0.042565986883847551 0 0.15194569281242609 -0.056105127932606663 0 0.17187576892014289 -0.062138750134232333 0 0.165016394264413 -0.053661354003145263 0 0.17187576892014289 -0.062138750134232333 0 0.18345715790010181 -0.056135992415964377 0 0.165016394264413 -0.053661354003145263 0 0.18345715790010181 -0.056135992415964377 0 0.16860054123454279 -0.042565986883847551 0 0.17187576892014289 -0.062138750134232333 0 0.18345715790010181 -0.056135992415964377 0 0.19180584502786041 -0.068172372335855602 0 0.18345715790010181 -0.056135992415964377 0 0.17385144243116649 -0.043269821226828903 0 0.18595588634396351 -0.043176695624854357 0 0.18345715790010181 -0.056135992415964377 0 0.17385144243116649 -0.043269821226828903 0 0.16860054123454279 -0.042565986883847551 0 0.18345715790010181 -0.056135992415964377 0 0.16860054123454279 -0.042565986883847551 0 0.18595588634396351 -0.043176695624854357 0 0.1782733089797521 -0.034702753096601993 0 0.1941468740000297 -0.021798736782002521 0 0.17385144243116649 -0.043269821226828903 0 0.18595588634396351 -0.043176695624854357 0 0.1782733089797521 -0.034702753096601993 0 0.17385144243116649 -0.043269821226828903 0 0.1782733089797521 -0.034702753096601993 0 0.16860054123454279 -0.042565986883847551 0 0.1782733089797521 -0.034702753096601993 0 0.16860054123454279 -0.042565986883847551 0 0.17385144243116649 -0.043269821226828903 0 0.1782733089797521 -0.034702753096601993 0 0.1782733089797521 -0.034702753096601993 0 0.16860054123454279 -0.042565986883847551 0 0.1670526359884773 -0.02836254214418232 0 0.15334623785075199 -0.02863273505629621 0 0.16860054123454279 -0.042565986883847551 0 0.1670526359884773 -0.02836254214418232 0 0.15334623785075199 -0.02863273505629621 0 0.15437572795414581 -0.042117567211766717 0 0.16860054123454279 -0.042565986883847551 0 0.15334623785075199 -0.02863273505629621 0 0.16860054123454279 -0.042565986883847551 0 0.15334623785075199 -0.02863273505629621 0 0.1606476670511833 -0.017066892083396779 0 0.1670526359884773 -0.02836254214418232 0 0.1606476670511833 -0.017066892083396779 0 0.1670526359884773 -0.02836254214418232 0 0.1743954248261565 -0.018844343600769399 0 0.1782733089797521 -0.034702753096601993 0 0.1743954248261565 -0.018844343600769399 0 0.1918659379284415 -0.0083679514935210662 0 0.1782733089797521 -0.034702753096601993 0 0.1670526359884773 -0.02836254214418232 0 0.1743954248261565 -0.018844343600769399 0 0.1782733089797521 -0.034702753096601993 0 0.1918659379284415 -0.0083679514935210662 0 0.1782733089797521 -0.034702753096601993 0 0.1941468740000297 -0.021798736782002521 0 0.1743954248261565 -0.018844343600769399 0 0.17983697574181159 -0.0080573062328258595 0 0.1918659379284415 -0.0083679514935210662 0 0.1743954248261565 -0.018844343600769399 0 0.17983697574181159 -0.0080573062328258595 0 0.17056947168728639 -0.0076341498549102596 0 0.17983697574181159 -0.0080573062328258595 0 0.18580903226614379 -0.0011502469314075439 0 0.17786282304025339 -0.001583287003114023 0 0.17983697574181159 -0.0080573062328258595 0 0.18580903226614379 -0.0011502469314075439 0 0.1918659379284415 -0.0083679514935210662 0 0.17983697574181159 -0.0080573062328258595 0 0.17786282304025339 -0.001583287003114023 0 0.17056947168728639 -0.0076341498549102596 0 0.17227434920368959 0.00081991249798677823 0 0.17786282304025339 -0.001583287003114023 0 0.17056947168728639 -0.0076341498549102596 0 0.17227434920368959 0.00081991249798677823 0 0.16550177429739321 0.001625335581948511 0 0.17056947168728639 -0.0076341498549102596 0 0.1606476670511833 -0.017066892083396779 0 0.1743954248261565 -0.018844343600769399 0 0.17056947168728639 -0.0076341498549102596 0 0.1552076984021574 -0.0047487866015848753 0 0.1606476670511833 -0.017066892083396779 0 0.17056947168728639 -0.0076341498549102596 0 0.15830422717032419 0.0026668804518291322 0 0.16550177429739321 0.001625335581948511 0 0.1552076984021574 -0.0047487866015848753 0 0.16550177429739321 0.001625335581948511 0 0.1552076984021574 -0.0047487866015848753 0 0.17056947168728639 -0.0076341498549102596 0 0.21653748859829491 -0.0035968485671754561 0 0.20239897911060981 -0.0049616950454924097 0 0.1941468740000297 -0.021798736782002521 0 0.21653748859829491 -0.0035968485671754561 0 0.1941468740000297 -0.021798736782002521 0 0.20955206102217341 -0.019021580532265901 0 0.21653748859829491 -0.0035968485671754561 0 0.20955206102217341 -0.019021580532265901 0 0.22864161374710179 -0.024239001361894639 0 0.21653748859829491 -0.0035968485671754561 0 0.1941468740000297 -0.021798736782002521 0 0.20938161325362409 0.0025060029461209908 0 0.21653748859829491 -0.0035968485671754561 0 0.20239897911060981 -0.0049616950454924097 0 0.19981118715584381 0.0070254328827108366 0 0.20239897911060981 -0.0049616950454924097 0 0.1918659379284415 -0.0083679514935210662 0 0.19981118715584381 0.0070254328827108366 0 0.1918659379284415 -0.0083679514935210662 0 0.20239897911060981 -0.0049616950454924097 0 0.1918659379284415 -0.0083679514935210662 0 0.1941468740000297 -0.021798736782002521 0 0.1894192936343001 0.0060385698470956234 0 0.18580903226614379 -0.0011502469314075439 0 0.1918659379284415 -0.0083679514935210662 0 0.1894192936343001 0.0060385698470956234 0 0.1918659379284415 -0.0083679514935210662 0 0.1918659379284415 -0.0083679514935210662 0 0.1941468740000297 -0.021798736782002521 0 0.1782733089797521 -0.034702753096601993 0 0.1918659379284415 -0.0083679514935210662 0 0.1941468740000297 -0.021798736782002521 0 0.1941468740000297 -0.021798736782002521 0 0.2031559883210855 -0.029985938475911671 0 0.20955206102217341 -0.019021580532265901 0 0.20955206102217341 -0.019021580532265901 0 0.21066165658577479 -0.033085676709690801 0 0.22864161374710179 -0.024239001361894639 0 0.2031559883210855 -0.029985938475911671 0 0.20955206102217341 -0.019021580532265901 0 0.21066165658577479 -0.033085676709690801 0 0.21864271396698939 -0.038649087319523719 0 0.21066165658577479 -0.033085676709690801 0 0.21034122995680221 -0.050048420551560682 0 0.21066165658577479 -0.033085676709690801 0 0.1982633616763636 -0.046037759879686967 0 0.21034122995680221 -0.050048420551560682 0 0.2031559883210855 -0.029985938475911671 0 0.21066165658577479 -0.033085676709690801 0 0.1982633616763636 -0.046037759879686967 0 0.21864271396698939 -0.038649087319523719 0 0.21034122995680221 -0.050048420551560682 0 0.21819242210762169 -0.050823402618315167 0 0.1941468740000297 -0.021798736782002521 0 0.2031559883210855 -0.029985938475911671 0 0.1982633616763636 -0.046037759879686967 0 0.18595588634396351 -0.043176695624854357 0 0.1941468740000297 -0.021798736782002521 0 0.1982633616763636 -0.046037759879686967 0 0.1941468740000297 -0.021798736782002521 0 0.1982633616763636 -0.046037759879686967 0 0.1982633616763636 -0.046037759879686967 0 0.19180584502786041 -0.068172372335855602 0 0.20237984935269879 -0.070276782977371152 0 0.1982633616763636 -0.046037759879686967 0 0.20237984935269879 -0.070276782977371152 0 0.18345715790010181 -0.056135992415964377 0 0.1982633616763636 -0.046037759879686967 0 0.19180584502786041 -0.068172372335855602 0 0.18345715790010181 -0.056135992415964377 0 0.18595588634396351 -0.043176695624854357 0 0.1982633616763636 -0.046037759879686967 0 0.21034122995680221 -0.050048420551560682 0 0.21390737605136481 -0.061417813804776289 0 0.20237984935269879 -0.070276782977371152 0 0.1982633616763636 -0.046037759879686967 0 0.21034122995680221 -0.050048420551560682 0 0.20237984935269879 -0.070276782977371152 0 0.21034122995680221 -0.050048420551560682 0 0.21819242210762169 -0.050823402618315167 0 0.21390737605136481 -0.061417813804776289 0 0.2255736282180465 -0.056882305063223393 0 0.23627526009844421 -0.049694667024589079 0 0.23165324526163639 -0.065502610206523884 0 0.21390737605136481 -0.061417813804776289 0 0.2255736282180465 -0.056882305063223393 0 0.2221192681341374 -0.068345353637844553 0 0.21819242210762169 -0.050823402618315167 0 0.21390737605136481 -0.061417813804776289 0 0.2255736282180465 -0.056882305063223393 0 0.21819242210762169 -0.050823402618315167 0 0.2255736282180465 -0.056882305063223393 0 0.22546512762764079 -0.044057692677509197 0 0.2255736282180465 -0.056882305063223393 0 0.23627526009844421 -0.049694667024589079 0 0.22546512762764079 -0.044057692677509197 0 0.24617004458672351 -0.058202332164817121 0 0.23627526009844421 -0.049694667024589079 0 0.24390890644978661 -0.075150332687283522 0 0.23627526009844421 -0.049694667024589079 0 0.24390890644978661 -0.075150332687283522 0 0.25164978009717781 -0.053061021673298493 0 0.24617004458672351 -0.058202332164817121 0 0.24422464309495209 -0.046986837608536558 0 0.24617004458672351 -0.058202332164817121 0 0.24422464309495209 -0.046986837608536558 0 0.23627526009844421 -0.049694667024589079 0 0.25164978009717781 -0.053061021673298493 0 0.2539732262079259 -0.044675773385505282 0 0.24422464309495209 -0.046986837608536558 0 0.24422464309495209 -0.046986837608536558 0 0.23627526009844421 -0.049694667024589079 0 0.24524507923365879 -0.0330622213940093 0 0.25845033672230949 -0.02738613623275089 0 0.24422464309495209 -0.046986837608536558 0 0.24524507923365879 -0.0330622213940093 0 0.23627526009844421 -0.049694667024589079 0 0.24524507923365879 -0.0330622213940093 0 0.22864161374710179 -0.024239001361894639 0 0.21864271396698939 -0.038649087319523719 0 0.21066165658577479 -0.033085676709690801 0 0.22864161374710179 -0.024239001361894639 0 0.23627526009844421 -0.049694667024589079 0 0.22864161374710179 -0.024239001361894639 0 0.21864271396698939 -0.038649087319523719 0 0.22546512762764079 -0.044057692677509197 0 0.22864161374710179 -0.024239001361894639 0 0.23627526009844421 -0.049694667024589079 0 0.22546512762764079 -0.044057692677509197 0 0.22864161374710179 -0.024239001361894639 0 0.21864271396698939 -0.038649087319523719 0 0.21819242210762169 -0.050823402618315167 0 0.22546512762764079 -0.044057692677509197 0 0.22864161374710179 -0.024239001361894639 0 0.24437070500465241 -0.019757014484825589 0 0.23246643938152739 -0.0092251246746631842 0 0.24524507923365879 -0.0330622213940093 0 0.22864161374710179 -0.024239001361894639 0 0.24437070500465241 -0.019757014484825589 0 0.25013504981522988 -0.025019616072594848 0 0.24524507923365879 -0.0330622213940093 0 0.24437070500465241 -0.019757014484825589 0 0.25247407830029878 -0.019873092178793648 0 0.25006914023697918 -0.01208141302270524 0 0.24437070500465241 -0.019757014484825589 0 0.25013504981522988 -0.025019616072594848 0 0.25247407830029878 -0.019873092178793648 0 0.24437070500465241 -0.019757014484825589 0 0.24437070500465241 -0.019757014484825589 0 0.242989310538931 -0.0092135161021761666 0 0.23246643938152739 -0.0092251246746631842 0 0.25006914023697918 -0.01208141302270524 0 0.242989310538931 -0.0092135161021761666 0 0.2479891295484222 -0.0022684572774312019 0 0.25006914023697918 -0.01208141302270524 0 0.24437070500465241 -0.019757014484825589 0 0.242989310538931 -0.0092135161021761666 0 0.2429424487767215 0.0026164120279975069 0 0.2479891295484222 -0.0022684572774312019 0 0.24005113852307369 -0.0027355710512556022 0 0.242989310538931 -0.0092135161021761666 0 0.2479891295484222 -0.0022684572774312019 0 0.24005113852307369 -0.0027355710512556022 0 0.23517440673197429 0.0051848507458196356 0 0.24005113852307369 -0.0027355710512556022 0 0.23246643938152739 -0.0092251246746631842 0 0.242989310538931 -0.0092135161021761666 0 0.24005113852307369 -0.0027355710512556022 0 0.23246643938152739 -0.0092251246746631842 0 0.22100796739575951 0.001216664300799794 0 0.22864161374710179 -0.024239001361894639 0 0.23246643938152739 -0.0092251246746631842 0 0.23517440673197429 0.0051848507458196356 0 0.22100796739575951 0.001216664300799794 0 0.23246643938152739 -0.0092251246746631842 0 0.22100796739575951 0.001216664300799794 0 0.21653748859829491 -0.0035968485671754561 0 0.22864161374710179 -0.024239001361894639 0 0.22100796739575951 0.001216664300799794 0 0.22864161374710179 -0.024239001361894639 0 0.206496337029034 -0.094515806075055359 0 0.21061282470536921 -0.1187548291727395 0 0.206496337029034 -0.094515806075055359 0 0.22623965631488491 -0.089683688039789988 0 0.22333782165884589 -0.10574313483481231 0 0.206496337029034 -0.094515806075055359 0 0.21061282470536921 -0.1187548291727395 0 0.22333782165884589 -0.10574313483481231 0 0.18737718651252391 -0.1018645954104864 0 0.18701697985041221 -0.11880972375357141 0 0.21061282470536921 -0.1187548291727395 0 0.18701697985041221 -0.11880972375357141 0 0.21061282470536921 -0.1187548291727395 0 0.19260125287660149 -0.13207131947283501 0 0.18748362772352481 -0.090285751384613616 0 0.18737718651252391 -0.1018645954104864 0 0.206496337029034 -0.094515806075055359 0 0.18737718651252391 -0.1018645954104864 0 0.206496337029034 -0.094515806075055359 0 0.21061282470536921 -0.1187548291727395 0 0.18748362772352481 -0.090285751384613616 0 0.206496337029034 -0.094515806075055359 0 0.19448955746265811 -0.082220240722777116 0 0.206496337029034 -0.094515806075055359 0 0.19448955746265811 -0.082220240722777116 0 0.20237984935269879 -0.070276782977371152 0 0.18645595400882431 -0.078186102724248294 0 0.18748362772352481 -0.090285751384613616 0 0.19448955746265811 -0.082220240722777116 0 0.18645595400882431 -0.078186102724248294 0 0.19448955746265811 -0.082220240722777116 0 0.19180584502786041 -0.068172372335855602 0 0.19448955746265811 -0.082220240722777116 0 0.19180584502786041 -0.068172372335855602 0 0.20237984935269879 -0.070276782977371152 0 0.21390737605136481 -0.061417813804776289 0 0.20237984935269879 -0.070276782977371152 0 0.21248527081093549 -0.070330245212121473 0 0.20237984935269879 -0.070276782977371152 0 0.21248527081093549 -0.070330245212121473 0 0.2145783618208984 -0.079628257083024359 0 0.21248527081093549 -0.070330245212121473 0 0.2145783618208984 -0.079628257083024359 0 0.2221192681341374 -0.068345353637844553 0 0.21390737605136481 -0.061417813804776289 0 0.21248527081093549 -0.070330245212121473 0 0.2221192681341374 -0.068345353637844553 0 0.206496337029034 -0.094515806075055359 0 0.20237984935269879 -0.070276782977371152 0 0.2145783618208984 -0.079628257083024359 0 0.206496337029034 -0.094515806075055359 0 0.2145783618208984 -0.079628257083024359 0 0.22623965631488491 -0.089683688039789988 0 0.206496337029034 -0.094515806075055359 0 0.20237984935269879 -0.070276782977371152 0 0.2145783618208984 -0.079628257083024359 0 0.22623965631488491 -0.089683688039789988 0 0.23038916340776741 -0.077440392619678861 0 0.22623965631488491 -0.089683688039789988 0 0.23038916340776741 -0.077440392619678861 0 0.23781669784438761 -0.088769324738514177 0 0.22623965631488491 -0.089683688039789988 0 0.23781669784438761 -0.088769324738514177 0 0.23714180950183539 -0.10160942858925499 0 0.2145783618208984 -0.079628257083024359 0 0.2221192681341374 -0.068345353637844553 0 0.23038916340776741 -0.077440392619678861 0 0.2255736282180465 -0.056882305063223393 0 0.2221192681341374 -0.068345353637844553 0 0.23165324526163639 -0.065502610206523884 0 0.2221192681341374 -0.068345353637844553 0 0.23038916340776741 -0.077440392619678861 0 0.23165324526163639 -0.065502610206523884 0 0.25256726729664603 -0.064532785491330763 0 0.24617004458672351 -0.058202332164817121 0 0.24390890644978661 -0.075150332687283522 0 0.23627526009844421 -0.049694667024589079 0 0.23165324526163639 -0.065502610206523884 0 0.24390890644978661 -0.075150332687283522 0 0.23038916340776741 -0.077440392619678861 0 0.23165324526163639 -0.065502610206523884 0 0.24390890644978661 -0.075150332687283522 0 0.25154255280112903 -0.1006059983499779 0 0.24390890644978661 -0.075150332687283522 0 0.25154255280112903 -0.1006059983499779 0 0.24390890644978661 -0.075150332687283522 0 0.23781669784438761 -0.088769324738514177 0 0.23038916340776741 -0.077440392619678861 0 0.24390890644978661 -0.075150332687283522 0 0.23781669784438761 -0.088769324738514177 0 0.25154255280112903 -0.1006059983499779 0 0.23714180950183539 -0.10160942858925499 0 0.24954668948061209 -0.11284283178631641 0 0.25154255280112903 -0.1006059983499779 0 0.23781669784438761 -0.088769324738514177 0 0.23714180950183539 -0.10160942858925499 0 0.23714180950183539 -0.10160942858925499 0 0.22333782165884589 -0.10574313483481231 0 0.23542538064511609 -0.1194854446592761 0 0.22623965631488491 -0.089683688039789988 0 0.23714180950183539 -0.10160942858925499 0 0.22333782165884589 -0.10574313483481231 0 0.21061282470536921 -0.1187548291727395 0 0.22333782165884589 -0.10574313483481231 0 0.23542538064511609 -0.1194854446592761 0 0.25741251913389712 -0.1305951081492244 0 0.23542538064511609 -0.1194854446592761 0 0.24954668948061209 -0.11284283178631641 0 0.23714180950183539 -0.10160942858925499 0 0.23542538064511609 -0.1194854446592761 0 0.24954668948061209 -0.11284283178631641 0 0.25741251913389712 -0.1305951081492244 0 0.25452239946831973 -0.14829655140993131 0 0.23191914561449989 -0.13726295483178369 0 0.25741251913389712 -0.1305951081492244 0 0.23542538064511609 -0.1194854446592761 0 0.23191914561449989 -0.13726295483178369 0 0.25452239946831973 -0.14829655140993131 0 0.23782434991563151 -0.15439369078169049 0 0.23191914561449989 -0.13726295483178369 0 0.23782434991563151 -0.15439369078169049 0 0.2147293123817042 -0.1429938522704238 0 0.23782434991563151 -0.15439369078169049 0 0.2147293123817042 -0.1429938522704238 0 0.21952864142792899 -0.1712536350637954 0 0.23782434991563151 -0.15439369078169049 0 0.23191914561449989 -0.13726295483178369 0 0.2147293123817042 -0.1429938522704238 0 0.21061282470536921 -0.1187548291727395 0 0.23542538064511609 -0.1194854446592761 0 0.23191914561449989 -0.13726295483178369 0 0.21061282470536921 -0.1187548291727395 0 0.23191914561449989 -0.13726295483178369 0 0.2147293123817042 -0.1429938522704238 0 0.2147293123817042 -0.1429938522704238 0 0.19260125287660149 -0.13207131947283501 0 0.21061282470536921 -0.1187548291727395 0 0.2147293123817042 -0.1429938522704238 0 0.19260125287660149 -0.13207131947283501 0 0.21061282470536921 -0.1187548291727395 0 0.2147293123817042 -0.1429938522704238 0 0.2147293123817042 -0.1429938522704238 0 0.20548350855114439 -0.15623176612928341 0 0.19677556980284089 -0.14597147697610061 0 0.20548350855114439 -0.15623176612928341 0 0.19677556980284089 -0.14597147697610061 0 0.19325106823209409 -0.153061144976989 0 0.19677556980284089 -0.14597147697610061 0 0.19325106823209409 -0.153061144976989 0 0.18786488322971459 -0.15098965934649999 0 0.19325106823209409 -0.153061144976989 0 0.18786488322971459 -0.15098965934649999 0 0.1842505296355367 -0.15589311325690541 0 0.19677556980284089 -0.14597147697610061 0 0.18786488322971459 -0.15098965934649999 0 0.188659048266132 -0.1418371739210742 0 0.2147293123817042 -0.1429938522704238 0 0.19677556980284089 -0.14597147697610061 0 0.19260125287660149 -0.13207131947283501 0 0.19677556980284089 -0.14597147697610061 0 0.188659048266132 -0.1418371739210742 0 0.19260125287660149 -0.13207131947283501 0 0.18830323417204939 -0.1765657128700695 0 0.20313295091115369 -0.1678787213591082 0 0.20600005448239761 -0.18645800734220749 0 0.18830323417204939 -0.1765657128700695 0 0.20600005448239761 -0.18645800734220749 0 0.1956377870383576 -0.1970896374814364 0 0.19325106823209409 -0.153061144976989 0 0.18830323417204939 -0.1765657128700695 0 0.19325106823209409 -0.153061144976989 0 0.18830323417204939 -0.1765657128700695 0 0.20313295091115369 -0.1678787213591082 0 0.19325106823209409 -0.153061144976989 0 0.18830323417204939 -0.1765657128700695 0 0.18144082188941271 -0.16389154531309821 0 0.20548350855114439 -0.15623176612928341 0 0.19325106823209409 -0.153061144976989 0 0.20313295091115369 -0.1678787213591082 0 0.20548350855114439 -0.15623176612928341 0 0.20313295091115369 -0.1678787213591082 0 0.21952864142792899 -0.1712536350637954 0 0.2147293123817042 -0.1429938522704238 0 0.21952864142792899 -0.1712536350637954 0 0.2147293123817042 -0.1429938522704238 0 0.20548350855114439 -0.15623176612928341 0 0.21952864142792899 -0.1712536350637954 0 0.20600005448239761 -0.18645800734220749 0 0.21952864142792899 -0.1712536350637954 0 0.22432797047415351 -0.19951341785716731 0 0.20313295091115369 -0.1678787213591082 0 0.20600005448239761 -0.18645800734220749 0 0.21952864142792899 -0.1712536350637954 0 0.21952864142792899 -0.1712536350637954 0 0.2437278363918948 -0.18195096812212239 0 0.22432797047415351 -0.19951341785716731 0 0.21952864142792899 -0.1712536350637954 0 0.22432797047415351 -0.19951341785716731 0 0.23782434991563151 -0.15439369078169049 0 0.21952864142792899 -0.1712536350637954 0 0.2437278363918948 -0.18195096812212239 0 0.260919387449559 -0.16579352929295721 0 0.23782434991563151 -0.15439369078169049 0 0.260919387449559 -0.16579352929295721 0 0.23782434991563151 -0.15439369078169049 0 0.2437278363918948 -0.18195096812212239 0 0.2437278363918948 -0.18195096812212239 0 0.24314545538918961 -0.20571013864437751 0 0.22432797047415351 -0.19951341785716731 0 0.2593871514889205 -0.19799184377322379 0 0.2437278363918948 -0.18195096812212239 0 0.24314545538918961 -0.20571013864437751 0 0.22432797047415351 -0.19951341785716731 0 0.2342802842193491 -0.2219117808856606 0 0.21564630723174069 -0.21833189921059021 0 0.24314545538918961 -0.20571013864437751 0 0.22432797047415351 -0.19951341785716731 0 0.2342802842193491 -0.2219117808856606 0 0.2462907050713771 -0.25204034373521428 0 0.2499607574480687 -0.24385609709525671 0 0.2374752251495614 -0.24157268794541539 0 0.25134951441318748 -0.22920843539767929 0 0.2499607574480687 -0.24385609709525671 0 0.2374752251495614 -0.24157268794541539 0 0.25134951441318748 -0.22920843539767929 0 0.24314545538918961 -0.20571013864437751 0 0.2342802842193491 -0.2219117808856606 0 0.25134951441318748 -0.22920843539767929 0 0.2374752251495614 -0.24157268794541539 0 0.2342802842193491 -0.2219117808856606 0 0.2374752251495614 -0.24157268794541539 0 0.22060620183210919 -0.232775489656291 0 0.2342802842193491 -0.2219117808856606 0 0.22060620183210919 -0.232775489656291 0 0.2342802842193491 -0.2219117808856606 0 0.21564630723174069 -0.21833189921059021 0 0.22198339683909701 -0.25340717595137879 0 0.2374752251495614 -0.24157268794541539 0 0.22060620183210919 -0.232775489656291 0 0.22198339683909701 -0.25340717595137879 0 0.22060620183210919 -0.232775489656291 0 0.22198339683909701 -0.25340717595137879 0 0.22060620183210919 -0.232775489656291 0 0.20573671357227499 -0.23448295905173899 0 0.22198339683909701 -0.25340717595137879 0 0.20573671357227499 -0.23448295905173899 0 0.19815896102696709 -0.24816545406213189 0 0.22060620183210919 -0.232775489656291 0 0.20573671357227499 -0.23448295905173899 0 0.21564630723174069 -0.21833189921059021 0 0.20573671357227499 -0.23448295905173899 0 0.19801089506944891 -0.22061097325298201 0 0.21564630723174069 -0.21833189921059021 0 0.20573671357227499 -0.23448295905173899 0 0.19801089506944891 -0.22061097325298201 0 0.18862314846194941 -0.23474346369713109 0 0.19801089506944891 -0.22061097325298201 0 0.18862314846194941 -0.23474346369713109 0 0.17884496266341901 -0.22149700646801701 0 0.20573671357227499 -0.23448295905173899 0 0.18862314846194941 -0.23474346369713109 0 0.19815896102696709 -0.24816545406213189 0 0.20600005448239761 -0.18645800734220749 0 0.22432797047415351 -0.19951341785716731 0 0.20571207111442141 -0.20503903284801611 0 0.22432797047415351 -0.19951341785716731 0 0.21564630723174069 -0.21833189921059021 0 0.20571207111442141 -0.20503903284801611 0 0.19801089506944891 -0.22061097325298201 0 0.21564630723174069 -0.21833189921059021 0 0.20571207111442141 -0.20503903284801611 0 0.19801089506944891 -0.22061097325298201 0 0.19227081910603411 -0.2100117569492751 0 0.17884496266341901 -0.22149700646801701 0 0.20571207111442141 -0.20503903284801611 0 0.19227081910603411 -0.2100117569492751 0 0.1956377870383576 -0.1970896374814364 0 0.19801089506944891 -0.22061097325298201 0 0.20571207111442141 -0.20503903284801611 0 0.19227081910603411 -0.2100117569492751 0 0.18830323417204939 -0.1765657128700695 0 0.1956377870383576 -0.1970896374814364 0 0.18335540011200491 -0.20007028076315 0 0.19227081910603411 -0.2100117569492751 0 0.1956377870383576 -0.1970896374814364 0 0.18335540011200491 -0.20007028076315 0 0.1956377870383576 -0.1970896374814364 0 0.18335540011200491 -0.20007028076315 0 0.20600005448239761 -0.18645800734220749 0 0.20571207111442141 -0.20503903284801611 0 0.1956377870383576 -0.1970896374814364 0 0.18830323417204939 -0.1765657128700695 0 0.18335540011200491 -0.20007028076315 0 0.18335540011200491 -0.20007028076315 0 0.16873688803845349 -0.19227854821165941 0 0.17543185729929969 -0.18273889272689711 0 0.19227081910603411 -0.2100117569492751 0 0.18335540011200491 -0.20007028076315 0 0.17884496266341901 -0.22149700646801701 0 0.18335540011200491 -0.20007028076315 0 0.17884496266341901 -0.22149700646801701 0 0.18335540011200491 -0.20007028076315 0 0.16621660047528611 -0.21253283526692829 0 0.17884496266341901 -0.22149700646801701 0 0.16621660047528611 -0.21253283526692829 0 0.1593158439583067 -0.2059041094785751 0 0.15302060169630469 -0.2217977003443504 0 0.18335540011200491 -0.20007028076315 0 0.16621660047528611 -0.21253283526692829 0 0.1593158439583067 -0.2059041094785751 0 0.16621660047528611 -0.21253283526692829 0 0.1593158439583067 -0.2059041094785751 0 0.1593158439583067 -0.2059041094785751 0 0.15759932706250929 -0.18907488386135229 0 0.16873688803845349 -0.19227854821165941 0 0.18335540011200491 -0.20007028076315 0 0.1593158439583067 -0.2059041094785751 0 0.18335540011200491 -0.20007028076315 0 0.1593158439583067 -0.2059041094785751 0 0.16873688803845349 -0.19227854821165941 0 0.18066177981631051 -0.25348299893649828 0 0.19815896102696709 -0.24816545406213189 0 0.17433452521483719 -0.24292373217288479 0 0.19815896102696709 -0.24816545406213189 0 0.17433452521483719 -0.24292373217288479 0 0.18862314846194941 -0.23474346369713109 0 0.19815896102696709 -0.24816545406213189 0 0.17433452521483719 -0.24292373217288479 0 0.18066177981631051 -0.25348299893649828 0 0.17304535898525439 -0.24904788565112909 0 0.17433452521483719 -0.24292373217288479 0 0.17304535898525439 -0.24904788565112909 0 0.17433452521483719 -0.24292373217288479 0 0.18862314846194941 -0.23474346369713109 0 0.17433452521483719 -0.24292373217288479 0 0.17884496266341901 -0.22149700646801701 0 0.17433452521483719 -0.24292373217288479 0 0.17884496266341901 -0.22149700646801701 0 0.17433452521483719 -0.24292373217288479 0 0.17884496266341901 -0.22149700646801701 0 0.16512535944417561 -0.22744738033917331 0 0.16512535944417561 -0.22744738033917331 0 0.15532271566916761 -0.23874085795770611 0 0.15302060169630469 -0.2217977003443504 0 0.16621660047528611 -0.21253283526692829 0 0.17884496266341901 -0.22149700646801701 0 0.16512535944417561 -0.22744738033917331 0 0.16621660047528611 -0.21253283526692829 0 0.16512535944417561 -0.22744738033917331 0 0.15302060169630469 -0.2217977003443504 0 0.17304535898525439 -0.24904788565112909 0 0.17433452521483719 -0.24292373217288479 0 0.15532271566916761 -0.23874085795770611 0 0.15867772839633809 -0.25707915377424612 0 0.17304535898525439 -0.24904788565112909 0 0.15532271566916761 -0.23874085795770611 0 0.17433452521483719 -0.24292373217288479 0 0.16512535944417561 -0.22744738033917331 0 0.15532271566916761 -0.23874085795770611 0 0.17433452521483719 -0.24292373217288479 0 0.15532271566916761 -0.23874085795770611 0 0.15532271566916761 -0.23874085795770611 0 0.1363109061234978 -0.23455798374252809 0 0.13687529418603939 -0.26162068250561471 0 0.15532271566916761 -0.23874085795770611 0 0.1363109061234978 -0.23455798374252809 0 0.15532271566916761 -0.23874085795770611 0 0.15302060169630469 -0.2217977003443504 0 0.1363109061234978 -0.23455798374252809 0 0.15302060169630469 -0.2217977003443504 0 0.1363109061234978 -0.23455798374252809 0 0.13583218450739579 -0.2116030352811932 0 0.12594488917549271 -0.2231145762792166 0 0.1363109061234978 -0.23455798374252809 0 0.13583218450739579 -0.2116030352811932 0 0.1363109061234978 -0.23455798374252809 0 0.13583218450739579 -0.2116030352811932 0 0.13687529418603939 -0.26162068250561471 0 0.1363109061234978 -0.23455798374252809 0 0.13687529418603939 -0.26162068250561471 0 0.1223190960555403 -0.2394332616338683 0 0.1363109061234978 -0.23455798374252809 0 0.1593158439583067 -0.2059041094785751 0 0.15759932706250929 -0.18907488386135229 0 0.14727334507129489 -0.19433633097022029 0 0.14727334507129489 -0.19433633097022029 0 0.13523084618428721 -0.18276855246186111 0 0.1593158439583067 -0.2059041094785751 0 0.14727334507129489 -0.19433633097022029 0 0.1593158439583067 -0.2059041094785751 0 0.14727334507129489 -0.19433633097022029 0 0.13583218450739579 -0.2116030352811932 0 0.1593158439583067 -0.2059041094785751 0 0.13583218450739579 -0.2116030352811932 0 0.1593158439583067 -0.2059041094785751 0 0.15302060169630469 -0.2217977003443504 0 0.13583218450739579 -0.2116030352811932 0 0.1146962174531268 -0.21673223195775559 0 0.12594488917549271 -0.2231145762792166 0 0.13583218450739579 -0.2116030352811932 0 0.1146962174531268 -0.21673223195775559 0 0.13583218450739579 -0.2116030352811932 0 0.13583218450739579 -0.2116030352811932 0 0.13523084618428721 -0.18276855246186111 0 0.1210323504124224 -0.2015702574875764 0 0.13583218450739579 -0.2116030352811932 0 0.13523084618428721 -0.18276855246186111 0 0.14727334507129489 -0.19433633097022029 0 0.13583218450739579 -0.2116030352811932 0 0.13523084618428721 -0.18276855246186111 0 0.13523084618428721 -0.18276855246186111 0 0.13483495552902119 -0.16378539130439421 0 0.13523084618428721 -0.18276855246186111 0 0.14953284821028701 -0.17659781711855899 0 0.13483495552902119 -0.16378539130439421 0 0.12574768761326591 -0.17365922399620121 0 0.13523084618428721 -0.18276855246186111 0 0.13483495552902119 -0.16378539130439421 0 0.12574768761326591 -0.17365922399620121 0 0.13523084618428721 -0.18276855246186111 0 0.15759932706250929 -0.18907488386135229 0 0.14727334507129489 -0.19433633097022029 0 0.14953284821028701 -0.17659781711855899 0 0.14727334507129489 -0.19433633097022029 0 0.13523084618428721 -0.18276855246186111 0 0.14953284821028701 -0.17659781711855899 0 0.15759932706250929 -0.18907488386135229 0 0.14953284821028701 -0.17659781711855899 0 0.16056198994912749 -0.17787080610445691 0 0.14953284821028701 -0.17659781711855899 0 0.15118562361057611 -0.16212531631630639 0 0.13483495552902119 -0.16378539130439421 0 0.15118562361057611 -0.16212531631630639 0 0.13483495552902119 -0.16378539130439421 0 0.15272907190244081 -0.1550331303974728 0 0.15118562361057611 -0.16212531631630639 0 0.15272907190244081 -0.1550331303974728 0 0.15987479688754311 -0.1572750313981319 0 0.14953284821028701 -0.17659781711855899 0 0.15118562361057611 -0.16212531631630639 0 0.1601367247146048 -0.167216461388007 0 0.1232701832726428 -0.15427141090171109 0 0.12574768761326591 -0.17365922399620121 0 0.13483495552902119 -0.16378539130439421 0 0.12574768761326591 -0.17365922399620121 0 0.13483495552902119 -0.16378539130439421 0 0.13483495552902119 -0.16378539130439421 0 0.13444198148756639 -0.1449420832838656 0 0.14315652521050079 -0.14523933820255211 0 0.1232701832726428 -0.15427141090171109 0 0.13483495552902119 -0.16378539130439421 0 0.13444198148756639 -0.1449420832838656 0 0.13483495552902119 -0.16378539130439421 0 0.13444198148756639 -0.1449420832838656 0 0.13444198148756639 -0.1449420832838656 0 0.1434537453928684 -0.13532839273855221 0 0.14315652521050079 -0.14523933820255211 0 0.13444198148756639 -0.1449420832838656 0 0.13404900744611239 -0.12609877526333699 0 0.13444198148756639 -0.1449420832838656 0 0.13404900744611239 -0.12609877526333699 0 0.1434537453928684 -0.13532839273855221 0 0.11727103389215909 -0.1361484369810822 0 0.13444198148756639 -0.1449420832838656 0 0.13404900744611239 -0.12609877526333699 0 0.13404900744611239 -0.12609877526333699 0 0.1490682445489844 -0.1279194233146575 0 0.1609569453379138 -0.13854421730491809 0 0.13404900744611239 -0.12609877526333699 0 0.1609569453379138 -0.13854421730491809 0 0.13404900744611239 -0.12609877526333699 0 0.1434537453928684 -0.13532839273855221 0 0.1609569453379138 -0.13854421730491809 0 0.1434537453928684 -0.13532839273855221 0 0.14993504674019009 -0.14021612160814689 0 0.1609569453379138 -0.13854421730491809 0 0.1427320902892944 -0.12257921542734659 0 0.13404900744611239 -0.12609877526333699 0 0.1490682445489844 -0.1279194233146575 0 0.1434537453928684 -0.13532839273855221 0 0.14993504674019009 -0.14021612160814689 0 0.14315652521050079 -0.14523933820255211 0 0.14993504674019009 -0.14021612160814689 0 0.15469010670848909 -0.14221164189652771 0 0.1609569453379138 -0.13854421730491809 0 0.15568199284830581 -0.1296421963895899 0 0.1490682445489844 -0.1279194233146575 0 0.1609569453379138 -0.13854421730491809 0 0.15192118682329561 -0.12273271218809589 0 0.15568199284830581 -0.1296421963895899 0 0.1587247560068413 -0.12564209046719049 0 0.15192118682329561 -0.12273271218809589 0 0.15568199284830581 -0.1296421963895899 0 0.1490682445489844 -0.1279194233146575 0 0.13483495552902119 -0.16378539130439421 0 0.15469010670848909 -0.14221164189652771 0 0.13483495552902119 -0.16378539130439421 0 0.14315652521050079 -0.14523933820255211 0 0.15469010670848909 -0.14221164189652771 0 0.13483495552902119 -0.16378539130439421 0 0.15469010670848909 -0.14221164189652771 0 0.15272907190244081 -0.1550331303974728 0 0.14993504674019009 -0.14021612160814689 0 0.14315652521050079 -0.14523933820255211 0 0.15469010670848909 -0.14221164189652771 0 0.15272907190244081 -0.1550331303974728 0 0.16278769519534109 -0.1503194818261428 0 0.15987479688754311 -0.1572750313981319 0 0.16278769519534109 -0.1503194818261428 0 0.15987479688754311 -0.1572750313981319 0 0.16866771310860729 -0.15951236945753941 0 0.15469010670848909 -0.14221164189652771 0 0.15272907190244081 -0.1550331303974728 0 0.16278769519534109 -0.1503194818261428 0 0.15469010670848909 -0.14221164189652771 0 0.16278769519534109 -0.1503194818261428 0 0.1609569453379138 -0.13854421730491809 0 0.16278769519534109 -0.1503194818261428 0 0.1609569453379138 -0.13854421730491809 0 0.17433915911560069 -0.15342176620747169 0 0.16278769519534109 -0.1503194818261428 0 0.17433915911560069 -0.15342176620747169 0 0.16866771310860729 -0.15951236945753941 0 0.1609569453379138 -0.13854421730491809 0 0.16898528270356589 -0.1319020538664718 0 0.17739448715537109 -0.13831623988886119 0 0.1587247560068413 -0.12564209046719049 0 0.1613780220681113 -0.13045743568360191 0 0.1641162962428066 -0.126449221113482 0 0.15568199284830581 -0.1296421963895899 0 0.1587247560068413 -0.12564209046719049 0 0.1613780220681113 -0.13045743568360191 0 0.15568199284830581 -0.1296421963895899 0 0.1613780220681113 -0.13045743568360191 0 0.1609569453379138 -0.13854421730491809 0 0.1613780220681113 -0.13045743568360191 0 0.1609569453379138 -0.13854421730491809 0 0.16898528270356589 -0.1319020538664718 0 0.173543926957343 -0.1211375462363173 0 0.16898528270356589 -0.1319020538664718 0 0.1641162962428066 -0.126449221113482 0 0.1613780220681113 -0.13045743568360191 0 0.16898528270356589 -0.1319020538664718 0 0.1641162962428066 -0.126449221113482 0 0.173543926957343 -0.1211375462363173 0 0.16898528270356589 -0.1319020538664718 0 0.17990838590865871 -0.12844737664361131 0 0.16898528270356589 -0.1319020538664718 0 0.17739448715537109 -0.13831623988886119 0 0.17990838590865871 -0.12844737664361131 0 0.188659048266132 -0.1418371739210742 0 0.19260125287660149 -0.13207131947283501 0 0.17739448715537109 -0.13831623988886119 0 0.19260125287660149 -0.13207131947283501 0 0.17739448715537109 -0.13831623988886119 0 0.17990838590865871 -0.12844737664361131 0 0.18701697985041221 -0.11880972375357141 0 0.19260125287660149 -0.13207131947283501 0 0.17990838590865871 -0.12844737664361131 0 0.18786488322971459 -0.15098965934649999 0 0.1609569453379138 -0.13854421730491809 0 0.17433915911560069 -0.15342176620747169 0 0.18786488322971459 -0.15098965934649999 0 0.1609569453379138 -0.13854421730491809 0 0.18786488322971459 -0.15098965934649999 0 0.1609569453379138 -0.13854421730491809 0 0.17739448715537109 -0.13831623988886119 0 0.18786488322971459 -0.15098965934649999 0 0.188659048266132 -0.1418371739210742 0 0.17739448715537109 -0.13831623988886119 0 0.18786488322971459 -0.15098965934649999 0 0.17433915911560069 -0.15342176620747169 0 0.1842505296355367 -0.15589311325690541 0 0.17433915911560069 -0.15342176620747169 0 0.1842505296355367 -0.15589311325690541 0 0.18144082188941271 -0.16389154531309821 0 0.19325106823209409 -0.153061144976989 0 0.1842505296355367 -0.15589311325690541 0 0.18144082188941271 -0.16389154531309821 0 0.18830323417204939 -0.1765657128700695 0 0.18144082188941271 -0.16389154531309821 0 0.17072519494025609 -0.1704686386871877 0 0.17433915911560069 -0.15342176620747169 0 0.18144082188941271 -0.16389154531309821 0 0.16866771310860729 -0.15951236945753941 0 0.18144082188941271 -0.16389154531309821 0 0.16866771310860729 -0.15951236945753941 0 0.17072519494025609 -0.1704686386871877 0 0.18830323417204939 -0.1765657128700695 0 0.18335540011200491 -0.20007028076315 0 0.17543185729929969 -0.18273889272689711 0 0.18830323417204939 -0.1765657128700695 0 0.17543185729929969 -0.18273889272689711 0 0.17072519494025609 -0.1704686386871877 0 0.17543185729929969 -0.18273889272689711 0 0.16056198994912749 -0.17787080610445691 0 0.17072519494025609 -0.1704686386871877 0 0.16873688803845349 -0.19227854821165941 0 0.17543185729929969 -0.18273889272689711 0 0.16056198994912749 -0.17787080610445691 0 0.15759932706250929 -0.18907488386135229 0 0.16873688803845349 -0.19227854821165941 0 0.16056198994912749 -0.17787080610445691 0 0.14953284821028701 -0.17659781711855899 0 0.16056198994912749 -0.17787080610445691 0 0.1601367247146048 -0.167216461388007 0 0.16056198994912749 -0.17787080610445691 0 0.1601367247146048 -0.167216461388007 0 0.17072519494025609 -0.1704686386871877 0 0.1601367247146048 -0.167216461388007 0 0.15987479688754311 -0.1572750313981319 0 0.16866771310860729 -0.15951236945753941 0 0.15118562361057611 -0.16212531631630639 0 0.1601367247146048 -0.167216461388007 0 0.15987479688754311 -0.1572750313981319 0 0.1601367247146048 -0.167216461388007 0 0.16866771310860729 -0.15951236945753941 0 0.17072519494025609 -0.1704686386871877 0 
</DataArray>
</Points>
<Cells>
<DataArray type="UInt32" Name="connectivity" format="ascii">
0 1 2 3 4 5 6 7 8 9 10 11 12 13 14 15 16 17 18 19 20 21 22 23 24 25 26 27 28 29 30 31 32 33 34 35 36 37 38 39 40 41 42 43 44 45 46 47 48 49 50 51 52 53 54 55 56 57 58 59 60 61 62 63 64 65 66 67 68 69 70 71 72 73 74 75 76 77 78 79 80 81 82 83 84 85 86 87 88 89 90 91 92 93 94 95 96 97 98 99 100 101 102 103 104 105 106 107 108 109 110 111 112 113 114 115 116 117 118 119 120 121 122 123 124 125 126 127 128 129 130 131 132 133 134 135 136 137 138 139 140 141 142 143 144 145 146 147 148 149 150 151 152 153 154 155 156 157 158 159 160 161 162 163 164 165 166 167 168 169 170 171 172 173 174 175 176 177 178 179 180 181 182 183 184 185 186 187 188 189 190 191 192 193 194 195 196 197 198 199 200 201 202 203 204 205 206 207 208 209 210 211 212 213 214 215 216 217 218 219 220 221 222 223 224 225 226 227 228 229 230 231 232 233 234 235 236 237 238 239 240 241 242 243 244 245 246 247 248 249 250 251 252 253 254 255 256 257 258 259 260 261 262 263 264 265 266 267 268 269 270 271 272 273 274 275 276 277 278 279 280 281 282 283 284 285 286 287 288 289 290 291 292 293 294 295 296 297 298 299 300 301 302 303 304 305 306 307 308 309 310 311 312 313 314 315 316 317 318 319 320 321 322 323 324 325 326 327 328 329 330 331 332 333 334 335 336 337 338 339 340 341 342 343 344 345 346 347 348 349 350 351 352 353 354 355 356 357 358 359 360 361 362 363 364 365 366 367 368 369 370 371 372 373 374 375 376 377 378 379 380 381 382 383 384 385 386 387 388 389 390 391 392 393 394 395 396 397 398 399 400 401 402 403 404 405 406 407 408 409 410 411 412 413 414 415 416 417 418 419 420 421 422 423 424 425 426 427 428 429 430 431 432 433 434 435 436 437 438 439 440 441 442 443 444 445 446 447 448 449 450 451 452 453 454 455 456 457 458 459 460 461 462 463 464 465 466 467 468 469 470 471 472 473 474 475 476 477 478 479 480 481 482 483 484 485 486 487 488 489 490 491 492 493 494 495 496 497 498 499 500 501 502 503 504 505 506 507 508 509 510 511 512 513 514 515 516 517 518 519 520 521 522 523 524 525 526 527 528 529 530 531 532 533 534 535 536 537 538 539 540 541 542 543 544 545 546 547 548 549 550 551 552 553 554 555 556 557 558 559 560 561 562 563 564 565 566 567 568 569 570 571 572 573 574 575 576 577 578 579 580 581 582 583 584 585 586 587 588 589 590 591 592 593 594 595 596 597 598 599 600 601 602 603 604 605 606 607 608 609 610 611 612 613 614 615 616 617 618 619 620 621 622 623 624 625 626 627 628 629 630 631 632 633 634 635 636 637 638 639 640 641 642 643 644 645 646 647 648 649 650 651 652 653 654 655 656 657 658 659 660 661 662 663 664 665 666 667 668 669 670 671 672 673 674 675 676 677 678 679 680 681 682 683 684 685 686 687 688 689 690 691 692 693 694 695 696 697 698 699 700 701 702 703 704 705 706 707 708 709 710 711 712 713 714 715 716 717 718 719 720 721 722 723 724 725 726 727 728 729 730 731 732 733 734 735 736 737 738 739 740 741 742 743 744 745 746 747 748 749 750 751 752 753 754 755 756 757 758 759 760 761 762 763 764 765 766 767 768 769 770 771 772 773 774 775 776 777 778 779 780 781 782 783 784 785 786 787 788 789 790 791 792 793 794 795 796 797 798 799 800 801 802 803 804 805 806 807 808 809 810 811 812 813 814 815 816 817 818 819 820 821 822 823 824 825 826 827 828 829 830 831 832 833 834 835 836 837 838 839 840 841 842 843 844 845 846 847 848 849 850 851 852 853 854 855 856 857 858 859 860 861 862 863 864 865 866 867 868 869 870 871 872 873 874 875 876 877 878 879 880 881 882 883 884 885 886 887 888 889 890 891 892 893 894 895 896 897 898 899 900 901 902 903 904 905 906 907 908 909 910 911 912 913 914 915 916 917 918 919 920 921 922 923 924 925 926 927 928 929 930 931 932 933 934 935 936 937 938 939 940 941 942 943 944 945 946 947 948 949 950 951 952 953 954 955 956 957 958 959 960 961 962 963 964 965 966 967 968 969 970 971 972 973 974 975 976 977 978 979 980 981 982 983 984 985 986 987 988 989 990 991 992 993 994 995 996 997 998 999 1000 1001 1002 1003 1004 1005 1006 1007 1008 1009 1010 1011 1012 1013 1014 1015 1016 1017 1018 1019 1020 1021 1022 1023 1024 1025 1026 1027 1028 1029 1030 1031 1032 1033 1034 1035 1036 1037 1038 1039 1040 1041 1042 1043 1044 1045 1046 1047 1048 1049 1050 1051 1052 1053 1054 1055 1056 1057 1058 1059 1060 1061 1062 1063 1064 1065 1066 1067 1068 1069 1070 1071 1072 1073 1074 1075 1076 1077 1078 1079 1080 1081 1082 1083 1084 1085 1086 1087 1088 1089 1090 1091 1092 1093 1094 1095 1096 1097 1098 1099 1100 1101 1102 1103 1104 1105 1106 1107 1108 1109 1110 1111 1112 1113 1114 1115 1116 1117 1118 1119 1120 1121 1122 1123 1124 1125 1126 1127 1128 1129 1130 1131 1132 1133 1134 1135 1136 1137 1138 1139 1140 1141 1142 1143 1144 1145 1146 1147 1148 1149 1150 1151 1152 1153 1154 1155 1156 1157 1158 1159 1160 1161 1162 1163 1164 1165 1166 1167 1168 1169 1170 1171 1172 1173 1174 1175 1176 1177 1178 1179 1180 1181 1182 1183 1184 1185 1186 1187 1188 1189 1190 1191 1192 1193 1194 1195 1196 1197 1198 1199 1200 1201 1202 1203 1204 1205 1206 1207 1208 1209 1210 1211 1212 1213 1214 1215 1216 1217 1218 1219 1220 1221 1222 1223 1224 1225 1226 1227 1228 1229 1230 1231 1232 1233 1234 1235 1236 1237 1238 1239 1240 1241 1242 1243 1244 1245 1246 1247 1248 1249 1250 1251 1252 1253 1254 1255 1256 1257 1258 1259 1260 1261 1262 1263 1264 1265 1266 1267 1268 1269 1270 1271 1272 1273 1274 1275 1276 1277 1278 1279 1280 1281 1282 1283 1284 1285 1286 1287 1288 1289 1290 1291 1292 1293 1294 1295 1296 1297 1298 1299 1300 1301 1302 1303 1304 1305 1306 1307 1308 1309 1310 1311 1312 1313 1314 1315 1316 1317 1318 1319 1320 1321 1322 1323 1324 1325 1326 1327 1328 1329 1330 1331 1332 1333 1334 1335 1336 1337 1338 1339 1340 1341 1342 1343 1344 1345 1346 1347 1348 1349 1350 1351 1352 1353 1354 1355 1356 1357 1358 1359 1360 1361 1362 1363 1364 1365 1366 1367 1368 1369 1370 1371 1372 1373 1374 1375 1376 1377 1378 1379 1380 1381 1382 1383 1384 1385 1386 1387 1388 1389 1390 1391 1392 1393 1394 1395 1396 1397 1398 1399 1400 1401 1402 1403 1404 1405 1406 1407 1408 1409 1410 1411 1412 1413 1414 1415 1416 1417 1418 1419 1420 1421 1422 1423 1424 1425 1426 1427 1428 1429 1430 1431 1432 1433 1434 1435 1436 1437 1438 1439 1440 1441 1442 1443 1444 1445 1446 1447 1448 1449 1450 1451 1452 1453 1454 1455 1456 1457 1458 1459 1460 1461 1462 1463 1464 1465 1466 1467 1468 1469 1470 1471 1472 1473 1474 1475 1476 1477 1478 1479 1480 1481 1482 1483 1484 1485 1486 1487 1488 1489 1490 1491 1492 1493 1494 1495 1496 1497 1498 1499 1500 1501 1502 1503 1504 1505 1506 1507 1508 1509 1510 1511 1512 1513 1514 1515 1516 1517 1518 1519 1520 1521 1522 1523 1524 1525 1526 1527 1528 1529 1530 1531 1532 1533 1534 1535 1536 1537 1538 1539 1540 1541 1542 1543 1544 1545 1546 1547 1548 1549 1550 1551 1552 1553 1554 1555 1556 1557 1558 1559 1560 1561 1562 1563 1564 1565 1566 1567 1568 1569 1570 1571 1572 1573 1574 1575 1576 1577 1578 1579 1580 1581 1582 1583 1584 1585 1586 1587 1588 1589 1590 1591 1592 1593 1594 1595 1596 1597 1598 1599 1600 1601 1602 1603 1604 1605 1606 1607 1608 1609 1610 1611 1612 1613 1614 1615 1616 1617 1618 1619 1620 1621 1622 1623 1624 1625 1626 1627 1628 1629 1630 1631 1632 1633 1634 1635 1636 1637 1638 1639 1640 1641 1642 1643 1644 1645 1646 1647 1648 1649 1650 1651 1652 1653 1654 1655 1656 1657 1658 1659 1660 1661 1662 1663 1664 1665 1666 1667 1668 1669 1670 1671 1672 1673 1674 1675 1676 1677 1678 1679 1680 1681 1682 1683 1684 1685 1686 1687 1688 1689 1690 1691 1692 1693 1694 1695 1696 1697 1698 1699 1700 1701 1702 1703 1704 1705 1706 1707 1708 1709 1710 1711 1712 1713 1714 1715 1716 1717 1718 1719 1720 1721 1722 1723 1724 1725 1726 1727 1728 1729 1730 1731 1732 1733 1734 1735 1736 1737 1738 1739 1740 1741 1742 1743 1744 1745 1746 1747 1748 1749 1750 1751 1752 1753 1754 1755 1756 1757 1758 1759 1760 1761 1762 1763 1764 1765 1766 1767 1768 1769 1770 1771 1772 1773 1774 1775 1776 1777 1778 1779 1780 1781 1782 1783 1784 1785 1786 1787 1788 1789 1790 1791 1792 1793 1794 1795 1796 1797 1798 1799 1800 1801 1802 1803 1804 1805 1806 1807 1808 1809 1810 1811 1812 1813 1814 1815 1816 1817 1818 1819 1820 1821 1822 1823 1824 1825 1826 1827 1828 1829 1830 1831 1832 1833 1834 1835 1836 1837 1838 1839 1840 1841 1842 1843 1844 1845 1846 1847 1848 1849 1850 1851 1852 1853 1854 1855 1856 1857 1858 1859 1860 1861 1862 1863 1864 1865 1866 1867 1868 1869 1870 1871 1872 1873 1874 1875 1876 1877 1878 1879 1880 1881 1882 1883 1884 1885 1886 1887 1888 1889 1890 1891 1892 1893 1894 1895 1896 1897 1898 1899 1900 1901 1902 1903 1904 1905 1906 1907 1908 1909 1910 1911 1912 1913 1914 1915 1916 1917 1918 1919 1920 1921 1922 1923 1924 1925 1926 1927 1928 1929 1930 1931 1932 1933 1934 1935 1936 1937 1938 1939 1940 1941 1942 1943 1944 1945 1946 1947 1948 1949 1950 1951 1952 1953 1954 1955 1956 1957 1958 1959 1960 1961 1962 1963 1964 1965 1966 1967 1968 1969 1970 1971 1972 1973 1974 1975 1976 1977 1978 1979 1980 1981 1982 1983 1984 1985 1986 1987 1988 1989 1990 1991 1992 1993 1994 1995 1996 1997 1998 1999 2000 2001 2002 2003 2004 2005 2006 2007 2008 2009 2010 2011 2012 2013 2014 2015 2016 2017 2018 2019 2020 2021 2022 2023 2024 2025 2026 2027 2028 2029 2030 2031 2032 2033 2034 2035 2036 2037 2038 2039 2040 2041 2042 2043 2044 2045 2046 2047 2048 2049 2050 2051 2052 2053 2054 2055 2056 2057 2058 2059 2060 2061 2062 2063 2064 2065 2066 2067 2068 2069 2070 2071 2072 2073 2074 2075 2076 2077 2078 2079 2080 2081 2082 2083 2084 2085 2086 2087 2088 2089 2090 2091 2092 2093 2094 2095 2096 2097 2098 2099 2100 2101 2102 2103 2104 2105 2106 2107 2108 2109 2110 2111 2112 2113 2114 2115 2116 2117 2118 2119 2120 2121 2122 2123 2124 2125 2126 2127 2128 2129 2130 2131 2132 2133 2134 2135 2136 2137 2138 2139 2140 2141 2142 2143 2144 2145 2146 2147 2148 2149 2150 2151 2152 2153 2154 2155 2156 2157 2158 2159 2160 2161 2162 2163 2164 2165 2166 2167 2168 2169 2170 2171 2172 2173 2174 2175 2176 2177 2178 2179 2180 2181 2182 2183 2184 2185 2186 2187 2188 2189 2190 2191 2192 2193 2194 2195 2196 2197 2198 2199 2200 2201 2202 2203 2204 2205 2206 2207 2208 2209 2210 2211 2212 2213 2214 2215 2216 2217 2218 2219 2220 2221 2222 2223 2224 2225 2226 2227 2228 2229 2230 2231 2232 2233 2234 2235 2236 2237 2238 2239 2240 2241 2242 2243 2244 2245 2246 2247 2248 2249 2250 2251 2252 2253 2254 2255 2256 2257 2258 2259 2260 2261 2262 2263 2264 2265 2266 2267 2268 2269 2270 2271 2272 2273 2274 2275 2276 2277 2278 2279 2280 2281 2282 2283 2284 2285 2286 2287 2288 2289 2290 2291 2292 2293 2294 2295 2296 2297 2298 2299 2300 2301 2302 2303 2304 2305 2306 2307 2308 2309 2310 2311 2312 2313 2314 2315 2316 2317 2318 2319 2320 2321 2322 2323 2324 2325 2326 2327 2328 2329 2330 2331 2332 2333 2334 2335 2336 2337 2338 2339 2340 2341 2342 2343 2344 2345 2346 2347 2348 2349 2350 2351 2352 2353 2354 2355 2356 2357 2358 2359 2360 2361 2362 2363 2364 2365 2366 2367 2368 2369 2370 2371 2372 2373 2374 2375 2376 2377 2378 2379 2380 2381 2382 2383 2384 2385 2386 2387 2388 2389 2390 2391 2392 2393 2394 2395 2396 2397 2398 2399 2400 2401 2402 2403 2404 2405 2406 2407 2408 2409 2410 2411 2412 2413 2414 2415 2416 2417 2418 2419 2420 2421 2422 2423 2424 2425 2426 2427 2428 2429 2430 2431 2432 2433 2434 2435 2436 2437 2438 2439 2440 2441 2442 2443 2444 2445 2446 2447 2448 2449 2450 2451 2452 2453 2454 2455 2456 2457 2458 2459 2460 2461 2462 2463 2464 2465 2466 2467 2468 2469 2470 2471 2472 2473 2474 2475 2476 2477 2478 2479 2480 2481 2482 2483 2484 2485 2486 2487 2488 2489 2490 2491 2492 2493 2494 2495 2496 2497 2498 2499 2500 2501 2502 2503 2504 2505 2506 2507 2508 2509 2510 2511 2512 2513 2514 2515 2516 2517 2518 2519 2520 2521 2522 2523 2524 2525 2526 2527 2528 2529 2530 2531 2532 2533 2534 2535 2536 2537 2538 2539 2540 2541 2542 2543 2544 2545 2546 2547 2548 2549 2550 2551 2552 2553 2554 2555 2556 2557 2558 2559 2560 2561 2562 2563 2564 2565 2566 2567 2568 2569 2570 2571 2572 2573 2574 2575 2576 2577 2578 2579 2580 2581 2582 2583 2584 2585 2586 2587 2588 2589 2590 2591 2592 2593 2594 2595 2596 2597 2598 2599 2600 2601 2602 2603 2604 2605 2606 2607 2608 2609 2610 2611 2612 2613 2614 2615 2616 2617 2618 2619 2620 2621 2622 2623 2624 2625 2626 2627 2628 2629 2630 2631 2632 2633 2634 2635 2636 2637 2638 2639 2640 2641 2642 2643 2644 2645 2646 2647 2648 2649 2650 2651 2652 2653 2654 2655 2656 2657 2658 2659 2660 2661 2662 2663 2664 2665 2666 2667 2668 2669 2670 2671 2672 2673 2674 2675 2676 2677 2678 2679 2680 2681 2682 2683 2684 2685 2686 2687 2688 2689 2690 2691 2692 2693 2694 2695 2696 2697 2698 2699 2700 2701 2702 2703 2704 2705 2706 2707 2708 2709 2710 2711 2712 2713 2714 2715 2716 2717 2718 2719 2720 2721 2722 2723 2724 2725 2726 2727 2728 2729 2730 2731 2732 2733 2734 2735 2736 2737 2738 2739 2740 2741 2742 2743 2744 2745 2746 2747 2748 2749 2750 2751 2752 2753 2754 2755 2756 2757 2758 2759 2760 2761 2762 2763 2764 2765 2766 2767 2768 2769 2770 2771 2772 2773 2774 2775 2776 2777 2778 2779 2780 2781 2782 2783 2784 2785 2786 2787 2788 2789 2790 2791 2792 2793 2794 2795 2796 2797 2798 2799 2800 2801 2802 2803 2804 2805 2806 2807 2808 2809 2810 2811 2812 2813 2814 2815 2816 2817 2818 2819 2820 2821 2822 2823 2824 2825 2826 2827 2828 2829 2830 2831 2832 2833 2834 2835 2836 2837 2838 2839 2840 2841 2842 2843 2844 2845 2846 2847 2848 2849 2850 2851 2852 2853 2854 2855 2856 2857 2858 2859 2860 2861 2862 2863 2864 2865 2866 2867 2868 2869 2870 2871 2872 2873 2874 2875 2876 2877 2878 2879 2880 2881 2882 2883 2884 2885 2886 2887 2888 2889 2890 2891 2892 2893 2894 2895 2896 2897 2898 2899 2900 2901 2902 2903 2904 2905 2906 2907 2908 2909 2910 2911 2912 2913 2914 2915 2916 2917 2918 2919 2920 2921 2922 2923 2924 2925 2926 2927 2928 2929 2930 2931 2932 2933 2934 2935 2936 2937 2938 2939 2940 2941 2942 2943 2944 2945 2946 2947 2948 2949 2950 2951 2952 2953 2954 2955 2956 2957 2958 2959 2960 2961 2962 2963 2964 2965 2966 2967 2968 2969 2970 2971 2972 2973 2974 2975 2976 2977 2978 2979 2980 2981 2982 2983 2984 2985 2986 2987 2988 2989 2990 2991 2992 2993 2994 2995 2996 2997 2998 2999 3000 3001 3002 3003 3004 3005 3006 3007 3008 3009 3010 3011 3012 3013 3014 3015 3016 3017 3018 3019 3020 3021 3022 3023 3024 3025 3026 3027 3028 3029 3030 3031 3032 3033 3034 3035 3036 3037 3038 3039 3040 3041 3042 3043 3044 3045 3046 3047 3048 3049 3050 3051 3052 3053 3054 3055 3056 3057 3058 3059 3060 3061 3062 3063 3064 3065 3066 3067 3068 3069 3070 3071 3072 3073 3074 3075 3076 3077 3078 3079 3080 3081 3082 3083 3084 3085 3086 3087 3088 3089 3090 3091 3092 3093 3094 3095 3096 3097 3098 3099 3100 3101 3102 3103 3104 3105 3106 3107 3108 3109 3110 3111 3112 3113 3114 3115 3116 3117 3118 3119 3120 3121 3122 3123 3124 3125 3126 3127 3128 3129 3130 3131 3132 3133 3134 3135 3136 3137 3138 3139 3140 3141 3142 3143 3144 3145 3146 3147 3148 3149 3150 3151 3152 3153 3154 3155 3156 3157 3158 3159 3160 3161 3162 3163 3164 3165 3166 3167 3168 3169 3170 3171 3172 3173 3174 3175 3176 3177 3178 3179 3180 3181 3182 3183 3184 3185 3186 3187 3188 3189 3190 3191 3192 3193 3194 3195 3196 3197 3198 3199 3200 3201 3202 3203 3204 3205 3206 3207 3208 3209 3210 3211 3212 3213 3214 3215 3216 3217 3218 3219 3220 3221 3222 3223 3224 3225 3226 3227 3228 3229 3230 3231 3232 3233 3234 3235 3236 3237 3238 3239 3240 3241 3242 3243 3244 3245 3246 3247 3248 3249 3250 3251 3252 3253 3254 3255 3256 3257 3258 3259 3260 3261 3262 3263 3264 3265 3266 3267 3268 3269 3270 3271 3272 3273 3274 3275 3276 3277 3278 3279 3280 3281 3282 3283 3284 3285 3286 3287 3288 3289 3290 3291 3292 3293 3294 3295 3296 3297 3298 3299 3300 3301 3302 3303 3304 3305 3306 3307 3308 3309 3310 3311 3312 3313 3314 3315 3316 3317 3318 3319 3320 3321 3322 3323 3324 3325 3326 3327 3328 3329 3330 3331 3332 3333 3334 3335 3336 3337 3338 3339 3340 3341 3342 3343 3344 3345 3346 3347 3348 3349 3350 3351 3352 3353 3354 3355 3356 3357 3358 3359 3360 3361 3362 3363 3364 3365 3366 3367 3368 3369 3370 3371 3372 3373 3374 3375 3376 3377 3378 3379 3380 3381 3382 3383 3384 3385 3386 3387 3388 3389 3390 3391 3392 3393 3394 3395 3396 3397 3398 3399 3400 3401 3402 3403 3404 3405 3406 3407 3408 3409 3410 3411 3412 3413 3414 3415 3416 3417 3418 3419 3420 3421 3422 3423 3424 3425 3426 3427 3428 3429 3430 3431 3432 3433 3434 3435 3436 3437 3438 3439 3440 3441 3442 3443 3444 3445 3446 3447 3448 3449 3450 3451 3452 3453 3454 3455 3456 3457 3458 3459 3460 3461 3462 3463 3464 3465 3466 3467 3468 3469 3470 3471 3472 3473 3474 3475 3476 3477 3478 3479 3480 3481 3482 3483 3484 3485 3486 3487 3488 3489 3490 3491 3492 3493 3494 3495 3496 3497 3498 3499 3500 3501 3502 3503 3504 3505 3506 3507 3508 3509 3510 3511 3512 3513 3514 3515 3516 3517 3518 3519 3520 3521 3522 3523 3524 3525 3526 3527 3528 3529 3530 3531 3532 3533 3534 3535 3536 3537 3538 3539 3540 3541 3542 3543 3544 3545 3546 3547 3548 3549 3550 3551 3552 3553 3554 3555 3556 3557 3558 3559 3560 3561 3562 3563 3564 3565 3566 3567 3568 3569 3570 3571 3572 3573 3574 3575 3576 3577 3578 3579 3580 3581 3582 3583 3584 3585 3586 3587 3588 3589 3590 3591 3592 3593 3594 3595 3596 3597 3598 3599 3600 3601 3602 3603 3604 3605 3606 3607 3608 3609 3610 3611 3612 3613 3614 3615 3616 3617 3618 3619 3620 3621 3622 3623 3624 3625 3626 3627 3628 3629 3630 3631 3632 3633 3634 3635 3636 3637 3638 3639 3640 3641 3642 3643 3644 3645 3646 3647 3648 3649 3650 3651 3652 3653 3654 3655 3656 3657 3658 3659 3660 3661 3662 3663 3664 3665 3666 3667 3668 3669 3670 3671 3672 3673 3674 3675 3676 3677 3678 3679 3680 3681 3682 3683 3684 3685 3686 3687 3688 3689 3690 3691 3692 3693 3694 3695 3696 3697 3698 3699 3700 3701 3702 3703 3704 3705 3706 3707 3708 3709 3710 3711 3712 3713 3714 3715 3716 3717 3718 3719 3720 3721 3722 3723 3724 3725 3726 3727 3728 3729 3730 3731 3732 3733 3734 3735 3736 3737 3738 3739 3740 3741 3742 3743 3744 3745 3746 3747 3748 3749 3750 3751 3752 3753 3754 3755 3756 3757 3758 3759 3760 3761 3762 3763 3764 3765 3766 3767 3768 3769 3770 3771 3772 3773 3774 3775 3776 3777 3778 3779 3780 3781 3782 3783 3784 3785 3786 3787 3788 3789 3790 3791 3792 3793 3794 3795 3796 3797 3798 3799 3800 3801 3802 3803 3804 3805 3806 3807 3808 3809 3810 3811 3812 3813 3814 3815 3816 3817 3818 3819 3820 3821 3822 3823 3824 3825 3826 3827 3828 3829 3830 3831 3832 3833 3834 3835 3836 3837 3838 3839 3840 3841 3842 3843 3844 3845 3846 3847 3848 3849 3850 3851 3852 3853 3854 3855 3856 3857 3858 3859 3860 3861 3862 3863 3864 3865 3866 3867 3868 3869 3870 3871 3872 3873 3874 3875 3876 3877 3878 3879 3880 3881 3882 3883 3884 3885 3886 3887 3888 3889 3890 3891 3892 3893 3894 3895 3896 3897 3898 3899 3900 3901 3902 3903 3904 3905 3906 3907 3908 3909 3910 3911 3912 3913 3914 3915 3916 3917 3918 3919 3920 3921 3922 3923 3924 3925 3926 3927 3928 3929 3930 3931 3932 3933 3934 3935 3936 3937 3938 3939 3940 3941 3942 3943 3944 3945 3946 3947 3948 3949 3950 3951 3952 3953 3954 3955 3956 3957 3958 3959 3960 3961 3962 3963 3964 3965 3966 3967 3968 3969 3970 3971 3972 3973 3974 3975 3976 3977 3978 3979 3980 3981 3982 3983 3984 3985 3986 3987 3988 3989 3990 3991 3992 3993 3994 3995 3996 3997 3998 3999 4000 4001 4002 4003 4004 4005 4006 4007 4008 4009 4010 4011 4012 4013 4014 4015 4016 4017 4018 4019 4020 4021 4022 4023 4024 4025 4026 4027 4028 4029 4030 4031 4032 4033 4034 4035 4036 4037 4038 4039 4040 4041 4042 4043 4044 4045 4046 4047 4048 4049 4050 4051 4052 4053 4054 4055 4056 4057 4058 4059 4060 4061 4062 4063 4064 4065 4066 4067 4068 4069 4070 4071 4072 4073 4074 4075 4076 4077 4078 4079 4080 4081 4082 4083 4084 4085 4086 4087 4088 4089 4090 4091 4092 4093 4094 4095 4096 4097 4098 4099 4100 4101 4102 4103 4104 4105 4106 4107 4108 4109 4110 4111 4112 4113 4114 4115 4116 4117 4118 4119 4120 4121 4122 4123 4124 4125 4126 4127 4128 4129 4130 4131 4132 4133 4134 4135 4136 4137 4138 4139 4140 4141 4142 4143 4144 4145 4146 4147 4148 4149 4150 4151 4152 4153 4154 4155 4156 4157 4158 4159 4160 4161 4162 4163 4164 4165 4166 4167 4168 4169 4170 4171 4172 4173 4174 4175 4176 4177 4178 4179 4180 4181 4182 4183 4184 4185 4186 4187 4188 4189 4190 4191 4192 4193 4194 4195 4196 4197 4198 4199 4200 4201 4202 4203 4204 4205 4206 4207 4208 4209 4210 4211 4212 4213 4214 4215 4216 4217 4218 4219 4220 4221 4222 4223 4224 4225 4226 4227 4228 4229 4230 4231 4232 4233 4234 4235 4236 4237 4238 4239 4240 4241 4242 4243 4244 4245 4246 4247 4248 4249 4250 4251 4252 4253 4254 4255 4256 4257 4258 4259 4260 4261 4262 4263 4264 4265 4266 4267 4268 4269 4270 4271 4272 4273 4274 4275 4276 4277 4278 4279 4280 4281 4282 4283 4284 4285 4286 4287 4288 4289 4290 4291 4292 4293 4294 4295 4296 4297 4298 4299 4300 4301 4302 4303 4304 4305 4306 4307 4308 4309 4310 4311 4312 4313 4314 4315 4316 4317 4318 4319 4320 4321 4322 4323 4324 4325 4326 4327 4328 4329 4330 4331 4332 4333 4334 4335 4336 4337 4338 4339 4340 4341 4342 4343 4344 4345 4346 4347 4348 4349 4350 4351 4352 4353 4354 4355 4356 4357 4358 4359 4360 4361 4362 4363 4364 4365 4366 4367 4368 4369 4370 4371 4372 4373 4374 4375 4376 4377 4378 4379 4380 4381 4382 4383 4384 4385 4386 4387 4388 4389 4390 4391 4392 4393 4394 4395 4396 4397 4398 4399 4400 4401 4402 4403 4404 4405 4406 4407 4408 4409 4410 4411 4412 4413 4414 4415 4416 4417 4418 4419 4420 4421 4422 4423 4424 4425 4426 4427 4428 4429 4430 4431 4432 4433 4434 4435 4436 4437 4438 4439 4440 4441 4442 4443 4444 4445 4446 4447 4448 4449 4450 4451 4452 4453 4454 4455 4456 4457 4458 4459 4460 4461 4462 4463 4464 4465 4466 4467 4468 4469 4470 4471 4472 4473 4474 4475 4476 4477 4478 4479 4480 4481 4482 4483 4484 4485 4486 4487 4488 4489 4490 4491 4492 4493 4494 4495 4496 4497 4498 4499 4500 4501 4502 4503 4504 4505 4506 4507 4508 4509 4510 4511 4512 4513 4514 4515 4516 4517 4518 4519 4520 4521 4522 4523 4524 4525 4526 4527 4528 4529 4530 4531 4532 4533 4534 4535 4536 4537 4538 4539 4540 4541 4542 4543 4544 4545 4546 4547 4548 4549 4550 4551 4552 4553 4554 4555 4556 4557 4558 4559 4560 4561 4562 4563 4564 4565 4566 4567 4568 4569 4570 4571 4572 4573 4574 4575 4576 4577 4578 4579 4580 4581 4582 4583 4584 4585 4586 4587 4588 4589 4590 4591 4592 4593 4594 4595 4596 4597 4598 4599 4600 4601 4602 4603 4604 4605 4606 4607 4608 4609 4610 4611 4612 4613 4614 4615 4616 4617 4618 4619 4620 4621 4622 4623 4624 4625 4626 4627 4628 4629 4630 4631 4632 4633 4634 4635 4636 4637 4638 4639 4640 4641 4642 4643 4644 4645 4646 4647 4648 4649 4650 4651 4652 4653 4654 4655 4656 4657 4658 4659 4660 4661 4662 4663 4664 4665 4666 4667 4668 4669 4670 4671 4672 4673 4674 4675 4676 4677 4678 4679 4680 4681 4682 4683 4684 4685 4686 4687 4688 4689 4690 4691 4692 4693 4694 4695 4696 4697 4698 4699 4700 4701 4702 4703 4704 4705 4706 4707 4708 4709 4710 4711 4712 4713 4714 4715 4716 4717 4718 4719 4720 4721 4722 4723 4724 4725 4726 4727 4728 4729 4730 4731 4732 4733 4734 4735 4736 4737 4738 4739 4740 4741 4742 4743 4744 4745 4746 4747 4748 4749 4750 4751 4752 4753 4754 4755 4756 4757 4758 4759 4760 4761 4762 4763 4764 4765 4766 4767 4768 4769 4770 4771 4772 4773 4774 4775 4776 4777 4778 4779 4780 4781 4782 4783 4784 4785 4786 4787 4788 4789 4790 4791 4792 4793 4794 4795 4796 4797 4798 4799 4800 4801 4802 4803 4804 4805 4806 4807 4808 4809 4810 4811 4812 4813 4814 4815 4816 4817 4818 4819 4820 4821 4822 4823 4824 4825 4826 4827 4828 4829 4830 4831 4832 4833 4834 4835 4836 4837 4838 4839 4840 4841 4842 4843 4844 4845 4846 4847 4848 4849 4850 4851 4852 4853 4854 4855 4856 4857 4858 4859 4860 4861 4862 4863 4864 4865 4866 4867 4868 4869 4870 4871 4872 4873 4874 4875 4876 4877 4878 4879 4880 4881 4882 4883 4884 4885 4886 4887 4888 4889 4890 4891 4892 4893 4894 4895 4896 4897 4898 4899 4900 4901 4902 4903 4904 4905 4906 4907 4908 4909 4910 4911 4912 4913 4914 4915 4916 4917 4918 4919 4920 4921 4922 4923 4924 4925 4926 4927 4928 4929 4930 4931 4932 4933 4934 4935 4936 4937 4938 4939 4940 4941 4942 4943 4944 4945 4946 4947 4948 4949 4950 4951 4952 4953 4954 4955 4956 4957 4958 4959 4960 4961 4962 4963 4964 4965 4966 4967 4968 4969 4970 4971 4972 4973 4974 4975 4976 4977 4978 4979 4980 4981 4982 4983 4984 4985 4986 4987 4988 4989 4990 4991 4992 4993 4994 4995 4996 4997 4998 4999 5000 5001 5002 5003 5004 5005 5006 5007 5008 5009 5010 5011 5012 5013 5014 5015 5016 5017 5018 5019 5020 5021 5022 5023 5024 5025 5026 5027 5028 5029 5030 5031 5032 5033 5034 5035 5036 5037 5038 5039 5040 5041 5042 5043 5044 5045 5046 5047 5048 5049 5050 5051 5052 5053 5054 5055 5056 5057 5058 5059 5060 5061 5062 5063 5064 5065 5066 5067 5068 5069 5070 5071 5072 5073 5074 5075 5076 5077 5078 5079 5080 5081 5082 5083 5084 5085 5086 5087 5088 5089 5090 5091 5092 5093 5094 5095 5096 5097 5098 5099 5100 5101 5102 5103 5104 5105 5106 5107 5108 5109 5110 5111 5112 5113 5114 5115 5116 5117 5118 5119 5120 5121 5122 5123 5124 5125 5126 5127 5128 5129 5130 5131 5132 5133 5134 5135 5136 5137 5138 5139 5140 5141 5142 5143 5144 5145 5146 5147 5148 5149 5150 5151 5152 5153 5154 5155 5156 5157 5158 5159 5160 5161 5162 5163 5164 5165 5166 5167 5168 5169 5170 5171 5172 5173 5174 5175 5176 5177 5178 5179 5180 5181 5182 5183 5184 5185 5186 5187 5188 5189 5190 5191 5192 5193 5194 5195 5196 5197 5198 5199 5200 5201 5202 5203 5204 5205 5206 5207 5208 5209 5210 5211 5212 5213 5214 5215 5216 5217 5218 5219 5220 5221 5222 5223 5224 5225 5226 5227 5228 5229 5230 5231 5232 5233 5234 5235 5236 5237 5238 5239 5240 5241 5242 5243 5244 5245 5246 5247 5248 5249 5250 5251 5252 5253 5254 5255 5256 5257 5258 5259 5260 5261 5262 5263 5264 5265 5266 5267 5268 5269 5270 5271 5272 5273 5274 5275 5276 5277 5278 5279 5280 5281 5282 5283 5284 5285 5286 5287 5288 5289 5290 5291 5292 5293 5294 5295 5296 5297 5298 5299 5300 5301 5302 5303 5304 5305 5306 5307 5308 5309 5310 5311 5312 5313 5314 5315 5316 5317 5318 5319 5320 5321 5322 5323 5324 5325 5326 5327 5328 5329 5330 5331 5332 5333 5334 5335 5336 5337 5338 5339 5340 5341 5342 5343 5344 5345 5346 5347 5348 5349 5350 5351 5352 5353 5354 5355 5356 5357 5358 5359 5360 5361 5362 5363 5364 5365 5366 5367 5368 5369 5370 5371 5372 5373 5374 5375 5376 5377 5378 5379 5380 5381 5382 5383 5384 5385 5386 5387 5388 5389 5390 5391 5392 5393 5394 5395 5396 5397 5398 5399 5400 5401 5402 5403 5404 5405 5406 5407 5408 5409 5410 5411 5412 5413 5414 5415 5416 5417 5418 5419 5420 5421 5422 5423 5424 5425 5426 5427 5428 5429 5430 5431 5432 5433 5434 5435 5436 5437 5438 5439 5440 5441 5442 5443 5444 5445 5446 5447 5448 5449 5450 5451 5452 5453 5454 5455 5456 5457 5458 5459 5460 5461 5462 5463 5464 5465 5466 5467 5468 5469 5470 5471 5472 5473 5474 5475 5476 5477 5478 5479 5480 5481 5482 5483 5484 5485 5486 5487 5488 5489 5490 5491 5492 5493 5494 5495 5496 5497 5498 5499 5500 5501 5502 5503 5504 5505 5506 5507 5508 5509 5510 5511 5512 5513 5514 5515 5516 5517 5518 5519 5520 5521 5522 5523 5524 5525 5526 5527 5528 5529 5530 5531 5532 5533 5534 5535 5536 5537 5538 5539 5540 5541 5542 5543 5544 5545 5546 5547 5548 5549 5550 5551 5552 5553 5554 5555 5556 5557 5558 5559 5560 5561 5562 5563 5564 5565 5566 5567 5568 5569 5570 5571 5572 5573 5574 5575 5576 5577 5578 5579 5580 5581 5582 5583 5584 5585 5586 5587 5588 5589 5590 5591 5592 5593 5594 5595 5596 5597 5598 5599 5600 5601 5602 5603 5604 5605 5606 5607 5608 5609 5610 5611 5612 5613 5614 5615 5616 5617 5618 5619 5620 5621 5622 5623 5624 5625 5626 5627 5628 5629 5630 5631 5632 5633 5634 5635 5636 5637 5638 5639 5640 5641 5642 5643 5644 5645 5646 5647 5648 5649 5650 5651 5652 5653 5654 5655 5656 5657 5658 5659 5660 5661 5662 5663 5664 5665 5666 5667 5668 5669 5670 5671 5672 5673 5674 5675 5676 5677 5678 5679 5680 5681 5682 5683 5684 5685 5686 5687 5688 5689 5690 5691 5692 5693 5694 5695 5696 5697 5698 5699 5700 5701 5702 5703 5704 5705 5706 5707 5708 5709 5710 5711 5712 5713 5714 5715 5716 5717 5718 5719 5720 5721 5722 5723 5724 5725 5726 5727 5728 5729 5730 5731 5732 5733 5734 5735 5736 5737 5738 5739 5740 5741 5742 5743 5744 5745 5746 5747 5748 5749 5750 5751 5752 5753 5754 5755 5756 5757 5758 5759 5760 5761 5762 5763 5764 5765 5766 5767 5768 5769 5770 5771 5772 5773 5774 5775 5776 5777 5778 5779 5780 5781 5782 5783 5784 5785 5786 5787 5788 5789 5790 5791 5792 5793 5794 5795 5796 5797 5798 5799 5800 5801 5802 5803 5804 5805 5806 5807 5808 5809 5810 5811 5812 5813 5814 5815 5816 5817 5818 5819 5820 5821 5822 5823 5824 5825 5826 5827 5828 5829 5830 5831 5832 5833 5834 5835 5836 5837 5838 5839 5840 5841 5842 5843 5844 5845 5846 5847 5848 5849 5850 5851 5852 5853 5854 5855 5856 5857 5858 5859 5860 5861 5862 5863 5864 5865 5866 5867 5868 5869 5870 5871 5872 5873 5874 5875 5876 5877 5878 5879 5880 5881 5882 5883 5884 5885 5886 5887 5888 5889 5890 5891 5892 5893 5894 5895 5896 5897 5898 5899 5900 5901 5902 5903 5904 5905 5906 5907 5908 5909 5910 5911 5912 5913 5914 5915 5916 5917 5918 5919 5920 5921 5922 5923 5924 5925 5926 5927 5928 5929 5930 5931 5932 5933 5934 5935 5936 5937 5938 5939 5940 5941 5942 5943 5944 5945 5946 5947 5948 5949 5950 5951 5952 5953 5954 5955 5956 5957 5958 5959 5960 5961 5962 5963 5964 5965 5966 5967 5968 5969 5970 5971 5972 5973 5974 5975 5976 5977 5978 5979 5980 5981 5982 5983 5984 5985 5986 5987 5988 5989 5990 5991 5992 5993 5994 5995 5996 5997 5998 5999 6000 6001 6002 6003 6004 6005 6006 6007 6008 6009 6010 6011 6012 6013 6014 6015 6016 6017 6018 6019 6020 6021 6022 6023 6024 6025 6026 6027 6028 6029 6030 6031 6032 6033 6034 6035 6036 6037 6038 6039 6040 6041 6042 6043 6044 6045 6046 6047 6048 6049 6050 6051 6052 6053 6054 6055 6056 6057 6058 6059 6060 6061 6062 6063 6064 6065 6066 6067 6068 6069 6070 6071 6072 6073 6074 6075 6076 6077 6078 6079 6080 6081 6082 6083 6084 6085 6086 6087 6088 6089 6090 6091 6092 6093 6094 6095 6096 6097 6098 6099 6100 6101 6102 6103 6104 6105 6106 6107 6108 6109 6110 6111 6112 6113 6114 6115 6116 6117 6118 6119 6120 6121 6122 6123 6124 6125 6126 6127 6128 6129 6130 6131 6132 6133 6134 6135 6136 6137 6138 6139 6140 6141 6142 6143 6144 6145 6146 6147 6148 6149 6150 6151 6152 6153 6154 6155 6156 6157 6158 6159 6160 6161 6162 6163 6164 6165 6166 6167 6168 6169 6170 6171 6172 6173 6174 6175 6176 6177 6178 6179 6180 6181 6182 6183 6184 6185 6186 6187 6188 6189 6190 6191 6192 6193 6194 6195 6196 6197 6198 6199 6200 6201 6202 6203 6204 6205 6206 6207 6208 6209 6210 6211 6212 6213 6214 6215 6216 6217 6218 6219 6220 6221 6222 6223 6224 6225 6226 6227 6228 6229 6230 6231 6232 6233 6234 6235 6236 6237 6238 6239 6240 6241 6242 6243 6244 6245 6246 6247 6248 6249 6250 6251 6252 6253 6254 6255 6256 6257 6258 6259 6260 6261 6262 6263 6264 6265 6266 6267 6268 6269 6270 6271 6272 6273 6274 6275 6276 6277 6278 6279 6280 6281 6282 6283 6284 6285 6286 6287 6288 6289 6290 6291 6292 6293 6294 6295 6296 6297 6298 6299 6300 6301 6302 6303 6304 6305 6306 6307 6308 6309 6310 6311 6312 6313 6314 6315 6316 6317 6318 6319 6320 6321 6322 6323 6324 6325 6326 6327 6328 6329 6330 6331 6332 6333 6334 6335 6336 6337 6338 6339 6340 6341 6342 6343 6344 6345 6346 6347 6348 6349 6350 6351 6352 6353 6354 6355 6356 6357 6358 6359 6360 6361 6362 6363 6364 6365 6366 6367 6368 6369 6370 6371 6372 6373 6374 6375 6376 6377 6378 6379 6380 6381 6382 6383 6384 6385 6386 6387 6388 6389 6390 6391 6392 6393 6394 6395 6396 6397 6398 6399 6400 6401 6402 6403 6404 6405 6406 6407 6408 6409 6410 6411 6412 6413 6414 6415 6416 6417 6418 6419 6420 6421 6422 6423 6424 6425 6426 6427 6428 6429 6430 6431 6432 6433 6434 6435 6436 6437 6438 6439 6440 6441 6442 6443 6444 6445 6446 6447 6448 6449 6450 6451 6452 6453 6454 6455 6456 6457 6458 6459 6460 6461 6462 6463 6464 6465 6466 6467 6468 6469 6470 6471 6472 6473 6474 6475 6476 6477 6478 6479 6480 6481 6482 6483 6484 6485 6486 6487 6488 6489 6490 6491 6492 6493 6494 6495 6496 6497 6498 6499 6500 6501 6502 6503 6504 6505 6506 6507 6508 6509 6510 6511 6512 6513 6514 6515 6516 6517 6518 6519 6520 6521 6522 6523 6524 6525 6526 6527 6528 6529 6530 6531 6532 6533 6534 6535 6536 6537 6538 6539 6540 6541 6542 6543 6544 6545 6546 6547 6548 6549 6550 6551 6552 6553 6554 6555 6556 6557 6558 6559 6560 6561 6562 6563 6564 6565 6566 6567 6568 6569 6570 6571 6572 6573 6574 6575 6576 6577 6578 6579 6580 6581 6582 6583 6584 6585 6586 6587 6588 6589 6590 6591 6592 6593 6594 6595 6596 6597 6598 6599 6600 6601 6602 6603 6604 6605 6606 6607 6608 6609 6610 6611 6612 6613 6614 6615 6616 6617 6618 6619 6620 6621 6622 6623 6624 6625 6626 6627 6628 6629 6630 6631 6632 6633 6634 6635 6636 6637 6638 6639 6640 6641 6642 6643 6644 6645 6646 6647 6648 6649 6650 6651 6652 6653 6654 6655 6656 6657 6658 6659 6660 6661 6662 6663 6664 6665 6666 6667 6668 6669 6670 6671 6672 6673 6674 6675 6676 6677 6678 6679 6680 6681 6682 6683 6684 6685 6686 6687 6688 6689 6690 6691 6692 6693 6694 6695 6696 6697 6698 6699 6700 6701 6702 6703 6704 6705 6706 6707 6708 6709 6710 6711 6712 6713 6714 6715 6716 6717 6718 6719 6720 6721 6722 6723 6724 6725 6726 6727 6728 6729 6730 6731 6732 6733 6734 6735 6736 6737 6738 6739 6740 6741 6742 6743 6744 6745 6746 6747 6748 6749 6750 6751 6752 6753 6754 6755 6756 6757 6758 6759 6760 6761 6762 6763 6764 6765 6766 6767 6768 6769 6770 6771 6772 6773 6774 6775 6776 6777 6778 6779 6780 6781 6782 6783 6784 6785 6786 6787 6788 6789 6790 6791 6792 6793 6794 6795 6796 6797 6798 6799 6800 6801 6802 6803 6804 6805 6806 6807 6808 6809 6810 6811 6812 6813 6814 6815 6816 6817 6818 6819 6820 6821 6822 6823 6824 6825 6826 6827 6828 6829 6830 6831 6832 6833 6834 6835 6836 6837 6838 6839 6840 6841 6842 6843 6844 6845 6846 6847 6848 6849 6850 6851 6852 6853 6854 6855 6856 6857 6858 6859 6860 6861 6862 6863 6864 6865 6866 6867 6868 6869 6870 6871 6872 6873 6874 6875 6876 6877 6878 6879 6880 6881 6882 6883 6884 6885 6886 6887 6888 6889 6890 6891 6892 6893 6894 6895 6896 6897 6898 6899 6900 6901 6902 6903 6904 6905 6906 6907 6908 6909 6910 6911 6912 6913 6914 6915 6916 6917 6918 6919 6920 6921 6922 6923 6924 6925 6926 6927 6928 6929 6930 6931 6932 6933 6934 6935 6936 6937 6938 6939 6940 6941 6942 6943 6944 6945 6946 6947 6948 6949 6950 6951 6952 6953 6954 6955 6956 6957 6958 6959 6960 6961 6962 6963 6964 6965 6966 6967 6968 6969 6970 6971 6972 6973 6974 6975 6976 6977 6978 6979 6980 6981 6982 6983 6984 6985 6986 6987 6988 6989 6990 6991 6992 6993 6994 6995 6996 6997 6998 6999 7000 7001 7002 7003 7004 7005 7006 7007 7008 7009 7010 7011 7012 7013 7014 7015 7016 7017 7018 7019 7020 7021 7022 7023 7024 7025 7026 7027 7028 7029 7030 7031 7032 7033 7034 7035 7036 7037 7038 7039 7040 7041 7042 7043 7044 7045 7046 7047 7048 7049 7050 7051 7052 7053 7054 7055 7056 7057 7058 7059 7060 7061 7062 7063 7064 7065 7066 7067 7068 7069 7070 7071 7072 7073 7074 7075 7076 7077 7078 7079 7080 7081 7082 7083 7084 7085 7086 7087 7088 7089 7090 7091 7092 7093 7094 7095 7096 7097 7098 7099 7100 7101 7102 7103 7104 7105 7106 7107 7108 7109 7110 7111 7112 7113 7114 7115 7116 7117 7118 7119 7120 7121 7122 7123 7124 7125 7126 7127 7128 7129 7130 7131 7132 7133 7134 7135 7136 7137 7138 7139 7140 7141 7142 7143 7144 7145 7146 7147 7148 7149 7150 7151 7152 7153 7154 7155 7156 7157 7158 7159 7160 7161 7162 7163 7164 7165 7166 7167 7168 7169 7170 7171 7172 7173 7174 7175 7176 7177 7178 7179 7180 7181 7182 7183 7184 7185 7186 7187 7188 7189 7190 7191 7192 7193 7194 7195 7196 7197 7198 7199 7200 7201 7202 7203 7204 7205 7206 7207 7208 7209 7210 7211 7212 7213 7214 7215 7216 7217 7218 7219 7220 7221 7222 7223 7224 7225 7226 7227 7228 7229 7230 7231 7232 7233 7234 7235 7236 7237 7238 7239 7240 7241 7242 7243 7244 7245 7246 7247 7248 7249 7250 7251 7252 7253 7254 7255 7256 7257 7258 7259 7260 7261 7262 7263 7264 7265 7266 7267 7268 7269 7270 7271 7272 7273 7274 7275 7276 7277 7278 7279 7280 7281 7282 7283 7284 7285 7286 7287 7288 7289 7290 7291 7292 7293 7294 7295 7296 7297 7298 7299 7300 7301 7302 7303 7304 7305 7306 7307 7308 7309 7310 7311 7312 7313 7314 7315 7316 7317 7318 7319 7320 7321 7322 7323 7324 7325 7326 7327 7328 7329 7330 7331 7332 7333 7334 7335 7336 7337 7338 7339 7340 7341 7342 7343 7344 7345 7346 7347 7348 7349 7350 7351 7352 7353 7354 7355 7356 7357 7358 7359 7360 7361 7362 7363 7364 7365 7366 7367 7368 7369 7370 7371 7372 7373 7374 7375 7376 7377 7378 7379 7380 7381 7382 7383 7384 7385 7386 7387 7388 7389 7390 7391 7392 7393 7394 7395 7396 7397 7398 7399 7400 7401 7402 7403 7404 7405 7406 7407 7408 7409 7410 7411 7412 7413 7414 7415 7416 7417 7418 7419 7420 7421 7422 7423 7424 7425 7426 7427 7428 7429 7430 7431 7432 7433 7434 7435 7436 7437 7438 7439 7440 7441 7442 7443 7444 7445 7446 7447 7448 7449 7450 7451 7452 7453 7454 7455 7456 7457 7458 7459 7460 7461 7462 7463 7464 7465 7466 7467 7468 7469 7470 7471 7472 7473 7474 7475 7476 7477 7478 7479 7480 7481 7482 7483 7484 7485 7486 7487 7488 7489 7490 7491 7492 7493 7494 7495 7496 7497 7498 7499 7500 7501 7502 7503 7504 7505 7506 7507 7508 7509 7510 7511 7512 7513 7514 7515 7516 7517 7518 7519 7520 7521 7522 7523 7524 7525 7526 7527 7528 7529 7530 7531 7532 7533 7534 7535 7536 7537 7538 7539 7540 7541 7542 7543 7544 7545 7546 7547 7548 7549 7550 7551 7552 7553 7554 7555 7556 7557 7558 7559 7560 7561 7562 7563 7564 7565 7566 7567 7568 7569 7570 7571 7572 7573 7574 7575 7576 7577 7578 7579 7580 7581 7582 7583 7584 7585 7586 7587 7588 7589 7590 7591 7592 7593 7594 7595 7596 7597 7598 7599 7600 7601 7602 7603 7604 7605 7606 7607 7608 7609 7610 7611 7612 7613 7614 7615 7616 7617 7618 7619 7620 7621 7622 7623 7624 7625 7626 7627 7628 7629 7630 7631 7632 7633 7634 7635 7636 7637 7638 7639 7640 7641 7642 7643 7644 7645 7646 7647 7648 7649 7650 7651 7652 7653 7654 7655 7656 7657 7658 7659 7660 7661 7662 7663 7664 7665 7666 7667 7668 7669 7670 7671 7672 7673 7674 7675 7676 7677 7678 7679 7680 7681 7682 7683 7684 7685 7686 7687 7688 7689 7690 7691 7692 7693 7694 7695 7696 7697 7698 7699 7700 7701 7702 7703 7704 7705 7706 7707 7708 7709 7710 7711 7712 7713 7714 7715 7716 7717 7718 7719 7720 7721 7722 7723 7724 7725 7726 7727 7728 7729 7730 7731 7732 7733 7734 7735 7736 7737 7738 7739 7740 7741 7742 7743 7744 7745 7746 7747 7748 7749 7750 7751 7752 7753 7754 7755 7756 7757 7758 7759 7760 7761 7762 7763 7764 7765 7766 7767 7768 7769 7770 7771 7772 7773 7774 7775 7776 7777 7778 7779 7780 7781 7782 7783 7784 7785 7786 7787 7788 7789 7790 7791 7792 7793 7794 7795 7796 7797 7798 7799 7800 7801 7802 7803 7804 7805 7806 7807 7808 7809 7810 7811 7812 7813 7814 7815 7816 7817 7818 7819 7820 7821 7822 7823 7824 7825 7826 7827 7828 7829 7830 7831 7832 7833 7834 7835 7836 7837 7838 7839 7840 7841 7842 7843 7844 7845 7846 7847 7848 7849 7850 7851 7852 7853 7854 7855 7856 7857 7858 7859 7860 7861 7862 7863 7864 7865 7866 7867 7868 7869 7870 7871 7872 7873 7874 7875 7876 7877 7878 7879 7880 7881 7882 7883 7884 7885 7886 7887 7888 7889 7890 7891 7892 7893 7894 7895 7896 7897 7898 7899 7900 7901 7902 7903 7904 7905 7906 7907 7908 7909 7910 7911 7912 7913 7914 7915 7916 7917 7918 7919 7920 7921 7922 7923 7924 7925 7926 7927 7928 7929 7930 7931 7932 7933 7934 7935 7936 7937 7938 7939 7940 7941 7942 7943 7944 7945 7946 7947 7948 7949 7950 7951 7952 7953 7954 7955 7956 7957 7958 7959 7960 7961 7962 7963 7964 7965 7966 7967 7968 7969 7970 7971 7972 7973 7974 7975 7976 7977 7978 7979 7980 7981 7982 7983 7984 7985 7986 7987 7988 7989 7990 7991 7992 7993 7994 7995 7996 7997 7998 7999 8000 8001 8002 8003 8004 8005 8006 8007 8008 8009 8010 8011 8012 8013 8014 8015 8016 8017 8018 8019 8020 8021 8022 8023 8024 8025 8026 8027 8028 8029 8030 8031 8032 8033 8034 8035 8036 8037 8038 8039 8040 8041 8042 8043 8044 8045 8046 8047 8048 8049 8050 8051 8052 8053 8054 8055 8056 8057 8058 8059 8060 8061 8062 8063 8064 8065 8066 8067 8068 8069 8070 8071 8072 8073 8074 8075 8076 8077 8078 8079 8080 8081 8082 8083 8084 8085 8086 8087 8088 8089 8090 8091 8092 8093 8094 8095 8096 8097 8098 8099 8100 8101 8102 8103 8104 8105 8106 8107 8108 8109 8110 8111 8112 8113 8114 8115 8116 8117 8118 8119 8120 8121 8122 8123 8124 8125 8126 8127 8128 8129 8130 8131 8132 8133 8134 8135 8136 8137 8138 8139 8140 8141 8142 8143 8144 8145 8146 8147 8148 8149 8150 8151 8152 8153 8154 8155 8156 8157 8158 8159 8160 8161 8162 8163 8164 8165 8166 8167 8168 8169 8170 8171 8172 8173 8174 8175 8176 8177 8178 8179 8180 8181 8182 8183 8184 8185 8186 8187 8188 8189 8190 8191 8192 8193 8194 8195 8196 8197 8198 8199 8200 8201 8202 8203 8204 8205 8206 8207 8208 8209 8210 8211 8212 8213 8214 8215 8216 8217 8218 8219 8220 8221 8222 8223 8224 8225 8226 8227 8228 8229 8230 8231 8232 8233 8234 8235 8236 8237 8238 8239 8240 8241 8242 8243 8244 8245 8246 8247 8248 8249 8250 8251 8252 8253 8254 8255 8256 8257 8258 8259 8260 8261 8262 8263 8264 8265 8266 8267 8268 8269 8270 8271 8272 8273 8274 8275 8276 8277 8278 8279 8280 8281 8282 8283 8284 8285 8286 8287 8288 8289 8290 8291 8292 8293 8294 8295 8296 8297 8298 8299 8300 8301 8302 8303 8304 8305 8306 8307 8308 8309 8310 8311 8312 8313 8314 8315 8316 8317 8318 8319 8320 8321 8322 8323 8324 8325 8326 8327 8328 8329 8330 8331 8332 8333 8334 8335 8336 8337 8338 8339 8340 8341 8342 8343 8344 8345 8346 8347 8348 8349 8350 8351 8352 8353 8354 8355 8356 8357 8358 8359 8360 8361 8362 8363 8364 8365 8366 8367 8368 8369 8370 8371 8372 8373 8374 8375 8376 8377 8378 8379 8380 8381 8382 8383 8384 8385 8386 8387 8388 8389 8390 8391 8392 8393 8394 8395 8396 8397 8398 8399 8400 8401 8402 8403 8404 8405 8406 8407 8408 8409 8410 8411 8412 8413 8414 8415 8416 8417 8418 8419 8420 8421 8422 8423 8424 8425 8426 8427 8428 8429 8430 8431 8432 8433 8434 8435 8436 8437 8438 8439 8440 8441 8442 8443 8444 8445 8446 8447 8448 8449 8450 8451 8452 8453 8454 8455 8456 8457 8458 8459 8460 8461 8462 8463 8464 8465 8466 8467 8468 8469 8470 8471 8472 8473 8474 8475 8476 8477 8478 8479 8480 8481 8482 8483 8484 8485 8486 8487 8488 8489 8490 8491 8492 8493 8494 8495 8496 8497 8498 8499 8500 8501 8502 8503 8504 8505 8506 8507 8508 8509 8510 8511 8512 8513 8514 8515 8516 8517 8518 8519 8520 8521 8522 8523 8524 8525 8526 8527 8528 8529 8530 8531 8532 8533 8534 8535 8536 8537 8538 8539 8540 8541 8542 8543 8544 8545 8546 8547 8548 8549 8550 8551 8552 8553 8554 8555 8556 8557 8558 8559 8560 8561 8562 8563 8564 8565 8566 8567 8568 8569 8570 8571 8572 8573 8574 8575 8576 8577 8578 8579 8580 8581 8582 8583 8584 8585 8586 8587 8588 8589 8590 8591 8592 8593 8594 8595 8596 8597 8598 8599 8600 8601 8602 8603 8604 8605 8606 8607 8608 8609 8610 8611 8612 8613 8614 8615 8616 8617 8618 8619 8620 8621 8622 8623 8624 8625 8626 8627 8628 8629 8630 8631 8632 8633 8634 8635 8636 8637 8638 8639 8640 8641 8642 8643 8644 8645 8646 8647 8648 8649 8650 8651 8652 8653 8654 8655 8656 8657 8658 8659 8660 8661 8662 8663 8664 8665 8666 8667 8668 8669 8670 8671 8672 8673 8674 8675 8676 8677 8678 8679 8680 8681 8682 8683 8684 8685 8686 8687 8688 8689 8690 8691 8692 8693 8694 8695 8696 8697 8698 8699 8700 8701 8702 8703 8704 8705 8706 8707 8708 8709 8710 8711 8712 8713 8714 8715 8716 8717 8718 8719 8720 8721 8722 8723 8724 8725 8726 8727 8728 8729 8730 8731 8732 8733 8734 8735 8736 8737 8738 8739 8740 8741 8742 8743 8744 8745 8746 8747 8748 8749 8750 8751 8752 8753 8754 8755 8756 8757 8758 8759 8760 8761 8762 8763 8764 8765 8766 8767 8768 8769 8770 8771 8772 8773 8774 8775 8776 8777 8778 8779 8780 8781 8782 8783 8784 8785 8786 8787 8788 8789 8790 8791 8792 8793 8794 8795 8796 8797 8798 8799 8800 8801 8802 8803 8804 8805 8806 8807 8808 8809 8810 8811 8812 8813 8814 8815 8816 8817 8818 8819 8820 8821 8822 8823 8824 8825 8826 8827 8828 8829 8830 8831 8832 8833 8834 8835 8836 8837 8838 8839 8840 8841 8842 8843 8844 8845 8846 8847 8848 8849 8850 8851 8852 8853 8854 8855 8856 8857 8858 8859 8860 8861 8862 8863 8864 8865 8866 8867 8868 8869 8870 8871 8872 8873 8874 8875 8876 8877 8878 8879 8880 8881 8882 8883 8884 8885 8886 8887 8888 8889 8890 8891 8892 8893 8894 8895 8896 8897 8898 8899 8900 8901 8902 8903 8904 8905 8906 8907 8908 8909 8910 8911 8912 8913 8914 8915 8916 8917 8918 8919 8920 8921 8922 8923 8924 8925 8926 8927 8928 8929 8930 8931 8932 8933 8934 8935 8936 8937 8938 8939 8940 8941 8942 8943 8944 8945 8946 8947 8948 8949 8950 8951 8952 8953 8954 8955 8956 8957 8958 8959 8960 8961 8962 8963 8964 8965 8966 8967 8968 8969 8970 8971 8972 8973 8974 8975 8976 8977 8978 8979 8980 8981 8982 8983 8984 8985 8986 8987 8988 8989 8990 8991 8992 8993 8994 8995 8996 8997 8998 8999 9000 9001 9002 9003 9004 9005 9006 9007 9008 9009 9010 9011 9012 9013 9014 9015 9016 9017 9018 9019 9020 9021 9022 9023 9024 9025 9026 9027 9028 9029 9030 9031 9032 9033 9034 9035 9036 9037 9038 9039 9040 9041 9042 9043 9044 9045 9046 9047 9048 9049 9050 9051 9052 9053 9054 9055 9056 9057 9058 9059 9060 9061 9062 9063 9064 9065 9066 9067 9068 9069 9070 9071 9072 9073 9074 9075 9076 9077 9078 9079 9080 9081 9082 9083 9084 9085 9086 9087 9088 9089 9090 9091 9092 9093 9094 9095 9096 9097 9098 9099 9100 9101 9102 9103 9104 9105 9106 9107 9108 9109 9110 9111 9112 9113 9114 9115 9116 9117 9118 9119 9120 9121 9122 9123 9124 9125 9126 9127 9128 9129 9130 9131 9132 9133 9134 9135 9136 9137 9138 9139 9140 9141 9142 9143 9144 9145 9146 9147 9148 9149 9150 9151 9152 9153 9154 9155 9156 9157 9158 9159 9160 9161 9162 9163 9164 9165 9166 9167 9168 9169 9170 9171 9172 9173 9174 9175 9176 9177 9178 9179 9180 9181 9182 9183 9184 9185 9186 9187 9188 9189 9190 9191 9192 9193 9194 9195 9196 9197 9198 9199 9200 9201 9202 9203 9204 9205 9206 9207 9208 9209 9210 9211 9212 9213 9214 9215 9216 9217 9218 9219 9220 9221 9222 9223 9224 9225 9226 9227 9228 9229 9230 9231 9232 9233 9234 9235 9236 9237 9238 9239 9240 9241 9242 9243 9244 9245 9246 9247 9248 9249 9250 9251 9252 9253 9254 9255 9256 9257 9258 9259 9260 9261 9262 9263 9264 9265 9266 9267 9268 9269 9270 9271 9272 9273 9274 9275 9276 9277 9278 9279 9280 9281 9282 9283 9284 9285 9286 9287 9288 9289 9290 9291 9292 9293 9294 9295 9296 9297 9298 9299 9300 9301 9302 9303 9304 9305 9306 9307 9308 9309 9310 9311 9312 9313 9314 9315 9316 9317 9318 9319 9320 9321 9322 9323 9324 9325 9326 9327 9328 9329 9330 9331 9332 9333 9334 9335 9336 9337 9338 9339 9340 9341 9342 9343 9344 9345 9346 9347 9348 9349 9350 9351 9352 9353 9354 9355 9356 9357 9358 9359 9360 9361 9362 9363 9364 9365 9366 9367 9368 9369 9370 9371 9372 9373 9374 9375 9376 9377 9378 9379 9380 9381 9382 9383 9384 9385 9386 9387 9388 9389 9390 9391 9392 9393 9394 9395 9396 9397 9398 9399 9400 9401 9402 9403 9404 9405 9406 9407 9408 9409 9410 9411 9412 9413 9414 9415 9416 9417 9418 9419 9420 9421 9422 9423 9424 9425 9426 9427 9428 9429 9430 9431 9432 9433 9434 9435 9436 9437 9438 9439 9440 9441 9442 9443 9444 9445 9446 9447 9448 9449 9450 9451 9452 9453 9454 9455 9456 9457 9458 9459 9460 9461 9462 9463 9464 9465 9466 9467 9468 9469 9470 9471 9472 9473 9474 9475 9476 9477 9478 9479 9480 9481 9482 9483 9484 9485 9486 9487 9488 9489 9490 9491 9492 9493 9494 9495 9496 9497 9498 9499 9500 9501 9502 9503 9504 9505 9506 9507 9508 9509 9510 9511 9512 9513 9514 9515 9516 9517 9518 9519 9520 9521 9522 9523 9524 9525 9526 9527 9528 9529 9530 9531 9532 9533 9534 9535 9536 9537 9538 9539 9540 9541 9542 9543 9544 9545 9546 9547 9548 9549 9550 9551 9552 9553 9554 9555 9556 9557 9558 9559 9560 9561 9562 9563 9564 9565 9566 9567 9568 9569 9570 9571 9572 9573 9574 9575 9576 9577 9578 9579 9580 9581 9582 9583 9584 9585 9586 9587 9588 9589 9590 9591 9592 9593 9594 9595 9596 9597 9598 9599 9600 9601 9602 9603 9604 9605 9606 9607 9608 9609 9610 9611 9612 9613 9614 9615 9616 9617 9618 9619 9620 9621 9622 9623 9624 9625 9626 9627 9628 9629 9630 9631 9632 9633 9634 9635 9636 9637 9638 9639 9640 9641 9642 9643 9644 9645 9646 9647 9648 9649 9650 9651 9652 9653 9654 9655 9656 9657 9658 9659 9660 9661 9662 9663 9664 9665 9666 9667 9668 9669 9670 9671 9672 9673 9674 9675 9676 9677 9678 9679 9680 9681 9682 9683 9684 9685 9686 9687 9688 9689 9690 9691 9692 9693 9694 9695 9696 9697 9698 9699 9700 9701 9702 9703 9704 9705 9706 9707 9708 9709 9710 9711 9712 9713 9714 9715 9716 9717 9718 9719 9720 9721 9722 9723 9724 9725 9726 9727 9728 9729 9730 9731 9732 9733 9734 9735 9736 9737 9738 9739 9740 9741 9742 9743 9744 9745 9746 9747 9748 9749 9750 9751 9752 9753 9754 9755 9756 9757 9758 9759 9760 9761 9762 9763 9764 9765 9766 9767 9768 9769 9770 9771 9772 9773 9774 9775 9776 9777 9778 9779 9780 9781 9782 9783 9784 9785 9786 9787 9788 9789 9790 9791 9792 9793 9794 9795 9796 9797 9798 9799 9800 9801 9802 9803 9804 9805 9806 9807 9808 9809 9810 9811 9812 9813 9814 9815 9816 9817 9818 9819 9820 9821 9822 9823 9824 9825 9826 9827 9828 9829 9830 9831 9832 9833 9834 9835 9836 9837 9838 9839 9840 9841 9842 9843 9844 9845 9846 9847 9848 9849 9850 9851 9852 9853 9854 9855 9856 9857 9858 9859 9860 9861 9862 9863 9864 9865 9866 9867 9868 9869 9870 9871 9872 9873 9874 9875 9876 9877 9878 9879 9880 9881 9882 9883 9884 9885 9886 9887 9888 9889 9890 9891 9892 9893 9894 9895 9896 9897 9898 9899 9900 9901 9902 9903 9904 9905 9906 9907 9908 9909 9910 9911 9912 9913 9914 9915 9916 9917 9918 9919 9920 9921 9922 9923 9924 9925 9926 9927 9928 9929 9930 9931 9932 9933 9934 9935 9936 9937 9938 9939 9940 9941 9942 9943 9944 9945 9946 9947 9948 9949 9950 9951 9952 9953 9954 9955 9956 9957 9958 9959 9960 9961 9962 9963 9964 9965 9966 9967 9968 9969 9970 9971 9972 9973 9974 9975 9976 9977 9978 9979 9980 9981 9982 9983 9984 9985 9986 9987 9988 9989 9990 9991 9992 9993 9994 9995 9996 9997 9998 9999 10000 10001 10002 10003 10004 10005 10006 10007 10008 10009 10010 10011 10012 10013 10014 10015 10016 10017 10018 10019 10020 10021 10022 10023 10024 10025 10026 10027 10028 10029 10030 10031 10032 10033 10034 10035 10036 10037 10038 10039 10040 10041 10042 10043 10044 10045 10046 10047 10048 10049 10050 10051 10052 10053 10054 10055 10056 10057 10058 10059 10060 10061 10062 10063 10064 10065 10066 10067 10068 10069 10070 10071 10072 10073 10074 10075 10076 10077 10078 10079 10080 10081 10082 10083 10084 10085 10086 10087 10088 10089 10090 10091 10092 10093 10094 10095 10096 10097 10098 10099 10100 10101 10102 10103 10104 10105 10106 10107 10108 10109 10110 10111 10112 10113 10114 10115 10116 10117 10118 10119 10120 10121 10122 10123 10124 10125 10126 10127 10128 10129 10130 10131 10132 10133 10134 10135 10136 10137 10138 10139 10140 10141 10142 10143 10144 10145 10146 10147 10148 10149 10150 10151 10152 10153 10154 10155 10156 10157 10158 10159 10160 10161 10162 10163 10164 10165 10166 10167 10168 10169 10170 10171 10172 10173 10174 10175 10176 10177 10178 10179 10180 10181 10182 10183 10184 10185 10186 10187 10188 10189 10190 10191 10192 10193 10194 10195 10196 10197 10198 10199 10200 10201 10202 10203 10204 10205 10206 10207 10208 10209 10210 10211 10212 10213 10214 10215 10216 10217 10218 10219 10220 10221 10222 10223 10224 10225 10226 10227 10228 10229 10230 10231 10232 10233 10234 10235 10236 10237 10238 10239 10240 10241 10242 10243 10244 10245 10246 10247 10248 10249 10250 10251 10252 10253 10254 10255 10256 10257 10258 10259 10260 10261 10262 10263 10264 10265 10266 10267 10268 10269 10270 10271 10272 10273 10274 10275 10276 10277 10278 10279 10280 10281 10282 10283 10284 10285 10286 10287 10288 10289 10290 10291 10292 10293 10294 10295 10296 10297 10298 10299 10300 10301 10302 10303 10304 10305 10306 10307 10308 10309 10310 10311 10312 10313 10314 10315 10316 10317 10318 10319 10320 10321 10322 10323 10324 10325 10326 10327 10328 10329 10330 10331 10332 10333 10334 10335 10336 10337 10338 10339 10340 10341 10342 10343 10344 10345 10346 10347 10348 10349 10350 10351 10352 10353 10354 10355 10356 10357 10358 10359 10360 10361 10362 10363 10364 10365 10366 10367 10368 10369 10370 10371 10372 10373 10374 10375 10376 10377 10378 10379 10380 10381 10382 10383 10384 10385 10386 10387 10388 10389 10390 10391 10392 10393 10394 10395 10396 10397 10398 10399 10400 10401 10402 10403 10404 10405 10406 10407 10408 10409 10410 10411 10412 10413 10414 10415 10416 10417 10418 10419 10420 10421 10422 10423 10424 10425 10426 10427 10428 10429 10430 10431 10432 10433 10434 10435 10436 10437 10438 10439 10440 10441 10442 10443 10444 10445 10446 10447 10448 10449 10450 10451 10452 10453 10454 10455 10456 10457 10458 10459 10460 10461 10462 10463 10464 10465 10466 10467 10468 10469 10470 10471 10472 10473 10474 10475 10476 10477 10478 10479 10480 10481 10482 10483 10484 10485 10486 10487 10488 10489 10490 10491 10492 10493 10494 10495 10496 10497 10498 10499 10500 10501 10502 10503 10504 10505 10506 10507 10508 10509 10510 10511 10512 10513 10514 10515 10516 10517 10518 10519 10520 10521 10522 10523 10524 10525 10526 10527 10528 10529 10530 10531 10532 10533 10534 10535 10536 10537 10538 10539 10540 10541 10542 10543 10544 10545 10546 10547 10548 10549 10550 10551 10552 10553 10554 10555 10556 10557 10558 10559 10560 10561 10562 10563 10564 10565 10566 10567 10568 10569 10570 10571 10572 10573 10574 10575 10576 10577 10578 10579 10580 10581 10582 10583 10584 10585 10586 10587 10588 10589 10590 10591 10592 10593 10594 10595 10596 10597 10598 10599 10600 10601 10602 10603 10604 10605 10606 10607 10608 10609 10610 10611 10612 10613 10614 10615 10616 10617 10618 10619 10620 10621 10622 10623 10624 10625 10626 10627 10628 10629 10630 10631 10632 10633 10634 10635 10636 10637 10638 10639 10640 10641 10642 10643 10644 10645 10646 10647 10648 10649 10650 10651 10652 10653 10654 10655 10656 10657 10658 10659 10660 10661 10662 10663 10664 10665 10666 10667 10668 10669 10670 10671 10672 10673 10674 10675 10676 10677 10678 10679 10680 10681 10682 10683 10684 10685 10686 10687 10688 10689 10690 10691 10692 10693 10694 10695 10696 10697 10698 10699 10700 10701 10702 10703 10704 10705 10706 10707 10708 10709 10710 10711 10712 10713 10714 10715 10716 10717 10718 10719 10720 10721 10722 10723 10724 10725 10726 10727 10728 10729 10730 10731 10732 10733 10734 10735 10736 10737 10738 10739 10740 10741 10742 10743 10744 10745 10746 10747 10748 10749 10750 10751 10752 10753 10754 10755 10756 10757 10758 10759 10760 10761 10762 10763 10764 10765 10766 10767 10768 10769 10770 10771 10772 10773 10774 10775 10776 10777 10778 10779 10780 10781 10782 10783 10784 10785 10786 10787 10788 10789 10790 10791 10792 10793 10794 10795 10796 10797 10798 10799 10800 10801 10802 10803 10804 10805 10806 10807 10808 10809 10810 10811 10812 10813 10814 10815 10816 10817 10818 10819 10820 10821 10822 10823 10824 10825 10826 10827 10828 10829 10830 10831 10832 10833 10834 10835 10836 10837 10838 10839 10840 10841 10842 10843 10844 10845 10846 10847 10848 10849 10850 10851 10852 10853 10854 10855 10856 10857 10858 10859 10860 10861 10862 10863 10864 10865 10866 10867 10868 10869 10870 10871 10872 10873 10874 10875 10876 10877 10878 10879 10880 10881 10882 10883 10884 10885 10886 10887 10888 10889 10890 10891 10892 10893 10894 10895 10896 10897 10898 10899 10900 10901 10902 10903 10904 10905 10906 10907 10908 10909 10910 10911 10912 10913 10914 10915 10916 10917 10918 10919 10920 10921 10922 10923 10924 10925 10926 10927 10928 10929 10930 10931 10932 10933 10934 10935 10936 10937 10938 10939 10940 10941 10942 10943 10944 10945 10946 10947 10948 10949 10950 10951 10952 10953 10954 10955 10956 10957 10958 10959 10960 10961 10962 10963 10964 10965 10966 10967 10968 10969 10970 10971 10972 10973 10974 10975 10976 10977 10978 10979 10980 10981 10982 10983 10984 10985 10986 10987 10988 10989 10990 10991 10992 10993 10994 10995 10996 10997 10998 10999 11000 11001 11002 11003 11004 11005 11006 11007 11008 11009 11010 11011 11012 11013 11014 11015 11016 11017 11018 11019 11020 11021 11022 11023 11024 11025 11026 11027 11028 11029 11030 11031 11032 11033 11034 11035 11036 11037 11038 11039 11040 11041 11042 11043 11044 11045 11046 11047 11048 11049 11050 11051 11052 11053 11054 11055 11056 11057 11058 11059 11060 11061 11062 11063 11064 11065 11066 11067 11068 11069 11070 11071 11072 11073 11074 11075 11076 11077 11078 11079 11080 11081 11082 11083 11084 11085 11086 11087 11088 11089 11090 11091 11092 11093 11094 11095 11096 11097 11098 11099 11100 11101 11102 11103 11104 11105 11106 11107 11108 11109 11110 11111 11112 11113 11114 11115 11116 11117 11118 11119 11120 11121 11122 11123 11124 11125 11126 11127 11128 11129 11130 11131 11132 11133 11134 11135 11136 11137 11138 11139 11140 11141 11142 11143 11144 11145 11146 11147 11148 11149 11150 11151 11152 11153 11154 11155 11156 11157 11158 11159 11160 11161 11162 11163 11164 11165 11166 11167 11168 11169 11170 11171 11172 11173 11174 11175 11176 11177 11178 11179 11180 11181 11182 11183 11184 11185 11186 11187 11188 11189 11190 11191 11192 11193 11194 11195 11196 11197 11198 11199 11200 11201 11202 11203 11204 11205 11206 11207 11208 11209 11210 11211 11212 11213 11214 11215 11216 11217 11218 11219 11220 11221 11222 11223 11224 11225 11226 11227 11228 11229 11230 11231 11232 11233 11234 11235 11236 11237 11238 11239 11240 11241 11242 11243 11244 11245 11246 11247 11248 11249 11250 11251 11252 11253 11254 11255 11256 11257 11258 11259 11260 11261 11262 11263 11264 11265 11266 11267 11268 11269 11270 11271 11272 11273 11274 11275 11276 11277 11278 11279 11280 11281 11282 11283 11284 11285 11286 11287 11288 11289 11290 11291 11292 11293 11294 11295 11296 11297 11298 11299 11300 11301 11302 11303 11304 11305 11306 11307 11308 11309 11310 11311 11312 11313 11314 11315 11316 11317 11318 11319 11320 11321 11322 11323 11324 11325 11326 11327 11328 11329 11330 11331 11332 11333 11334 11335 11336 11337 11338 11339 11340 11341 11342 11343 11344 11345 11346 11347 11348 11349 11350 11351 11352 11353 11354 11355 11356 11357 11358 11359 11360 11361 11362 11363 11364 11365 11366 11367 11368 11369 11370 11371 11372 11373 11374 11375 11376 11377 11378 11379 11380 11381 11382 11383 11384 11385 11386 11387 11388 11389 11390 11391 11392 11393 11394 11395 11396 11397 11398 11399 11400 11401 11402 11403 11404 11405 11406 11407 11408 11409 11410 11411 11412 11413 11414 11415 11416 11417 11418 11419 11420 11421 11422 11423 11424 11425 11426 11427 11428 11429 11430 11431 11432 11433 11434 11435 11436 11437 11438 11439 11440 11441 11442 11443 11444 11445 11446 11447 11448 11449 11450 11451 11452 11453 11454 11455 11456 11457 11458 11459 11460 11461 11462 11463 11464 11465 11466 11467 11468 11469 11470 11471 11472 11473 11474 11475 11476 11477 11478 11479 11480 11481 11482 11483 11484 11485 11486 11487 11488 11489 11490 11491 11492 11493 11494 11495 11496 11497 11498 11499 11500 11501 11502 11503 11504 11505 11506 11507 11508 11509 11510 11511 11512 11513 11514 11515 11516 11517 11518 11519 11520 11521 11522 11523 11524 11525 11526 11527 11528 11529 11530 11531 11532 11533 11534 11535 11536 11537 11538 11539 11540 11541 11542 11543 11544 11545 11546 11547 11548 11549 11550 11551 11552 11553 11554 11555 11556 11557 11558 11559 11560 11561 11562 11563 11564 11565 11566 11567 11568 11569 11570 11571 11572 11573 11574 11575 11576 11577 11578 11579 11580 11581 11582 11583 11584 11585 11586 11587 11588 11589 11590 11591 11592 11593 11594 11595 11596 11597 11598 11599 11600 11601 11602 11603 11604 11605 11606 11607 11608 11609 11610 11611 11612 11613 11614 11615 11616 11617 11618 11619 11620 11621 11622 11623 11624 11625 11626 11627 11628 11629 11630 11631 11632 11633 11634 11635 11636 11637 11638 11639 11640 11641 11642 11643 11644 11645 11646 11647 11648 11649 11650 11651 11652 11653 11654 11655 11656 11657 11658 11659 11660 11661 11662 11663 11664 11665 11666 11667 11668 11669 11670 11671 11672 11673 11674 11675 11676 11677 11678 11679 11680 11681 11682 11683 11684 11685 11686 11687 11688 11689 11690 11691 11692 11693 11694 11695 11696 11697 11698 11699 11700 11701 11702 11703 11704 11705 11706 11707 11708 11709 11710 11711 11712 11713 11714 11715 11716 11717 11718 11719 11720 11721 11722 11723 11724 11725 11726 11727 11728 11729 11730 11731 11732 11733 11734 11735 11736 11737 11738 11739 11740 11741 11742 11743 11744 11745 11746 11747 11748 11749 11750 11751 11752 11753 11754 11755 11756 11757 11758 11759 11760 11761 11762 11763 11764 11765 11766 11767 11768 11769 11770 11771 11772 11773 11774 11775 11776 11777 11778 11779 11780 11781 11782 11783 11784 11785 11786 11787 11788 11789 11790 11791 11792 11793 11794 11795 11796 11797 11798 11799 11800 11801 11802 11803 11804 11805 11806 11807 11808 11809 11810 11811 11812 11813 11814 11815 11816 11817 11818 11819 11820 11821 11822 11823 11824 11825 11826 11827 11828 11829 11830 11831 11832 11833 11834 11835 11836 11837 11838 11839 11840 11841 11842 11843 11844 11845 11846 11847 11848 11849 11850 11851 11852 11853 11854 11855 11856 11857 11858 11859 11860 11861 11862 11863 11864 11865 11866 11867 11868 11869 11870 11871 11872 11873 11874 11875 11876 11877 11878 11879 11880 11881 11882 11883 11884 11885 11886 11887 11888 11889 11890 11891 11892 11893 11894 11895 11896 11897 11898 11899 11900 11901 11902 11903 11904 11905 11906 11907 11908 11909 11910 11911 11912 11913 11914 11915 11916 11917 11918 11919 11920 11921 11922 11923 11924 11925 11926 11927 11928 11929 11930 11931 11932 11933 11934 11935 11936 11937 11938 11939 11940 11941 11942 11943 11944 11945 11946 11947 11948 11949 11950 11951 11952 11953 11954 11955 11956 11957 11958 11959 11960 11961 11962 11963 11964 11965 11966 11967 11968 11969 11970 11971 11972 11973 11974 11975 11976 11977 11978 11979 11980 11981 11982 11983 11984 11985 11986 11987 11988 11989 11990 11991 11992 11993 11994 11995 11996 11997 11998 11999 12000 12001 12002 12003 12004 12005 12006 12007 12008 12009 12010 12011 12012 12013 12014 12015 12016 12017 12018 12019 12020 12021 12022 12023 12024 12025 12026 12027 12028 12029 12030 12031 12032 12033 12034 12035 12036 12037 12038 12039 12040 12041 12042 12043 12044 12045 12046 12047 12048 12049 12050 12051 12052 12053 12054 12055 12056 12057 12058 12059 12060 12061 12062 12063 12064 12065 12066 12067 12068 12069 12070 12071 12072 12073 12074 12075 12076 12077 12078 12079 12080 12081 12082 12083 12084 12085 12086 12087 12088 12089 12090 12091 12092 12093 12094 12095 12096 12097 12098 12099 12100 12101 12102 12103 12104 12105 12106 12107 12108 12109 12110 12111 12112 12113 12114 12115 12116 12117 12118 12119 12120 12121 12122 12123 12124 12125 12126 12127 12128 12129 12130 12131 12132 12133 12134 12135 12136 12137 12138 12139 12140 12141 12142 12143 12144 12145 12146 12147 12148 12149 12150 12151 12152 12153 12154 12155 12156 12157 12158 12159 12160 12161 12162 12163 12164 12165 12166 12167 12168 12169 12170 12171 12172 12173 12174 12175 12176 12177 12178 12179 12180 12181 12182 12183 12184 12185 12186 12187 12188 12189 12190 12191 12192 12193 12194 12195 12196 12197 12198 12199 12200 12201 12202 12203 12204 12205 12206 12207 12208 12209 12210 12211 12212 12213 12214 12215 12216 12217 12218 12219 12220 12221 12222 12223 12224 12225 12226 12227 12228 12229 12230 12231 12232 12233 12234 12235 12236 12237 12238 12239 12240 12241 12242 12243 12244 12245 12246 12247 12248 12249 12250 12251 12252 12253 12254 12255 12256 12257 12258 12259 12260 12261 12262 12263 12264 12265 12266 12267 12268 12269 12270 12271 12272 12273 12274 12275 12276 12277 12278 12279 12280 12281 12282 12283 12284 12285 12286 12287 12288 12289 12290 12291 12292 12293 12294 12295 12296 12297 12298 12299 12300 12301 12302 12303 12304 12305 12306 12307 12308 12309 12310 12311 12312 12313 12314 12315 12316 12317 12318 12319 12320 12321 12322 12323 12324 12325 12326 12327 12328 12329 12330 12331 12332 12333 12334 12335 12336 12337 12338 12339 12340 12341 12342 12343 12344 12345 12346 12347 12348 12349 12350 12351 12352 12353 12354 12355 12356 12357 12358 12359 12360 12361 12362 12363 12364 12365 12366 12367 12368 12369 12370 12371 12372 12373 12374 12375 12376 12377 12378 12379 12380 12381 12382 12383 12384 12385 12386 12387 12388 12389 12390 12391 12392 12393 12394 12395 12396 12397 12398 12399 12400 12401 12402 12403 12404 12405 12406 12407 12408 12409 12410 12411 12412 12413 12414 12415 12416 12417 12418 12419 12420 12421 12422 12423 12424 12425 12426 12427 12428 12429 12430 12431 12432 12433 12434 12435 12436 12437 12438 12439 12440 12441 12442 12443 12444 12445 12446 12447 12448 12449 12450 12451 12452 12453 12454 12455 12456 12457 12458 12459 12460 12461 12462 12463 12464 12465 12466 12467 12468 12469 12470 12471 12472 12473 12474 12475 12476 12477 12478 12479 12480 12481 12482 12483 12484 12485 12486 12487 12488 12489 12490 12491 12492 12493 12494 12495 12496 12497 12498 12499 12500 12501 12502 12503 12504 12505 12506 12507 12508 12509 12510 12511 12512 12513 12514 12515 12516 12517 12518 12519 12520 12521 12522 12523 12524 12525 12526 12527 12528 12529 12530 12531 12532 12533 12534 12535 12536 12537 12538 12539 12540 12541 12542 12543 12544 12545 12546 12547 12548 12549 12550 12551 12552 12553 12554 12555 12556 12557 12558 12559 12560 12561 12562 12563 12564 12565 12566 12567 12568 12569 12570 12571 12572 12573 12574 12575 12576 12577 12578 12579 12580 12581 12582 12583 12584 12585 12586 12587 12588 12589 12590 12591 12592 12593 12594 12595 12596 12597 12598 12599 12600 12601 12602 12603 12604 12605 12606 12607 12608 12609 12610 12611 12612 12613 12614 12615 12616 12617 12618 12619 12620 12621 12622 12623 12624 12625 12626 12627 12628 12629 12630 12631 12632 12633 12634 12635 12636 12637 12638 12639 12640 12641 12642 12643 12644 12645 12646 12647 12648 12649 12650 12651 12652 12653 12654 12655 12656 12657 12658 12659 12660 12661 12662 12663 12664 12665 12666 12667 12668 12669 12670 12671 12672 12673 12674 12675 12676 12677 12678 12679 12680 12681 12682 12683 12684 12685 12686 12687 12688 12689 12690 12691 12692 12693 12694 12695 12696 12697 12698 12699 12700 12701 12702 12703 12704 12705 12706 12707 12708 12709 12710 12711 12712 12713 12714 12715 12716 12717 12718 12719 12720 12721 12722 12723 12724 12725 12726 12727 12728 12729 12730 12731 12732 12733 12734 12735 12736 12737 12738 12739 12740 12741 12742 12743 12744 12745 12746 12747 12748 12749 12750 12751 12752 12753 12754 12755 12756 12757 12758 12759 12760 12761 12762 12763 12764 12765 12766 12767 12768 12769 12770 12771 12772 12773 12774 12775 12776 12777 12778 12779 12780 12781 12782 12783 12784 12785 12786 12787 12788 12789 12790 12791 12792 12793 12794 12795 12796 12797 12798 12799 12800 12801 12802 12803 12804 12805 12806 12807 12808 12809 12810 12811 12812 12813 12814 12815 12816 12817 12818 12819 12820 12821 12822 12823 12824 12825 12826 12827 12828 12829 12830 12831 12832 12833 12834 12835 12836 12837 12838 12839 12840 12841 12842 12843 12844 12845 12846 12847 12848 12849 12850 12851 12852 12853 12854 12855 12856 12857 12858 12859 12860 12861 12862 12863 12864 12865 12866 12867 12868 12869 12870 12871 12872 12873 12874 12875 12876 12877 12878 12879 12880 12881 12882 12883 12884 12885 12886 12887 12888 12889 12890 12891 12892 12893 12894 12895 12896 12897 12898 12899 12900 12901 12902 12903 12904 12905 12906 12907 12908 12909 12910 12911 12912 12913 12914 12915 12916 12917 12918 12919 12920 12921 12922 12923 12924 12925 12926 12927 12928 12929 12930 12931 12932 12933 12934 12935 12936 12937 12938 12939 12940 12941 12942 12943 12944 12945 12946 12947 12948 12949 12950 12951 12952 12953 12954 12955 12956 12957 12958 12959 12960 12961 12962 12963 12964 12965 12966 12967 12968 12969 12970 12971 12972 12973 12974 12975 12976 12977 12978 12979 12980 12981 12982 12983 12984 12985 12986 12987 12988 12989 12990 12991 12992 12993 12994 12995 12996 12997 12998 12999 13000 13001 13002 13003 13004 13005 13006 13007 13008 13009 13010 13011 13012 13013 13014 13015 13016 13017 13018 13019 13020 13021 13022 13023 13024 13025 13026 13027 13028 13029 13030 13031 13032 13033 13034 13035 13036 13037 13038 13039 13040 13041 13042 13043 13044 13045 13046 13047 13048 13049 13050 13051 13052 13053 13054 13055 13056 13057 13058 13059 13060 13061 13062 13063 13064 13065 13066 13067 13068 13069 13070 13071 13072 13073 13074 13075 13076 13077 13078 13079 13080 13081 13082 13083 13084 13085 13086 13087 13088 13089 13090 13091 13092 13093 13094 13095 13096 13097 13098 13099 13100 13101 13102 13103 13104 13105 13106 13107 13108 13109 13110 13111 13112 13113 13114 13115 13116 13117 13118 13119 13120 13121 13122 13123 13124 13125 13126 13127 13128 13129 13130 13131 13132 13133 13134 13135 13136 13137 13138 13139 13140 13141 13142 13143 13144 13145 13146 13147 13148 13149 13150 13151 13152 13153 13154 13155 13156 13157 13158 13159 13160 13161 13162 13163 13164 13165 13166 13167 13168 13169 13170 13171 13172 13173 13174 13175 13176 13177 13178 13179 13180 13181 13182 13183 13184 13185 13186 13187 13188 13189 13190 13191 13192 13193 13194 13195 13196 13197 13198 13199 13200 13201 13202 13203 13204 13205 13206 13207 13208 13209 13210 13211 13212 13213 13214 13215 13216 13217 13218 13219 13220 13221 13222 13223 13224 13225 13226 13227 13228 13229 13230 13231 13232 13233 13234 13235 13236 13237 13238 13239 13240 13241 13242 13243 13244 13245 13246 13247 13248 13249 13250 13251 13252 13253 13254 13255 13256 13257 13258 13259 13260 13261 13262 13263 13264 13265 13266 13267 13268 13269 13270 13271 13272 13273 13274 13275 13276 13277 13278 13279 13280 13281 13282 13283 13284 13285 13286 13287 13288 13289 13290 13291 13292 13293 13294 13295 13296 13297 13298 13299 13300 13301 13302 13303 13304 13305 13306 13307 13308 13309 13310 13311 13312 13313 13314 13315 13316 13317 13318 13319 13320 13321 13322 13323 13324 13325 13326 13327 13328 13329 13330 13331 13332 13333 13334 13335 13336 13337 13338 13339 13340 13341 13342 13343 13344 13345 13346 13347 13348 13349 13350 13351 13352 13353 13354 13355 13356 13357 13358 13359 13360 13361 13362 13363 13364 13365 13366 13367 13368 13369 13370 13371 13372 13373 13374 13375 13376 13377 13378 13379 13380 13381 13382 13383 13384 13385 13386 13387 13388 13389 13390 13391 13392 13393 13394 13395 13396 13397 13398 13399 13400 13401 13402 13403 13404 13405 13406 13407 13408 13409 13410 13411 13412 13413 13414 13415 13416 13417 13418 13419 13420 13421 13422 13423 13424 13425 13426 13427 13428 13429 13430 13431 13432 13433 13434 13435 13436 13437 13438 13439 13440 13441 13442 13443 13444 13445 13446 13447 13448 13449 13450 13451 13452 13453 13454 13455 13456 13457 13458 13459 13460 13461 13462 13463 13464 13465 13466 13467 13468 13469 13470 13471 13472 13473 13474 13475 13476 13477 13478 13479 13480 13481 13482 13483 13484 13485 13486 13487 13488 13489 13490 13491 13492 13493 13494 13495 13496 13497 13498 13499 13500 13501 13502 13503 13504 13505 13506 13507 13508 13509 13510 13511 13512 13513 13514 13515 13516 13517 13518 13519 13520 13521 13522 13523 13524 13525 13526 13527 13528 13529 13530 13531 13532 13533 13534 13535 13536 13537 13538 13539 13540 13541 13542 13543 13544 13545 13546 13547 13548 13549 13550 13551 13552 13553 13554 13555 13556 13557 13558 13559 13560 13561 13562 13563 13564 13565 13566 13567 13568 13569 13570 13571 13572 13573 13574 13575 13576 13577 13578 13579 13580 13581 13582 13583 13584 13585 13586 13587 13588 13589 13590 13591 13592 13593 13594 13595 13596 13597 13598 13599 13600 13601 13602 13603 13604 13605 13606 13607 13608 13609 13610 13611 13612 13613 13614 13615 13616 13617 13618 13619 13620 13621 13622 13623 13624 13625 13626 13627 13628 13629 13630 13631 13632 13633 13634 13635 13636 13637 13638 13639 13640 13641 13642 13643 13644 13645 13646 13647 13648 13649 13650 13651 13652 13653 13654 13655 13656 13657 13658 13659 13660 13661 13662 13663 13664 13665 13666 13667 13668 13669 13670 13671 13672 13673 13674 13675 13676 13677 13678 13679 13680 13681 13682 13683 13684 13685 13686 13687 13688 13689 13690 13691 13692 13693 13694 13695 13696 13697 13698 13699 13700 13701 13702 13703 13704 13705 13706 13707 13708 13709 13710 13711 13712 13713 13714 13715 13716 13717 13718 13719 13720 13721 13722 13723 13724 13725 13726 13727 13728 13729 13730 13731 13732 13733 13734 13735 13736 13737 13738 13739 13740 13741 13742 13743 13744 13745 13746 13747 13748 13749 13750 13751 13752 13753 13754 13755 13756 13757 13758 13759 13760 13761 13762 13763 13764 13765 13766 13767 13768 13769 13770 13771 13772 13773 13774 13775 13776 13777 13778 13779 13780 13781 13782 13783 13784 13785 13786 13787 13788 13789 13790 13791 13792 13793 13794 13795 13796 13797 13798 13799 13800 13801 13802 13803 13804 13805 13806 13807 13808 13809 13810 13811 13812 13813 13814 13815 13816 13817 13818 13819 13820 13821 13822 13823 13824 13825 13826 13827 13828 13829 13830 13831 13832 13833 13834 13835 13836 13837 13838 13839 13840 13841 13842 13843 13844 13845 13846 13847 13848 13849 13850 13851 13852 13853 13854 13855 13856 13857 13858 13859 13860 13861 13862 13863 13864 13865 13866 13867 13868 13869 13870 13871 13872 13873 13874 13875 13876 13877 13878 13879 13880 13881 13882 13883 13884 13885 13886 13887 13888 13889 13890 13891 13892 13893 13894 13895 13896 13897 13898 13899 13900 13901 13902 13903 13904 13905 13906 13907 13908 13909 13910 13911 13912 13913 13914 13915 13916 13917 13918 13919 13920 13921 13922 13923 13924 13925 13926 13927 13928 13929 13930 13931 13932 13933 13934 13935 13936 13937 13938 13939 13940 13941 13942 13943 13944 13945 13946 13947 13948 13949 13950 13951 13952 13953 13954 13955 13956 13957 13958 13959 13960 13961 13962 13963 13964 13965 13966 13967 13968 13969 13970 13971 13972 13973 13974 13975 13976 13977 13978 13979 13980 13981 13982 13983 13984 13985 13986 13987 13988 13989 13990 13991 13992 13993 13994 13995 13996 13997 13998 13999 14000 14001 14002 14003 14004 14005 14006 14007 14008 14009 14010 14011 14012 14013 14014 14015 14016 14017 14018 14019 14020 14021 14022 14023 14024 14025 14026 14027 14028 14029 14030 14031 14032 14033 14034 14035 14036 14037 14038 14039 14040 14041 14042 14043 14044 14045 14046 14047 14048 14049 14050 14051 14052 14053 14054 14055 14056 14057 14058 14059 14060 14061 14062 14063 14064 14065 14066 14067 14068 14069 14070 14071 14072 14073 14074 14075 14076 14077 14078 14079 14080 14081 14082 14083 14084 14085 14086 14087 14088 14089 14090 14091 14092 14093 14094 14095 14096 14097 14098 14099 14100 14101 14102 14103 14104 14105 14106 14107 14108 14109 14110 14111 14112 14113 14114 14115 14116 14117 14118 14119 14120 14121 14122 14123 14124 14125 14126 14127 14128 14129 14130 14131 14132 14133 14134 14135 14136 14137 14138 14139 14140 14141 14142 14143 14144 14145 14146 14147 14148 14149 14150 14151 14152 14153 14154 14155 14156 14157 14158 14159 14160 14161 14162 14163 14164 14165 14166 14167 14168 14169 14170 14171 14172 14173 14174 14175 14176 14177 14178 14179 14180 14181 14182 14183 14184 14185 14186 14187 14188 14189 14190 14191 14192 14193 14194 14195 14196 14197 14198 14199 14200 14201 14202 14203 14204 14205 14206 14207 14208 14209 14210 14211 14212 14213 14214 14215 14216 14217 14218 14219 14220 14221 14222 14223 14224 14225 14226 14227 14228 14229 14230 14231 14232 14233 14234 14235 14236 14237 14238 14239 14240 14241 14242 14243 14244 14245 14246 14247 14248 14249 14250 14251 14252 14253 14254 14255 14256 14257 14258 14259 14260 14261 14262 14263 14264 14265 14266 14267 14268 14269 14270 14271 14272 14273 14274 14275 14276 14277 14278 14279 14280 14281 14282 14283 14284 14285 14286 14287 14288 14289 14290 14291 14292 14293 14294 14295 14296 14297 14298 14299 14300 14301 14302 14303 14304 14305 14306 14307 14308 14309 14310 14311 14312 14313 14314 14315 14316 14317 14318 14319 14320 14321 14322 14323 14324 14325 14326 14327 14328 14329 14330 14331 14332 14333 14334 14335 14336 14337 14338 14339 14340 14341 14342 14343 14344 14345 14346 14347 14348 14349 14350 14351 14352 14353 14354 14355 14356 14357 14358 14359 14360 14361 14362 14363 14364 14365 14366 14367 14368 14369 14370 14371 14372 14373 14374 14375 14376 14377 14378 14379 14380 14381 14382 14383 14384 14385 14386 14387 14388 14389 14390 14391 14392 14393 14394 14395 14396 14397 14398 14399 14400 14401 14402 14403 14404 14405 14406 14407 14408 14409 14410 14411 14412 14413 14414 14415 14416 14417 14418 14419 14420 14421 14422 14423 14424 14425 14426 14427 14428 14429 14430 14431 14432 14433 14434 14435 14436 14437 14438 14439 14440 14441 14442 14443 14444 14445 14446 14447 14448 14449 14450 14451 14452 14453 14454 14455 14456 14457 14458 14459 14460 14461 14462 14463 14464 14465 14466 14467 14468 14469 14470 14471 14472 14473 14474 14475 14476 14477 14478 14479 14480 14481 14482 14483 14484 14485 14486 14487 14488 14489 14490 14491 14492 14493 14494 14495 14496 14497 14498 14499 14500 14501 14502 14503 14504 14505 14506 14507 14508 14509 14510 14511 14512 14513 14514 14515 14516 14517 14518 14519 14520 14521 14522 14523 14524 14525 14526 14527 14528 14529 14530 14531 14532 14533 14534 14535 14536 14537 14538 14539 14540 14541 14542 14543 14544 14545 14546 14547 14548 14549 14550 14551 14552 14553 14554 14555 14556 14557 14558 14559 14560 14561 14562 14563 14564 14565 14566 14567 14568 14569 14570 14571 14572 14573 14574 14575 14576 14577 14578 14579 14580 14581 14582 14583 14584 14585 14586 14587 14588 14589 14590 14591 14592 14593 14594 14595 14596 14597 14598 14599 14600 14601 14602 14603 14604 14605 14606 14607 14608 14609 14610 14611 14612 14613 14614 14615 14616 14617 14618 14619 14620 14621 14622 14623 14624 14625 14626 14627 14628 14629 14630 14631 14632 14633 14634 14635 14636 14637 14638 14639 14640 14641 14642 14643 14644 14645 14646 14647 14648 14649 14650 14651 14652 14653 14654 14655 14656 14657 14658 14659 14660 14661 14662 14663 14664 14665 14666 14667 14668 14669 14670 14671 14672 14673 14674 14675 14676 14677 14678 14679 14680 14681 14682 14683 14684 14685 14686 14687 14688 14689 14690 14691 14692 14693 14694 14695 14696 14697 14698 14699 14700 14701 14702 14703 14704 14705 14706 14707 14708 14709 14710 14711 14712 14713 14714 14715 14716 14717 14718 14719 14720 14721 14722 14723 14724 14725 14726 14727 14728 14729 14730 14731 14732 14733 14734 14735 14736 14737 14738 14739 14740 14741 14742 14743 14744 14745 14746 14747 14748 14749 14750 14751 14752 14753 14754 14755 14756 14757 14758 14759 14760 14761 14762 14763 14764 14765 14766 14767 14768 14769 14770 14771 14772 14773 14774 14775 14776 14777 14778 14779 14780 14781 14782 14783 14784 14785 14786 14787 14788 14789 14790 14791 14792 14793 14794 14795 14796 14797 14798 14799 14800 14801 14802 14803 14804 14805 14806 14807 14808 14809 14810 14811 14812 14813 14814 14815 14816 14817 14818 14819 14820 14821 14822 14823 14824 14825 14826 14827 14828 14829 14830 14831 14832 14833 14834 14835 14836 14837 14838 14839 14840 14841 14842 14843 14844 14845 14846 14847 14848 14849 14850 14851 14852 14853 14854 14855 14856 14857 14858 14859 14860 14861 14862 14863 14864 14865 14866 14867 14868 14869 14870 14871 14872 14873 14874 14875 14876 14877 14878 14879 14880 14881 14882 14883 14884 14885 14886 14887 14888 14889 14890 14891 14892 14893 14894 14895 14896 14897 14898 14899 14900 14901 14902 14903 14904 14905 14906 14907 14908 14909 14910 14911 14912 14913 14914 14915 14916 14917 14918 14919 14920 14921 14922 14923 14924 14925 14926 14927 14928 14929 14930 14931 14932 14933 14934 14935 14936 14937 14938 14939 14940 14941 14942 14943 14944 14945 14946 14947 14948 14949 14950 14951 14952 14953 14954 14955 14956 14957 14958 14959 14960 14961 14962 14963 14964 14965 14966 14967 14968 14969 14970 14971 14972 14973 14974 14975 14976 14977 14978 14979 14980 14981 14982 14983 14984 14985 14986 14987 14988 14989 14990 14991 14992 14993 14994 14995 14996 14997 14998 14999 15000 15001 15002 15003 15004 15005 15006 15007 15008 15009 15010 15011 15012 15013 15014 15015 15016 15017 15018 15019 15020 15021 15022 15023 15024 15025 15026 15027 15028 15029 15030 15031 15032 15033 15034 15035 15036 15037 15038 15039 15040 15041 15042 15043 15044 15045 15046 15047 15048 15049 15050 15051 15052 15053 15054 15055 15056 15057 15058 15059 15060 15061 15062 15063 15064 15065 15066 15067 15068 15069 15070 15071 15072 15073 15074 15075 15076 15077 15078 15079 15080 15081 15082 15083 15084 15085 15086 15087 15088 15089 15090 15091 15092 15093 15094 15095 15096 15097 15098 15099 15100 15101 15102 15103 15104 15105 15106 15107 15108 15109 15110 15111 15112 15113 15114 15115 15116 15117 15118 15119 15120 15121 15122 15123 15124 15125 15126 15127 15128 15129 15130 15131 15132 15133 15134 15135 15136 15137 15138 15139 15140 15141 15142 15143 15144 15145 15146 15147 15148 15149 15150 15151 15152 15153 15154 15155 15156 15157 15158 15159 15160 15161 15162 15163 15164 15165 15166 15167 15168 15169 15170 15171 15172 15173 15174 15175 15176 15177 15178 15179 15180 15181 15182 15183 15184 15185 15186 15187 15188 15189 15190 15191 15192 15193 15194 15195 15196 15197 15198 15199 15200 15201 15202 15203 15204 15205 15206 15207 15208 15209 15210 15211 15212 15213 15214 15215 15216 15217 15218 15219 15220 15221 15222 15223 15224 15225 15226 15227 15228 15229 15230 15231 15232 15233 15234 15235 15236 15237 15238 15239 15240 15241 15242 15243 15244 15245 15246 15247 15248 15249 15250 15251 15252 15253 15254 15255 15256 15257 15258 15259 15260 15261 15262 15263 15264 15265 15266 15267 15268 15269 15270 15271 15272 15273 15274 15275 15276 15277 15278 15279 15280 15281 15282 15283 15284 15285 15286 15287 15288 15289 15290 15291 15292 15293 15294 15295 15296 15297 15298 15299 15300 15301 15302 15303 15304 15305 15306 15307 15308 15309 15310 15311 15312 15313 15314 15315 15316 15317 15318 15319 15320 15321 15322 15323 15324 15325 15326 15327 15328 15329 15330 15331 15332 15333 15334 15335 15336 15337 15338 15339 15340 15341 15342 15343 15344 15345 15346 15347 15348 15349 15350 15351 15352 15353 15354 15355 15356 15357 15358 15359 15360 15361 15362 15363 15364 15365 15366 15367 15368 15369 15370 15371 15372 15373 15374 15375 15376 15377 15378 15379 15380 15381 15382 15383 15384 15385 15386 15387 15388 15389 15390 15391 15392 15393 15394 15395 15396 15397 15398 15399 15400 15401 15402 15403 15404 15405 15406 15407 15408 15409 15410 15411 15412 15413 15414 15415 15416 15417 15418 15419 15420 15421 15422 15423 15424 15425 15426 15427 15428 15429 15430 15431 15432 15433 15434 15435 15436 15437 15438 15439 15440 15441 15442 15443 15444 15445 15446 15447 15448 15449 15450 15451 15452 15453 15454 15455 15456 15457 15458 15459 15460 15461 15462 15463 15464 15465 15466 15467 15468 15469 15470 15471 15472 15473 15474 15475 15476 15477 15478 15479 15480 15481 15482 15483 15484 15485 15486 15487 15488 15489 15490 15491 15492 15493 15494 15495 15496 15497 15498 15499 15500 15501 15502 15503 15504 15505 15506 15507 15508 15509 15510 15511 15512 15513 15514 15515 15516 15517 15518 15519 15520 15521 15522 15523 15524 15525 15526 15527 15528 15529 15530 15531 15532 15533 15534 15535 15536 15537 15538 15539 15540 15541 15542 15543 15544 15545 15546 15547 15548 15549 15550 15551 15552 15553 15554 15555 15556 15557 15558 15559 15560 15561 15562 15563 15564 15565 15566 15567 15568 15569 15570 15571 15572 15573 15574 15575 15576 15577 15578 15579 15580 15581 15582 15583 15584 15585 15586 15587 15588 15589 15590 15591 15592 15593 15594 15595 15596 15597 15598 15599 15600 15601 15602 15603 15604 15605 15606 15607 15608 15609 15610 15611 15612 15613 15614 15615 15616 15617 15618 15619 15620 15621 15622 15623 15624 15625 15626 15627 15628 15629 15630 15631 15632 15633 15634 15635 15636 15637 15638 15639 15640 15641 15642 15643 15644 15645 15646 15647 15648 15649 15650 15651 15652 15653 15654 15655 15656 15657 15658 15659 15660 15661 15662 15663 15664 15665 15666 15667 15668 15669 15670 15671 15672 15673 15674 15675 15676 15677 15678 15679 15680 15681 15682 15683 15684 15685 15686 15687 15688 15689 15690 15691 15692 15693 15694 15695 15696 15697 15698 15699 15700 15701 15702 15703 15704 15705 15706 15707 15708 15709 15710 15711 15712 15713 15714 15715 15716 15717 15718 15719 15720 15721 15722 15723 15724 15725 15726 15727 15728 15729 15730 15731 15732 15733 15734 15735 15736 15737 15738 15739 15740 15741 15742 15743 15744 15745 15746 15747 15748 15749 15750 15751 15752 15753 15754 15755 15756 15757 15758 15759 15760 15761 15762 15763 15764 15765 15766 15767 15768 15769 15770 15771 15772 15773 15774 15775 15776 15777 15778 15779 15780 15781 15782 15783 15784 15785 15786 15787 15788 15789 15790 15791 15792 15793 15794 15795 15796 15797 15798 15799 15800 15801 15802 15803 15804 15805 15806 15807 15808 15809 15810 15811 15812 15813 15814 15815 15816 15817 15818 15819 15820 15821 15822 15823 15824 15825 15826 15827 15828 15829 15830 15831 15832 15833 15834 15835 15836 15837 15838 15839 15840 15841 15842 15843 15844 15845 15846 15847 15848 15849 15850 15851 15852 15853 15854 15855 15856 15857 15858 15859 15860 15861 15862 15863 15864 15865 15866 15867 15868 15869 15870 15871 15872 15873 15874 15875 15876 15877 15878 15879 15880 15881 15882 15883 15884 15885 15886 15887 15888 15889 15890 15891 15892 15893 15894 15895 15896 15897 15898 15899 15900 15901 15902 15903 15904 15905 15906 15907 15908 15909 15910 15911 15912 15913 15914 15915 15916 15917 15918 15919 15920 15921 15922 15923 15924 15925 15926 15927 15928 15929 15930 15931 15932 15933 15934 15935 15936 15937 15938 15939 15940 15941 15942 15943 15944 15945 15946 15947 15948 15949 15950 15951 15952 15953 15954 15955 15956 15957 15958 15959 15960 15961 15962 15963 15964 15965 15966 15967 15968 15969 15970 15971 15972 15973 15974 15975 15976 15977 15978 15979 15980 15981 15982 15983 15984 15985 15986 15987 15988 15989 15990 15991 15992 15993 15994 15995 15996 15997 15998 15999 16000 16001 16002 16003 16004 16005 16006 16007 16008 16009 16010 16011 16012 16013 16014 16015 16016 16017 16018 16019 16020 16021 16022 16023 16024 16025 16026 16027 16028 16029 16030 16031 16032 16033 16034 16035 16036 16037 16038 16039 16040 16041 16042 16043 16044 16045 16046 16047 16048 16049 16050 16051 16052 16053 16054 16055 16056 16057 16058 16059 16060 16061 16062 16063 16064 16065 16066 16067 16068 16069 16070 16071 16072 16073 16074 16075 16076 16077 16078 16079 16080 16081 16082 16083 16084 16085 16086 16087 16088 16089 16090 16091 16092 16093 16094 16095 16096 16097 16098 16099 16100 16101 16102 16103 16104 16105 16106 16107 16108 16109 16110 16111 16112 16113 16114 16115 16116 16117 16118 16119 16120 16121 16122 16123 16124 16125 16126 16127 16128 16129 16130 16131 16132 16133 16134 16135 16136 16137 16138 16139 16140 16141 16142 16143 16144 16145 16146 16147 16148 16149 16150 16151 16152 16153 16154 16155 16156 16157 16158 16159 16160 16161 16162 16163 16164 16165 16166 16167 16168 16169 16170 16171 16172 16173 16174 16175 16176 16177 16178 16179 16180 16181 16182 16183 16184 16185 16186 16187 16188 16189 16190 16191 16192 16193 16194 16195 16196 16197 16198 16199 16200 16201 16202 16203 16204 16205 16206 16207 16208 16209 16210 16211 16212 16213 16214 16215 16216 16217 16218 16219 16220 16221 16222 16223 16224 16225 16226 16227 16228 16229 16230 16231 16232 16233 16234 16235 16236 16237 16238 16239 16240 16241 16242 16243 16244 16245 16246 16247 16248 16249 16250 16251 16252 16253 16254 16255 16256 16257 16258 16259 16260 16261 16262 16263 16264 16265 16266 16267 16268 16269 16270 16271 16272 16273 16274 16275 16276 16277 16278 16279 16280 16281 16282 16283 16284 16285 16286 16287 16288 16289 16290 16291 16292 16293 16294 16295 16296 16297 16298 16299 16300 16301 16302 16303 16304 16305 16306 16307 16308 16309 16310 16311 16312 16313 16314 16315 16316 16317 16318 16319 16320 16321 16322 16323 16324 16325 16326 16327 16328 16329 16330 16331 16332 16333 16334 16335 16336 16337 16338 16339 16340 16341 16342 16343 16344 16345 16346 16347 16348 16349 16350 16351 16352 16353 16354 16355 16356 16357 16358 16359 16360 16361 16362 16363 16364 16365 16366 16367 16368 16369 16370 16371 16372 16373 16374 16375 16376 16377 16378 16379 16380 16381 16382 16383 16384 16385 16386 16387 16388 16389 16390 16391 16392 16393 16394 16395 16396 16397 16398 16399 16400 16401 16402 16403 16404 16405 16406 16407 16408 16409 16410 16411 16412 16413 16414 16415 16416 16417 16418 16419 16420 16421 16422 16423 16424 16425 16426 16427 16428 16429 16430 16431 16432 16433 16434 16435 16436 16437 16438 16439 16440 16441 16442 16443 16444 16445 16446 16447 16448 16449 16450 16451 16452 16453 16454 16455 16456 16457 16458 16459 16460 16461 16462 16463 16464 16465 16466 16467 16468 16469 16470 16471 16472 16473 16474 16475 16476 16477 16478 16479 16480 16481 16482 16483 16484 16485 16486 16487 16488 16489 16490 16491 16492 16493 16494 16495 16496 16497 16498 16499 16500 16501 16502 16503 16504 16505 16506 16507 16508 16509 16510 16511 16512 16513 16514 16515 16516 16517 16518 16519 16520 16521 16522 16523 16524 16525 16526 16527 16528 16529 16530 16531 16532 16533 16534 16535 16536 16537 16538 16539 16540 16541 16542 16543 16544 16545 16546 16547 16548 16549 16550 16551 16552 16553 16554 16555 16556 16557 16558 16559 16560 16561 16562 16563 16564 16565 16566 16567 16568 16569 16570 16571 16572 16573 16574 16575 16576 16577 16578 16579 16580 16581 16582 16583 16584 16585 16586 16587 16588 16589 16590 16591 16592 16593 16594 16595 16596 16597 16598 16599 16600 16601 16602 16603 16604 16605 16606 16607 16608 16609 16610 16611 16612 16613 16614 16615 16616 16617 16618 16619 16620 16621 16622 16623 16624 16625 16626 16627 16628 16629 16630 16631 16632 16633 16634 16635 16636 16637 16638 16639 16640 16641 16642 16643 16644 16645 16646 16647 16648 16649 16650 16651 16652 16653 16654 16655 16656 16657 16658 16659 16660 16661 16662 16663 16664 16665 16666 16667 16668 16669 16670 16671 16672 16673 16674 16675 16676 16677 16678 16679 16680 16681 16682 16683 16684 16685 16686 16687 16688 16689 16690 16691 16692 16693 16694 16695 16696 16697 16698 16699 16700 16701 16702 16703 16704 16705 16706 16707 16708 16709 16710 16711 16712 16713 16714 16715 16716 16717 16718 16719 16720 16721 16722 16723 16724 16725 16726 16727 16728 16729 16730 16731 16732 16733 16734 16735 16736 16737 16738 16739 16740 16741 16742 16743 16744 16745 16746 16747 16748 16749 16750 16751 16752 16753 16754 16755 16756 16757 16758 16759 16760 16761 16762 16763 16764 16765 16766 16767 16768 16769 16770 16771 16772 16773 16774 16775 16776 16777 16778 16779 16780 16781 16782 16783 16784 16785 16786 16787 16788 16789 16790 16791 16792 16793 16794 16795 16796 16797 16798 16799 16800 16801 16802 16803 16804 16805 16806 16807 16808 16809 16810 16811 16812 16813 16814 16815 16816 16817 16818 16819 16820 16821 16822 16823 16824 16825 16826 16827 16828 16829 16830 16831 16832 16833 16834 16835 16836 16837 16838 16839 16840 16841 16842 16843 16844 16845 16846 16847 16848 16849 16850 16851 16852 16853 16854 16855 16856 16857 16858 16859 16860 16861 16862 16863 16864 16865 16866 16867 16868 16869 16870 16871 16872 16873 16874 16875 16876 16877 16878 16879 16880 16881 16882 16883 16884 16885 16886 16887 16888 16889 16890 16891 16892 16893 16894 16895 16896 16897 16898 16899 16900 16901 16902 16903 16904 16905 16906 16907 16908 16909 16910 16911 16912 16913 16914 16915 16916 16917 16918 16919 16920 16921 16922 16923 16924 16925 16926 16927 16928 16929 16930 16931 16932 16933 16934 16935 16936 16937 16938 16939 16940 16941 16942 16943 16944 16945 16946 16947 16948 16949 16950 16951 16952 16953 16954 16955 16956 16957 16958 16959 16960 16961 16962 16963 16964 16965 16966 16967 16968 16969 16970 16971 16972 16973 16974 16975 16976 16977 16978 16979 16980 16981 16982 16983 16984 16985 16986 16987 16988 16989 16990 16991 16992 16993 16994 16995 16996 16997 16998 16999 17000 17001 17002 17003 17004 17005 17006 17007 17008 17009 17010 17011 17012 17013 17014 17015 17016 17017 17018 17019 17020 17021 17022 17023 17024 17025 17026 17027 17028 17029 17030 17031 17032 17033 17034 17035 17036 17037 17038 17039 17040 17041 17042 17043 17044 17045 17046 17047 17048 17049 17050 17051 17052 17053 17054 17055 17056 17057 17058 17059 17060 17061 17062 17063 17064 17065 17066 17067 17068 17069 17070 17071 17072 17073 17074 17075 17076 17077 17078 17079 17080 17081 17082 17083 17084 17085 17086 17087 17088 17089 17090 17091 17092 17093 17094 17095 17096 17097 17098 17099 17100 17101 17102 17103 17104 17105 17106 17107 17108 17109 17110 17111 17112 17113 17114 17115 17116 17117 17118 17119 17120 17121 17122 17123 17124 17125 17126 17127 17128 17129 17130 17131 17132 17133 17134 17135 17136 17137 17138 17139 17140 17141 17142 17143 17144 17145 17146 17147 17148 17149 17150 17151 17152 17153 17154 17155 17156 17157 17158 17159 17160 17161 17162 17163 17164 17165 17166 17167 17168 17169 17170 17171 17172 17173 17174 17175 17176 17177 17178 17179 17180 17181 17182 17183 17184 17185 17186 17187 17188 17189 17190 17191 17192 17193 17194 17195 17196 17197 17198 17199 17200 17201 17202 17203 17204 17205 17206 17207 17208 17209 17210 17211 17212 17213 17214 17215 17216 17217 17218 17219 17220 17221 17222 17223 17224 17225 17226 17227 17228 17229 17230 17231 17232 17233 17234 17235 17236 17237 17238 17239 17240 17241 17242 17243 17244 17245 17246 17247 17248 17249 17250 17251 17252 17253 17254 17255 17256 17257 17258 17259 17260 17261 17262 17263 17264 17265 17266 17267 17268 17269 17270 17271 17272 17273 17274 17275 17276 17277 17278 17279 17280 17281 17282 17283 17284 17285 17286 17287 17288 17289 17290 17291 17292 17293 17294 17295 17296 17297 17298 17299 17300 17301 17302 17303 17304 17305 17306 17307 17308 17309 17310 17311 17312 17313 17314 17315 17316 17317 17318 17319 17320 17321 17322 17323 17324 17325 17326 17327 17328 17329 17330 17331 17332 17333 17334 17335 17336 17337 17338 17339 17340 17341 17342 17343 17344 17345 17346 17347 17348 17349 17350 17351 17352 17353 17354 17355 17356 17357 17358 17359 17360 17361 17362 17363 17364 17365 17366 17367 17368 17369 17370 17371 17372 17373 17374 17375 17376 17377 17378 17379 17380 17381 17382 17383 17384 17385 17386 17387 17388 17389 17390 17391 17392 17393 17394 17395 17396 17397 17398 17399 17400 17401 17402 17403 17404 17405 17406 17407 17408 17409 17410 17411 17412 17413 17414 17415 17416 17417 17418 17419 17420 17421 17422 17423 17424 17425 17426 17427 17428 17429 17430 17431 17432 17433 17434 17435 17436 17437 17438 17439 17440 17441 17442 17443 17444 17445 17446 17447 17448 17449 17450 17451 17452 17453 17454 17455 17456 17457 17458 17459 17460 17461 17462 17463 17464 17465 17466 17467 17468 17469 17470 17471 17472 17473 17474 17475 17476 17477 17478 17479 17480 17481 17482 17483 17484 17485 17486 17487 17488 17489 17490 17491 17492 17493 17494 17495 17496 17497 17498 17499 17500 17501 17502 17503 17504 17505 17506 17507 17508 17509 17510 17511 17512 17513 17514 17515 17516 17517 17518 17519 17520 17521 17522 17523 17524 17525 17526 17527 17528 17529 17530 17531 17532 17533 17534 17535 17536 17537 17538 17539 17540 17541 17542 17543 17544 17545 17546 17547 17548 17549 17550 17551 17552 17553 17554 17555 17556 17557 17558 17559 17560 17561 17562 17563 17564 17565 17566 17567 17568 17569 17570 17571 17572 17573 17574 17575 17576 17577 17578 17579 17580 17581 17582 17583 17584 17585 17586 17587 17588 17589 17590 17591 17592 17593 17594 17595 17596 17597 17598 17599 17600 17601 17602 17603 17604 17605 17606 17607 17608 17609 17610 17611 17612 17613 17614 17615 17616 17617 17618 17619 17620 17621 17622 17623 17624 17625 17626 17627 17628 17629 17630 17631 17632 17633 17634 17635 17636 17637 17638 17639 17640 17641 17642 17643 17644 17645 17646 17647 17648 17649 17650 17651 17652 17653 17654 17655 17656 17657 17658 17659 17660 17661 17662 17663 17664 17665 17666 17667 17668 17669 17670 17671 17672 17673 17674 17675 17676 17677 17678 17679 17680 17681 17682 17683 17684 17685 17686 17687 17688 17689 17690 17691 17692 17693 17694 17695 17696 17697 17698 17699 17700 17701 17702 17703 17704 17705 17706 17707 17708 17709 17710 17711 17712 17713 17714 17715 17716 17717 17718 17719 17720 17721 17722 17723 17724 17725 17726 17727 17728 17729 17730 17731 17732 17733 17734 17735 17736 17737 17738 17739 17740 17741 17742 17743 17744 17745 17746 17747 17748 17749 17750 17751 17752 17753 17754 17755 17756 17757 17758 17759 17760 17761 17762 17763 17764 17765 17766 17767 17768 17769 17770 17771 17772 17773 17774 17775 17776 17777 17778 17779 17780 17781 17782 17783 17784 17785 17786 17787 17788 17789 17790 17791 17792 17793 17794 17795 17796 17797 17798 17799 17800 17801 17802 17803 17804 17805 17806 17807 17808 17809 17810 17811 17812 17813 17814 17815 17816 17817 17818 17819 17820 17821 17822 17823 17824 17825 17826 17827 17828 17829 17830 17831 17832 17833 17834 17835 17836 17837 17838 17839 17840 17841 17842 17843 17844 17845 17846 17847 17848 17849 17850 17851 17852 17853 17854 17855 17856 17857 17858 17859 17860 17861 17862 17863 17864 17865 17866 17867 17868 17869 17870 17871 17872 17873 17874 17875 17876 17877 17878 17879 17880 17881 17882 17883 17884 17885 17886 17887 17888 17889 17890 17891 17892 17893 17894 17895 17896 17897 17898 17899 17900 17901 17902 17903 17904 17905 17906 17907 17908 17909 17910 17911 17912 17913 17914 17915 17916 17917 17918 17919 17920 17921 17922 17923 17924 17925 17926 17927 17928 17929 17930 17931 17932 17933 17934 17935 17936 17937 17938 17939 17940 17941 17942 17943 17944 17945 17946 17947 17948 17949 17950 17951 17952 17953 17954 17955 17956 17957 17958 17959 17960 17961 17962 17963 17964 17965 17966 17967 17968 17969 17970 17971 17972 17973 17974 17975 17976 17977 17978 17979 17980 17981 17982 17983 17984 17985 17986 17987 17988 17989 17990 17991 17992 17993 17994 17995 17996 17997 17998 17999 18000 18001 18002 18003 18004 18005 18006 18007 18008 18009 18010 18011 18012 18013 18014 18015 18016 18017 18018 18019 18020 18021 18022 18023 18024 18025 18026 18027 18028 18029 18030 18031 18032 18033 18034 18035 18036 18037 18038 18039 18040 18041 18042 18043 18044 18045 18046 18047 18048 18049 18050 18051 18052 18053 18054 18055 18056 18057 18058 18059 18060 18061 18062 18063 18064 18065 18066 18067 18068 18069 18070 18071 18072 18073 18074 18075 18076 18077 18078 18079 18080 18081 18082 18083 18084 18085 18086 18087 18088 18089 18090 18091 18092 18093 18094 18095 18096 18097 18098 18099 18100 18101 18102 18103 18104 18105 18106 18107 18108 18109 18110 18111 18112 18113 18114 18115 18116 18117 18118 18119 18120 18121 18122 18123 18124 18125 18126 18127 18128 18129 18130 18131 18132 18133 18134 18135 18136 18137 18138 18139 18140 18141 18142 18143 18144 18145 18146 18147 18148 18149 18150 18151 18152 18153 18154 18155 18156 18157 18158 18159 18160 18161 18162 18163 18164 18165 18166 18167 18168 18169 18170 18171 18172 18173 18174 18175 18176 18177 18178 18179 18180 18181 18182 18183 18184 18185 18186 18187 18188 18189 18190 18191 18192 18193 18194 18195 18196 18197 18198 18199 18200 18201 18202 18203 18204 18205 18206 18207 18208 18209 18210 18211 18212 18213 18214 18215 18216 18217 18218 18219 18220 18221 18222 18223 18224 18225 18226 18227 18228 18229 18230 18231 18232 18233 18234 18235 18236 18237 18238 18239 18240 18241 18242 18243 18244 18245 18246 18247 18248 18249 18250 18251 18252 18253 18254 18255 18256 18257 18258 18259 18260 18261 18262 18263 18264 18265 18266 18267 18268 18269 18270 18271 18272 18273 18274 18275 18276 18277 18278 18279 18280 18281 18282 18283 18284 18285 18286 18287 18288 18289 18290 18291 18292 18293 18294 18295 18296 18297 18298 18299 18300 18301 18302 18303 18304 18305 18306 18307 18308 18309 18310 18311 18312 18313 18314 18315 18316 18317 18318 18319 18320 18321 18322 18323 18324 18325 18326 18327 18328 18329 18330 18331 18332 18333 18334 18335 18336 18337 18338 18339 18340 18341 18342 18343 18344 18345 18346 18347 18348 18349 18350 18351 18352 18353 18354 18355 18356 18357 18358 18359 18360 18361 18362 18363 18364 18365 18366 18367 18368 18369 18370 18371 18372 18373 18374 18375 18376 18377 18378 18379 18380 18381 18382 18383 18384 18385 18386 18387 18388 18389 18390 18391 18392 18393 18394 18395 18396 18397 18398 18399 18400 18401 18402 18403 18404 18405 18406 18407 18408 18409 18410 18411 18412 18413 18414 18415 18416 18417 18418 18419 18420 18421 18422 18423 18424 18425 18426 18427 18428 18429 18430 18431 18432 18433 18434 18435 18436 18437 18438 18439 18440 18441 18442 18443 18444 18445 18446 18447 18448 18449 18450 18451 18452 18453 18454 18455 18456 18457 18458 18459 18460 18461 18462 18463 18464 18465 18466 18467 18468 18469 18470 18471 18472 18473 18474 18475 18476 18477 18478 18479 18480 18481 18482 18483 18484 18485 18486 18487 18488 18489 18490 18491 18492 18493 18494 18495 18496 18497 18498 18499 18500 18501 18502 18503 18504 18505 18506 18507 18508 18509 18510 18511 18512 18513 18514 18515 18516 18517 18518 18519 18520 18521 18522 18523 18524 18525 18526 18527 18528 18529 18530 18531 18532 18533 18534 18535 18536 18537 18538 18539 18540 18541 18542 18543 18544 18545 18546 18547 18548 18549 18550 18551 18552 18553 18554 18555 18556 18557 18558 18559 18560 18561 18562 18563 18564 18565 18566 18567 18568 18569 18570 18571 18572 18573 18574 18575 18576 18577 18578 18579 18580 18581 18582 18583 18584 18585 18586 18587 18588 18589 18590 18591 18592 18593 18594 18595 18596 18597 18598 18599 18600 18601 18602 18603 18604 18605 18606 18607 18608 18609 18610 18611 18612 18613 18614 18615 18616 18617 18618 18619 18620 18621 18622 18623 18624 18625 18626 18627 18628 18629 18630 18631 18632 18633 18634 18635 18636 18637 18638 18639 18640 18641 18642 18643 18644 18645 18646 18647 18648 18649 18650 18651 18652 18653 18654 18655 18656 18657 18658 18659 18660 18661 18662 18663 18664 18665 18666 18667 18668 18669 18670 18671 18672 18673 18674 18675 18676 18677 18678 18679 18680 18681 18682 18683 18684 18685 18686 18687 18688 18689 18690 18691 18692 18693 18694 18695 18696 18697 18698 18699 18700 18701 18702 18703 18704 18705 18706 18707 18708 18709 18710 18711 18712 18713 18714 18715 18716 18717 18718 18719 18720 18721 18722 18723 18724 18725 18726 18727 18728 18729 18730 18731 18732 18733 18734 18735 18736 18737 18738 18739 18740 18741 18742 18743 18744 18745 18746 18747 18748 18749 18750 18751 18752 18753 18754 18755 18756 18757 18758 18759 18760 18761 18762 18763 18764 18765 18766 18767 18768 18769 18770 18771 18772 18773 18774 18775 18776 18777 18778 18779 18780 18781 18782 18783 18784 18785 18786 18787 18788 18789 18790 18791 18792 18793 18794 18795 18796 18797 18798 18799 18800 18801 18802 18803 18804 18805 18806 18807 18808 18809 18810 18811 18812 18813 18814 18815 18816 18817 18818 18819 18820 18821 18822 18823 18824 18825 18826 18827 18828 18829 18830 18831 18832 18833 18834 18835 18836 18837 18838 18839 18840 18841 18842 18843 18844 18845 18846 18847 18848 18849 18850 18851 18852 18853 18854 18855 18856 18857 18858 18859 18860 18861 18862 18863 18864 18865 18866 18867 18868 18869 18870 18871 18872 18873 18874 18875 18876 18877 18878 18879 18880 18881 18882 18883 18884 18885 18886 18887 18888 18889 18890 18891 18892 18893 18894 18895 18896 18897 18898 18899 18900 18901 18902 18903 18904 18905 18906 18907 18908 18909 18910 18911 18912 18913 18914 18915 18916 18917 18918 18919 18920 18921 18922 18923 18924 18925 18926 18927 18928 18929 18930 18931 18932 18933 18934 18935 18936 18937 18938 18939 18940 18941 18942 18943 18944 18945 18946 18947 18948 18949 18950 18951 18952 18953 18954 18955 18956 18957 18958 18959 18960 18961 18962 18963 18964 18965 18966 18967 18968 18969 18970 18971 18972 18973 18974 18975 18976 18977 18978 18979 18980 18981 18982 18983 18984 18985 18986 18987 18988 18989 18990 18991 18992 18993 18994 18995 18996 18997 18998 18999 19000 19001 19002 19003 19004 19005 19006 19007 19008 19009 19010 19011 19012 19013 19014 19015 19016 19017 19018 19019 19020 19021 19022 19023 19024 19025 19026 19027 19028 19029 19030 19031 19032 19033 19034 19035 19036 19037 19038 19039 19040 19041 19042 19043 19044 19045 19046 19047 19048 19049 19050 19051 19052 19053 19054 19055 19056 19057 19058 19059 19060 19061 19062 19063 19064 19065 19066 19067 19068 19069 19070 19071 19072 19073 19074 19075 19076 19077 19078 19079 19080 19081 19082 19083 19084 19085 19086 19087 19088 19089 19090 19091 19092 19093 19094 19095 19096 19097 19098 19099 19100 19101 19102 19103 19104 19105 19106 19107 19108 19109 19110 19111 19112 19113 19114 19115 19116 19117 19118 19119 19120 19121 19122 19123 19124 19125 19126 19127 19128 19129 19130 19131 19132 19133 19134 19135 19136 19137 19138 19139 19140 19141 19142 19143 19144 19145 19146 19147 19148 19149 19150 19151 19152 19153 19154 19155 19156 19157 19158 19159 19160 19161 19162 19163 19164 19165 19166 19167 19168 19169 19170 19171 19172 19173 19174 19175 19176 19177 19178 19179 19180 19181 19182 19183 19184 19185 19186 19187 19188 19189 19190 19191 19192 19193 19194 19195 19196 19197 19198 19199 19200 19201 19202 19203 19204 19205 19206 19207 19208 19209 19210 19211 19212 19213 19214 19215 19216 19217 19218 19219 19220 19221 19222 19223 19224 19225 19226 19227 19228 19229 19230 19231 19232 19233 19234 19235 19236 19237 19238 19239 19240 19241 19242 19243 19244 19245 19246 19247 19248 19249 19250 19251 19252 19253 19254 19255 19256 19257 19258 19259 19260 19261 19262 19263 19264 19265 19266 19267 19268 19269 19270 19271 19272 19273 19274 19275 19276 19277 19278 19279 19280 19281 19282 19283 19284 19285 19286 19287 19288 19289 19290 19291 19292 19293 19294 19295 19296 19297 19298 19299 19300 19301 19302 19303 19304 19305 19306 19307 19308 19309 19310 19311 19312 19313 19314 19315 19316 19317 19318 19319 19320 19321 19322 19323 19324 19325 19326 19327 19328 19329 19330 19331 19332 19333 19334 19335 19336 19337 19338 19339 19340 19341 19342 19343 19344 19345 19346 19347 19348 19349 19350 19351 19352 19353 19354 19355 19356 19357 19358 19359 19360 19361 19362 19363 19364 19365 19366 19367 19368 19369 19370 19371 19372 19373 19374 19375 19376 19377 19378 19379 19380 19381 19382 19383 19384 19385 19386 19387 19388 19389 19390 19391 19392 19393 19394 19395 19396 19397 19398 19399 19400 19401 19402 19403 19404 19405 19406 19407 19408 19409 19410 19411 19412 19413 19414 19415 19416 19417 19418 19419 19420 19421 19422 19423 19424 19425 19426 19427 19428 19429 19430 19431 19432 19433 19434 19435 19436 19437 19438 19439 19440 19441 19442 19443 19444 19445 19446 19447 19448 19449 19450 19451 19452 19453 19454 19455 19456 19457 19458 19459 19460 19461 19462 19463 19464 19465 19466 19467 19468 19469 19470 19471 19472 19473 19474 19475 19476 19477 19478 19479 19480 19481 19482 19483 19484 19485 19486 19487 19488 19489 19490 19491 19492 19493 19494 19495 19496 19497 19498 19499 19500 19501 19502 19503 19504 19505 19506 19507 19508 19509 19510 19511 19512 19513 19514 19515 19516 19517 19518 19519 19520 19521 19522 19523 19524 19525 19526 19527 19528 19529 19530 19531 19532 19533 19534 19535 19536 19537 19538 19539 19540 19541 19542 19543 19544 19545 19546 19547 19548 19549 19550 19551 19552 19553 19554 19555 19556 19557 19558 19559 19560 19561 19562 19563 19564 19565 19566 19567 19568 19569 19570 19571 19572 19573 19574 19575 19576 19577 19578 19579 19580 19581 19582 19583 19584 19585 19586 19587 19588 19589 19590 19591 19592 19593 19594 19595 19596 19597 19598 19599 19600 19601 19602 19603 19604 19605 19606 19607 19608 19609 19610 19611 19612 19613 19614 19615 19616 19617 19618 19619 19620 19621 19622 19623 19624 19625 19626 19627 19628 19629 19630 19631 19632 19633 19634 19635 19636 19637 19638 19639 19640 19641 19642 19643 19644 19645 19646 19647 19648 19649 19650 19651 19652 19653 19654 19655 19656 19657 19658 19659 19660 19661 19662 19663 19664 19665 19666 19667 19668 19669 19670 19671 19672 19673 19674 19675 19676 19677 19678 19679 19680 19681 19682 19683 19684 19685 19686 19687 19688 19689 19690 19691 19692 19693 19694 19695 19696 19697 19698 19699 19700 19701 19702 19703 19704 19705 19706 19707 19708 19709 19710 19711 19712 19713 19714 19715 19716 19717 19718 19719 19720 19721 19722 19723 19724 19725 19726 19727 19728 19729 19730 19731 19732 19733 19734 19735 19736 19737 19738 19739 19740 19741 19742 19743 19744 19745 19746 19747 19748 19749 19750 19751 19752 19753 19754 19755 19756 19757 19758 19759 19760 19761 19762 19763 19764 19765 19766 19767 19768 19769 19770 19771 19772 19773 19774 19775 19776 19777 19778 19779 19780 19781 19782 19783 19784 19785 19786 19787 19788 19789 19790 19791 19792 19793 19794 19795 19796 19797 19798 19799 19800 19801 19802 19803 19804 19805 19806 19807 19808 19809 19810 19811 19812 19813 19814 19815 19816 19817 19818 19819 19820 19821 19822 19823 19824 19825 19826 19827 19828 19829 19830 19831 19832 19833 19834 19835 19836 19837 19838 19839 19840 19841 19842 19843 19844 19845 19846 19847 19848 19849 19850 19851 19852 19853 19854 19855 19856 19857 19858 19859 19860 19861 19862 19863 19864 19865 19866 19867 19868 19869 19870 19871 19872 19873 19874 19875 19876 19877 19878 19879 19880 19881 19882 19883 19884 19885 19886 19887 19888 19889 19890 19891 19892 19893 19894 19895 19896 19897 19898 19899 19900 19901 19902 19903 19904 19905 19906 19907 19908 19909 19910 19911 19912 19913 19914 19915 19916 19917 19918 19919 19920 19921 19922 19923 19924 19925 19926 19927 19928 19929 19930 19931 19932 19933 19934 19935 19936 19937 19938 19939 19940 19941 19942 19943 19944 19945 19946 19947 19948 19949 19950 19951 19952 19953 19954 19955 19956 19957 19958 19959 19960 19961 19962 19963 19964 19965 19966 19967 19968 19969 19970 19971 19972 19973 19974 19975 19976 19977 19978 19979 19980 19981 19982 19983 19984 19985 19986 19987 19988 19989 19990 19991 19992 19993 19994 19995 19996 19997 19998 19999 20000 20001 20002 20003 20004 20005 20006 20007 20008 20009 20010 20011 20012 20013 20014 20015 20016 20017 20018 20019 20020 20021 20022 20023 20024 20025 20026 20027 20028 20029 20030 20031 20032 20033 20034 20035 20036 20037 20038 20039 20040 20041 20042 20043 20044 20045 20046 20047 20048 20049 20050 20051 20052 20053 20054 20055 20056 20057 20058 20059 20060 20061 20062 20063 20064 20065 20066 20067 20068 20069 20070 20071 20072 20073 20074 20075 20076 20077 20078 20079 20080 20081 20082 20083 20084 20085 20086 20087 20088 20089 20090 20091 20092 20093 20094 20095 20096 20097 20098 20099 20100 20101 20102 20103 20104 20105 20106 20107 20108 20109 20110 20111 20112 20113 20114 20115 20116 20117 20118 20119 20120 20121 20122 20123 20124 20125 20126 20127 20128 20129 20130 20131 20132 20133 20134 20135 20136 20137 20138 20139 20140 20141 20142 20143 20144 20145 20146 20147 20148 20149 20150 20151 20152 20153 20154 20155 20156 20157 20158 20159 20160 20161 20162 20163 20164 20165 20166 20167 20168 20169 20170 20171 20172 20173 20174 20175 20176 20177 20178 20179 20180 20181 20182 20183 20184 20185 20186 20187 20188 20189 20190 20191 20192 20193 20194 20195 20196 20197 20198 20199 20200 20201 20202 20203 20204 20205 20206 20207 20208 20209 20210 20211 20212 20213 20214 20215 20216 20217 20218 20219 20220 20221 20222 20223 20224 20225 20226 20227 20228 20229 20230 20231 20232 20233 20234 20235 20236 20237 20238 20239 20240 20241 20242 20243 20244 20245 20246 20247 20248 20249 20250 20251 20252 20253 20254 20255 20256 20257 20258 20259 20260 20261 20262 20263 20264 20265 20266 20267 20268 20269 20270 20271 20272 20273 20274 20275 20276 20277 20278 20279 20280 20281 20282 20283 20284 20285 20286 20287 20288 20289 20290 20291 20292 20293 20294 20295 20296 20297 20298 20299 20300 20301 20302 20303 20304 20305 20306 20307 20308 20309 20310 20311 20312 20313 20314 20315 20316 20317 20318 20319 20320 20321 20322 20323 20324 20325 20326 20327 20328 20329 20330 20331 20332 20333 20334 20335 20336 20337 20338 20339 20340 20341 20342 20343 20344 20345 20346 20347 20348 20349 20350 20351 20352 20353 20354 20355 20356 20357 20358 20359 20360 20361 20362 20363 20364 20365 20366 20367 20368 20369 20370 20371 20372 20373 20374 20375 20376 20377 20378 20379 20380 20381 20382 20383 20384 20385 20386 20387 20388 20389 20390 20391 20392 20393 20394 20395 20396 20397 20398 20399 20400 20401 20402 20403 20404 20405 20406 20407 20408 20409 20410 20411 20412 20413 20414 20415 20416 20417 20418 20419 20420 20421 20422 20423 20424 20425 20426 20427 20428 20429 20430 20431 20432 20433 20434 20435 20436 20437 20438 20439 20440 20441 20442 20443 20444 20445 20446 20447 20448 20449 20450 20451 20452 20453 20454 20455 20456 20457 20458 20459 20460 20461 20462 20463 20464 20465 20466 20467 20468 20469 20470 20471 20472 20473 20474 20475 20476 20477 20478 20479 20480 20481 20482 20483 20484 20485 20486 20487 20488 20489 20490 20491 20492 20493 20494 20495 20496 20497 20498 20499 20500 20501 20502 20503 20504 20505 20506 20507 20508 20509 20510 20511 20512 20513 20514 20515 20516 20517 20518 20519 20520 20521 20522 20523 20524 20525 20526 20527 20528 20529 20530 20531 20532 20533 20534 20535 20536 20537 20538 20539 20540 20541 20542 20543 20544 20545 20546 20547 20548 20549 20550 20551 20552 20553 20554 20555 20556 20557 20558 20559 20560 20561 20562 20563 20564 20565 20566 20567 20568 20569 20570 20571 20572 20573 20574 20575 20576 20577 20578 20579 20580 20581 20582 20583 20584 20585 20586 20587 20588 20589 20590 20591 20592 20593 20594 20595 20596 20597 20598 20599 20600 20601 20602 20603 20604 20605 20606 20607 20608 20609 20610 20611 20612 20613 20614 20615 20616 20617 20618 20619 20620 20621 20622 20623 20624 20625 20626 20627 20628 20629 20630 20631 20632 20633 20634 20635 20636 20637 20638 20639 20640 20641 20642 20643 20644 20645 20646 20647 20648 20649 20650 20651 20652 20653 20654 20655 20656 20657 20658 20659 20660 20661 20662 20663 20664 20665 20666 20667 20668 20669 20670 20671 20672 20673 20674 20675 20676 20677 20678 20679 20680 20681 20682 20683 20684 20685 20686 20687 20688 20689 20690 20691 20692 20693 20694 20695 20696 20697 20698 20699 20700 20701 20702 20703 20704 20705 20706 20707 20708 20709 20710 20711 20712 20713 20714 20715 20716 20717 20718 20719 20720 20721 20722 20723 20724 20725 20726 20727 20728 20729 20730 20731 20732 20733 20734 20735 20736 20737 20738 20739 20740 20741 20742 20743 20744 20745 20746 20747 20748 20749 20750 20751 20752 20753 20754 20755 20756 20757 20758 20759 20760 20761 20762 20763 20764 20765 20766 20767 20768 20769 20770 20771 20772 20773 20774 20775 20776 20777 20778 20779 20780 20781 20782 20783 20784 20785 20786 20787 20788 20789 20790 20791 20792 20793 20794 20795 20796 20797 20798 20799 20800 20801 20802 20803 20804 20805 20806 20807 20808 20809 20810 20811 20812 20813 20814 20815 20816 20817 20818 20819 20820 20821 20822 20823 20824 20825 20826 20827 20828 20829 20830 20831 20832 20833 20834 20835 20836 20837 20838 20839 20840 20841 20842 20843 20844 20845 20846 20847 20848 20849 20850 20851 20852 20853 20854 20855 20856 20857 20858 20859 20860 20861 20862 20863 20864 20865 20866 20867 20868 20869 20870 20871 20872 20873 20874 20875 20876 20877 20878 20879 20880 20881 20882 20883 20884 20885 20886 20887 20888 20889 20890 20891 20892 20893 20894 20895 20896 20897 20898 20899 20900 20901 20902 20903 20904 20905 20906 20907 20908 20909 20910 20911 20912 20913 20914 20915 20916 20917 20918 20919 20920 20921 20922 20923 20924 20925 20926 20927 20928 20929 20930 20931 20932 20933 20934 20935 20936 20937 20938 20939 20940 20941 20942 20943 20944 20945 20946 20947 20948 20949 20950 20951 20952 20953 20954 20955 20956 20957 20958 20959 20960 20961 20962 20963 20964 20965 20966 20967 20968 20969 20970 20971 20972 20973 20974 20975 20976 20977 20978 20979 20980 20981 20982 20983 20984 20985 20986 20987 20988 20989 20990 20991 20992 20993 20994 20995 20996 20997 20998 20999 21000 21001 21002 21003 21004 21005 21006 21007 21008 21009 21010 21011 21012 21013 21014 21015 21016 21017 21018 21019 21020 21021 21022 21023 21024 21025 21026 21027 21028 21029 21030 21031 21032 21033 21034 21035 21036 21037 21038 21039 21040 21041 21042 21043 21044 21045 21046 21047 21048 21049 21050 21051 21052 21053 21054 21055 21056 21057 21058 21059 21060 21061 21062 21063 21064 21065 21066 21067 21068 21069 21070 21071 21072 21073 21074 21075 21076 21077 21078 21079 21080 21081 21082 21083 21084 21085 21086 21087 21088 21089 21090 21091 21092 21093 21094 21095 21096 21097 21098 21099 21100 21101 21102 21103 21104 21105 21106 21107 21108 21109 21110 21111 21112 21113 21114 21115 21116 21117 21118 21119 21120 21121 21122 21123 21124 21125 21126 21127 21128 21129 21130 21131 21132 21133 21134 21135 21136 21137 21138 21139 21140 21141 21142 21143 21144 21145 21146 21147 21148 21149 21150 21151 21152 21153 21154 21155 21156 21157 21158 21159 21160 21161 21162 21163 21164 21165 21166 21167 21168 21169 21170 21171 21172 21173 21174 21175 21176 21177 21178 21179 21180 21181 21182 21183 21184 21185 21186 21187 21188 21189 21190 21191 21192 21193 21194 21195 21196 21197 21198 21199 21200 21201 21202 21203 21204 21205 21206 21207 21208 21209 21210 21211 21212 21213 21214 21215 21216 21217 21218 21219 21220 21221 21222 21223 21224 21225 21226 21227 21228 21229 21230 21231 21232 21233 21234 21235 21236 21237 21238 21239 21240 21241 21242 21243 21244 21245 21246 21247 21248 21249 21250 21251 21252 21253 21254 21255 21256 21257 21258 21259 21260 21261 21262 21263 21264 21265 21266 21267 21268 21269 21270 21271 21272 21273 21274 21275 21276 21277 21278 21279 21280 21281 21282 21283 21284 21285 21286 21287 21288 21289 21290 21291 21292 21293 21294 21295 21296 21297 21298 21299 21300 21301 21302 21303 21304 21305 21306 21307 21308 21309 21310 21311 21312 21313 21314 21315 21316 21317 21318 21319 21320 21321 21322 21323 21324 21325 21326 21327 21328 21329 21330 21331 21332 21333 21334 21335 21336 21337 21338 21339 21340 21341 21342 21343 21344 21345 21346 21347 21348 21349 21350 21351 21352 21353 21354 21355 21356 21357 21358 21359 21360 21361 21362 21363 21364 21365 21366 21367 21368 21369 21370 21371 21372 21373 21374 21375 21376 21377 21378 21379 21380 21381 21382 21383 21384 21385 21386 21387 21388 21389 21390 21391 21392 21393 21394 21395 21396 21397 21398 21399 21400 21401 21402 21403 21404 21405 21406 21407 21408 21409 21410 21411 21412 21413 21414 21415 21416 21417 21418 21419 21420 21421 21422 21423 21424 21425 21426 21427 21428 21429 21430 21431 21432 21433 21434 21435 21436 21437 21438 21439 21440 21441 21442 21443 21444 21445 21446 21447 21448 21449 21450 21451 21452 21453 21454 21455 21456 21457 21458 21459 21460 21461 21462 21463 21464 21465 21466 21467 21468 21469 21470 21471 21472 21473 21474 21475 21476 21477 21478 21479 21480 21481 21482 21483 21484 21485 21486 21487 21488 21489 21490 21491 21492 21493 21494 21495 21496 21497 21498 21499 21500 21501 21502 21503 21504 21505 21506 21507 21508 21509 21510 21511 21512 21513 21514 21515 21516 21517 21518 21519 21520 21521 21522 21523 21524 21525 21526 21527 21528 21529 21530 21531 21532 21533 21534 21535 21536 21537 21538 21539 21540 21541 21542 21543 21544 21545 21546 21547 21548 21549 21550 21551 21552 21553 21554 21555 21556 21557 21558 21559 21560 21561 21562 21563 21564 21565 21566 21567 21568 21569 21570 21571 21572 21573 21574 21575 21576 21577 21578 21579 21580 21581 21582 21583 21584 21585 21586 21587 21588 21589 21590 21591 21592 21593 21594 21595 21596 21597 21598 21599 21600 21601 21602 21603 21604 21605 21606 21607 21608 21609 21610 21611 21612 21613 21614 21615 21616 21617 21618 21619 21620 21621 21622 21623 21624 21625 21626 21627 21628 21629 21630 21631 21632 21633 21634 21635 21636 21637 21638 21639 21640 21641 21642 21643 21644 21645 21646 21647 21648 21649 21650 21651 21652 21653 21654 21655 21656 21657 21658 21659 21660 21661 21662 21663 21664 21665 21666 21667 21668 21669 21670 21671 21672 21673 21674 21675 21676 21677 21678 21679 21680 21681 21682 21683 21684 21685 21686 21687 21688 21689 21690 21691 21692 21693 21694 21695 21696 21697 21698 21699 21700 21701 21702 21703 21704 21705 21706 21707 21708 21709 21710 21711 21712 21713 21714 21715 21716 21717 21718 21719 21720 21721 21722 21723 21724 21725 21726 21727 21728 21729 21730 21731 21732 21733 21734 21735 21736 21737 21738 21739 21740 21741 21742 21743 21744 21745 21746 21747 21748 21749 21750 21751 21752 21753 21754 21755 21756 21757 21758 21759 21760 21761 21762 21763 21764 21765 21766 21767 21768 21769 21770 21771 21772 21773 21774 21775 21776 21777 21778 21779 21780 21781 21782 21783 21784 21785 21786 21787 21788 21789 21790 21791 21792 21793 21794 21795 21796 21797 21798 21799 21800 21801 21802 21803 21804 21805 21806 21807 21808 21809 21810 21811 21812 21813 21814 21815 21816 21817 21818 21819 21820 21821 21822 21823 21824 21825 21826 21827 21828 21829 21830 21831 21832 21833 21834 21835 21836 21837 21838 21839 21840 21841 21842 21843 21844 21845 21846 21847 21848 21849 21850 21851 21852 21853 21854 21855 21856 21857 21858 21859 21860 21861 21862 21863 21864 21865 21866 21867 21868 21869 21870 21871 21872 21873 21874 21875 21876 21877 21878 21879 21880 21881 21882 21883 21884 21885 21886 21887 21888 21889 21890 21891 21892 21893 21894 21895 21896 21897 21898 21899 21900 21901 21902 21903 21904 21905 21906 21907 21908 21909 21910 21911 21912 21913 21914 21915 21916 21917 21918 21919 21920 21921 21922 21923 21924 21925 21926 21927 21928 21929 21930 21931 21932 21933 21934 21935 21936 21937 21938 21939 21940 21941 21942 21943 21944 21945 21946 21947 21948 21949 21950 21951 21952 21953 21954 21955 21956 21957 21958 21959 21960 21961 21962 21963 21964 21965 21966 21967 21968 21969 21970 21971 21972 21973 21974 21975 21976 21977 21978 21979 21980 21981 21982 21983 21984 21985 21986 21987 21988 21989 21990 21991 21992 21993 21994 21995 21996 21997 21998 21999 22000 22001 22002 22003 22004 22005 22006 22007 22008 22009 22010 22011 22012 22013 22014 22015 22016 22017 22018 22019 22020 22021 22022 22023 22024 22025 22026 22027 22028 22029 22030 22031 22032 22033 22034 22035 22036 22037 22038 22039 22040 22041 22042 22043 22044 22045 22046 22047 22048 22049 22050 22051 22052 22053 22054 22055 22056 22057 22058 22059 22060 22061 22062 22063 22064 22065 22066 22067 22068 22069 22070 22071 22072 22073 22074 22075 22076 22077 22078 22079 22080 22081 22082 22083 22084 22085 22086 22087 22088 22089 22090 22091 22092 22093 22094 22095 22096 22097 22098 22099 22100 22101 22102 22103 22104 22105 22106 22107 22108 22109 22110 22111 22112 22113 22114 22115 22116 22117 22118 22119 22120 22121 22122 22123 22124 22125 22126 22127 22128 22129 22130 22131 22132 22133 22134 22135 22136 22137 22138 22139 22140 22141 22142 22143 22144 22145 22146 22147 22148 22149 22150 22151 22152 22153 22154 22155 22156 22157 22158 22159 22160 22161 22162 22163 22164 22165 22166 22167 22168 22169 22170 22171 22172 22173 22174 22175 22176 22177 22178 22179 22180 22181 22182 22183 22184 22185 22186 22187 22188 22189 22190 22191 22192 22193 22194 22195 22196 22197 22198 22199 22200 22201 22202 22203 22204 22205 22206 22207 22208 22209 22210 22211 22212 22213 22214 22215 22216 22217 22218 22219 22220 22221 22222 22223 22224 22225 22226 22227 22228 22229 22230 22231 22232 22233 22234 22235 22236 22237 22238 22239 22240 22241 22242 22243 22244 22245 22246 22247 22248 22249 22250 22251 22252 22253 22254 22255 22256 22257 22258 22259 22260 22261 22262 22263 22264 22265 22266 22267 22268 22269 22270 22271 22272 22273 22274 22275 22276 22277 22278 22279 22280 22281 22282 22283 22284 22285 22286 22287 22288 22289 22290 22291 22292 22293 22294 22295 22296 22297 22298 22299 22300 22301 22302 22303 22304 22305 22306 22307 22308 22309 22310 22311 22312 22313 22314 22315 22316 22317 22318 22319 22320 22321 22322 22323 22324 22325 22326 22327 22328 22329 22330 22331 22332 22333 22334 22335 22336 22337 22338 22339 22340 22341 22342 22343 22344 22345 22346 22347 22348 22349 22350 22351 22352 22353 22354 22355 22356 22357 22358 22359 22360 22361 22362 22363 22364 22365 22366 22367 22368 22369 22370 22371 22372 22373 22374 22375 22376 22377 22378 22379 22380 22381 22382 22383 22384 22385 22386 22387 22388 22389 22390 22391 22392 22393 22394 22395 22396 22397 22398 22399 22400 22401 22402 22403 22404 22405 22406 22407 22408 22409 22410 22411 22412 22413 22414 22415 22416 22417 22418 22419 22420 22421 22422 22423 22424 22425 22426 22427 22428 22429 22430 22431 22432 22433 22434 22435 22436 22437 22438 22439 22440 22441 22442 22443 22444 22445 22446 22447 22448 22449 22450 22451 22452 22453 22454 22455 22456 22457 22458 22459 22460 22461 22462 22463 22464 22465 22466 22467 22468 22469 22470 22471 22472 22473 22474 22475 22476 22477 22478 22479 22480 22481 22482 22483 22484 22485 22486 22487 22488 22489 22490 22491 22492 22493 22494 22495 22496 22497 22498 22499 22500 22501 22502 22503 22504 22505 22506 22507 22508 22509 22510 22511 22512 22513 22514 22515 22516 22517 22518 22519 22520 22521 22522 22523 22524 22525 22526 22527 22528 22529 22530 22531 22532 22533 22534 22535 22536 22537 22538 22539 22540 22541 22542 22543 22544 22545 22546 22547 22548 22549 22550 22551 22552 22553 22554 22555 22556 22557 22558 22559 22560 22561 22562 22563 22564 22565 22566 22567 22568 22569 22570 22571 22572 22573 22574 22575 22576 22577 22578 22579 22580 22581 22582 22583 22584 22585 22586 22587 22588 22589 22590 22591 22592 22593 22594 22595 22596 22597 22598 22599 22600 22601 22602 22603 22604 22605 22606 22607 22608 22609 22610 22611 22612 22613 22614 22615 22616 22617 22618 22619 22620 22621 22622 22623 22624 22625 22626 22627 22628 22629 22630 22631 22632 22633 22634 22635 22636 22637 22638 22639 22640 22641 22642 22643 22644 22645 22646 22647 22648 22649 22650 22651 22652 22653 22654 22655 22656 22657 22658 22659 22660 22661 22662 22663 22664 22665 22666 22667 22668 22669 22670 22671 22672 22673 22674 22675 22676 22677 22678 22679 22680 22681 22682 22683 22684 22685 22686 22687 22688 22689 22690 22691 22692 22693 22694 22695 22696 22697 22698 22699 22700 22701 22702 22703 22704 22705 22706 22707 22708 22709 22710 22711 22712 22713 22714 22715 22716 22717 22718 22719 22720 22721 22722 22723 22724 22725 22726 22727 22728 22729 22730 22731 22732 22733 22734 22735 22736 22737 22738 22739 22740 22741 22742 22743 22744 22745 22746 22747 22748 22749 22750 22751 22752 22753 22754 22755 22756 22757 22758 22759 22760 22761 22762 22763 22764 22765 22766 22767 22768 22769 22770 22771 22772 22773 22774 22775 22776 22777 22778 22779 22780 22781 22782 22783 22784 22785 22786 22787 22788 22789 22790 22791 22792 22793 22794 22795 22796 22797 22798 22799 22800 22801 22802 22803 22804 22805 22806 22807 22808 22809 22810 22811 22812 22813 22814 22815 22816 22817 22818 22819 22820 22821 22822 22823 22824 22825 22826 22827 22828 22829 22830 22831 22832 22833 22834 22835 22836 22837 22838 22839 22840 22841 22842 22843 22844 22845 22846 22847 22848 22849 22850 22851 22852 22853 22854 22855 22856 22857 22858 22859 22860 22861 22862 22863 22864 22865 22866 22867 22868 22869 22870 22871 22872 22873 22874 22875 22876 22877 22878 22879 22880 22881 22882 22883 22884 22885 22886 22887 22888 22889 22890 22891 22892 22893 22894 22895 22896 22897 22898 22899 22900 22901 22902 22903 22904 22905 22906 22907 22908 22909 22910 22911 22912 22913 22914 22915 22916 22917 22918 22919 22920 22921 22922 22923 22924 22925 22926 22927 22928 22929 22930 22931 22932 22933 22934 22935 22936 22937 22938 22939 22940 22941 22942 22943 22944 22945 22946 22947 22948 22949 22950 22951 22952 22953 22954 22955 22956 22957 22958 22959 22960 22961 22962 22963 22964 22965 22966 22967 22968 22969 22970 22971 22972 22973 22974 22975 22976 22977 22978 22979 22980 22981 22982 22983 22984 22985 22986 22987 22988 22989 22990 22991 22992 22993 22994 22995 22996 22997 22998 22999 23000 23001 23002 23003 23004 23005 23006 23007 23008 23009 23010 23011 23012 23013 23014 23015 23016 23017 23018 23019 23020 23021 23022 23023 23024 23025 23026 23027 23028 23029 23030 23031 23032 23033 23034 23035 23036 23037 23038 23039 23040 23041 23042 23043 23044 23045 23046 23047 23048 23049 23050 23051 23052 23053 23054 23055 23056 23057 23058 23059 23060 23061 23062 23063 23064 23065 23066 23067 23068 23069 23070 23071 23072 23073 23074 23075 23076 23077 23078 23079 23080 23081 23082 23083 23084 23085 23086 23087 23088 23089 23090 23091 23092 23093 23094 23095 23096 23097 23098 23099 23100 23101 23102 23103 23104 23105 23106 23107 23108 23109 23110 23111 23112 23113 23114 23115 23116 23117 23118 23119 23120 23121 23122 23123 23124 23125 23126 23127 23128 23129 23130 23131 23132 23133 23134 23135 23136 23137 23138 23139 23140 23141 23142 23143 23144 23145 23146 23147 23148 23149 23150 23151 23152 23153 23154 23155 23156 23157 23158 23159 23160 23161 23162 23163 23164 23165 23166 23167 23168 23169 23170 23171 23172 23173 23174 23175 23176 23177 23178 23179 23180 23181 23182 23183 23184 23185 23186 23187 23188 23189 23190 23191 23192 23193 23194 23195 23196 23197 23198 23199 23200 23201 23202 23203 23204 23205 23206 23207 23208 23209 23210 23211 23212 23213 23214 23215 23216 23217 23218 23219 23220 23221 23222 23223 23224 23225 23226 23227 23228 23229 23230 23231 23232 23233 23234 23235 23236 23237 23238 23239 23240 23241 23242 23243 23244 23245 23246 23247 23248 23249 23250 23251 23252 23253 23254 23255 23256 23257 23258 23259 23260 23261 23262 23263 23264 23265 23266 23267 23268 23269 23270 23271 23272 23273 23274 23275 23276 23277 23278 23279 23280 23281 23282 23283 23284 23285 23286 23287 23288 23289 23290 23291 23292 23293 23294 23295 23296 23297 23298 23299 23300 23301 23302 23303 23304 23305 23306 23307 23308 23309 23310 23311 23312 23313 23314 23315 23316 23317 23318 23319 23320 23321 23322 23323 23324 23325 23326 23327 23328 23329 23330 23331 23332 23333 23334 23335 23336 23337 23338 23339 23340 23341 23342 23343 23344 23345 23346 23347 23348 23349 23350 23351 23352 23353 23354 23355 23356 23357 23358 23359 23360 23361 23362 23363 23364 23365 23366 23367 23368 23369 23370 23371 23372 23373 23374 23375 23376 23377 23378 23379 23380 23381 23382 23383 23384 23385 23386 23387 23388 23389 23390 23391 23392 23393 23394 23395 23396 23397 23398 23399 23400 23401 23402 23403 23404 23405 23406 23407 23408 23409 23410 23411 23412 23413 23414 23415 23416 23417 23418 23419 23420 23421 23422 23423 23424 23425 23426 23427 23428 23429 23430 23431 23432 23433 23434 23435 23436 23437 23438 23439 23440 23441 23442 23443 23444 23445 23446 23447 23448 23449 23450 23451 23452 23453 23454 23455 23456 23457 23458 23459 23460 23461 23462 23463 23464 23465 23466 23467 23468 23469 23470 23471 23472 23473 23474 23475 23476 23477 23478 23479 23480 23481 23482 23483 23484 23485 23486 23487 23488 23489 23490 23491 23492 23493 23494 23495 23496 23497 23498 23499 23500 23501 23502 23503 23504 23505 23506 23507 23508 23509 23510 23511 23512 23513 23514 23515 23516 23517 23518 23519 23520 23521 23522 23523 23524 23525 23526 23527 23528 23529 23530 23531 23532 23533 23534 23535 23536 23537 23538 23539 23540 23541 23542 23543 23544 23545 23546 23547 23548 23549 23550 23551 23552 23553 23554 23555 23556 23557 23558 23559 23560 23561 23562 23563 23564 23565 23566 23567 23568 23569 23570 23571 23572 23573 23574 23575 23576 23577 23578 23579 23580 23581 23582 23583 23584 23585 23586 23587 23588 23589 23590 23591 23592 23593 23594 23595 23596 23597 23598 23599 23600 23601 23602 23603 23604 23605 23606 23607 23608 23609 23610 23611 23612 23613 23614 23615 23616 23617 23618 23619 23620 23621 23622 23623 23624 23625 23626 23627 23628 23629 23630 23631 23632 23633 23634 23635 23636 23637 23638 23639 23640 23641 23642 23643 23644 23645 23646 23647 23648 23649 23650 23651 23652 23653 23654 23655 23656 23657 23658 23659 23660 23661 23662 23663 23664 23665 23666 23667 23668 23669 23670 23671 23672 23673 23674 23675 23676 23677 23678 23679 23680 23681 23682 23683 23684 23685 23686 23687 23688 23689 23690 23691 23692 23693 23694 23695 23696 23697 23698 23699 23700 23701 23702 23703 23704 23705 23706 23707 23708 23709 23710 23711 23712 23713 23714 23715 23716 23717 23718 23719 23720 23721 23722 23723 23724 23725 23726 23727 23728 23729 23730 23731 23732 23733 23734 23735 23736 23737 23738 23739 23740 23741 23742 23743 23744 23745 23746 23747 23748 23749 23750 23751 23752 23753 23754 23755 23756 23757 23758 23759 23760 23761 23762 23763 23764 23765 23766 23767 23768 23769 23770 23771 23772 23773 23774 23775 23776 23777 23778 23779 23780 23781 23782 23783 23784 23785 23786 23787 23788 23789 23790 23791 23792 23793 23794 23795 23796 23797 23798 23799 23800 23801 23802 23803 23804 23805 23806 23807 23808 23809 23810 23811 23812 23813 23814 23815 23816 23817 23818 23819 23820 23821 23822 23823 23824 23825 23826 23827 23828 23829 23830 23831 23832 23833 23834 23835 23836 23837 23838 23839 23840 23841 23842 23843 23844 23845 23846 23847 23848 23849 23850 23851 23852 23853 23854 23855 23856 23857 23858 23859 23860 23861 23862 23863 23864 23865 23866 23867 23868 23869 23870 23871 23872 23873 23874 23875 23876 23877 23878 23879 23880 23881 23882 23883 23884 23885 23886 23887 23888 23889 23890 23891 23892 23893 23894 23895 23896 23897 23898 23899 23900 23901 23902 23903 23904 23905 23906 23907 23908 23909 23910 23911 23912 23913 23914 23915 23916 23917 23918 23919 23920 23921 23922 23923 23924 23925 23926 23927 23928 23929 23930 23931 23932 23933 23934 23935 23936 23937 23938 23939 23940 23941 23942 23943 23944 23945 23946 23947 23948 23949 23950 23951 23952 23953 23954 23955 23956 23957 23958 23959 23960 23961 23962 23963 23964 23965 23966 23967 23968 23969 23970 23971 23972 23973 23974 23975 23976 23977 23978 23979 23980 23981 23982 23983 23984 23985 23986 23987 23988 23989 23990 23991 23992 23993 23994 23995 23996 23997 23998 23999 24000 24001 24002 24003 24004 24005 24006 24007 24008 24009 24010 24011 24012 24013 24014 24015 24016 24017 24018 24019 24020 24021 24022 24023 24024 24025 24026 24027 24028 24029 24030 24031 24032 24033 24034 24035 24036 24037 24038 24039 24040 24041 24042 24043 24044 24045 24046 24047 24048 24049 24050 24051 24052 24053 24054 24055 24056 24057 24058 24059 24060 24061 24062 24063 24064 24065 24066 24067 24068 24069 24070 24071 24072 24073 24074 24075 24076 24077 24078 24079 24080 24081 24082 24083 24084 24085 24086 24087 24088 24089 24090 24091 24092 24093 24094 24095 24096 24097 24098 24099 24100 24101 24102 24103 24104 24105 24106 24107 24108 24109 24110 24111 24112 24113 24114 24115 24116 24117 24118 24119 24120 24121 24122 24123 24124 24125 24126 24127 24128 24129 24130 24131 24132 24133 24134 24135 24136 24137 24138 24139 24140 24141 24142 24143 24144 24145 24146 24147 24148 24149 24150 24151 24152 24153 24154 24155 24156 24157 24158 24159 24160 24161 24162 24163 24164 24165 24166 24167 24168 24169 24170 24171 24172 24173 24174 24175 24176 24177 24178 24179 24180 24181 24182 24183 24184 24185 24186 24187 24188 24189 24190 24191 24192 24193 24194 24195 24196 24197 24198 24199 24200 24201 24202 24203 24204 24205 24206 24207 24208 24209 24210 24211 24212 24213 24214 24215 24216 24217 24218 24219 24220 24221 24222 24223 24224 24225 24226 24227 24228 24229 24230 24231 24232 24233 24234 24235 24236 24237 24238 24239 24240 24241 24242 24243 24244 24245 24246 24247 24248 24249 24250 24251 24252 24253 24254 24255 24256 24257 24258 24259 24260 24261 24262 24263 24264 24265 24266 24267 24268 24269 24270 24271 24272 24273 24274 24275 24276 24277 24278 24279 24280 24281 24282 24283 24284 24285 24286 24287 24288 24289 24290 24291 24292 24293 24294 24295 24296 24297 24298 24299 24300 24301 24302 24303 24304 24305 24306 24307 24308 24309 24310 24311 24312 24313 24314 24315 24316 24317 24318 24319 24320 24321 24322 24323 24324 24325 24326 24327 24328 24329 24330 24331 24332 24333 24334 24335 24336 24337 24338 24339 24340 24341 24342 24343 24344 24345 24346 24347 24348 24349 24350 24351 24352 24353 24354 24355 24356 24357 24358 24359 24360 24361 24362 24363 24364 24365 24366 24367 24368 24369 24370 24371 24372 24373 24374 24375 24376 24377 24378 24379 24380 24381 24382 24383 24384 24385 24386 24387 24388 24389 24390 24391 24392 24393 24394 24395 24396 24397 24398 24399 24400 24401 24402 24403 24404 24405 24406 24407 24408 24409 24410 24411 24412 24413 24414 24415 24416 24417 24418 24419 24420 24421 24422 24423 24424 24425 24426 24427 24428 24429 24430 24431 24432 24433 24434 24435 24436 24437 24438 24439 24440 24441 24442 24443 24444 24445 24446 24447 24448 24449 24450 24451 24452 24453 24454 24455 24456 24457 24458 24459 24460 24461 24462 24463 24464 24465 24466 24467 24468 24469 24470 24471 24472 24473 24474 24475 24476 24477 24478 24479 24480 24481 24482 24483 24484 24485 24486 24487 24488 24489 24490 24491 24492 24493 24494 24495 24496 24497 24498 24499 24500 24501 24502 24503 24504 24505 24506 24507 24508 24509 24510 24511 24512 24513 24514 24515 24516 24517 24518 24519 24520 24521 24522 24523 24524 24525 24526 24527 24528 24529 24530 24531 24532 24533 24534 24535 24536 24537 24538 24539 24540 24541 24542 24543 24544 24545 24546 24547 24548 24549 24550 24551 24552 24553 24554 24555 24556 24557 24558 24559 24560 24561 24562 24563 24564 24565 24566 24567 24568 24569 24570 24571 24572 24573 24574 24575 24576 24577 24578 24579 24580 24581 24582 24583 24584 24585 24586 24587 24588 24589 24590 24591 24592 24593 24594 24595 24596 24597 24598 24599 24600 24601 24602 24603 24604 24605 24606 24607 24608 24609 24610 24611 24612 24613 24614 24615 24616 24617 24618 24619 24620 24621 24622 24623 24624 24625 24626 24627 24628 24629 24630 24631 24632 24633 24634 24635 24636 24637 24638 24639 24640 24641 24642 24643 24644 24645 24646 24647 24648 24649 24650 24651 24652 24653 24654 24655 24656 24657 24658 24659 24660 24661 24662 24663 24664 24665 24666 24667 24668 24669 24670 24671 24672 24673 24674 24675 24676 24677 24678 24679 24680 24681 24682 24683 24684 24685 24686 24687 24688 24689 24690 24691 24692 24693 24694 24695 24696 24697 24698 24699 24700 24701 24702 24703 24704 24705 24706 24707 24708 24709 24710 24711 24712 24713 24714 24715 24716 24717 24718 24719 24720 24721 24722 24723 24724 24725 24726 24727 24728 24729 24730 24731 24732 24733 24734 24735 24736 24737 24738 24739 24740 24741 24742 24743 24744 24745 24746 24747 24748 24749 24750 24751 24752 24753 24754 24755 24756 24757 24758 24759 24760 24761 24762 24763 24764 24765 24766 24767 24768 24769 24770 24771 24772 24773 24774 24775 24776 24777 24778 24779 24780 24781 24782 24783 24784 24785 24786 24787 24788 24789 24790 24791 24792 24793 24794 24795 24796 24797 24798 24799 24800 24801 24802 24803 24804 24805 24806 24807 24808 24809 24810 24811 24812 24813 24814 24815 24816 24817 24818 24819 24820 24821 24822 24823 24824 24825 24826 24827 24828 24829 24830 24831 24832 24833 24834 24835 24836 24837 24838 24839 24840 24841 24842 24843 24844 24845 24846 24847 24848 24849 24850 24851 24852 24853 24854 24855 24856 24857 24858 24859 24860 24861 24862 24863 24864 24865 24866 24867 24868 24869 24870 24871 24872 24873 24874 24875 24876 24877 24878 24879 24880 24881 24882 24883 24884 24885 24886 24887 24888 24889 24890 24891 24892 24893 24894 24895 24896 24897 24898 24899 24900 24901 24902 24903 24904 24905 24906 24907 24908 24909 24910 24911 24912 24913 24914 24915 24916 24917 24918 24919 24920 24921 24922 24923 24924 24925 24926 24927 24928 24929 24930 24931 24932 24933 24934 24935 24936 24937 24938 24939 24940 24941 24942 24943 24944 24945 24946 24947 24948 24949 24950 24951 24952 24953 24954 24955 24956 24957 24958 24959 24960 24961 24962 24963 24964 24965 24966 24967 24968 24969 24970 24971 24972 24973 24974 24975 24976 24977 24978 24979 24980 24981 24982 24983 24984 24985 24986 24987 24988 24989 24990 24991 24992 24993 24994 24995 24996 24997 24998 24999 25000 25001 25002 25003 25004 25005 25006 25007 25008 25009 25010 25011 25012 25013 25014 25015 25016 25017 25018 25019 25020 25021 25022 25023 25024 25025 25026 25027 25028 25029 25030 25031 25032 25033 25034 25035 25036 25037 25038 25039 25040 25041 25042 25043 25044 25045 25046 25047 25048 25049 25050 25051 25052 25053 25054 25055 25056 25057 25058 25059 25060 25061 25062 25063 25064 25065 25066 25067 25068 25069 25070 25071 25072 25073 25074 25075 25076 25077 25078 25079 25080 25081 25082 25083 25084 25085 25086 25087 25088 25089 25090 25091 25092 25093 25094 25095 25096 25097 25098 25099 25100 25101 25102 25103 25104 25105 25106 25107 25108 25109 25110 25111 25112 25113 25114 25115 25116 25117 25118 25119 25120 25121 25122 25123 25124 25125 25126 25127 25128 25129 25130 25131 25132 25133 25134 25135 25136 25137 25138 25139 25140 25141 25142 25143 25144 25145 25146 25147 25148 25149 25150 25151 25152 25153 25154 25155 25156 25157 25158 25159 25160 25161 25162 25163 25164 25165 25166 25167 25168 25169 25170 25171 25172 25173 25174 25175 25176 25177 25178 25179 25180 25181 25182 25183 25184 25185 25186 25187 25188 25189 25190 25191 25192 25193 25194 25195 25196 25197 25198 25199 25200 25201 25202 25203 25204 25205 25206 25207 25208 25209 25210 25211 25212 25213 25214 25215 25216 25217 25218 25219 25220 25221 25222 25223 25224 25225 25226 25227 25228 25229 25230 25231 25232 25233 25234 25235 25236 25237 25238 25239 25240 25241 25242 25243 25244 25245 25246 25247 25248 25249 25250 25251 25252 25253 25254 25255 25256 25257 25258 25259 25260 25261 25262 25263 25264 25265 25266 25267 25268 25269 25270 25271 25272 25273 25274 25275 25276 25277 25278 25279 25280 25281 25282 25283 25284 25285 25286 25287 25288 25289 25290 25291 25292 25293 25294 25295 25296 25297 25298 25299 25300 25301 25302 25303 25304 25305 25306 25307 25308 25309 25310 25311 25312 25313 25314 25315 25316 25317 25318 25319 25320 25321 25322 25323 25324 25325 25326 25327 25328 25329 25330 25331 25332 25333 25334 25335 25336 25337 25338 25339 25340 25341 25342 25343 25344 25345 25346 25347 25348 25349 25350 25351 25352 25353 25354 25355 25356 25357 25358 25359 25360 25361 25362 25363 25364 25365 25366 25367 25368 25369 25370 25371 25372 25373 25374 25375 25376 25377 25378 25379 25380 25381 25382 25383 25384 25385 25386 25387 25388 25389 25390 25391 25392 25393 25394 25395 25396 25397 25398 25399 25400 25401 25402 25403 25404 25405 25406 25407 25408 25409 25410 25411 25412 25413 25414 25415 25416 25417 25418 25419 25420 25421 25422 25423 25424 25425 25426 25427 25428 25429 25430 25431 25432 25433 25434 25435 25436 25437 25438 25439 25440 25441 25442 25443 25444 25445 25446 25447 25448 25449 25450 25451 25452 25453 25454 25455 25456 25457 25458 25459 25460 25461 25462 25463 25464 25465 25466 25467 25468 25469 25470 25471 25472 25473 25474 25475 25476 25477 25478 25479 25480 25481 25482 25483 25484 25485 25486 25487 25488 25489 25490 25491 25492 25493 25494 25495 25496 25497 25498 25499 25500 25501 25502 25503 25504 25505 25506 25507 25508 25509 25510 25511 25512 25513 25514 25515 25516 25517 25518 25519 25520 25521 25522 25523 25524 25525 25526 25527 25528 25529 25530 25531 25532 25533 25534 25535 25536 25537 25538 25539 25540 25541 25542 25543 25544 25545 25546 25547 25548 25549 25550 25551 25552 25553 25554 25555 25556 25557 25558 25559 25560 25561 25562 25563 25564 25565 25566 25567 25568 25569 25570 25571 25572 25573 25574 25575 25576 25577 25578 25579 25580 25581 25582 25583 25584 25585 25586 25587 25588 25589 25590 25591 25592 25593 25594 25595 25596 25597 25598 25599 25600 25601 25602 25603 25604 25605 25606 25607 25608 25609 25610 25611 25612 25613 25614 25615 25616 25617 25618 25619 25620 25621 25622 25623 25624 25625 25626 25627 25628 25629 25630 25631 25632 25633 25634 25635 25636 25637 25638 25639 25640 25641 25642 25643 25644 25645 25646 25647 25648 25649 25650 25651 25652 25653 25654 25655 25656 25657 25658 25659 25660 25661 25662 25663 25664 25665 25666 25667 25668 25669 25670 25671 25672 25673 25674 25675 25676 25677 25678 25679 25680 25681 25682 25683 25684 25685 25686 25687 25688 25689 25690 25691 25692 25693 25694 25695 25696 25697 25698 25699 25700 25701 25702 25703 25704 25705 25706 25707 25708 25709 25710 25711 25712 25713 25714 25715 25716 25717 25718 25719 25720 25721 25722 25723 25724 25725 25726 25727 25728 25729 25730 25731 25732 25733 25734 25735 25736 25737 25738 25739 25740 25741 25742 25743 25744 25745 25746 25747 25748 25749 25750 25751 25752 25753 25754 25755 25756 25757 25758 25759 25760 25761 25762 25763 25764 25765 25766 25767 25768 25769 25770 25771 25772 25773 25774 25775 25776 25777 25778 25779 25780 25781 25782 25783 25784 25785 25786 25787 25788 25789 25790 25791 25792 25793 25794 25795 25796 25797 25798 25799 25800 25801 25802 25803 25804 25805 25806 25807 25808 25809 25810 25811 25812 25813 25814 25815 25816 25817 25818 25819 25820 25821 25822 25823 25824 25825 25826 25827 25828 25829 25830 25831 25832 25833 25834 25835 25836 25837 25838 25839 25840 25841 25842 25843 25844 25845 25846 25847 25848 25849 25850 25851 25852 25853 25854 25855 25856 25857 25858 25859 25860 25861 25862 25863 25864 25865 25866 25867 25868 25869 25870 25871 25872 25873 25874 25875 25876 25877 25878 25879 25880 25881 25882 25883 25884 25885 25886 25887 25888 25889 25890 25891 25892 25893 25894 25895 25896 25897 25898 25899 25900 25901 25902 25903 25904 25905 25906 25907 25908 25909 25910 25911 25912 25913 25914 25915 25916 25917 25918 25919 25920 25921 25922 25923 25924 25925 25926 25927 25928 25929 25930 25931 25932 25933 25934 25935 25936 25937 25938 25939 25940 25941 25942 25943 25944 25945 25946 25947 25948 25949 25950 25951 25952 25953 25954 25955 25956 25957 25958 25959 25960 25961 25962 25963 25964 25965 25966 25967 25968 25969 25970 25971 25972 25973 25974 25975 25976 25977 25978 25979 25980 25981 25982 25983 25984 25985 25986 25987 25988 25989 25990 25991 25992 25993 25994 25995 25996 25997 25998 25999 26000 26001 26002 26003 26004 26005 26006 26007 26008 26009 26010 26011 26012 26013 26014 26015 26016 26017 26018 26019 26020 26021 26022 26023 26024 26025 26026 26027 26028 26029 26030 26031 26032 26033 26034 26035 26036 26037 26038 26039 26040 26041 26042 26043 26044 26045 26046 26047 26048 26049 26050 26051 26052 26053 26054 26055 26056 26057 26058 26059 26060 26061 26062 26063 26064 26065 26066 26067 26068 26069 26070 26071 26072 26073 26074 26075 26076 26077 26078 26079 26080 26081 26082 26083 26084 26085 26086 26087 26088 26089 26090 26091 26092 26093 26094 26095 26096 26097 26098 26099 26100 26101 26102 26103 26104 26105 26106 26107 26108 26109 26110 26111 26112 26113 26114 26115 26116 26117 26118 26119 26120 26121 26122 26123 26124 26125 26126 26127 26128 26129 26130 26131 26132 26133 26134 26135 26136 26137 26138 26139 26140 26141 26142 26143 26144 26145 26146 26147 26148 26149 26150 26151 26152 26153 26154 26155 26156 26157 26158 26159 26160 26161 26162 26163 26164 26165 26166 26167 26168 26169 26170 26171 26172 26173 26174 26175 26176 26177 26178 26179 26180 26181 26182 26183 26184 26185 26186 26187 26188 26189 26190 26191 26192 26193 26194 26195 26196 26197 26198 26199 26200 26201 26202 26203 26204 26205 26206 26207 26208 26209 26210 26211 26212 26213 26214 26215 26216 26217 26218 26219 26220 26221 26222 26223 26224 26225 26226 26227 26228 26229 26230 26231 26232 26233 26234 26235 26236 26237 26238 26239 26240 26241 26242 26243 26244 26245 26246 26247 26248 26249 26250 26251 26252 26253 26254 26255 26256 26257 26258 26259 26260 26261 26262 26263 26264 26265 26266 26267 26268 26269 26270 26271 26272 26273 26274 26275 26276 26277 26278 26279 26280 26281 26282 26283 26284 26285 26286 26287 26288 26289 26290 26291 26292 26293 26294 26295 26296 26297 26298 26299 26300 26301 26302 26303 26304 26305 26306 26307 26308 26309 26310 26311 26312 26313 26314 26315 26316 26317 26318 26319 26320 26321 26322 26323 26324 26325 26326 26327 26328 26329 26330 26331 26332 26333 26334 26335 26336 26337 26338 26339 26340 26341 26342 26343 26344 26345 26346 26347 26348 26349 26350 26351 26352 26353 26354 26355 26356 26357 26358 26359 26360 26361 26362 26363 26364 26365 26366 26367 26368 26369 26370 26371 26372 26373 26374 26375 26376 26377 26378 26379 26380 26381 26382 26383 26384 26385 26386 26387 26388 26389 26390 26391 26392 26393 26394 26395 26396 26397 26398 26399 26400 26401 26402 26403 26404 26405 26406 26407 26408 26409 26410 26411 26412 26413 26414 26415 26416 26417 26418 26419 26420 26421 26422 26423 26424 26425 26426 26427 26428 26429 26430 26431 26432 26433 26434 26435 26436 26437 26438 26439 26440 26441 26442 26443 26444 26445 26446 26447 26448 26449 26450 26451 26452 26453 26454 26455 26456 26457 26458 26459 26460 26461 26462 26463 26464 26465 26466 26467 26468 26469 26470 26471 26472 26473 26474 26475 26476 26477 26478 26479 26480 26481 26482 26483 26484 26485 26486 26487 26488 26489 26490 26491 26492 26493 26494 26495 26496 26497 26498 26499 26500 26501 26502 26503 26504 26505 26506 26507 26508 26509 26510 26511 26512 26513 26514 26515 26516 26517 26518 26519 26520 26521 26522 26523 26524 26525 26526 26527 26528 26529 26530 26531 26532 26533 26534 26535 26536 26537 26538 26539 26540 26541 26542 26543 26544 26545 26546 26547 26548 26549 26550 26551 26552 26553 26554 26555 26556 26557 26558 26559 26560 26561 26562 26563 26564 26565 26566 26567 26568 26569 26570 26571 26572 26573 26574 26575 26576 26577 26578 26579 26580 26581 26582 26583 26584 26585 26586 26587 26588 26589 26590 26591 26592 26593 26594 26595 26596 26597 26598 26599 26600 26601 26602 26603 26604 26605 26606 26607 26608 26609 26610 26611 26612 26613 26614 26615 26616 26617 26618 26619 26620 26621 26622 26623 26624 26625 26626 26627 26628 26629 26630 26631 26632 26633 26634 26635 26636 26637 26638 26639 26640 26641 26642 26643 26644 26645 26646 26647 26648 26649 26650 26651 26652 26653 26654 26655 26656 26657 26658 26659 26660 26661 26662 26663 26664 26665 26666 26667 26668 26669 26670 26671 26672 26673 26674 26675 26676 26677 26678 26679 26680 26681 26682 26683 26684 26685 26686 26687 26688 26689 26690 26691 26692 26693 26694 26695 26696 26697 26698 26699 26700 26701 26702 26703 26704 26705 26706 26707 26708 26709 26710 26711 26712 26713 26714 26715 26716 26717 26718 26719 26720 26721 26722 26723 26724 26725 26726 26727 26728 26729 26730 26731 26732 26733 26734 26735 26736 26737 26738 26739 26740 26741 26742 26743 26744 26745 26746 26747 26748 26749 26750 26751 26752 26753 26754 26755 26756 26757 26758 26759 26760 26761 26762 26763 26764 26765 26766 26767 26768 26769 26770 26771 26772 26773 26774 26775 26776 26777 26778 26779 26780 26781 26782 26783 26784 26785 26786 26787 26788 26789 26790 26791 26792 26793 26794 26795 26796 26797 26798 26799 26800 26801 26802 26803 26804 26805 26806 26807 26808 26809 26810 26811 26812 26813 26814 26815 26816 26817 26818 26819 26820 26821 26822 26823 26824 26825 26826 26827 26828 26829 26830 26831 26832 26833 26834 26835 26836 26837 26838 26839 26840 26841 26842 26843 26844 26845 26846 26847 26848 26849 26850 26851 26852 26853 26854 26855 26856 26857 26858 26859 26860 26861 26862 26863 26864 26865 26866 26867 26868 26869 26870 26871 26872 26873 26874 26875 26876 26877 26878 26879 26880 26881 26882 26883 26884 26885 26886 26887 26888 26889 26890 26891 26892 26893 26894 26895 26896 26897 26898 26899 26900 26901 26902 26903 26904 26905 26906 26907 26908 26909 26910 26911 26912 26913 26914 26915 26916 26917 26918 26919 26920 26921 26922 26923 26924 26925 26926 26927 26928 26929 26930 26931 26932 26933 26934 26935 26936 26937 26938 26939 26940 26941 26942 26943 26944 26945 26946 26947 26948 26949 26950 26951 26952 26953 26954 26955 26956 26957 26958 26959 26960 26961 26962 26963 26964 26965 26966 26967 26968 26969 26970 26971 26972 26973 26974 26975 26976 26977 26978 26979 26980 26981 26982 26983 26984 26985 26986 26987 26988 26989 26990 26991 26992 26993 26994 26995 26996 26997 26998 26999 27000 27001 27002 27003 27004 27005 27006 27007 27008 27009 27010 27011 27012 27013 27014 27015 27016 27017 27018 27019 27020 27021 27022 27023 27024 27025 27026 27027 27028 27029 27030 27031 27032 27033 27034 27035 27036 27037 27038 27039 27040 27041 27042 27043 27044 27045 27046 27047 27048 27049 27050 27051 27052 27053 27054 27055 27056 27057 27058 27059 27060 27061 27062 27063 27064 27065 27066 27067 27068 27069 27070 27071 27072 27073 27074 27075 27076 27077 27078 27079 27080 27081 27082 27083 27084 27085 27086 27087 27088 27089 27090 27091 27092 27093 27094 27095 27096 27097 27098 27099 27100 27101 27102 27103 27104 27105 27106 27107 27108 27109 27110 27111 27112 27113 27114 27115 27116 27117 27118 27119 27120 27121 27122 27123 27124 27125 27126 27127 27128 27129 27130 27131 27132 27133 27134 27135 27136 27137 27138 27139 27140 27141 27142 27143 27144 27145 27146 27147 27148 27149 27150 27151 27152 27153 27154 27155 27156 27157 27158 27159 27160 27161 27162 27163 27164 27165 27166 27167 27168 27169 27170 27171 27172 27173 27174 27175 27176 27177 27178 27179 27180 27181 27182 27183 27184 27185 27186 27187 27188 27189 27190 27191 27192 27193 27194 27195 27196 27197 27198 27199 27200 27201 27202 27203 27204 27205 27206 27207 27208 27209 27210 27211 27212 27213 27214 27215 27216 27217 27218 27219 27220 27221 27222 27223 27224 27225 27226 27227 27228 27229 27230 27231 27232 27233 27234 27235 27236 27237 27238 27239 27240 27241 27242 27243 27244 27245 27246 27247 27248 27249 27250 27251 27252 27253 27254 27255 27256 27257 27258 27259 27260 27261 27262 27263 27264 27265 27266 27267 27268 27269 27270 27271 27272 27273 27274 27275 27276 27277 27278 27279 27280 27281 27282 27283 27284 27285 27286 27287 27288 27289 27290 27291 27292 27293 27294 27295 27296 27297 27298 27299 27300 27301 27302 27303 27304 27305 27306 27307 27308 27309 27310 27311 27312 27313 27314 27315 27316 27317 27318 27319 27320 27321 27322 27323 27324 27325 27326 27327 27328 27329 27330 27331 27332 27333 27334 27335 27336 27337 27338 27339 27340 27341 27342 27343 27344 27345 27346 27347 27348 27349 27350 27351 27352 27353 27354 27355 27356 27357 27358 27359 27360 27361 27362 27363 27364 27365 27366 27367 27368 27369 27370 27371 27372 27373 27374 27375 27376 27377 27378 27379 27380 27381 27382 27383 27384 27385 27386 27387 27388 27389 27390 27391 27392 27393 27394 27395 27396 27397 27398 27399 27400 27401 27402 27403 27404 27405 27406 27407 27408 27409 27410 27411 27412 27413 27414 27415 27416 27417 27418 27419 27420 27421 27422 27423 27424 27425 27426 27427 27428 27429 27430 27431 27432 27433 27434 27435 27436 27437 27438 27439 27440 27441 27442 27443 27444 27445 27446 27447 27448 27449 27450 27451 27452 27453 27454 27455 27456 27457 27458 27459 27460 27461 27462 27463 27464 27465 27466 27467 27468 27469 27470 27471 27472 27473 27474 27475 27476 27477 27478 27479 27480 27481 27482 27483 27484 27485 27486 27487 27488 27489 27490 27491 27492 27493 27494 27495 27496 27497 27498 27499 27500 27501 27502 27503 27504 27505 27506 27507 27508 27509 27510 27511 27512 27513 27514 27515 27516 27517 27518 27519 27520 27521 27522 27523 27524 27525 27526 27527 27528 27529 27530 27531 27532 27533 27534 27535 27536 27537 27538 27539 27540 27541 27542 27543 27544 27545 27546 27547 27548 27549 27550 27551 27552 27553 27554 27555 27556 27557 27558 27559 27560 27561 27562 27563 27564 27565 27566 27567 27568 27569 27570 27571 27572 27573 27574 27575 27576 27577 27578 27579 27580 27581 27582 27583 27584 27585 27586 27587 27588 27589 27590 27591 27592 27593 27594 27595 27596 27597 27598 27599 27600 27601 27602 27603 27604 27605 27606 27607 27608 27609 27610 27611 27612 27613 27614 27615 27616 27617 27618 27619 27620 27621 27622 27623 27624 27625 27626 27627 27628 27629 27630 27631 27632 27633 27634 27635 27636 27637 27638 27639 27640 27641 27642 27643 27644 27645 27646 27647 27648 27649 27650 27651 27652 27653 27654 27655 27656 27657 27658 27659 27660 27661 27662 27663 27664 27665 27666 27667 27668 27669 27670 27671 27672 27673 27674 27675 27676 27677 27678 27679 27680 27681 27682 27683 27684 27685 27686 27687 27688 27689 27690 27691 27692 27693 27694 27695 27696 27697 27698 27699 27700 27701 27702 27703 27704 27705 27706 27707 27708 27709 27710 27711 27712 27713 27714 27715 27716 27717 27718 27719 27720 27721 27722 27723 27724 27725 27726 27727 27728 27729 27730 27731 27732 27733 27734 27735 27736 27737 27738 27739 27740 27741 27742 27743 27744 27745 27746 27747 27748 27749 27750 27751 27752 27753 27754 27755 27756 27757 27758 27759 27760 27761 27762 27763 27764 27765 27766 27767 27768 27769 27770 27771 27772 27773 27774 27775 27776 27777 27778 27779 27780 27781 27782 27783 27784 27785 27786 27787 27788 27789 27790 27791 27792 27793 27794 27795 27796 27797 27798 27799 27800 27801 27802 27803 27804 27805 27806 27807 27808 27809 27810 27811 27812 27813 27814 27815 27816 27817 27818 27819 27820 27821 27822 27823 27824 27825 27826 27827 27828 27829 27830 27831 27832 27833 27834 27835 27836 27837 27838 27839 27840 27841 27842 27843 27844 27845 27846 27847 27848 27849 27850 27851 27852 27853 27854 27855 27856 27857 27858 27859 27860 27861 27862 27863 27864 27865 27866 27867 27868 27869 27870 27871 27872 27873 27874 27875 27876 27877 27878 27879 27880 27881 27882 27883 27884 27885 27886 27887 27888 27889 27890 27891 27892 27893 27894 27895 27896 27897 27898 27899 27900 27901 27902 27903 27904 27905 27906 27907 27908 27909 27910 27911 27912 27913 27914 27915 27916 27917 27918 27919 27920 27921 27922 27923 27924 27925 27926 27927 27928 27929 27930 27931 27932 27933 27934 27935 27936 27937 27938 27939 27940 27941 27942 27943 27944 27945 27946 27947 27948 27949 27950 27951 27952 27953 27954 27955 27956 27957 27958 27959 27960 27961 27962 27963 27964 27965 27966 27967 27968 27969 27970 27971 27972 27973 27974 27975 27976 27977 27978 27979 27980 27981 27982 27983 27984 27985 27986 27987 27988 27989 27990 27991 27992 27993 27994 27995 27996 27997 27998 27999 28000 28001 28002 28003 28004 28005 28006 28007 28008 28009 28010 28011 28012 28013 28014 28015 28016 28017 28018 28019 28020 28021 28022 28023 28024 28025 28026 28027 28028 28029 28030 28031 28032 28033 28034 28035 28036 28037 28038 28039 28040 28041 28042 28043 28044 28045 28046 28047 28048 28049 28050 28051 28052 28053 28054 28055 28056 28057 28058 28059 28060 28061 28062 28063 28064 28065 28066 28067 28068 28069 28070 28071 28072 28073 28074 28075 28076 28077 28078 28079 28080 28081 28082 28083 28084 28085 28086 28087 28088 28089 28090 28091 28092 28093 28094 28095 28096 28097 28098 28099 28100 28101 28102 28103 28104 28105 28106 28107 28108 28109 28110 28111 28112 28113 28114 28115 28116 28117 28118 28119 28120 28121 28122 28123 28124 28125 28126 28127 28128 28129 28130 28131 28132 28133 28134 28135 28136 28137 28138 28139 28140 28141 28142 28143 28144 28145 28146 28147 28148 28149 28150 28151 28152 28153 28154 28155 28156 28157 28158 28159 28160 28161 28162 28163 28164 28165 28166 28167 28168 28169 28170 28171 28172 28173 28174 28175 28176 28177 28178 28179 28180 28181 28182 28183 28184 28185 28186 28187 28188 28189 28190 28191 28192 28193 28194 28195 28196 28197 28198 28199 28200 28201 28202 28203 28204 28205 28206 28207 28208 28209 28210 28211 28212 28213 28214 28215 28216 28217 28218 28219 28220 28221 28222 28223 28224 28225 28226 28227 28228 28229 28230 28231 28232 28233 28234 28235 28236 28237 28238 28239 28240 28241 28242 28243 28244 28245 28246 28247 28248 28249 28250 28251 28252 28253 28254 28255 28256 28257 28258 28259 28260 28261 28262 28263 28264 28265 28266 28267 28268 28269 28270 28271 28272 28273 28274 28275 28276 28277 28278 28279 28280 28281 28282 28283 28284 28285 28286 28287 28288 28289 28290 28291 28292 28293 28294 28295 28296 28297 28298 28299 28300 28301 28302 28303 28304 28305 28306 28307 28308 28309 28310 28311 28312 28313 28314 28315 28316 28317 28318 28319 28320 28321 28322 28323 28324 28325 28326 28327 28328 28329 28330 28331 28332 28333 28334 28335 28336 28337 28338 28339 28340 28341 28342 28343 28344 28345 28346 28347 28348 28349 28350 28351 28352 28353 28354 28355 28356 28357 28358 28359 28360 28361 28362 28363 28364 28365 28366 28367 28368 28369 28370 28371 28372 28373 28374 28375 28376 28377 28378 28379 28380 28381 28382 28383 28384 28385 28386 28387 28388 28389 28390 28391 28392 28393 28394 28395 28396 28397 28398 28399 28400 28401 28402 28403 28404 28405 28406 28407 28408 28409 28410 28411 28412 28413 28414 28415 28416 28417 28418 28419 28420 28421 28422 28423 28424 28425 28426 28427 28428 28429 28430 28431 28432 28433 28434 28435 28436 28437 28438 28439 28440 28441 28442 28443 28444 28445 28446 28447 28448 28449 28450 28451 28452 28453 28454 28455 28456 28457 28458 28459 28460 28461 28462 28463 28464 28465 28466 28467 28468 28469 28470 28471 28472 28473 28474 28475 28476 28477 28478 28479 28480 28481 28482 28483 28484 28485 28486 28487 28488 28489 28490 28491 28492 28493 28494 28495 28496 28497 28498 28499 28500 28501 28502 28503 28504 28505 28506 28507 28508 28509 28510 28511 28512 28513 28514 28515 28516 28517 28518 28519 28520 28521 28522 28523 28524 28525 28526 28527 28528 28529 28530 28531 28532 28533 28534 28535 28536 28537 28538 28539 28540 28541 28542 28543 28544 28545 28546 28547 28548 28549 28550 28551 28552 28553 28554 28555 28556 28557 28558 28559 28560 28561 28562 28563 28564 28565 28566 28567 28568 28569 28570 28571 28572 28573 28574 28575 28576 28577 28578 28579 28580 28581 28582 28583 28584 28585 28586 28587 28588 28589 28590 28591 28592 28593 28594 28595 28596 28597 28598 28599 28600 28601 28602 28603 28604 28605 28606 28607 28608 28609 28610 28611 28612 28613 28614 28615 28616 28617 28618 28619 28620 28621 28622 28623 28624 28625 28626 28627 28628 28629 28630 28631 28632 28633 28634 28635 28636 28637 28638 28639 28640 28641 28642 28643 28644 28645 28646 28647 28648 28649 28650 28651 28652 28653 28654 28655 28656 28657 28658 28659 28660 28661 28662 28663 28664 28665 28666 28667 28668 28669 28670 28671 28672 28673 28674 28675 28676 28677 28678 28679 28680 28681 28682 28683 28684 28685 28686 28687 28688 28689 28690 28691 28692 28693 28694 28695 28696 28697 28698 28699 28700 28701 28702 28703 28704 28705 28706 28707 28708 28709 28710 28711 28712 28713 28714 28715 28716 28717 28718 28719 28720 28721 28722 28723 28724 28725 28726 28727 28728 28729 28730 28731 28732 28733 28734 28735 28736 28737 28738 28739 28740 28741 28742 28743 28744 28745 28746 28747 28748 28749 28750 28751 28752 28753 28754 28755 28756 28757 28758 28759 28760 28761 28762 28763 28764 28765 28766 28767 28768 28769 28770 28771 28772 28773 28774 28775 28776 28777 28778 28779 28780 28781 28782 28783 28784 28785 28786 28787 28788 28789 28790 28791 28792 28793 28794 28795 28796 28797 28798 28799 28800 28801 28802 28803 28804 28805 28806 28807 28808 28809 28810 28811 28812 28813 28814 28815 28816 28817 28818 28819 28820 28821 28822 28823 28824 28825 28826 28827 28828 28829 28830 28831 28832 28833 28834 28835 28836 28837 28838 28839 28840 28841 28842 28843 28844 28845 28846 28847 28848 28849 28850 28851 28852 28853 28854 28855 28856 28857 28858 28859 28860 28861 28862 28863 28864 28865 28866 28867 28868 28869 28870 28871 28872 28873 28874 28875 28876 28877 28878 28879 28880 28881 28882 28883 28884 28885 28886 28887 28888 28889 28890 28891 28892 28893 28894 28895 28896 28897 28898 28899 28900 28901 28902 28903 28904 28905 28906 28907 28908 28909 28910 28911 28912 28913 28914 28915 28916 28917 28918 28919 28920 28921 28922 28923 28924 28925 28926 28927 28928 28929 28930 28931 28932 28933 28934 28935 28936 28937 28938 28939 28940 28941 28942 28943 28944 28945 28946 28947 28948 28949 28950 28951 28952 28953 28954 28955 28956 28957 28958 28959 28960 28961 28962 28963 28964 28965 28966 28967 28968 28969 28970 28971 28972 28973 28974 28975 28976 28977 28978 28979 28980 28981 28982 28983 28984 28985 28986 28987 28988 28989 28990 28991 28992 28993 28994 28995 28996 28997 28998 28999 29000 29001 29002 29003 29004 29005 29006 29007 29008 29009 29010 29011 29012 29013 29014 29015 29016 29017 29018 29019 29020 29021 29022 29023 29024 29025 29026 29027 29028 29029 29030 29031 29032 29033 29034 29035 29036 29037 29038 29039 29040 29041 29042 29043 29044 29045 29046 29047 29048 29049 29050 29051 29052 29053 29054 29055 29056 29057 29058 29059 29060 29061 29062 29063 29064 29065 29066 29067 29068 29069 29070 29071 29072 29073 29074 29075 29076 29077 29078 29079 29080 29081 29082 29083 29084 29085 29086 29087 29088 29089 29090 29091 29092 29093 29094 29095 29096 29097 29098 29099 29100 29101 29102 29103 29104 29105 29106 29107 29108 29109 29110 29111 29112 29113 29114 29115 29116 29117 29118 29119 29120 29121 29122 29123 29124 29125 29126 29127 29128 29129 29130 29131 29132 29133 29134 29135 29136 29137 29138 29139 29140 29141 29142 29143 29144 29145 29146 29147 29148 29149 29150 29151 29152 29153 29154 29155 29156 29157 29158 29159 29160 29161 29162 29163 29164 29165 29166 29167 29168 29169 29170 29171 29172 29173 29174 29175 29176 29177 29178 29179 29180 29181 29182 29183 29184 29185 29186 29187 29188 29189 29190 29191 29192 29193 29194 29195 29196 29197 29198 29199 29200 29201 29202 29203 29204 29205 29206 29207 29208 29209 29210 29211 29212 29213 29214 29215 29216 29217 29218 29219 29220 29221 29222 29223 29224 29225 29226 29227 29228 29229 29230 29231 29232 29233 29234 29235 29236 29237 29238 29239 29240 29241 29242 29243 29244 29245 29246 29247 29248 29249 29250 29251 29252 29253 29254 29255 29256 29257 29258 29259 29260 29261 29262 29263 29264 29265 29266 29267 29268 29269 29270 29271 29272 29273 29274 29275 29276 29277 29278 29279 29280 29281 29282 29283 29284 29285 29286 29287 29288 29289 29290 29291 29292 29293 29294 29295 29296 29297 29298 29299 29300 29301 29302 29303 29304 29305 29306 29307 29308 29309 29310 29311 29312 29313 29314 29315 29316 29317 29318 29319 29320 29321 29322 29323 29324 29325 29326 29327 29328 29329 29330 29331 29332 29333 29334 29335 29336 29337 29338 29339 29340 29341 29342 29343 29344 29345 29346 29347 29348 29349 29350 29351 29352 29353 29354 29355 29356 29357 29358 29359 29360 29361 29362 29363 29364 29365 29366 29367 29368 29369 29370 29371 29372 29373 29374 29375 29376 29377 29378 29379 29380 29381 29382 29383 29384 29385 29386 29387 29388 29389 29390 29391 29392 29393 29394 29395 29396 29397 29398 29399 29400 29401 29402 29403 29404 29405 29406 29407 29408 29409 29410 29411 29412 29413 29414 29415 29416 29417 29418 29419 29420 29421 29422 29423 29424 29425 29426 29427 29428 29429 29430 29431 29432 29433 29434 29435 29436 29437 29438 29439 29440 29441 29442 29443 29444 29445 29446 29447 29448 29449 29450 29451 29452 29453 29454 29455 29456 29457 29458 29459 29460 29461 29462 29463 29464 29465 29466 29467 29468 29469 29470 29471 29472 29473 29474 29475 29476 29477 29478 29479 29480 29481 29482 29483 29484 29485 29486 29487 29488 29489 29490 29491 29492 29493 29494 29495 29496 29497 29498 29499 29500 29501 29502 29503 29504 29505 29506 29507 29508 29509 29510 29511 29512 29513 29514 29515 29516 29517 29518 29519 29520 29521 29522 29523 29524 29525 29526 29527 29528 29529 29530 29531 29532 29533 29534 29535 29536 29537 29538 29539 29540 29541 29542 29543 29544 29545 29546 29547 29548 29549 29550 29551 29552 29553 29554 29555 29556 29557 29558 29559 29560 29561 29562 29563 29564 29565 29566 29567 29568 29569 29570 29571 29572 29573 29574 29575 29576 29577 29578 29579 29580 29581 29582 29583 29584 29585 29586 29587 29588 29589 29590 29591 29592 29593 29594 29595 29596 29597 29598 29599 29600 29601 29602 29603 29604 29605 29606 29607 29608 29609 29610 29611 29612 29613 29614 29615 29616 29617 29618 29619 29620 29621 29622 29623 29624 29625 29626 29627 29628 29629 29630 29631 29632 29633 29634 29635 29636 29637 29638 29639 29640 29641 29642 29643 29644 29645 29646 29647 29648 29649 29650 29651 29652 29653 29654 29655 29656 29657 29658 29659 29660 29661 29662 29663 29664 29665 29666 29667 29668 29669 29670 29671 29672 29673 29674 29675 29676 29677 29678 29679 29680 29681 29682 29683 29684 29685 29686 29687 29688 29689 29690 29691 29692 29693 29694 29695 29696 29697 29698 29699 29700 29701 29702 29703 29704 29705 29706 29707 29708 29709 29710 29711 29712 29713 29714 29715 29716 29717 29718 29719 29720 29721 29722 29723 29724 29725 29726 29727 29728 29729 29730 29731 29732 29733 29734 29735 29736 29737 29738 29739 29740 29741 29742 29743 29744 29745 29746 29747 29748 29749 29750 29751 29752 29753 29754 29755 29756 29757 29758 29759 29760 29761 29762 29763 29764 29765 29766 29767 29768 29769 29770 29771 29772 29773 29774 29775 29776 29777 29778 29779 29780 29781 29782 29783 29784 29785 29786 29787 29788 29789 29790 29791 29792 29793 29794 29795 29796 29797 29798 29799 29800 29801 29802 29803 29804 29805 29806 29807 29808 29809 29810 29811 29812 29813 29814 29815 29816 29817 29818 29819 29820 29821 29822 29823 29824 29825 29826 29827 29828 29829 29830 29831 29832 29833 29834 29835 29836 29837 29838 29839 29840 29841 29842 29843 29844 29845 29846 29847 29848 29849 29850 29851 29852 29853 29854 29855 29856 29857 29858 29859 29860 29861 29862 29863 29864 29865 29866 29867 29868 29869 29870 29871 29872 29873 29874 29875 29876 29877 29878 29879 29880 29881 29882 29883 29884 29885 29886 29887 29888 29889 29890 29891 29892 29893 29894 29895 29896 29897 29898 29899 29900 29901 29902 29903 29904 29905 29906 29907 29908 29909 29910 29911 29912 29913 29914 29915 29916 29917 29918 29919 29920 29921 29922 29923 29924 29925 29926 29927 29928 29929 29930 29931 29932 29933 29934 29935 29936 29937 29938 29939 29940 29941 29942 29943 29944 29945 29946 29947 29948 29949 29950 29951 29952 29953 29954 29955 29956 29957 29958 29959 29960 29961 29962 29963 29964 29965 29966 29967 29968 29969 29970 29971 29972 29973 29974 29975 29976 29977 29978 29979 29980 29981 29982 29983 29984 29985 29986 29987 29988 29989 29990 29991 29992 29993 29994 29995 29996 29997 29998 29999 30000 30001 30002 30003 30004 30005 30006 30007 30008 30009 30010 30011 30012 30013 30014 30015 30016 30017 30018 30019 30020 30021 30022 30023 30024 30025 30026 30027 30028 30029 30030 30031 30032 30033 30034 30035 30036 30037 30038 30039 30040 30041 30042 30043 30044 30045 30046 30047 30048 30049 30050 30051 30052 30053 30054 30055 30056 30057 30058 30059 30060 30061 30062 30063 30064 30065 30066 30067 30068 30069 30070 30071 30072 30073 30074 30075 30076 30077 30078 30079 30080 30081 30082 30083 30084 30085 30086 30087 30088 30089 30090 30091 30092 30093 30094 30095 30096 30097 30098 30099 30100 30101 30102 30103 30104 30105 30106 30107 30108 30109 30110 30111 30112 30113 30114 30115 30116 30117 30118 30119 30120 30121 30122 30123 30124 30125 30126 30127 30128 30129 30130 30131 30132 30133 30134 30135 30136 30137 30138 30139 30140 30141 30142 30143 30144 30145 30146 30147 30148 30149 30150 30151 30152 30153 30154 30155 30156 30157 30158 30159 30160 30161 30162 30163 30164 30165 30166 30167 30168 30169 30170 30171 30172 30173 30174 30175 30176 30177 30178 30179 30180 30181 30182 30183 30184 30185 30186 30187 30188 30189 30190 30191 30192 30193 30194 30195 30196 30197 30198 30199 30200 30201 30202 30203 30204 30205 30206 30207 30208 30209 30210 30211 30212 30213 30214 30215 30216 30217 30218 30219 30220 30221 30222 30223 30224 30225 30226 30227 30228 30229 30230 30231 30232 30233 30234 30235 30236 30237 30238 30239 30240 30241 30242 30243 30244 30245 30246 30247 30248 30249 30250 30251 30252 30253 30254 30255 30256 30257 30258 30259 30260 30261 30262 30263 30264 30265 30266 30267 30268 30269 30270 30271 30272 30273 30274 30275 30276 30277 30278 30279 30280 30281 30282 30283 30284 30285 30286 30287 30288 30289 30290 30291 30292 30293 30294 30295 30296 30297 30298 30299 30300 30301 30302 30303 30304 30305 30306 30307 30308 30309 30310 30311 30312 30313 30314 30315 30316 30317 30318 30319 30320 30321 30322 30323 30324 30325 30326 30327 30328 30329 30330 30331 30332 30333 30334 30335 30336 30337 30338 30339 30340 30341 30342 30343 30344 30345 30346 30347 30348 30349 30350 30351 30352 30353 30354 30355 30356 30357 30358 30359 30360 30361 30362 30363 30364 30365 30366 30367 30368 30369 30370 30371 30372 30373 30374 30375 30376 30377 30378 30379 30380 30381 30382 30383 30384 30385 30386 30387 30388 30389 30390 30391 30392 30393 30394 30395 30396 30397 30398 30399 30400 30401 30402 30403 30404 30405 30406 30407 30408 30409 30410 30411 30412 30413 30414 30415 30416 30417 30418 30419 30420 30421 30422 30423 30424 30425 30426 30427 30428 30429 30430 30431 30432 30433 30434 30435 30436 30437 30438 30439 30440 30441 30442 30443 30444 30445 30446 30447 30448 30449 30450 30451 30452 30453 30454 30455 30456 30457 30458 30459 30460 30461 30462 30463 30464 30465 30466 30467 30468 30469 30470 30471 30472 30473 30474 30475 30476 30477 30478 30479 30480 30481 30482 30483 30484 30485 30486 30487 30488 30489 30490 30491 30492 30493 30494 30495 30496 30497 30498 30499 30500 30501 30502 30503 30504 30505 30506 30507 30508 30509 30510 30511 30512 30513 30514 30515 30516 30517 30518 30519 30520 30521 30522 30523 30524 30525 30526 30527 30528 30529 30530 30531 30532 30533 30534 30535 30536 30537 30538 30539 30540 30541 30542 30543 30544 30545 30546 30547 30548 30549 30550 30551 30552 30553 30554 30555 30556 30557 30558 30559 30560 30561 30562 30563 30564 30565 30566 30567 30568 30569 30570 30571 30572 30573 30574 30575 30576 30577 
</DataArray>
<DataArray type="UInt32" Name="offsets" format="ascii">
3 6 9 12 15 18 20 23 26 29 31 34 37 40 42 45 48 51 54 57 60 62 64 67 70 73 76 78 80 83 85 87 90 92 95 98 101 103 106 109 111 114 117 120 123 126 129 132 134 137 140 143 146 149 152 155 158 160 163 166 168 171 173 176 178 181 183 186 189 192 195 198 201 204 207 210 213 216 219 222 225 228 231 233 236 239 242 245 248 251 254 257 259 262 265 267 269 272 275 278 281 284 287 290 293 296 299 302 305 307 310 313 316 319 322 324 327 330 332 335 338 341 344 347 350 353 356 359 362 365 368 371 374 377 380 383 386 389 391 394 397 400 403 406 408 411 414 417 420 423 426 429 432 435 438 441 444 447 450 453 456 459 462 465 468 471 474 477 480 482 485 487 490 493 496 498 501 504 507 509 512 515 518 520 522 525 528 530 533 536 539 542 544 547 550 553 556 559 561 564 567 570 573 575 578 580 583 586 588 591 594 597 599 602 605 607 610 613 616 619 622 625 628 631 634 637 639 642 645 647 650 653 656 659 662 665 668 670 673 676 679 682 685 688 691 694 697 700 703 706 709 712 715 718 721 724 727 730 733 735 738 740 743 746 749 752 755 757 760 763 766 769 772 775 778 781 783 786 789 792 794 797 800 802 805 808 811 814 816 819 822 824 827 830 833 836 839 841 844 846 849 852 855 858 861 864 867 870 873 876 879 882 885 888 891 894 897 900 902 905 908 911 914 917 919 921 924 927 930 933 936 939 942 945 948 951 953 956 959 962 965 968 971 974 977 980 982 985 988 990 992 995 998 1001 1003 1006 1009 1011 1014 1017 1020 1023 1026 1029 1032 1035 1038 1041 1044 1047 1050 1053 1056 1058 1061 1064 1067 1070 1073 1076 1079 1082 1084 1087 1090 1092 1095 1098 1101 1104 1106 1109 1112 1115 1118 1121 1124 1127 1130 1133 1136 1139 1142 1145 1148 1150 1152 1155 1158 1160 1162 1165 1167 1170 1172 1175 1177 1180 1183 1185 1188 1191 1194 1197 1200 1203 1206 1209 1212 1214 1216 1219 1222 1224 1227 1230 1233 1236 1239 1241 1244 1247 1249 1252 1255 1258 1261 1263 1266 1269 1272 1274 1277 1280 1283 1285 1288 1290 1293 1296 1298 1301 1304 1307 1310 1313 1316 1319 1322 1325 1328 1331 1333 1336 1339 1342 1345 1348 1351 1353 1356 1359 1362 1364 1367 1370 1373 1376 1379 1382 1385 1387 1390 1393 1396 1399 1402 1404 1407 1409 1412 1415 1418 1421 1424 1426 1428 1431 1434 1437 1439 1441 1444 1446 1449 1452 1455 1458 1461 1464 1467 1469 1472 1475 1478 1481 1484 1487 1490 1493 1496 1499 1502 1505 1508 1511 1513 1516 1519 1521 1524 1526 1529 1532 1535 1538 1541 1544 1547 1550 1553 1556 1559 1562 1565 1568 1570 1573 1576 1579 1582 1585 1588 1591 1594 1597 1600 1603 1606 1609 1612 1615 1618 1620 1623 1626 1629 1632 1635 1638 1641 1644 1647 1650 1653 1655 1657 1660 1663 1666 1669 1672 1675 1678 1681 1684 1687 1690 1693 1696 1699 1702 1705 1707 1710 1713 1716 1719 1722 1725 1728 1730 1733 1736 1739 1742 1745 1748 1751 1754 1756 1759 1762 1765 1767 1770 1773 1776 1779 1782 1785 1788 1791 1794 1797 1800 1803 1806 1809 1812 1815 1818 1821 1824 1827 1830 1833 1836 1839 1842 1845 1848 1851 1853 1856 1858 1861 1864 1867 1870 1873 1876 1879 1882 1885 1888 1891 1894 1897 1899 1902 1905 1908 1910 1913 1916 1919 1922 1925 1928 1931 1934 1937 1940 1943 1946 1949 1951 1953 1956 1959 1962 1965 1968 1971 1974 1976 1979 1982 1985 1988 1991 1994 1997 2000 2003 2006 2009 2011 2014 2017 2020 2023 2026 2029 2032 2034 2037 2040 2043 2046 2049 2052 2055 2058 2061 2064 2067 2070 2073 2076 2079 2082 2085 2087 2090 2093 2096 2099 2102 2105 2108 2111 2114 2117 2119 2122 2125 2128 2131 2134 2136 2139 2142 2145 2147 2150 2153 2156 2159 2161 2164 2167 2170 2173 2176 2179 2182 2184 2187 2189 2192 2195 2197 2200 2202 2205 2208 2211 2214 2217 2220 2223 2226 2229 2232 2235 2238 2241 2244 2247 2250 2253 2256 2259 2262 2265 2268 2271 2274 2277 2280 2283 2286 2289 2292 2295 2298 2301 2304 2307 2309 2312 2314 2316 2319 2322 2325 2328 2331 2334 2337 2340 2343 2346 2349 2351 2354 2357 2360 2363 2366 2369 2372 2374 2377 2379 2382 2384 2387 2390 2393 2396 2399 2402 2404 2407 2409 2411 2414 2417 2420 2423 2426 2429 2432 2435 2438 2441 2444 2447 2450 2453 2456 2459 2462 2464 2467 2470 2473 2476 2479 2482 2485 2488 2491 2494 2497 2500 2503 2506 2508 2511 2514 2517 2520 2523 2526 2529 2532 2535 2538 2541 2544 2547 2549 2552 2555 2558 2561 2564 2567 2570 2573 2576 2578 2581 2584 2587 2590 2593 2595 2597 2600 2603 2606 2609 2611 2613 2616 2619 2622 2625 2628 2631 2634 2637 2640 2643 2646 2648 2651 2654 2657 2660 2662 2665 2668 2671 2674 2677 2680 2682 2685 2688 2690 2693 2695 2698 2701 2704 2706 2709 2712 2715 2718 2721 2724 2727 2729 2732 2735 2738 2741 2743 2745 2748 2751 2753 2756 2759 2762 2764 2766 2768 2770 2773 2776 2778 2781 2784 2787 2790 2793 2796 2799 2802 2804 2806 2809 2812 2815 2818 2821 2824 2826 2829 2831 2834 2837 2840 2842 2845 2848 2851 2854 2857 2860 2863 2866 2869 2872 2875 2878 2881 2884 2887 2890 2893 2896 2899 2902 2905 2908 2911 2914 2917 2920 2923 2926 2928 2931 2934 2937 2940 2943 2946 2949 2952 2955 2958 2961 2964 2967 2970 2973 2976 2979 2982 2985 2988 2991 2993 2996 2999 3002 3005 3008 3011 3014 3017 3020 3022 3025 3028 3031 3034 3037 3040 3042 3045 3048 3051 3054 3057 3059 3062 3065 3068 3071 3074 3076 3079 3082 3085 3088 3091 3094 3097 3100 3103 3106 3108 3111 3114 3117 3120 3122 3124 3127 3130 3132 3135 3138 3141 3144 3146 3149 3152 3154 3157 3160 3163 3166 3169 3171 3173 3176 3179 3182 3185 3188 3191 3193 3196 3199 3202 3205 3208 3211 3214 3216 3218 3221 3224 3227 3229 3232 3235 3238 3240 3243 3246 3248 3251 3253 3256 3259 3262 3264 3267 3270 3272 3274 3277 3280 3283 3286 3289 3292 3294 3297 3299 3302 3304 3307 3310 3313 3315 3317 3320 3322 3325 3328 3331 3334 3337 3340 3343 3346 3349 3352 3355 3358 3361 3364 3367 3370 3372 3375 3378 3381 3384 3387 3390 3393 3395 3398 3401 3404 3407 3410 3412 3415 3418 3421 3423 3426 3429 3432 3435 3437 3440 3442 3445 3447 3450 3453 3456 3459 3461 3464 3467 3469 3472 3475 3478 3481 3484 3487 3490 3493 3496 3499 3502 3504 3507 3510 3513 3516 3518 3521 3524 3527 3530 3532 3535 3538 3541 3544 3547 3550 3552 3555 3558 3561 3563 3566 3568 3570 3573 3576 3579 3582 3585 3588 3591 3594 3597 3600 3603 3606 3609 3612 3615 3618 3621 3624 3627 3630 3633 3636 3639 3642 3645 3648 3651 3654 3656 3659 3662 3664 3666 3669 3671 3674 3677 3680 3683 3685 3688 3691 3693 3696 3699 3702 3705 3708 3711 3714 3717 3720 3723 3726 3729 3732 3735 3738 3741 3744 3747 3750 3753 3756 3759 3762 3765 3768 3771 3774 3777 3779 3782 3785 3788 3791 3794 3797 3800 3803 3805 3808 3811 3814 3817 3820 3823 3826 3828 3831 3833 3836 3839 3842 3844 3847 3850 3853 3856 3859 3862 3865 3867 3870 3872 3875 3878 3881 3884 3887 3889 3892 3895 3898 3901 3904 3907 3910 3913 3916 3919 3922 3925 3928 3931 3934 3937 3940 3943 3946 3949 3952 3955 3958 3961 3964 3967 3970 3973 3976 3979 3982 3985 3988 3991 3994 3997 4000 4003 4006 4008 4010 4013 4016 4018 4021 4024 4027 4029 4032 4035 4038 4040 4042 4045 4048 4050 4053 4056 4059 4062 4065 4068 4071 4074 4077 4080 4083 4086 4089 4092 4095 4098 4101 4104 4107 4110 4113 4115 4118 4120 4123 4126 4129 4132 4135 4138 4141 4144 4147 4150 4153 4156 4159 4162 4165 4168 4171 4174 4177 4180 4183 4186 4189 4192 4195 4198 4201 4204 4207 4210 4213 4216 4219 4222 4225 4228 4231 4234 4237 4240 4243 4246 4249 4252 4255 4257 4260 4262 4265 4267 4270 4273 4275 4278 4281 4284 4287 4290 4293 4296 4299 4302 4305 4308 4311 4314 4317 4320 4323 4326 4329 4332 4335 4338 4341 4344 4347 4350 4353 4356 4358 4361 4364 4367 4370 4373 4376 4379 4382 4385 4388 4391 4394 4397 4400 4403 4406 4409 4412 4415 4418 4421 4424 4427 4430 4433 4436 4439 4442 4445 4448 4451 4454 4457 4460 4463 4466 4469 4472 4475 4478 4481 4484 4487 4490 4493 4496 4499 4502 4505 4507 4510 4513 4516 4519 4521 4524 4527 4530 4533 4536 4539 4542 4545 4547 4550 4553 4556 4559 4562 4564 4566 4568 4571 4574 4577 4580 4582 4584 4587 4590 4592 4595 4598 4601 4604 4607 4610 4613 4616 4619 4622 4625 4628 4631 4634 4636 4638 4641 4643 4646 4649 4652 4655 4658 4661 4664 4667 4670 4673 4676 4679 4682 4685 4688 4691 4694 4697 4699 4702 4705 4708 4711 4714 4717 4719 4722 4725 4728 4731 4734 4737 4740 4743 4746 4749 4752 4755 4758 4761 4764 4767 4770 4773 4775 4778 4781 4784 4787 4790 4793 4796 4799 4802 4804 4807 4810 4812 4815 4818 4821 4824 4827 4830 4833 4836 4839 4842 4845 4848 4851 4854 4857 4860 4862 4865 4867 4870 4873 4876 4879 4881 4884 4886 4889 4892 4894 4896 4899 4902 4904 4907 4910 4913 4915 4918 4921 4924 4927 4930 4933 4935 4938 4941 4944 4946 4949 4952 4955 4958 4960 4963 4966 4969 4972 4975 4978 4981 4983 4986 4989 4992 4995 4998 5000 5003 5006 5008 5011 5014 5017 5020 5023 5026 5029 5031 5034 5037 5040 5042 5044 5047 5050 5053 5055 5058 5061 5064 5067 5070 5072 5074 5076 5079 5082 5085 5088 5091 5094 5097 5100 5103 5105 5107 5110 5112 5115 5118 5121 5124 5127 5129 5132 5135 5137 5140 5142 5145 5148 5151 5153 5156 5159 5161 5164 5167 5170 5173 5176 5179 5182 5184 5187 5190 5192 5194 5197 5200 5202 5205 5207 5210 5213 5215 5218 5221 5223 5226 5228 5231 5234 5237 5239 5242 5245 5247 5250 5252 5255 5258 5260 5263 5265 5268 5271 5274 5277 5279 5281 5284 5287 5290 5293 5296 5299 5302 5305 5308 5310 5313 5316 5319 5322 5325 5328 5331 5334 5337 5340 5343 5346 5349 5352 5355 5358 5361 5364 5366 5368 5371 5374 5377 5379 5382 5385 5388 5391 5393 5396 5399 5401 5404 5407 5410 5412 5415 5418 5420 5423 5426 5429 5432 5434 5437 5440 5443 5446 5449 5451 5454 5457 5460 5462 5464 5467 5470 5472 5475 5478 5481 5484 5487 5489 5491 5494 5497 5500 5503 5505 5508 5511 5514 5517 5519 5522 5525 5528 5531 5534 5537 5540 5543 5546 5549 5552 5555 5558 5561 5564 5567 5570 5573 5576 5579 5582 5585 5588 5591 5594 5597 5600 5603 5605 5608 5611 5614 5617 5620 5623 5626 5629 5632 5635 5638 5640 5643 5646 5649 5652 5654 5657 5660 5663 5665 5668 5671 5673 5676 5679 5682 5685 5688 5690 5693 5696 5699 5702 5705 5708 5711 5714 5717 5720 5723 5726 5729 5732 5735 5738 5741 5744 5747 5750 5752 5755 5758 5761 5764 5767 5769 5772 5775 5778 5781 5784 5787 5790 5792 5795 5798 5801 5804 5807 5810 5813 5816 5819 5822 5825 5828 5831 5833 5836 5839 5842 5845 5848 5850 5852 5855 5858 5861 5864 5866 5869 5871 5874 5877 5880 5882 5884 5887 5890 5892 5895 5898 5901 5903 5906 5909 5912 5915 5917 5920 5923 5925 5927 5930 5933 5936 5939 5942 5945 5947 5950 5953 5955 5958 5961 5964 5967 5969 5972 5975 5978 5981 5984 5987 5990 5993 5996 5999 6002 6005 6008 6011 6014 6017 6020 6023 6026 6028 6031 6033 6036 6039 6042 6044 6047 6049 6052 6054 6057 6060 6062 6065 6068 6070 6072 6074 6077 6080 6083 6085 6088 6091 6094 6097 6100 6103 6105 6108 6111 6114 6117 6120 6123 6126 6128 6131 6133 6136 6139 6142 6145 6148 6151 6154 6156 6159 6162 6165 6168 6171 6174 6177 6180 6183 6186 6189 6191 6194 6197 6199 6202 6205 6208 6211 6214 6217 6220 6223 6226 6229 6232 6235 6238 6241 6244 6247 6249 6252 6255 6258 6261 6264 6267 6270 6273 6276 6279 6282 6285 6288 6291 6294 6297 6300 6303 6306 6309 6312 6314 6317 6320 6323 6325 6328 6331 6334 6337 6340 6343 6346 6349 6352 6355 6357 6360 6363 6366 6369 6372 6375 6378 6381 6384 6387 6389 6392 6395 6398 6401 6404 6407 6409 6412 6415 6418 6420 6423 6426 6429 6432 6435 6438 6441 6444 6447 6450 6453 6456 6459 6462 6465 6468 6471 6474 6477 6480 6483 6485 6488 6491 6494 6497 6500 6502 6505 6508 6510 6513 6516 6519 6522 6525 6528 6530 6533 6536 6539 6542 6544 6547 6550 6553 6556 6559 6562 6565 6568 6571 6574 6577 6580 6583 6586 6589 6592 6595 6598 6600 6603 6606 6609 6612 6615 6617 6620 6623 6626 6628 6631 6633 6636 6639 6642 6645 6648 6651 6654 6656 6659 6662 6665 6667 6669 6672 6675 6678 6681 6684 6686 6689 6692 6695 6697 6700 6703 6706 6709 6712 6715 6718 6721 6724 6727 6730 6733 6736 6739 6742 6744 6747 6750 6753 6756 6759 6762 6764 6767 6770 6773 6776 6779 6782 6785 6788 6791 6794 6797 6799 6802 6805 6808 6811 6814 6817 6820 6823 6826 6828 6831 6834 6837 6840 6842 6844 6847 6850 6853 6856 6859 6862 6865 6868 6870 6872 6875 6877 6880 6883 6886 6889 6892 6894 6897 6900 6903 6906 6909 6912 6914 6917 6919 6922 6925 6928 6931 6934 6937 6940 6943 6946 6949 6951 6954 6957 6960 6963 6966 6969 6971 6974 6977 6980 6983 6986 6989 6992 6995 6997 7000 7003 7006 7009 7012 7014 7017 7020 7022 7025 7028 7031 7034 7037 7040 7042 7045 7048 7051 7054 7057 7060 7063 7066 7068 7071 7074 7077 7080 7082 7085 7088 7091 7094 7097 7100 7103 7106 7109 7112 7114 7117 7120 7123 7126 7129 7132 7135 7138 7141 7143 7146 7149 7152 7155 7157 7160 7163 7166 7169 7172 7175 7178 7181 7183 7186 7188 7191 7194 7197 7199 7202 7205 7208 7211 7214 7217 7220 7223 7225 7228 7231 7234 7236 7239 7242 7245 7247 7250 7253 7255 7258 7261 7264 7267 7270 7273 7276 7279 7282 7285 7288 7291 7294 7297 7300 7303 7306 7309 7312 7315 7318 7321 7324 7327 7330 7333 7336 7339 7342 7345 7348 7351 7354 7357 7360 7363 7366 7369 7372 7375 7378 7381 7384 7387 7390 7393 7396 7399 7402 7405 7408 7411 7414 7416 7419 7422 7425 7427 7430 7433 7436 7439 7442 7445 7447 7450 7452 7455 7458 7461 7464 7466 7468 7471 7474 7477 7480 7483 7486 7489 7492 7495 7498 7501 7504 7507 7510 7513 7516 7519 7522 7525 7528 7531 7534 7536 7539 7542 7544 7547 7550 7553 7555 7558 7561 7564 7567 7570 7573 7576 7579 7582 7585 7588 7591 7594 7597 7599 7602 7604 7607 7609 7612 7615 7618 7621 7624 7627 7630 7633 7636 7639 7642 7645 7648 7651 7654 7657 7660 7662 7665 7668 7671 7674 7677 7680 7683 7686 7689 7692 7695 7698 7701 7704 7707 7710 7713 7716 7719 7722 7725 7728 7731 7734 7737 7740 7743 7746 7749 7752 7755 7758 7761 7763 7766 7769 7772 7775 7778 7781 7783 7786 7789 7791 7794 7796 7799 7802 7804 7807 7810 7813 7815 7818 7821 7824 7827 7830 7833 7836 7839 7842 7845 7848 7851 7854 7857 7860 7863 7866 7869 7872 7875 7878 7881 7884 7887 7890 7892 7895 7898 7901 7904 7906 7909 7912 7914 7917 7920 7923 7926 7929 7932 7935 7938 7941 7944 7947 7950 7953 7956 7959 7962 7965 7968 7971 7974 7977 7980 7983 7986 7989 7992 7995 7998 8001 8004 8006 8009 8012 8015 8017 8020 8023 8026 8029 8031 8034 8037 8040 8043 8046 8048 8051 8054 8057 8060 8062 8065 8068 8071 8074 8077 8080 8083 8086 8089 8092 8095 8098 8101 8104 8106 8108 8111 8113 8116 8118 8121 8124 8127 8130 8133 8136 8139 8142 8145 8148 8151 8154 8157 8160 8163 8166 8169 8172 8175 8178 8181 8184 8187 8190 8193 8195 8197 8200 8203 8205 8208 8211 8213 8216 8219 8222 8225 8228 8231 8234 8237 8240 8243 8246 8248 8251 8254 8256 8259 8262 8265 8268 8271 8274 8277 8280 8283 8286 8289 8292 8295 8298 8300 8302 8305 8307 8309 8312 8315 8318 8321 8323 8326 8329 8332 8334 8336 8339 8342 8345 8348 8351 8354 8357 8359 8362 8365 8368 8371 8374 8377 8380 8383 8386 8389 8392 8395 8398 8401 8404 8407 8409 8412 8415 8418 8421 8423 8426 8429 8432 8435 8438 8441 8444 8446 8449 8452 8455 8458 8461 8464 8467 8469 8472 8475 8477 8480 8483 8486 8489 8492 8495 8498 8501 8504 8507 8510 8513 8516 8519 8522 8524 8527 8530 8533 8536 8539 8542 8545 8548 8550 8553 8556 8559 8562 8565 8568 8571 8573 8576 8579 8582 8585 8588 8590 8593 8596 8599 8602 8604 8607 8610 8613 8616 8619 8622 8625 8628 8631 8634 8637 8640 8642 8645 8648 8651 8654 8657 8660 8663 8666 8669 8672 8675 8678 8681 8684 8686 8689 8692 8695 8698 8701 8704 8707 8710 8713 8716 8719 8722 8725 8727 8729 8732 8735 8737 8740 8743 8746 8749 8751 8754 8757 8760 8762 8765 8768 8770 8773 8776 8779 8782 8784 8787 8790 8793 8796 8799 8802 8805 8808 8811 8814 8817 8820 8823 8826 8829 8832 8835 8838 8841 8844 8847 8850 8853 8856 8859 8862 8865 8868 8871 8874 8877 8880 8883 8886 8888 8891 8894 8897 8899 8902 8904 8907 8910 8913 8916 8919 8922 8925 8928 8931 8934 8937 8940 8943 8946 8948 8951 8954 8957 8960 8963 8966 8969 8972 8974 8977 8980 8983 8985 8988 8991 8994 8997 9000 9003 9006 9008 9011 9013 9016 9019 9022 9025 9028 9031 9034 9037 9040 9043 9046 9049 9052 9055 9057 9060 9063 9065 9068 9071 9074 9077 9080 9083 9086 9088 9091 9094 9097 9100 9103 9106 9109 9112 9115 9118 9121 9124 9127 9130 9133 9136 9139 9142 9145 9148 9151 9154 9157 9160 9163 9166 9169 9171 9174 9177 9179 9182 9185 9188 9190 9193 9196 9198 9201 9204 9207 9210 9213 9216 9219 9222 9225 9228 9231 9234 9237 9240 9243 9246 9249 9252 9255 9257 9260 9263 9266 9269 9272 9275 9278 9281 9284 9287 9290 9293 9296 9298 9301 9304 9307 9310 9313 9316 9319 9322 9325 9328 9331 9334 9337 9340 9343 9346 9349 9352 9355 9357 9360 9363 9366 9369 9372 9375 9378 9381 9384 9387 9390 9393 9396 9399 9402 9405 9407 9410 9413 9415 9418 9421 9424 9426 9429 9432 9434 9437 9440 9443 9446 9449 9452 9455 9458 9461 9464 9467 9470 9473 9476 9478 9481 9484 9486 9489 9492 9495 9498 9501 9504 9507 9510 9513 9516 9519 9522 9525 9528 9531 9534 9537 9540 9543 9546 9549 9552 9555 9558 9561 9564 9567 9570 9573 9576 9579 9582 9585 9588 9591 9594 9596 9599 9602 9605 9608 9610 9613 9616 9619 9622 9625 9628 9631 9634 9637 9640 9643 9646 9649 9652 9655 9657 9660 9662 9664 9667 9670 9672 9675 9677 9680 9683 9686 9689 9692 9695 9698 9701 9703 9706 9709 9711 9714 9717 9720 9723 9725 9727 9730 9732 9735 9738 9741 9744 9747 9750 9753 9756 9759 9762 9765 9768 9771 9774 9777 9780 9783 9786 9789 9792 9795 9797 9800 9803 9806 9809 9812 9815 9818 9821 9824 9827 9830 9833 9836 9839 9842 9845 9848 9851 9854 9857 9860 9863 9866 9869 9872 9874 9877 9880 9883 9886 9889 9891 9894 9897 9900 9903 9906 9909 9912 9915 9918 9920 9923 9926 9929 9932 9935 9938 9941 9944 9947 9950 9953 9956 9959 9962 9965 9968 9971 9973 9975 9978 9981 9983 9986 9989 9992 9994 9997 10000 10003 10006 10009 10012 10015 10018 10021 10024 10026 10029 10032 10034 10037 10039 10042 10045 10048 10051 10053 10056 10059 10062 10064 10067 10070 10073 10076 10079 10082 10084 10087 10090 10093 10096 10099 10102 10104 10107 10110 10113 10116 10119 10122 10125 10128 10131 10134 10137 10140 10143 10146 10148 10151 10154 10156 10159 10162 10165 10167 10169 10172 10175 10178 10181 10184 10187 10190 10193 10196 10199 10201 10204 10207 10210 10212 10215 10218 10221 10224 10226 10229 10232 10235 10238 10241 10244 10247 10250 10252 10255 10258 10261 10264 10267 10269 10271 10274 10277 10280 10282 10285 10287 10289 10292 10295 10298 10301 10304 10306 10309 10312 10315 10318 10321 10324 10326 10329 10332 10335 10338 10341 10344 10347 10349 10352 10355 10357 10360 10363 10365 10368 10371 10374 10377 10380 10383 10386 10389 10392 10395 10398 10401 10404 10407 10409 10412 10415 10418 10420 10423 10426 10428 10431 10434 10437 10440 10442 10445 10448 10451 10454 10457 10460 10463 10466 10468 10471 10474 10477 10480 10482 10485 10488 10491 10494 10497 10500 10503 10506 10508 10511 10514 10517 10520 10523 10526 10529 10532 10535 10537 10540 10543 10546 10548 10551 10554 10556 10559 10562 10564 10567 10570 10573 10576 10579 10582 10585 10588 10591 10593 10596 10599 10602 10605 10608 10611 10614 10617 10620 10623 10626 10629 10632 10635 10638 10641 10643 10646 10649 10652 10655 10658 10661 10664 10667 10670 10673 10676 10679 10682 10685 10688 10691 10694 10697 10700 10703 10706 10709 10712 10715 10718 10721 10723 10726 10728 10731 10734 10737 10740 10743 10746 10749 10752 10755 10758 10760 10763 10766 10768 10771 10774 10777 10780 10783 10786 10789 10792 10795 10798 10801 10804 10807 10810 10813 10816 10819 10822 10825 10828 10831 10833 10836 10839 10842 10845 10848 10851 10854 10857 10860 10862 10865 10867 10870 10873 10876 10879 10882 10885 10888 10890 10893 10895 10898 10901 10904 10907 10910 10913 10916 10919 10922 10925 10928 10930 10933 10936 10939 10942 10944 10947 10949 10952 10955 10958 10961 10964 10967 10969 10972 10975 10977 10980 10983 10985 10988 10991 10994 10996 10998 11000 11003 11006 11009 11012 11015 11018 11021 11024 11027 11030 11033 11036 11039 11041 11044 11047 11050 11053 11056 11059 11062 11064 11067 11069 11072 11074 11077 11080 11082 11084 11087 11090 11093 11096 11099 11102 11104 11107 11110 11113 11116 11118 11121 11123 11126 11128 11131 11133 11136 11139 11142 11145 11147 11150 11153 11156 11159 11162 11164 11167 11170 11173 11176 11179 11182 11185 11188 11191 11194 11197 11200 11203 11206 11208 11211 11214 11217 11220 11223 11225 11228 11231 11234 11236 11239 11242 11245 11248 11251 11254 11257 11260 11263 11266 11269 11272 11275 11278 11281 11284 11287 11289 11292 11295 11298 11301 11303 11306 11309 11312 11315 11318 11321 11323 11326 11329 11332 11335 11338 11341 11344 11347 11350 11353 11355 11358 11361 11363 11366 11368 11371 11374 11377 11380 11383 11386 11389 11392 11395 11398 11401 11403 11406 11409 11412 11415 11418 11421 11423 11426 11428 11430 11433 11435 11438 11441 11444 11447 11450 11453 11456 11458 11461 11464 11467 11470 11473 11476 11479 11482 11485 11488 11491 11494 11497 11500 11503 11506 11508 11511 11514 11517 11520 11523 11526 11529 11532 11535 11538 11540 11543 11546 11549 11552 11555 11558 11561 11564 11567 11570 11572 11575 11578 11581 11584 11586 11589 11592 11595 11598 11601 11603 11606 11609 11612 11615 11617 11620 11623 11626 11629 11632 11635 11638 11641 11644 11647 11650 11653 11656 11659 11662 11665 11668 11671 11673 11676 11679 11682 11685 11688 11691 11694 11697 11699 11702 11704 11706 11709 11712 11715 11718 11721 11723 11726 11729 11732 11735 11738 11741 11744 11747 11750 11753 11756 11759 11762 11765 11767 11770 11773 11775 11778 11780 11782 11785 11788 11791 11794 11797 11800 11802 11805 11808 11811 11814 11816 11819 11821 11824 11827 11829 11832 11835 11838 11841 11844 11847 11849 11851 11854 11857 11860 11863 11866 11869 11872 11875 11878 11881 11884 11887 11890 11893 11896 11898 11901 11904 11907 11910 11913 11916 11919 11921 11924 11926 11929 11932 11935 11937 11940 11942 11945 11948 11951 11954 11957 11960 11963 11966 11968 11971 11974 11977 11980 11983 11985 11988 11990 11993 11996 11999 12002 12004 12007 12010 12013 12016 12019 12021 12024 12027 12030 12033 12036 12039 12042 12045 12048 12051 12054 12057 12060 12063 12066 12069 12072 12075 12078 12081 12084 12087 12090 12093 12095 12098 12101 12104 12106 12109 12111 12114 12117 12120 12122 12125 12128 12131 12134 12137 12140 12143 12146 12149 12152 12155 12158 12161 12164 12167 12170 12173 12175 12177 12179 12181 12184 12187 12190 12193 12196 12199 12201 12204 12207 12210 12212 12215 12218 12221 12224 12227 12230 12233 12236 12239 12242 12244 12246 12248 12251 12254 12256 12258 12261 12264 12267 12270 12273 12276 12279 12282 12285 12287 12290 12293 12296 12299 12302 12305 12308 12311 12313 12315 12318 12321 12324 12326 12329 12332 12335 12338 12341 12344 12347 12350 12353 12356 12359 12361 12364 12366 12369 12372 12375 12378 12381 12383 12385 12388 12391 12393 12395 12398 12401 12404 12407 12410 12413 12416 12419 12422 12425 12428 12431 12434 12437 12440 12443 12446 12449 12452 12455 12458 12461 12464 12467 12470 12473 12476 12479 12482 12485 12488 12491 12494 12497 12500 12503 12506 12509 12512 12515 12518 12521 12523 12525 12528 12531 12534 12537 12540 12543 12546 12549 12552 12555 12558 12561 12564 12567 12570 12573 12576 12579 12582 12585 12587 12590 12593 12596 12599 12602 12605 12608 12611 12614 12617 12620 12623 12626 12629 12632 12635 12637 12640 12642 12645 12648 12651 12654 12657 12660 12663 12666 12668 12671 12674 12677 12680 12683 12686 12689 12692 12695 12698 12701 12703 12706 12709 12711 12714 12717 12719 12722 12725 12728 12731 12733 12736 12739 12742 12745 12747 12750 12753 12755 12758 12760 12763 12766 12769 12772 12775 12777 12780 12783 12786 12789 12792 12795 12798 12800 12803 12806 12809 12812 12815 12818 12821 12824 12827 12830 12833 12836 12839 12842 12845 12848 12851 12854 12857 12860 12863 12866 12869 12872 12874 12877 12880 12883 12885 12888 12891 12893 12896 12899 12902 12904 12907 12910 12913 12916 12918 12921 12923 12926 12929 12932 12935 12938 12941 12944 12947 12949 12952 12955 12958 12961 12964 12967 12970 12973 12976 12979 12981 12984 12987 12989 12992 12995 12997 13000 13003 13005 13007 13010 13013 13016 13019 13022 13025 13028 13030 13032 13035 13038 13041 13043 13046 13049 13051 13053 13056 13059 13062 13064 13066 13069 13071 13074 13077 13079 13082 13085 13088 13091 13093 13096 13098 13100 13103 13106 13109 13111 13114 13116 13118 13121 13123 13125 13127 13129 13132 13134 13137 13139 13142 13144 13147 13150 13153 13155 13158 13161 13163 13166 13168 13170 13173 13176 13179 13182 13184 13187 13189 13191 13194 13197 13200 13202 13204 13207 13210 13212 13214 13217 13220 13223 13226 13228 13231 13234 13237 13240 13242 13245 13248 13251 13254 13256 13259 13261 13264 13266 13269 13271 13274 13276 13279 13281 13284 13287 13290 13293 13296 13298 13301 13304 13306 13308 13310 13313 13316 13318 13320 13323 13325 13328 13331 13333 13336 13339 13342 13345 13348 13351 13353 13356 13359 13361 13364 13366 13369 13372 13375 13378 13380 13383 13385 13388 13390 13393 13396 13399 13401 13404 13407 13409 13412 13414 13417 13419 13422 13425 13428 13431 13434 13436 13439 13442 13445 13448 13451 13454 13457 13460 13463 13466 13468 13471 13474 13477 13480 13482 13485 13488 13490 13493 13496 13499 13502 13505 13507 13510 13513 13515 13518 13521 13524 13526 13529 13531 13534 13537 13540 13542 13545 13548 13551 13554 13556 13559 13562 13565 13568 13570 13572 13575 13578 13581 13584 13587 13590 13592 13595 13598 13600 13603 13606 13609 13612 13615 13618 13621 13624 13627 13630 13633 13636 13639 13642 13645 13648 13651 13654 13657 13660 13663 13666 13669 13672 13675 13678 13681 13684 13687 13690 13693 13696 13699 13702 13705 13708 13711 13714 13717 13720 13723 13726 13729 13732 13735 13738 13741 13744 13747 13750 13753 13756 13759 13762 13765 13768 13771 13774 13776 13779 13782 13785 13788 13791 13794 13797 13800 13803 13806 13809 13812 13814 13817 13820 13822 13825 13828 13831 13833 13836 13839 13842 13845 13848 13851 13854 13857 13860 13863 13866 13869 13872 13875 13878 13880 13883 13886 13889 13892 13895 13898 13901 13904 13907 13910 13913 13916 13919 13922 13925 13928 13930 13933 13936 13939 13942 13945 13948 13951 13954 13957 13960 13963 13966 13969 13971 13974 13977 13979 13982 13985 13987 13990 13992 13995 13998 14001 14004 14007 14010 14013 14015 14018 14021 14024 14027 14030 14033 14036 14039 14042 14045 14048 14051 14053 14056 14059 14062 14064 14067 14070 14073 14076 14079 14082 14085 14088 14091 14093 14096 14099 14102 14105 14108 14111 14113 14116 14119 14122 14125 14128 14131 14133 14136 14139 14142 14144 14147 14150 14153 14156 14159 14162 14165 14167 14170 14173 14176 14179 14182 14185 14188 14191 14194 14197 14199 14202 14205 14208 14211 14214 14217 14220 14223 14226 14229 14232 14235 14238 14241 14244 14247 14249 14252 14254 14257 14260 14263 14266 14269 14272 14275 14278 14281 14284 14286 14289 14291 14294 14297 14300 14303 14306 14309 14312 14315 14318 14321 14324 14326 14329 14332 14335 14338 14341 14344 14347 14350 14353 14356 14359 14361 14364 14367 14370 14373 14376 14379 14382 14384 14387 14390 14393 14396 14399 14402 14405 14407 14410 14413 14416 14419 14422 14425 14428 14431 14434 14437 14440 14442 14445 14448 14451 14454 14457 14460 14463 14466 14468 14471 14473 14476 14479 14482 14485 14488 14491 14494 14497 14500 14503 14505 14508 14511 14514 14516 14519 14522 14525 14528 14531 14534 14537 14540 14543 14545 14548 14551 14554 14557 14560 14563 14566 14569 14572 14575 14578 14581 14584 14587 14590 14593 14595 14598 14601 14604 14607 14610 14613 14616 14619 14622 14625 14628 14631 14634 14637 14640 14643 14646 14649 14651 14654 14657 14659 14662 14665 14667 14670 14673 14676 14679 14682 14684 14687 14690 14693 14696 14699 14702 14705 14708 14711 14714 14717 14720 14723 14726 14729 14732 14735 14738 14741 14744 14747 14750 14753 14756 14759 14762 14765 14768 14771 14774 14777 14780 14783 14786 14789 14792 14795 14798 14801 14804 14807 14810 14813 14816 14819 14822 14825 14828 14831 14834 14837 14840 14843 14846 14849 14852 14855 14858 14861 14863 14866 14869 14871 14874 14877 14880 14883 14886 14889 14892 14895 14898 14901 14904 14907 14910 14913 14916 14919 14922 14925 14928 14931 14934 14937 14940 14943 14945 14947 14950 14953 14956 14959 14962 14965 14968 14971 14974 14977 14980 14983 14986 14989 14992 14995 14997 14999 15002 15005 15008 15011 15014 15017 15020 15022 15025 15027 15030 15033 15035 15037 15040 15043 15046 15049 15052 15055 15058 15061 15064 15067 15070 15072 15075 15077 15080 15083 15086 15088 15091 15094 15097 15099 15102 15104 15107 15110 15113 15116 15119 15121 15123 15126 15129 15132 15135 15138 15141 15144 15147 15150 15153 15156 15159 15162 15165 15168 15171 15174 15177 15180 15183 15186 15189 15192 15195 15198 15201 15204 15207 15210 15213 15216 15219 15222 15225 15228 15231 15234 15237 15240 15243 15246 15249 15252 15255 15258 15261 15264 15267 15270 15273 15276 15279 15282 15285 15288 15291 15294 15297 15300 15303 15306 15309 15312 15315 15318 15321 15324 15327 15330 15333 15336 15339 15342 15345 15348 15351 15354 15357 15360 15363 15366 15369 15372 15375 15378 15381 15384 15387 15390 15393 15396 15399 15402 15405 15408 15411 15414 15417 15420 15423 15426 15429 15432 15435 15437 15439 15442 15444 15447 15449 15452 15455 15457 15460 15463 15466 15469 15471 15474 15477 15480 15483 15486 15489 15492 15494 15496 15498 15501 15504 15507 15510 15513 15515 15517 15520 15523 15526 15529 15532 15535 15538 15541 15544 15547 15550 15553 15556 15559 15562 15565 15568 15571 15574 15577 15580 15583 15586 15589 15592 15595 15598 15601 15604 15607 15610 15613 15616 15619 15621 15624 15627 15629 15632 15635 15638 15641 15644 15647 15650 15653 15656 15659 15662 15664 15667 15670 15673 15676 15679 15682 15685 15687 15690 15693 15696 15699 15702 15705 15708 15711 15714 15717 15720 15723 15726 15729 15732 15735 15737 15740 15743 15745 15748 15751 15754 15757 15760 15763 15766 15769 15772 15775 15778 15781 15784 15787 15790 15793 15796 15799 15802 15805 15808 15811 15814 15816 15819 15822 15824 15827 15830 15832 15835 15838 15841 15844 15847 15850 15853 15855 15858 15861 15864 15867 15870 15873 15875 15878 15881 15883 15886 15889 15892 15895 15897 15900 15902 15905 15908 15910 15913 15916 15919 15922 15924 15927 15929 15932 15935 15937 15940 15943 15946 15949 15952 15955 15958 15961 15964 15967 15970 15973 15975 15978 15981 15984 15986 15989 15992 15994 15997 16000 16003 16006 16008 16011 16014 16017 16020 16023 16026 16029 16032 16035 16038 16040 16043 16046 16049 16052 16055 16058 16061 16064 16067 16070 16072 16075 16078 16081 16084 16087 16090 16093 16096 16099 16102 16105 16108 16110 16113 16116 16118 16121 16124 16127 16130 16133 16136 16139 16142 16145 16148 16150 16153 16156 16159 16162 16165 16167 16170 16172 16174 16177 16180 16182 16185 16188 16191 16194 16197 16200 16203 16206 16209 16211 16213 16216 16219 16222 16225 16228 16231 16233 16236 16239 16242 16245 16248 16251 16254 16257 16260 16263 16266 16269 16272 16275 16278 16281 16284 16287 16290 16293 16296 16299 16302 16305 16308 16310 16313 16316 16319 16322 16325 16328 16331 16334 16337 16340 16343 16346 16349 16352 16355 16358 16361 16364 16367 16370 16373 16376 16379 16382 16385 16388 16391 16394 16397 16400 16403 16406 16409 16412 16415 16418 16421 16424 16427 16430 16432 16435 16438 16441 16444 16447 16450 16453 16456 16459 16462 16464 16467 16470 16473 16475 16478 16480 16483 16486 16489 16491 16494 16497 16500 16502 16505 16507 16510 16512 16515 16517 16519 16522 16525 16527 16530 16533 16536 16538 16541 16544 16547 16550 16553 16555 16558 16561 16564 16567 16569 16572 16575 16578 16580 16583 16586 16589 16592 16594 16597 16599 16602 16605 16608 16611 16614 16617 16620 16623 16626 16629 16632 16635 16638 16641 16643 16646 16649 16652 16655 16657 16660 16663 16665 16668 16671 16673 16675 16678 16681 16683 16686 16688 16691 16694 16697 16699 16701 16703 16705 16708 16711 16713 16716 16719 16722 16725 16727 16730 16732 16735 16738 16740 16742 16744 16747 16749 16752 16755 16757 16759 16761 16764 16767 16770 16773 16776 16779 16782 16785 16788 16790 16792 16795 16798 16801 16804 16806 16808 16811 16814 16817 16819 16822 16824 16827 16830 16833 16836 16839 16842 16845 16848 16851 16854 16857 16859 16862 16865 16868 16871 16874 16877 16880 16883 16886 16889 16892 16895 16898 16901 16904 16907 16910 16913 16916 16919 16922 16925 16928 16930 16933 16936 16939 16942 16945 16948 16951 16954 16957 16960 16963 16966 16969 16972 16975 16978 16980 16983 16986 16988 16991 16994 16997 17000 17003 17006 17009 17012 17015 17017 17020 17023 17026 17028 17030 17033 17036 17038 17041 17044 17047 17050 17053 17055 17058 17060 17063 17066 17069 17071 17074 17077 17080 17083 17086 17089 17092 17094 17097 17100 17102 17105 17108 17111 17114 17116 17119 17122 17125 17127 17129 17132 17135 17137 17140 17143 17146 17148 17151 17154 17157 17160 17163 17166 17169 17171 17174 17177 17179 17182 17184 17186 17188 17191 17193 17196 17198 17200 17203 17206 17209 17212 17215 17218 17220 17223 17226 17228 17231 17234 17237 17240 17243 17246 17249 17252 17255 17258 17261 17264 17267 17270 17273 17276 17279 17282 17285 17288 17291 17294 17297 17300 17303 17306 17309 17312 17315 17318 17321 17324 17327 17330 17333 17335 17337 17340 17343 17346 17349 17352 17355 17358 17361 17363 17365 17367 17369 17372 17375 17377 17380 17383 17386 17389 17392 17395 17398 17401 17403 17406 17409 17411 17414 17417 17420 17422 17425 17428 17431 17434 17436 17439 17442 17445 17448 17451 17454 17457 17460 17463 17466 17469 17472 17475 17478 17480 17483 17486 17489 17492 17495 17497 17500 17503 17506 17509 17512 17515 17518 17521 17523 17526 17529 17532 17534 17536 17539 17542 17544 17546 17549 17552 17555 17558 17561 17563 17566 17569 17572 17575 17578 17581 17583 17586 17588 17591 17594 17597 17600 17603 17606 17609 17612 17614 17616 17619 17621 17623 17625 17628 17630 17633 17636 17639 17642 17645 17648 17650 17653 17656 17659 17662 17665 17668 17671 17673 17676 17679 17682 17685 17688 17691 17694 17697 17700 17703 17706 17709 17712 17715 17718 17721 17724 17727 17730 17733 17736 17739 17742 17745 17748 17751 17754 17757 17760 17763 17766 17769 17772 17775 17778 17781 17784 17787 17790 17793 17796 17799 17802 17805 17808 17811 17814 17817 17820 17823 17826 17829 17832 17835 17838 17841 17844 17846 17849 17852 17855 17858 17861 17864 17867 17869 17872 17875 17877 17880 17883 17886 17888 17891 17893 17896 17899 17901 17904 17907 17910 17913 17916 17919 17922 17924 17927 17930 17933 17935 17938 17941 17944 17947 17950 17953 17956 17958 17961 17963 17966 17969 17972 17975 17978 17981 17984 17987 17990 17993 17996 17999 18002 18005 18008 18011 18014 18017 18020 18023 18026 18029 18032 18035 18038 18040 18042 18045 18047 18050 18053 18056 18059 18062 18065 18068 18070 18073 18075 18078 18080 18082 18084 18087 18090 18092 18095 18098 18100 18103 18106 18109 18111 18114 18117 18120 18123 18126 18129 18132 18134 18136 18139 18142 18144 18147 18150 18153 18155 18158 18161 18164 18167 18169 18172 18174 18177 18180 18183 18186 18189 18192 18194 18197 18199 18202 18205 18208 18211 18214 18216 18219 18222 18224 18227 18230 18233 18236 18239 18242 18245 18248 18251 18254 18257 18260 18263 18266 18269 18272 18274 18277 18280 18282 18284 18287 18289 18292 18295 18298 18301 18304 18307 18310 18313 18315 18318 18321 18324 18327 18330 18333 18336 18339 18342 18345 18348 18351 18354 18357 18360 18363 18365 18368 18371 18374 18376 18379 18382 18384 18387 18390 18393 18396 18399 18402 18404 18407 18410 18413 18416 18419 18422 18425 18428 18431 18434 18437 18440 18443 18446 18449 18452 18455 18458 18461 18463 18465 18468 18471 18474 18477 18480 18483 18486 18488 18491 18494 18497 18499 18502 18505 18507 18510 18512 18515 18518 18520 18523 18525 18527 18530 18532 18535 18537 18540 18542 18545 18548 18551 18554 18557 18560 18563 18566 18569 18572 18575 18578 18581 18584 18587 18589 18591 18594 18597 18600 18603 18606 18609 18612 18614 18617 18620 18623 18626 18629 18632 18635 18638 18641 18644 18647 18650 18653 18656 18659 18661 18664 18666 18669 18672 18675 18678 18681 18684 18686 18689 18692 18695 18697 18700 18703 18706 18708 18711 18714 18717 18720 18723 18726 18729 18732 18735 18738 18741 18744 18747 18750 18753 18756 18759 18762 18765 18768 18771 18773 18776 18779 18782 18785 18787 18790 18793 18796 18799 18802 18804 18807 18810 18813 18815 18818 18821 18824 18827 18830 18833 18836 18839 18842 18845 18848 18851 18853 18856 18859 18862 18865 18867 18870 18873 18876 18879 18882 18885 18888 18891 18893 18896 18899 18902 18905 18908 18911 18914 18916 18919 18922 18925 18928 18930 18933 18936 18939 18942 18945 18948 18951 18954 18956 18959 18962 18965 18968 18971 18974 18977 18980 18983 18985 18988 18991 18994 18997 19000 19003 19006 19009 19012 19015 19018 19021 19024 19027 19030 19033 19036 19039 19042 19045 19048 19051 19054 19057 19060 19063 19066 19069 19071 19074 19077 19080 19083 19086 19089 19092 19094 19097 19100 19103 19106 19109 19112 19115 19118 19121 19124 19127 19130 19133 19136 19139 19142 19145 19148 19151 19154 19157 19160 19163 19166 19169 19172 19175 19178 19181 19183 19186 19189 19192 19195 19198 19201 19204 19207 19210 19213 19216 19219 19222 19225 19228 19231 19234 19237 19240 19243 19246 19249 19252 19255 19258 19261 19264 19267 19270 19273 19276 19279 19281 19284 19287 19289 19292 19295 19298 19301 19303 19306 19309 19311 19314 19317 19320 19323 19325 19328 19331 19334 19336 19339 19342 19345 19347 19350 19353 19356 19359 19362 19365 19368 19371 19374 19377 19379 19382 19385 19387 19390 19393 19396 19399 19402 19405 19407 19410 19413 19416 19419 19422 19424 19427 19430 19433 19436 19438 19441 19444 19447 19450 19453 19456 19459 19462 19465 19468 19470 19473 19476 19479 19482 19485 19488 19491 19494 19497 19499 19502 19505 19508 19511 19514 19517 19520 19523 19526 19529 19532 19535 19538 19540 19543 19546 19549 19552 19555 19558 19561 19563 19566 19569 19572 19575 19578 19580 19583 19586 19589 19592 19595 19598 19601 19604 19607 19610 19613 19616 19619 19622 19624 19627 19630 19633 19636 19639 19642 19645 19648 19650 19653 19656 19659 19662 19665 19668 19671 19674 19677 19680 19683 19686 19689 19692 19695 19698 19701 19704 19707 19710 19713 19716 19719 19722 19725 19728 19731 19734 19737 19740 19743 19746 19749 19751 19754 19757 19760 19763 19765 19767 19770 19773 19775 19778 19781 19783 19786 19789 19791 19794 19797 19800 19803 19806 19809 19812 19815 19818 19821 19824 19827 19830 19833 19836 19839 19842 19845 19848 19850 19853 19856 19859 19862 19864 19867 19870 19873 19876 19879 19882 19885 19888 19891 19894 19897 19900 19903 19906 19909 19912 19915 19918 19921 19924 19927 19930 19933 19936 19939 19942 19945 19948 19951 19954 19957 19960 19963 19966 19969 19972 19975 19978 19981 19984 19987 19990 19993 19996 19999 20002 20005 20008 20011 20014 20017 20020 20023 20026 20029 20032 20035 20038 20041 20044 20047 20050 20053 20056 20059 20062 20065 20068 20071 20074 20077 20079 20082 20085 20088 20091 20093 20096 20098 20101 20104 20106 20109 20112 20115 20118 20120 20123 20126 20128 20131 20134 20137 20140 20143 20146 20149 20152 20155 20158 20161 20164 20167 20170 20173 20176 20179 20182 20185 20188 20191 20194 20197 20200 20203 20206 20209 20212 20215 20218 20221 20224 20227 20230 20233 20236 20239 20242 20245 20248 20251 20254 20257 20260 20263 20266 20269 20272 20275 20278 20281 20284 20287 20290 20293 20296 20299 20302 20305 20308 20310 20313 20316 20319 20322 20325 20328 20331 20334 20337 20339 20342 20345 20348 20351 20354 20357 20360 20362 20365 20368 20371 20374 20377 20380 20383 20386 20389 20392 20395 20398 20401 20404 20407 20410 20413 20416 20419 20421 20423 20426 20429 20431 20434 20436 20439 20442 20445 20448 20451 20454 20457 20460 20463 20466 20469 20472 20475 20478 20481 20484 20487 20490 20493 20496 20499 20502 20505 20508 20511 20514 20517 20520 20523 20526 20529 20532 20535 20538 20541 20544 20547 20550 20553 20556 20559 20562 20565 20568 20571 20574 20577 20580 20583 20586 20589 20592 20595 20598 20601 20603 20605 20608 20611 20614 20617 20620 20623 20626 20629 20632 20635 20638 20641 20644 20647 20650 20653 20656 20659 20662 20665 20667 20670 20673 20676 20679 20682 20685 20688 20691 20694 20697 20699 20702 20705 20708 20710 20713 20716 20719 20722 20725 20728 20730 20733 20736 20739 20742 20745 20748 20751 20754 20757 20760 20763 20766 20769 20771 20774 20777 20780 20783 20786 20789 20791 20793 20796 20798 20801 20804 20806 20809 20812 20815 20817 20820 20823 20826 20828 20831 20834 20837 20840 20843 20845 20848 20850 20853 20856 20859 20862 20864 20867 20870 20873 20876 20878 20881 20883 20886 20889 20891 20893 20896 20899 20902 20905 20908 20910 20913 20916 20919 20922 20925 20927 20929 20931 20934 20936 20939 20941 20944 20947 20950 20953 20956 20958 20961 20964 20967 20970 20973 20976 20979 20982 20984 20986 20989 20992 20994 20997 21000 21003 21006 21008 21011 21014 21016 21019 21022 21024 21027 21030 21033 21036 21039 21042 21045 21048 21051 21053 21056 21059 21062 21065 21068 21071 21074 21077 21079 21082 21085 21088 21091 21094 21097 21100 21103 21106 21108 21110 21113 21116 21119 21122 21125 21128 21131 21134 21137 21140 21143 21146 21149 21152 21155 21158 21161 21164 21167 21170 21173 21176 21179 21182 21185 21188 21191 21194 21197 21200 21203 21206 21209 21212 21215 21217 21220 21223 21226 21229 21231 21234 21237 21240 21243 21246 21249 21252 21255 21258 21261 21264 21267 21270 21273 21276 21279 21281 21283 21286 21289 21292 21295 21298 21301 21304 21307 21310 21312 21315 21318 21321 21324 21326 21329 21332 21334 21337 21340 21343 21346 21349 21352 21355 21358 21361 21364 21367 21370 21373 21375 21378 21381 21384 21387 21390 21393 21396 21399 21402 21405 21408 21411 21414 21417 21420 21423 21426 21429 21432 21435 21438 21441 21444 21447 21450 21452 21455 21458 21461 21464 21467 21469 21472 21475 21478 21480 21483 21486 21489 21491 21493 21496 21499 21502 21505 21508 21511 21514 21517 21520 21523 21526 21529 21532 21535 21537 21540 21543 21546 21548 21551 21554 21557 21560 21562 21564 21567 21570 21573 21576 21579 21582 21585 21588 21591 21594 21597 21600 21603 21606 21609 21612 21615 21618 21621 21624 21627 21630 21633 21635 21638 21641 21644 21647 21650 21653 21656 21659 21662 21664 21667 21670 21673 21676 21678 21681 21683 21686 21689 21692 21695 21697 21700 21703 21706 21709 21712 21715 21718 21721 21724 21727 21730 21733 21736 21739 21742 21744 21747 21750 21752 21755 21758 21761 21764 21767 21770 21773 21776 21779 21782 21784 21786 21789 21792 21795 21798 21800 21803 21806 21809 21811 21814 21817 21820 21823 21825 21827 21830 21832 21835 21837 21840 21842 21845 21848 21850 21853 21856 21858 21861 21864 21866 21869 21872 21875 21877 21880 21883 21885 21888 21890 21893 21895 21898 21901 21903 21906 21909 21912 21915 21918 21921 21924 21927 21930 21933 21936 21939 21942 21944 21947 21950 21953 21956 21959 21962 21965 21968 21971 21974 21977 21980 21983 21986 21989 21992 21994 21996 21999 22002 22005 22008 22011 22013 22016 22019 22022 22025 22027 22030 22033 22035 22038 22041 22044 22047 22049 22052 22055 22058 22061 22064 22067 22070 22073 22076 22079 22082 22085 22088 22091 22094 22097 22100 22103 22106 22109 22112 22115 22118 22121 22124 22127 22130 22133 22136 22139 22142 22145 22148 22151 22154 22157 22160 22163 22165 22168 22171 22174 22177 22180 22183 22186 22189 22192 22195 22198 22201 22204 22206 22209 22211 22214 22217 22220 22223 22225 22228 22231 22234 22237 22240 22243 22246 22249 22252 22255 22258 22261 22264 22267 22270 22273 22276 22279 22281 22284 22286 22289 22292 22294 22297 22300 22303 22305 22308 22311 22314 22317 22320 22323 22326 22329 22332 22335 22338 22341 22344 22347 22350 22353 22356 22359 22362 22365 22368 22371 22374 22377 22380 22383 22386 22388 22391 22394 22396 22399 22402 22405 22408 22411 22414 22417 22420 22423 22426 22429 22432 22435 22438 22441 22444 22447 22450 22453 22456 22459 22462 22465 22468 22471 22474 22477 22480 22483 22486 22489 22492 22495 22498 22501 22503 22506 22508 22511 22514 22517 22520 22523 22526 22529 22532 22535 22538 22541 22544 22547 22550 22553 22556 22559 22561 22563 22566 22569 22572 22575 22578 22580 22583 22586 22589 22592 22594 22597 22600 22603 22606 22608 22611 22614 22617 22620 22623 22626 22629 22632 22635 22638 22641 22644 22647 22650 22653 22656 22659 22662 22664 22667 22670 22673 22676 22679 22682 22684 22687 22690 22692 22695 22698 22701 22704 22707 22710 22713 22716 22719 22722 22725 22728 22730 22733 22736 22738 22741 22744 22747 22750 22753 22756 22759 22762 22764 22767 22770 22773 22776 22779 22782 22784 22787 22790 22792 22795 22798 22801 22804 22807 22810 22813 22816 22819 22822 22825 22828 22831 22834 22837 22840 22843 22846 22849 22852 22855 22858 22861 22864 22867 22870 22873 22876 22879 22882 22885 22888 22891 22894 22897 22900 22902 22905 22908 22911 22913 22916 22919 22921 22924 22927 22930 22933 22936 22939 22941 22944 22947 22950 22953 22956 22958 22961 22964 22967 22970 22973 22976 22978 22981 22984 22987 22990 22992 22995 22997 23000 23003 23005 23008 23011 23014 23016 23019 23022 23025 23028 23031 23034 23037 23040 23043 23046 23049 23052 23055 23057 23060 23063 23066 23069 23072 23075 23078 23081 23084 23087 23090 23093 23096 23099 23102 23105 23108 23111 23114 23117 23120 23123 23126 23129 23131 23134 23136 23139 23141 23144 23146 23149 23152 23155 23158 23160 23163 23166 23169 23172 23174 23177 23180 23183 23186 23189 23192 23195 23198 23201 23204 23207 23210 23213 23216 23218 23221 23224 23227 23229 23232 23235 23238 23240 23243 23246 23248 23251 23254 23257 23259 23262 23265 23268 23271 23273 23276 23279 23282 23285 23287 23290 23293 23296 23299 23302 23305 23308 23311 23314 23317 23319 23322 23325 23328 23331 23334 23336 23339 23341 23344 23347 23350 23353 23356 23358 23360 23363 23366 23368 23371 23373 23376 23379 23381 23384 23387 23390 23393 23396 23399 23402 23405 23408 23411 23414 23417 23420 23422 23425 23428 23431 23434 23437 23439 23442 23445 23448 23451 23454 23457 23460 23463 23466 23469 23471 23474 23476 23479 23482 23484 23487 23490 23492 23495 23497 23500 23502 23505 23508 23511 23514 23517 23519 23521 23524 23527 23530 23533 23536 23539 23542 23545 23548 23551 23554 23556 23559 23562 23565 23568 23571 23573 23576 23579 23582 23584 23587 23589 23592 23595 23598 23601 23604 23607 23610 23613 23616 23619 23622 23625 23628 23631 23634 23636 23639 23642 23645 23648 23650 23653 23656 23659 23662 23665 23668 23671 23674 23677 23680 23683 23686 23689 23692 23695 23698 23701 23704 23707 23710 23713 23716 23719 23721 23724 23727 23729 23732 23735 23738 23741 23744 23747 23750 23752 23755 23758 23760 23763 23765 23768 23771 23774 23777 23780 23783 23786 23789 23792 23794 23797 23800 23802 23805 23808 23811 23813 23816 23819 23822 23825 23828 23831 23834 23836 23839 23842 23845 23848 23850 23852 23855 23858 23861 23864 23867 23870 23873 23876 23879 23881 23884 23887 23890 23893 23896 23899 23902 23905 23908 23911 23914 23917 23920 23923 23926 23929 23931 23934 23936 23939 23942 23945 23947 23950 23953 23956 23959 23962 23965 23968 23971 23974 23977 23980 23983 23986 23988 23991 23994 23997 24000 24003 24005 24008 24011 24014 24016 24018 24021 24024 24027 24029 24032 24035 24037 24040 24043 24046 24049 24051 24053 24056 24059 24062 24064 24067 24070 24072 24075 24078 24081 24084 24086 24089 24091 24094 24097 24100 24102 24105 24108 24111 24114 24117 24120 24123 24126 24129 24132 24135 24138 24141 24144 24147 24150 24153 24156 24159 24162 24165 24167 24170 24173 24176 24179 24182 24185 24188 24191 24194 24196 24199 24202 24205 24207 24210 24212 24215 24218 24221 24224 24227 24230 24233 24236 24239 24242 24245 24247 24250 24253 24256 24259 24262 24264 24267 24270 24273 24276 24279 24281 24284 24287 24290 24293 24296 24299 24302 24305 24308 24311 24314 24317 24320 24323 24326 24329 24331 24334 24337 24340 24343 24346 24349 24352 24355 24358 24360 24363 24366 24369 24372 24375 24378 24381 24384 24387 24390 24393 24396 24399 24402 24405 24407 24410 24413 24416 24419 24422 24425 24428 24431 24434 24437 24440 24443 24446 24449 24452 24455 24458 24461 24464 24467 24470 24473 24476 24479 24482 24485 24488 24491 24494 24496 24499 24502 24505 24508 24510 24513 24515 24517 24520 24523 24526 24529 24532 24535 24537 24540 24542 24545 24548 24551 24553 24556 24559 24561 24564 24567 24570 24573 24576 24579 24581 24584 24587 24590 24593 24596 24599 24602 24604 24607 24610 24613 24616 24618 24621 24624 24627 24630 24633 24636 24638 24641 24644 24647 24650 24653 24656 24659 24662 24665 24668 24671 24674 24676 24679 24681 24684 24687 24690 24693 24696 24699 24702 24704 24706 24709 24712 24715 24718 24721 24724 24727 24730 24732 24735 24738 24741 24743 24746 24749 24751 24754 24757 24760 24763 24766 24769 24772 24775 24778 24781 24784 24787 24790 24793 24796 24799 24802 24805 24808 24811 24814 24817 24820 24823 24826 24828 24831 24834 24836 24839 24842 24845 24848 24851 24853 24856 24859 24861 24864 24866 24869 24872 24875 24877 24880 24883 24886 24889 24891 24894 24897 24899 24901 24904 24907 24910 24913 24916 24918 24921 24924 24926 24929 24932 24935 24938 24941 24943 24946 24949 24952 24955 24958 24961 24964 24967 24970 24972 24975 24978 24981 24984 24986 24989 24992 24995 24998 25001 25004 25006 25009 25011 25014 25017 25020 25022 25025 25027 25030 25033 25035 25038 25040 25043 25046 25049 25051 25054 25057 25060 25063 25066 25069 25072 25075 25078 25081 25084 25087 25090 25092 25095 25098 25101 25104 25106 25109 25112 25115 25118 25121 25124 25126 25129 25132 25135 25138 25141 25144 25147 25149 25152 25155 25158 25161 25164 25167 25169 25172 25175 25178 25181 25184 25187 25190 25192 25195 25198 25200 25203 25206 25209 25212 25215 25218 25221 25224 25227 25229 25231 25234 25237 25240 25243 25246 25249 25252 25255 25258 25261 25264 25267 25269 25272 25275 25278 25281 25284 25287 25290 25292 25295 25298 25301 25303 25306 25308 25311 25314 25316 25319 25322 25325 25328 25331 25333 25336 25339 25342 25344 25347 25350 25353 25356 25358 25361 25364 25367 25369 25372 25375 25378 25381 25384 25387 25390 25392 25395 25398 25400 25403 25406 25409 25411 25414 25417 25420 25422 25425 25428 25431 25434 25436 25439 25442 25445 25447 25450 25453 25456 25459 25462 25465 25468 25471 25474 25476 25479 25482 25485 25488 25491 25494 25497 25500 25503 25505 25508 25511 25514 25517 25519 25522 25525 25527 25530 25533 25536 25539 25542 25545 25548 25551 25554 25557 25560 25563 25566 25569 25572 25575 25578 25581 25584 25587 25590 25593 25596 25599 25602 25605 25607 25610 25613 25616 25619 25622 25625 25628 25631 25634 25637 25640 25642 25645 25648 25651 25653 25656 25659 25662 25665 25668 25671 25673 25676 25679 25682 25685 25688 25691 25694 25697 25700 25703 25706 25709 25712 25715 25718 25721 25724 25727 25730 25733 25736 25739 25742 25745 25748 25751 25753 25756 25758 25761 25764 25766 25768 25771 25774 25777 25780 25783 25786 25789 25792 25795 25798 25801 25804 25807 25810 25813 25816 25819 25821 25824 25827 25830 25833 25836 25839 25842 25845 25848 25851 25854 25857 25860 25863 25866 25869 25872 25875 25878 25881 25884 25887 25890 25893 25896 25899 25902 25905 25908 25911 25914 25917 25920 25923 25926 25929 25932 25935 25938 25941 25944 25947 25950 25953 25956 25959 25962 25965 25968 25971 25974 25977 25980 25983 25986 25989 25992 25995 25998 26001 26004 26006 26009 26012 26014 26017 26020 26023 26026 26028 26031 26034 26037 26040 26043 26046 26049 26052 26055 26058 26060 26063 26065 26068 26071 26074 26076 26079 26082 26085 26087 26090 26092 26095 26098 26101 26103 26106 26108 26111 26113 26116 26119 26122 26124 26127 26130 26133 26136 26138 26141 26143 26146 26149 26152 26155 26158 26160 26163 26165 26167 26170 26173 26176 26179 26182 26185 26187 26190 26193 26196 26198 26201 26204 26207 26210 26213 26216 26219 26222 26225 26228 26231 26234 26237 26240 26243 26246 26249 26252 26255 26257 26260 26263 26266 26268 26270 26273 26276 26279 26282 26285 26287 26290 26293 26296 26299 26302 26305 26308 26311 26314 26317 26320 26323 26326 26329 26331 26334 26337 26339 26342 26344 26347 26350 26353 26355 26358 26360 26363 26366 26368 26371 26374 26377 26380 26383 26386 26389 26392 26395 26398 26401 26403 26406 26409 26412 26415 26418 26421 26424 26427 26430 26433 26435 26437 26440 26443 26446 26449 26452 26455 26458 26460 26463 26466 26469 26472 26475 26478 26481 26484 26487 26490 26493 26496 26499 26502 26504 26507 26510 26513 26516 26519 26522 26525 26528 26531 26534 26536 26539 26542 26545 26547 26550 26552 26554 26557 26560 26563 26566 26569 26572 26575 26578 26580 26583 26586 26589 26592 26595 26598 26601 26604 26607 26609 26612 26614 26617 26619 26622 26625 26628 26631 26634 26637 26640 26643 26645 26648 26650 26653 26656 26659 26662 26665 26668 26670 26673 26676 26678 26681 26683 26686 26689 26692 26695 26698 26701 26704 26707 26710 26713 26716 26719 26722 26725 26727 26730 26733 26736 26739 26742 26745 26748 26751 26754 26757 26759 26762 26765 26768 26771 26774 26777 26779 26782 26785 26788 26791 26794 26797 26800 26803 26806 26809 26812 26815 26818 26821 26824 26827 26830 26833 26836 26839 26842 26845 26848 26851 26854 26856 26859 26862 26865 26868 26871 26873 26876 26879 26882 26885 26888 26891 26894 26897 26900 26903 26906 26908 26911 26914 26917 26920 26922 26925 26928 26931 26934 26937 26939 26942 26945 26948 26951 26954 26956 26959 26962 26964 26967 26970 26973 26976 26979 26982 26985 26988 26991 26994 26997 27000 27003 27006 27009 27012 27015 27018 27021 27024 27027 27030 27033 27036 27039 27042 27044 27047 27050 27052 27055 27058 27061 27064 27067 27070 27073 27076 27079 27082 27085 27088 27091 27094 27097 27099 27102 27105 27108 27111 27114 27117 27120 27123 27126 27128 27131 27134 27137 27140 27143 27146 27149 27151 27154 27157 27160 27163 27166 27168 27171 27174 27177 27180 27183 27186 27188 27191 27194 27197 27200 27202 27205 27208 27211 27214 27217 27220 27223 27225 27228 27231 27233 27236 27239 27241 27244 27247 27250 27253 27255 27258 27261 27264 27267 27270 27273 27276 27279 27281 27284 27287 27289 27292 27295 27298 27301 27304 27307 27310 27313 27316 27318 27321 27324 27327 27330 27333 27335 27338 27341 27344 27347 27349 27352 27355 27358 27360 27363 27366 27369 27372 27375 27378 27381 27384 27387 27390 27393 27395 27397 27400 27403 27406 27409 27412 27415 27418 27421 27424 27427 27430 27432 27435 27438 27441 27444 27447 27449 27452 27454 27456 27459 27461 27463 27466 27469 27471 27474 27477 27480 27483 27486 27489 27491 27494 27496 27498 27501 27504 27507 27510 27513 27515 27518 27521 27524 27527 27530 27533 27536 27539 27541 27544 27547 27550 27553 27555 27558 27561 27564 27567 27570 27572 27575 27578 27580 27583 27586 27589 27592 27595 27598 27601 27603 27606 27608 27611 27614 27617 27620 27623 27626 27629 27631 27633 27636 27639 27642 27645 27648 27651 27654 27656 27659 27662 27665 27668 27671 27674 27676 27679 27682 27685 27688 27691 27694 27697 27700 27703 27706 27709 27712 27715 27718 27720 27723 27726 27728 27731 27734 27737 27740 27742 27745 27748 27751 27754 27756 27759 27762 27765 27768 27771 27774 27776 27779 27782 27785 27788 27791 27794 27797 27799 27802 27805 27808 27810 27813 27816 27819 27822 27824 27827 27830 27832 27835 27838 27841 27844 27847 27850 27853 27855 27858 27861 27864 27867 27869 27872 27874 27877 27880 27883 27886 27889 27892 27895 27898 27901 27904 27907 27910 27913 27916 27918 27921 27924 27927 27930 27933 27936 27939 27941 27944 27947 27949 27952 27955 27957 27960 27963 27966 27969 27972 27975 27978 27981 27984 27986 27989 27992 27995 27997 28000 28003 28006 28009 28012 28015 28018 28021 28024 28026 28029 28032 28035 28038 28041 28044 28047 28050 28053 28056 28059 28061 28064 28067 28070 28072 28075 28078 28081 28084 28087 28090 28093 28096 28099 28102 28105 28107 28110 28113 28116 28119 28122 28125 28128 28131 28134 28137 28139 28142 28145 28148 28151 28154 28156 28159 28162 28165 28168 28171 28174 28177 28180 28182 28185 28188 28190 28193 28196 28198 28201 28204 28207 28210 28212 28214 28217 28220 28223 28226 28228 28231 28234 28237 28240 28242 28245 28248 28250 28253 28256 28259 28262 28264 28267 28270 28272 28275 28278 28281 28284 28287 28289 28292 28295 28298 28301 28304 28307 28310 28313 28315 28318 28320 28323 28326 28329 28332 28335 28338 28341 28344 28347 28349 28351 28354 28357 28360 28363 28366 28369 28371 28374 28377 28379 28382 28385 28387 28390 28392 28395 28398 28401 28403 28406 28409 28411 28414 28417 28420 28423 28426 28429 28432 28435 28437 28439 28442 28445 28447 28449 28452 28455 28458 28461 28463 28466 28469 28472 28474 28477 28479 28482 28484 28486 28488 28491 28493 28496 28499 28502 28504 28507 28510 28513 28516 28519 28522 28525 28528 28531 28533 28536 28539 28541 28544 28547 28550 28553 28556 28559 28561 28564 28567 28570 28573 28576 28579 28581 28583 28585 28588 28591 28594 28597 28600 28603 28606 28609 28612 28615 28618 28620 28623 28626 28629 28632 28634 28637 28640 28643 28646 28649 28652 28655 28658 28660 28663 28666 28668 28671 28674 28677 28679 28682 28685 28688 28691 28694 28697 28700 28703 28706 28708 28711 28714 28717 28720 28723 28726 28729 28732 28734 28737 28740 28743 28745 28748 28751 28753 28756 28759 28762 28764 28767 28769 28772 28775 28777 28780 28782 28785 28788 28790 28793 28796 28799 28802 28805 28808 28810 28813 28816 28818 28821 28824 28827 28830 28833 28836 28839 28842 28845 28848 28851 28854 28857 28860 28863 28866 28869 28872 28875 28878 28881 28884 28887 28890 28893 28896 28899 28902 28905 28908 28911 28914 28917 28920 28923 28926 28929 28932 28935 28938 28941 28944 28947 28950 28953 28956 28959 28962 28965 28968 28971 28974 28977 28980 28983 28986 28989 28992 28995 28998 29001 29004 29007 29010 29013 29016 29019 29022 29025 29028 29031 29034 29037 29040 29043 29046 29049 29052 29055 29058 29061 29064 29067 29070 29073 29076 29079 29082 29085 29088 29091 29094 29097 29100 29103 29106 29108 29111 29114 29117 29120 29122 29125 29128 29131 29134 29137 29140 29143 29146 29149 29152 29155 29158 29160 29162 29165 29168 29171 29174 29177 29180 29183 29186 29189 29192 29195 29198 29201 29204 29207 29209 29212 29215 29218 29220 29223 29226 29229 29232 29235 29238 29241 29244 29247 29250 29252 29255 29257 29260 29263 29266 29269 29272 29275 29278 29281 29284 29287 29290 29293 29296 29299 29302 29305 29308 29311 29314 29317 29320 29323 29326 29329 29331 29334 29337 29340 29343 29345 29348 29351 29354 29357 29360 29363 29366 29369 29371 29374 29377 29380 29383 29386 29389 29392 29395 29398 29401 29404 29407 29410 29413 29416 29419 29422 29425 29428 29431 29434 29437 29440 29443 29446 29449 29452 29455 29458 29461 29464 29467 29470 29473 29476 29479 29482 29485 29488 29491 29494 29497 29500 29503 29506 29509 29512 29515 29518 29520 29523 29526 29529 29532 29535 29538 29541 29544 29547 29550 29553 29556 29559 29562 29565 29568 29571 29574 29577 29580 29583 29586 29589 29592 29595 29598 29601 29604 29607 29610 29613 29616 29618 29621 29624 29627 29630 29633 29636 29638 29641 29644 29647 29650 29653 29656 29658 29661 29664 29666 29669 29671 29674 29676 29679 29682 29685 29688 29690 29693 29696 29699 29702 29705 29707 29710 29713 29716 29718 29720 29723 29726 29729 29731 29734 29737 29740 29743 29745 29747 29750 29753 29756 29759 29762 29765 29768 29771 29774 29777 29780 29783 29786 29789 29791 29794 29797 29799 29802 29805 29807 29809 29812 29815 29818 29821 29824 29827 29830 29833 29836 29839 29841 29844 29846 29849 29852 29855 29858 29861 29864 29867 29870 29873 29876 29879 29881 29884 29887 29890 29893 29896 29899 29902 29904 29907 29910 29913 29916 29919 29922 29925 29928 29931 29934 29937 29940 29943 29946 29949 29952 29955 29958 29960 29962 29965 29968 29971 29974 29977 29980 29983 29986 29989 29992 29995 29998 30001 30004 30007 30010 30013 30015 30018 30021 30024 30027 30030 30033 30036 30039 30042 30044 30047 30050 30053 30056 30059 30062 30065 30068 30071 30074 30077 30080 30082 30085 30088 30091 30094 30096 30099 30101 30104 30107 30110 30113 30116 30119 30122 30125 30128 30130 30133 30136 30139 30142 30144 30147 30150 30153 30156 30158 30161 30163 30166 30169 30172 30175 30178 30181 30184 30187 30190 30193 30196 30199 30201 30204 30207 30210 30213 30216 30219 30222 30225 30228 30231 30234 30237 30240 30243 30246 30248 30251 30253 30256 30259 30261 30264 30267 30270 30272 30275 30277 30280 30283 30285 30288 30291 30293 30296 30298 30301 30304 30307 30310 30313 30316 30319 30321 30323 30326 30329 30332 30335 30337 30339 30342 30345 30347 30349 30352 30354 30357 30360 30362 30364 30367 30370 30372 30375 30378 30380 30383 30386 30389 30392 30395 30398 30401 30404 30406 30409 30412 30414 30417 30419 30422 30425 30428 30430 30433 30436 30439 30442 30445 30448 30451 30454 30456 30459 30462 30465 30468 30471 30474 30477 30480 30483 30486 30489 30492 30495 30498 30501 30504 30507 30510 30513 30516 30519 30522 30524 30527 30530 30533 30536 30539 30542 30545 30548 30551 30554 30557 30560 30563 30566 30569 30572 30575 30578 
</DataArray>
<DataArray type="UInt32" Name="types" format="ascii">
5 5 5 5 5 5 3 5 5 5 3 5 5 5 3 5 5 5 5 5 5 3 3 5 5 5 5 3 3 5 3 3 5 3 5 5 5 3 5 5 3 5 5 5 5 5 5 5 3 5 5 5 5 5 5 5 5 3 5 5 3 5 3 5 3 5 3 5 5 5 5 5 5 5 5 5 5 5 5 5 5 5 5 3 5 5 5 5 5 5 5 5 3 5 5 3 3 5 5 5 5 5 5 5 5 5 5 5 5 3 5 5 5 5 5 3 5 5 3 5 5 5 5 5 5 5 5 5 5 5 5 5 5 5 5 5 5 5 3 5 5 5 5 5 3 5 5 5 5 5 5 5 5 5 5 5 5 5 5 5 5 5 5 5 5 5 5 5 5 3 5 3 5 5 5 3 5 5 5 3 5 5 5 3 3 5 5 3 5 5 5 5 3 5 5 5 5 5 3 5 5 5 5 3 5 3 5 5 3 5 5 5 3 5 5 3 5 5 5 5 5 5 5 5 5 5 3 5 5 3 5 5 5 5 5 5 5 3 5 5 5 5 5 5 5 5 5 5 5 5 5 5 5 5 5 5 5 5 5 3 5 3 5 5 5 5 5 3 5 5 5 5 5 5 5 5 3 5 5 5 3 5 5 3 5 5 5 5 3 5 5 3 5 5 5 5 5 3 5 3 5 5 5 5 5 5 5 5 5 5 5 5 5 5 5 5 5 5 3 5 5 5 5 5 3 3 5 5 5 5 5 5 5 5 5 5 3 5 5 5 5 5 5 5 5 5 3 5 5 3 3 5 5 5 3 5 5 3 5 5 5 5 5 5 5 5 5 5 5 5 5 5 5 3 5 5 5 5 5 5 5 5 3 5 5 3 5 5 5 5 3 5 5 5 5 5 5 5 5 5 5 5 5 5 5 3 3 5 5 3 3 5 3 5 3 5 3 5 5 3 5 5 5 5 5 5 5 5 5 3 3 5 5 3 5 5 5 5 5 3 5 5 3 5 5 5 5 3 5 5 5 3 5 5 5 3 5 3 5 5 3 5 5 5 5 5 5 5 5 5 5 5 3 5 5 5 5 5 5 3 5 5 5 3 5 5 5 5 5 5 5 3 5 5 5 5 5 3 5 3 5 5 5 5 5 3 3 5 5 5 3 3 5 3 5 5 5 5 5 5 5 3 5 5 5 5 5 5 5 5 5 5 5 5 5 5 3 5 5 3 5 3 5 5 5 5 5 5 5 5 5 5 5 5 5 5 3 5 5 5 5 5 5 5 5 5 5 5 5 5 5 5 5 3 5 5 5 5 5 5 5 5 5 5 5 3 3 5 5 5 5 5 5 5 5 5 5 5 5 5 5 5 5 3 5 5 5 5 5 5 5 3 5 5 5 5 5 5 5 5 3 5 5 5 3 5 5 5 5 5 5 5 5 5 5 5 5 5 5 5 5 5 5 5 5 5 5 5 5 5 5 5 5 3 5 3 5 5 5 5 5 5 5 5 5 5 5 5 5 3 5 5 5 3 5 5 5 5 5 5 5 5 5 5 5 5 5 3 3 5 5 5 5 5 5 5 3 5 5 5 5 5 5 5 5 5 5 5 3 5 5 5 5 5 5 5 3 5 5 5 5 5 5 5 5 5 5 5 5 5 5 5 5 5 3 5 5 5 5 5 5 5 5 5 5 3 5 5 5 5 5 3 5 5 5 3 5 5 5 5 3 5 5 5 5 5 5 5 3 5 3 5 5 3 5 3 5 5 5 5 5 5 5 5 5 5 5 5 5 5 5 5 5 5 5 5 5 5 5 5 5 5 5 5 5 5 5 5 5 5 5 3 5 3 3 5 5 5 5 5 5 5 5 5 5 5 3 5 5 5 5 5 5 5 3 5 3 5 3 5 5 5 5 5 5 3 5 3 3 5 5 5 5 5 5 5 5 5 5 5 5 5 5 5 5 5 3 5 5 5 5 5 5 5 5 5 5 5 5 5 5 3 5 5 5 5 5 5 5 5 5 5 5 5 5 3 5 5 5 5 5 5 5 5 5 3 5 5 5 5 5 3 3 5 5 5 5 3 3 5 5 5 5 5 5 5 5 5 5 5 3 5 5 5 5 3 5 5 5 5 5 5 3 5 5 3 5 3 5 5 5 3 5 5 5 5 5 5 5 3 5 5 5 5 3 3 5 5 3 5 5 5 3 3 3 3 5 5 3 5 5 5 5 5 5 5 5 3 3 5 5 5 5 5 5 3 5 3 5 5 5 3 5 5 5 5 5 5 5 5 5 5 5 5 5 5 5 5 5 5 5 5 5 5 5 5 5 5 5 5 3 5 5 5 5 5 5 5 5 5 5 5 5 5 5 5 5 5 5 5 5 5 3 5 5 5 5 5 5 5 5 5 3 5 5 5 5 5 5 3 5 5 5 5 5 3 5 5 5 5 5 3 5 5 5 5 5 5 5 5 5 5 3 5 5 5 5 3 3 5 5 3 5 5 5 5 3 5 5 3 5 5 5 5 5 3 3 5 5 5 5 5 5 3 5 5 5 5 5 5 5 3 3 5 5 5 3 5 5 5 3 5 5 3 5 3 5 5 5 3 5 5 3 3 5 5 5 5 5 5 3 5 3 5 3 5 5 5 3 3 5 3 5 5 5 5 5 5 5 5 5 5 5 5 5 5 5 5 3 5 5 5 5 5 5 5 3 5 5 5 5 5 3 5 5 5 3 5 5 5 5 3 5 3 5 3 5 5 5 5 3 5 5 3 5 5 5 5 5 5 5 5 5 5 5 3 5 5 5 5 3 5 5 5 5 3 5 5 5 5 5 5 3 5 5 5 3 5 3 3 5 5 5 5 5 5 5 5 5 5 5 5 5 5 5 5 5 5 5 5 5 5 5 5 5 5 5 5 3 5 5 3 3 5 3 5 5 5 5 3 5 5 3 5 5 5 5 5 5 5 5 5 5 5 5 5 5 5 5 5 5 5 5 5 5 5 5 5 5 5 5 3 5 5 5 5 5 5 5 5 3 5 5 5 5 5 5 5 3 5 3 5 5 5 3 5 5 5 5 5 5 5 3 5 3 5 5 5 5 5 3 5 5 5 5 5 5 5 5 5 5 5 5 5 5 5 5 5 5 5 5 5 5 5 5 5 5 5 5 5 5 5 5 5 5 5 5 5 5 5 3 3 5 5 3 5 5 5 3 5 5 5 3 3 5 5 3 5 5 5 5 5 5 5 5 5 5 5 5 5 5 5 5 5 5 5 5 5 3 5 3 5 5 5 5 5 5 5 5 5 5 5 5 5 5 5 5 5 5 5 5 5 5 5 5 5 5 5 5 5 5 5 5 5 5 5 5 5 5 5 5 5 5 5 5 5 3 5 3 5 3 5 5 3 5 5 5 5 5 5 5 5 5 5 5 5 5 5 5 5 5 5 5 5 5 5 5 5 5 5 5 3 5 5 5 5 5 5 5 5 5 5 5 5 5 5 5 5 5 5 5 5 5 5 5 5 5 5 5 5 5 5 5 5 5 5 5 5 5 5 5 5 5 5 5 5 5 5 5 5 5 3 5 5 5 5 3 5 5 5 5 5 5 5 5 3 5 5 5 5 5 3 3 3 5 5 5 5 3 3 5 5 3 5 5 5 5 5 5 5 5 5 5 5 5 5 5 3 3 5 3 5 5 5 5 5 5 5 5 5 5 5 5 5 5 5 5 5 5 3 5 5 5 5 5 5 3 5 5 5 5 5 5 5 5 5 5 5 5 5 5 5 5 5 5 3 5 5 5 5 5 5 5 5 5 3 5 5 3 5 5 5 5 5 5 5 5 5 5 5 5 5 5 5 5 3 5 3 5 5 5 5 3 5 3 5 5 3 3 5 5 3 5 5 5 3 5 5 5 5 5 5 3 5 5 5 3 5 5 5 5 3 5 5 5 5 5 5 5 3 5 5 5 5 5 3 5 5 3 5 5 5 5 5 5 5 3 5 5 5 3 3 5 5 5 3 5 5 5 5 5 3 3 3 5 5 5 5 5 5 5 5 5 3 3 5 3 5 5 5 5 5 3 5 5 3 5 3 5 5 5 3 5 5 3 5 5 5 5 5 5 5 3 5 5 3 3 5 5 3 5 3 5 5 3 5 5 3 5 3 5 5 5 3 5 5 3 5 3 5 5 3 5 3 5 5 5 5 3 3 5 5 5 5 5 5 5 5 5 3 5 5 5 5 5 5 5 5 5 5 5 5 5 5 5 5 5 5 3 3 5 5 5 3 5 5 5 5 3 5 5 3 5 5 5 3 5 5 3 5 5 5 5 3 5 5 5 5 5 3 5 5 5 3 3 5 5 3 5 5 5 5 5 3 3 5 5 5 5 3 5 5 5 5 3 5 5 5 5 5 5 5 5 5 5 5 5 5 5 5 5 5 5 5 5 5 5 5 5 5 5 5 5 3 5 5 5 5 5 5 5 5 5 5 5 3 5 5 5 5 3 5 5 5 3 5 5 3 5 5 5 5 5 3 5 5 5 5 5 5 5 5 5 5 5 5 5 5 5 5 5 5 5 5 3 5 5 5 5 5 3 5 5 5 5 5 5 5 3 5 5 5 5 5 5 5 5 5 5 5 5 5 3 5 5 5 5 5 3 3 5 5 5 5 3 5 3 5 5 5 3 3 5 5 3 5 5 5 3 5 5 5 5 3 5 5 3 3 5 5 5 5 5 5 3 5 5 3 5 5 5 5 3 5 5 5 5 5 5 5 5 5 5 5 5 5 5 5 5 5 5 5 3 5 3 5 5 5 3 5 3 5 3 5 5 3 5 5 3 3 3 5 5 5 3 5 5 5 5 5 5 3 5 5 5 5 5 5 5 3 5 3 5 5 5 5 5 5 5 3 5 5 5 5 5 5 5 5 5 5 5 3 5 5 3 5 5 5 5 5 5 5 5 5 5 5 5 5 5 5 5 3 5 5 5 5 5 5 5 5 5 5 5 5 5 5 5 5 5 5 5 5 5 3 5 5 5 3 5 5 5 5 5 5 5 5 5 5 3 5 5 5 5 5 5 5 5 5 5 3 5 5 5 5 5 5 3 5 5 5 3 5 5 5 5 5 5 5 5 5 5 5 5 5 5 5 5 5 5 5 5 5 3 5 5 5 5 5 3 5 5 3 5 5 5 5 5 5 3 5 5 5 5 3 5 5 5 5 5 5 5 5 5 5 5 5 5 5 5 5 5 5 3 5 5 5 5 5 3 5 5 5 3 5 3 5 5 5 5 5 5 5 3 5 5 5 3 3 5 5 5 5 5 3 5 5 5 3 5 5 5 5 5 5 5 5 5 5 5 5 5 5 5 3 5 5 5 5 5 5 3 5 5 5 5 5 5 5 5 5 5 5 3 5 5 5 5 5 5 5 5 5 3 5 5 5 5 3 3 5 5 5 5 5 5 5 5 3 3 5 3 5 5 5 5 5 3 5 5 5 5 5 5 3 5 3 5 5 5 5 5 5 5 5 5 5 3 5 5 5 5 5 5 3 5 5 5 5 5 5 5 5 3 5 5 5 5 5 3 5 5 3 5 5 5 5 5 5 3 5 5 5 5 5 5 5 5 3 5 5 5 5 3 5 5 5 5 5 5 5 5 5 5 3 5 5 5 5 5 5 5 5 5 3 5 5 5 5 3 5 5 5 5 5 5 5 5 3 5 3 5 5 5 3 5 5 5 5 5 5 5 5 3 5 5 5 3 5 5 5 3 5 5 3 5 5 5 5 5 5 5 5 5 5 5 5 5 5 5 5 5 5 5 5 5 5 5 5 5 5 5 5 5 5 5 5 5 5 5 5 5 5 5 5 5 5 5 5 5 5 5 5 5 5 5 5 5 3 5 5 5 3 5 5 5 5 5 5 3 5 3 5 5 5 5 3 3 5 5 5 5 5 5 5 5 5 5 5 5 5 5 5 5 5 5 5 5 5 5 3 5 5 3 5 5 5 3 5 5 5 5 5 5 5 5 5 5 5 5 5 5 3 5 3 5 3 5 5 5 5 5 5 5 5 5 5 5 5 5 5 5 5 5 3 5 5 5 5 5 5 5 5 5 5 5 5 5 5 5 5 5 5 5 5 5 5 5 5 5 5 5 5 5 5 5 5 5 3 5 5 5 5 5 5 3 5 5 3 5 3 5 5 3 5 5 5 3 5 5 5 5 5 5 5 5 5 5 5 5 5 5 5 5 5 5 5 5 5 5 5 5 5 3 5 5 5 5 3 5 5 3 5 5 5 5 5 5 5 5 5 5 5 5 5 5 5 5 5 5 5 5 5 5 5 5 5 5 5 5 5 5 3 5 5 5 3 5 5 5 5 3 5 5 5 5 5 3 5 5 5 5 3 5 5 5 5 5 5 5 5 5 5 5 5 5 5 3 3 5 3 5 3 5 5 5 5 5 5 5 5 5 5 5 5 5 5 5 5 5 5 5 5 5 5 5 5 5 3 3 5 5 3 5 5 3 5 5 5 5 5 5 5 5 5 5 5 3 5 5 3 5 5 5 5 5 5 5 5 5 5 5 5 5 5 3 3 5 3 3 5 5 5 5 3 5 5 5 3 3 5 5 5 5 5 5 5 3 5 5 5 5 5 5 5 5 5 5 5 5 5 5 5 5 3 5 5 5 5 3 5 5 5 5 5 5 5 3 5 5 5 5 5 5 5 3 5 5 3 5 5 5 5 5 5 5 5 5 5 5 5 5 5 5 3 5 5 5 5 5 5 5 5 3 5 5 5 5 5 5 5 3 5 5 5 5 5 3 5 5 5 5 3 5 5 5 5 5 5 5 5 5 5 5 5 3 5 5 5 5 5 5 5 5 5 5 5 5 5 5 3 5 5 5 5 5 5 5 5 5 5 5 5 5 3 3 5 5 3 5 5 5 5 3 5 5 5 3 5 5 3 5 5 5 5 3 5 5 5 5 5 5 5 5 5 5 5 5 5 5 5 5 5 5 5 5 5 5 5 5 5 5 5 5 5 5 5 5 5 5 3 5 5 5 3 5 3 5 5 5 5 5 5 5 5 5 5 5 5 5 5 3 5 5 5 5 5 5 5 5 3 5 5 5 3 5 5 5 5 5 5 5 3 5 3 5 5 5 5 5 5 5 5 5 5 5 5 5 5 3 5 5 3 5 5 5 5 5 5 5 3 5 5 5 5 5 5 5 5 5 5 5 5 5 5 5 5 5 5 5 5 5 5 5 5 5 5 5 3 5 5 3 5 5 5 3 5 5 3 5 5 5 5 5 5 5 5 5 5 5 5 5 5 5 5 5 5 5 3 5 5 5 5 5 5 5 5 5 5 5 5 5 3 5 5 5 5 5 5 5 5 5 5 5 5 5 5 5 5 5 5 5 3 5 5 5 5 5 5 5 5 5 5 5 5 5 5 5 5 3 5 5 3 5 5 5 3 5 5 3 5 5 5 5 5 5 5 5 5 5 5 5 5 5 3 5 5 3 5 5 5 5 5 5 5 5 5 5 5 5 5 5 5 5 5 5 5 5 5 5 5 5 5 5 5 5 5 5 5 5 5 5 5 5 3 5 5 5 5 3 5 5 5 5 5 5 5 5 5 5 5 5 5 5 5 3 5 3 3 5 5 3 5 3 5 5 5 5 5 5 5 5 3 5 5 3 5 5 5 5 3 3 5 3 5 5 5 5 5 5 5 5 5 5 5 5 5 5 5 5 5 5 5 5 5 3 5 5 5 5 5 5 5 5 5 5 5 5 5 5 5 5 5 5 5 5 5 5 5 5 5 3 5 5 5 5 5 3 5 5 5 5 5 5 5 5 5 3 5 5 5 5 5 5 5 5 5 5 5 5 5 5 5 5 5 3 3 5 5 3 5 5 5 3 5 5 5 5 5 5 5 5 5 5 3 5 5 3 5 3 5 5 5 5 3 5 5 5 3 5 5 5 5 5 5 3 5 5 5 5 5 5 3 5 5 5 5 5 5 5 5 5 5 5 5 5 5 3 5 5 3 5 5 5 3 3 5 5 5 5 5 5 5 5 5 5 3 5 5 5 3 5 5 5 5 3 5 5 5 5 5 5 5 5 3 5 5 5 5 5 3 3 5 5 5 3 5 3 3 5 5 5 5 5 3 5 5 5 5 5 5 3 5 5 5 5 5 5 5 3 5 5 3 5 5 3 5 5 5 5 5 5 5 5 5 5 5 5 5 5 3 5 5 5 3 5 5 3 5 5 5 5 3 5 5 5 5 5 5 5 5 3 5 5 5 5 3 5 5 5 5 5 5 5 5 3 5 5 5 5 5 5 5 5 5 3 5 5 5 3 5 5 3 5 5 3 5 5 5 5 5 5 5 5 5 3 5 5 5 5 5 5 5 5 5 5 5 5 5 5 5 5 3 5 5 5 5 5 5 5 5 5 5 5 5 5 5 5 5 5 5 5 5 5 5 5 5 5 5 3 5 3 5 5 5 5 5 5 5 5 5 5 3 5 5 3 5 5 5 5 5 5 5 5 5 5 5 5 5 5 5 5 5 5 5 5 5 3 5 5 5 5 5 5 5 5 5 3 5 3 5 5 5 5 5 5 5 3 5 3 5 5 5 5 5 5 5 5 5 5 5 3 5 5 5 5 3 5 3 5 5 5 5 5 5 3 5 5 3 5 5 3 5 5 5 3 3 3 5 5 5 5 5 5 5 5 5 5 5 5 5 3 5 5 5 5 5 5 5 3 5 3 5 3 5 5 3 3 5 5 5 5 5 5 3 5 5 5 5 3 5 3 5 3 5 3 5 5 5 5 3 5 5 5 5 5 3 5 5 5 5 5 5 5 5 5 5 5 5 5 5 3 5 5 5 5 5 3 5 5 5 3 5 5 5 5 5 5 5 5 5 5 5 5 5 5 5 5 5 3 5 5 5 5 3 5 5 5 5 5 5 3 5 5 5 5 5 5 5 5 5 5 3 5 5 3 5 3 5 5 5 5 5 5 5 5 5 5 5 3 5 5 5 5 5 5 3 5 3 3 5 3 5 5 5 5 5 5 5 3 5 5 5 5 5 5 5 5 5 5 5 5 5 5 5 5 3 5 5 5 5 5 5 5 5 5 5 3 5 5 5 5 5 5 5 5 5 5 3 5 5 5 5 3 5 5 5 5 5 3 5 5 5 5 3 5 5 5 5 5 5 5 5 5 5 5 5 5 5 5 5 5 5 3 5 5 5 5 5 5 5 5 3 5 3 3 5 5 5 5 5 3 5 5 5 5 5 5 5 5 5 5 5 5 5 5 3 5 5 3 5 3 3 5 5 5 5 5 5 3 5 5 5 5 3 5 3 5 5 3 5 5 5 5 5 5 3 3 5 5 5 5 5 5 5 5 5 5 5 5 5 5 5 3 5 5 5 5 5 5 5 3 5 3 5 5 5 3 5 3 5 5 5 5 5 5 5 5 3 5 5 5 5 5 3 5 3 5 5 5 5 3 5 5 5 5 5 3 5 5 5 5 5 5 5 5 5 5 5 5 5 5 5 5 5 5 5 5 5 5 5 5 3 5 5 5 3 5 3 5 5 5 3 5 5 5 5 5 5 5 5 5 5 5 5 5 5 5 5 5 3 3 3 3 5 5 5 5 5 5 3 5 5 5 3 5 5 5 5 5 5 5 5 5 5 3 3 3 5 5 3 3 5 5 5 5 5 5 5 5 5 3 5 5 5 5 5 5 5 5 3 3 5 5 5 3 5 5 5 5 5 5 5 5 5 5 5 3 5 3 5 5 5 5 5 3 3 5 5 3 3 5 5 5 5 5 5 5 5 5 5 5 5 5 5 5 5 5 5 5 5 5 5 5 5 5 5 5 5 5 5 5 5 5 5 5 5 5 5 5 5 5 5 3 3 5 5 5 5 5 5 5 5 5 5 5 5 5 5 5 5 5 5 5 5 3 5 5 5 5 5 5 5 5 5 5 5 5 5 5 5 5 3 5 3 5 5 5 5 5 5 5 5 3 5 5 5 5 5 5 5 5 5 5 5 3 5 5 3 5 5 3 5 5 5 5 3 5 5 5 5 3 5 5 3 5 3 5 5 5 5 5 3 5 5 5 5 5 5 5 3 5 5 5 5 5 5 5 5 5 5 5 5 5 5 5 5 5 5 5 5 5 5 5 5 3 5 5 5 3 5 5 3 5 5 5 3 5 5 5 5 3 5 3 5 5 5 5 5 5 5 5 3 5 5 5 5 5 5 5 5 5 5 3 5 5 3 5 5 3 5 5 3 3 5 5 5 5 5 5 5 3 3 5 5 5 3 5 5 3 3 5 5 5 3 3 5 3 5 5 3 5 5 5 5 3 5 3 3 5 5 5 3 5 3 3 5 3 3 3 3 5 3 5 3 5 3 5 5 5 3 5 5 3 5 3 3 5 5 5 5 3 5 3 3 5 5 5 3 3 5 5 3 3 5 5 5 5 3 5 5 5 5 3 5 5 5 5 3 5 3 5 3 5 3 5 3 5 3 5 5 5 5 5 3 5 5 3 3 3 5 5 3 3 5 3 5 5 3 5 5 5 5 5 5 3 5 5 3 5 3 5 5 5 5 3 5 3 5 3 5 5 5 3 5 5 3 5 3 5 3 5 5 5 5 5 3 5 5 5 5 5 5 5 5 5 5 3 5 5 5 5 3 5 5 3 5 5 5 5 5 3 5 5 3 5 5 5 3 5 3 5 5 5 3 5 5 5 5 3 5 5 5 5 3 3 5 5 5 5 5 5 3 5 5 3 5 5 5 5 5 5 5 5 5 5 5 5 5 5 5 5 5 5 5 5 5 5 5 5 5 5 5 5 5 5 5 5 5 5 5 5 5 5 5 5 5 5 5 5 5 5 5 5 5 5 5 5 5 5 5 5 5 5 3 5 5 5 5 5 5 5 5 5 5 5 5 3 5 5 3 5 5 5 3 5 5 5 5 5 5 5 5 5 5 5 5 5 5 5 3 5 5 5 5 5 5 5 5 5 5 5 5 5 5 5 5 3 5 5 5 5 5 5 5 5 5 5 5 5 5 3 5 5 3 5 5 3 5 3 5 5 5 5 5 5 5 3 5 5 5 5 5 5 5 5 5 5 5 5 3 5 5 5 3 5 5 5 5 5 5 5 5 5 3 5 5 5 5 5 5 3 5 5 5 5 5 5 3 5 5 5 3 5 5 5 5 5 5 5 3 5 5 5 5 5 5 5 5 5 5 3 5 5 5 5 5 5 5 5 5 5 5 5 5 5 5 5 3 5 3 5 5 5 5 5 5 5 5 5 5 3 5 3 5 5 5 5 5 5 5 5 5 5 5 3 5 5 5 5 5 5 5 5 5 5 5 3 5 5 5 5 5 5 5 3 5 5 5 5 5 5 5 3 5 5 5 5 5 5 5 5 5 5 5 3 5 5 5 5 5 5 5 5 3 5 3 5 5 5 5 5 5 5 5 5 5 3 5 5 5 3 5 5 5 5 5 5 5 5 5 3 5 5 5 5 5 5 5 5 5 5 5 5 5 5 5 5 3 5 5 5 5 5 5 5 5 5 5 5 5 5 5 5 5 5 5 3 5 5 3 5 5 3 5 5 5 5 5 3 5 5 5 5 5 5 5 5 5 5 5 5 5 5 5 5 5 5 5 5 5 5 5 5 5 5 5 5 5 5 5 5 5 5 5 5 5 5 5 5 5 5 5 5 5 5 5 5 5 5 5 5 5 5 5 5 5 5 5 3 5 5 3 5 5 5 5 5 5 5 5 5 5 5 5 5 5 5 5 5 5 5 5 5 5 5 5 3 3 5 5 5 5 5 5 5 5 5 5 5 5 5 5 5 5 3 3 5 5 5 5 5 5 5 3 5 3 5 5 3 3 5 5 5 5 5 5 5 5 5 5 5 3 5 3 5 5 5 3 5 5 5 3 5 3 5 5 5 5 5 3 3 5 5 5 5 5 5 5 5 5 5 5 5 5 5 5 5 5 5 5 5 5 5 5 5 5 5 5 5 5 5 5 5 5 5 5 5 5 5 5 5 5 5 5 5 5 5 5 5 5 5 5 5 5 5 5 5 5 5 5 5 5 5 5 5 5 5 5 5 5 5 5 5 5 5 5 5 5 5 5 5 5 5 5 5 5 5 5 5 5 5 5 5 5 5 5 5 5 5 5 5 5 5 5 5 3 3 5 3 5 3 5 5 3 5 5 5 5 3 5 5 5 5 5 5 5 3 3 3 5 5 5 5 5 3 3 5 5 5 5 5 5 5 5 5 5 5 5 5 5 5 5 5 5 5 5 5 5 5 5 5 5 5 5 5 5 5 5 5 5 3 5 5 3 5 5 5 5 5 5 5 5 5 5 5 3 5 5 5 5 5 5 5 3 5 5 5 5 5 5 5 5 5 5 5 5 5 5 5 5 3 5 5 3 5 5 5 5 5 5 5 5 5 5 5 5 5 5 5 5 5 5 5 5 5 5 5 3 5 5 3 5 5 3 5 5 5 5 5 5 5 3 5 5 5 5 5 5 3 5 5 3 5 5 5 5 3 5 3 5 5 3 5 5 5 5 3 5 3 5 5 3 5 5 5 5 5 5 5 5 5 5 5 5 3 5 5 5 3 5 5 3 5 5 5 5 3 5 5 5 5 5 5 5 5 5 5 3 5 5 5 5 5 5 5 5 5 5 3 5 5 5 5 5 5 5 5 5 5 5 5 3 5 5 3 5 5 5 5 5 5 5 5 5 5 3 5 5 5 5 5 3 5 3 3 5 5 3 5 5 5 5 5 5 5 5 5 3 3 5 5 5 5 5 5 3 5 5 5 5 5 5 5 5 5 5 5 5 5 5 5 5 5 5 5 5 5 5 5 5 5 3 5 5 5 5 5 5 5 5 5 5 5 5 5 5 5 5 5 5 5 5 5 5 5 5 5 5 5 5 5 5 5 5 5 5 5 5 5 5 5 5 3 5 5 5 5 5 5 5 5 5 5 3 5 5 5 3 5 3 5 5 5 3 5 5 5 3 5 3 5 3 5 3 3 5 5 3 5 5 5 3 5 5 5 5 5 3 5 5 5 5 3 5 5 5 3 5 5 5 5 3 5 3 5 5 5 5 5 5 5 5 5 5 5 5 5 5 3 5 5 5 5 3 5 5 3 5 5 3 3 5 5 3 5 3 5 5 5 3 3 3 3 5 5 3 5 5 5 5 3 5 3 5 5 3 3 3 5 3 5 5 3 3 3 5 5 5 5 5 5 5 5 5 3 3 5 5 5 5 3 3 5 5 5 3 5 3 5 5 5 5 5 5 5 5 5 5 5 3 5 5 5 5 5 5 5 5 5 5 5 5 5 5 5 5 5 5 5 5 5 5 5 3 5 5 5 5 5 5 5 5 5 5 5 5 5 5 5 5 3 5 5 3 5 5 5 5 5 5 5 5 5 3 5 5 5 3 3 5 5 3 5 5 5 5 5 3 5 3 5 5 5 3 5 5 5 5 5 5 5 3 5 5 3 5 5 5 5 3 5 5 5 3 3 5 5 3 5 5 5 3 5 5 5 5 5 5 5 3 5 5 3 5 3 3 3 5 3 5 3 3 5 5 5 5 5 5 3 5 5 3 5 5 5 5 5 5 5 5 5 5 5 5 5 5 5 5 5 5 5 5 5 5 5 5 5 5 5 5 5 5 5 5 5 5 5 3 3 5 5 5 5 5 5 5 5 3 3 3 3 5 5 3 5 5 5 5 5 5 5 5 3 5 5 3 5 5 5 3 5 5 5 5 3 5 5 5 5 5 5 5 5 5 5 5 5 5 5 3 5 5 5 5 5 3 5 5 5 5 5 5 5 5 3 5 5 5 3 3 5 5 3 3 5 5 5 5 5 3 5 5 5 5 5 5 3 5 3 5 5 5 5 5 5 5 5 3 3 5 3 3 3 5 3 5 5 5 5 5 5 3 5 5 5 5 5 5 5 3 5 5 5 5 5 5 5 5 5 5 5 5 5 5 5 5 5 5 5 5 5 5 5 5 5 5 5 5 5 5 5 5 5 5 5 5 5 5 5 5 5 5 5 5 5 5 5 5 5 5 5 5 5 5 5 5 5 3 5 5 5 5 5 5 5 3 5 5 3 5 5 5 3 5 3 5 5 3 5 5 5 5 5 5 5 3 5 5 5 3 5 5 5 5 5 5 5 3 5 3 5 5 5 5 5 5 5 5 5 5 5 5 5 5 5 5 5 5 5 5 5 5 5 5 5 3 3 5 3 5 5 5 5 5 5 5 3 5 3 5 3 3 3 5 5 3 5 5 3 5 5 5 3 5 5 5 5 5 5 5 3 3 5 5 3 5 5 5 3 5 5 5 5 3 5 3 5 5 5 5 5 5 3 5 3 5 5 5 5 5 3 5 5 3 5 5 5 5 5 5 5 5 5 5 5 5 5 5 5 5 3 5 5 3 3 5 3 5 5 5 5 5 5 5 5 3 5 5 5 5 5 5 5 5 5 5 5 5 5 5 5 5 3 5 5 5 3 5 5 3 5 5 5 5 5 5 3 5 5 5 5 5 5 5 5 5 5 5 5 5 5 5 5 5 5 5 3 3 5 5 5 5 5 5 5 3 5 5 5 3 5 5 3 5 3 5 5 3 5 3 3 5 3 5 3 5 3 5 5 5 5 5 5 5 5 5 5 5 5 5 5 5 3 3 5 5 5 5 5 5 5 3 5 5 5 5 5 5 5 5 5 5 5 5 5 5 5 3 5 3 5 5 5 5 5 5 3 5 5 5 3 5 5 5 3 5 5 5 5 5 5 5 5 5 5 5 5 5 5 5 5 5 5 5 5 5 3 5 5 5 5 3 5 5 5 5 5 3 5 5 5 3 5 5 5 5 5 5 5 5 5 5 5 5 3 5 5 5 5 3 5 5 5 5 5 5 5 5 3 5 5 5 5 5 5 5 3 5 5 5 5 3 5 5 5 5 5 5 5 5 3 5 5 5 5 5 5 5 5 5 3 5 5 5 5 5 5 5 5 5 5 5 5 5 5 5 5 5 5 5 5 5 5 5 5 5 5 5 5 3 5 5 5 5 5 5 5 3 5 5 5 5 5 5 5 5 5 5 5 5 5 5 5 5 5 5 5 5 5 5 5 5 5 5 5 5 5 3 5 5 5 5 5 5 5 5 5 5 5 5 5 5 5 5 5 5 5 5 5 5 5 5 5 5 5 5 5 5 5 5 3 5 5 3 5 5 5 5 3 5 5 3 5 5 5 5 3 5 5 5 3 5 5 5 3 5 5 5 5 5 5 5 5 5 5 3 5 5 3 5 5 5 5 5 5 3 5 5 5 5 5 3 5 5 5 5 3 5 5 5 5 5 5 5 5 5 5 3 5 5 5 5 5 5 5 5 5 3 5 5 5 5 5 5 5 5 5 5 5 5 5 3 5 5 5 5 5 5 5 3 5 5 5 5 5 3 5 5 5 5 5 5 5 5 5 5 5 5 5 5 3 5 5 5 5 5 5 5 5 3 5 5 5 5 5 5 5 5 5 5 5 5 5 5 5 5 5 5 5 5 5 5 5 5 5 5 5 5 5 5 5 5 5 3 5 5 5 5 3 3 5 5 3 5 5 3 5 5 3 5 5 5 5 5 5 5 5 5 5 5 5 5 5 5 5 5 5 5 3 5 5 5 5 3 5 5 5 5 5 5 5 5 5 5 5 5 5 5 5 5 5 5 5 5 5 5 5 5 5 5 5 5 5 5 5 5 5 5 5 5 5 5 5 5 5 5 5 5 5 5 5 5 5 5 5 5 5 5 5 5 5 5 5 5 5 5 5 5 5 5 5 5 5 5 5 3 5 5 5 5 3 5 3 5 5 3 5 5 5 5 3 5 5 3 5 5 5 5 5 5 5 5 5 5 5 5 5 5 5 5 5 5 5 5 5 5 5 5 5 5 5 5 5 5 5 5 5 5 5 5 5 5 5 5 5 5 5 5 5 5 5 5 5 5 5 5 5 5 5 5 5 5 5 5 3 5 5 5 5 5 5 5 5 5 3 5 5 5 5 5 5 5 3 5 5 5 5 5 5 5 5 5 5 5 5 5 5 5 5 5 5 5 3 3 5 5 3 5 3 5 5 5 5 5 5 5 5 5 5 5 5 5 5 5 5 5 5 5 5 5 5 5 5 5 5 5 5 5 5 5 5 5 5 5 5 5 5 5 5 5 5 5 5 5 5 5 5 5 5 5 5 5 5 5 3 3 5 5 5 5 5 5 5 5 5 5 5 5 5 5 5 5 5 5 5 5 3 5 5 5 5 5 5 5 5 5 5 3 5 5 5 3 5 5 5 5 5 5 3 5 5 5 5 5 5 5 5 5 5 5 5 5 3 5 5 5 5 5 5 3 3 5 3 5 5 3 5 5 5 3 5 5 5 3 5 5 5 5 5 3 5 3 5 5 5 5 3 5 5 5 5 3 5 3 5 5 3 3 5 5 5 5 5 3 5 5 5 5 5 3 3 3 5 3 5 3 5 5 5 5 5 3 5 5 5 5 5 5 5 5 3 3 5 5 3 5 5 5 5 3 5 5 3 5 5 3 5 5 5 5 5 5 5 5 5 3 5 5 5 5 5 5 5 5 3 5 5 5 5 5 5 5 5 5 3 3 5 5 5 5 5 5 5 5 5 5 5 5 5 5 5 5 5 5 5 5 5 5 5 5 5 5 5 5 5 5 5 5 5 5 5 3 5 5 5 5 3 5 5 5 5 5 5 5 5 5 5 5 5 5 5 5 5 3 3 5 5 5 5 5 5 5 5 5 3 5 5 5 5 3 5 5 3 5 5 5 5 5 5 5 5 5 5 5 5 5 3 5 5 5 5 5 5 5 5 5 5 5 5 5 5 5 5 5 5 5 5 5 5 5 5 5 3 5 5 5 5 5 3 5 5 5 3 5 5 5 3 3 5 5 5 5 5 5 5 5 5 5 5 5 5 5 3 5 5 5 3 5 5 5 5 3 3 5 5 5 5 5 5 5 5 5 5 5 5 5 5 5 5 5 5 5 5 5 5 5 3 5 5 5 5 5 5 5 5 5 3 5 5 5 5 3 5 3 5 5 5 5 3 5 5 5 5 5 5 5 5 5 5 5 5 5 5 5 3 5 5 3 5 5 5 5 5 5 5 5 5 5 3 3 5 5 5 5 3 5 5 5 3 5 5 5 5 3 3 5 3 5 3 5 3 5 5 3 5 5 3 5 5 3 5 5 5 3 5 5 3 5 3 5 3 5 5 3 5 5 5 5 5 5 5 5 5 5 5 5 5 3 5 5 5 5 5 5 5 5 5 5 5 5 5 5 5 5 3 3 5 5 5 5 5 3 5 5 5 5 3 5 5 3 5 5 5 5 3 5 5 5 5 5 5 5 5 5 5 5 5 5 5 5 5 5 5 5 5 5 5 5 5 5 5 5 5 5 5 5 5 5 5 5 5 5 5 3 5 5 5 5 5 5 5 5 5 5 5 5 5 3 5 3 5 5 5 5 3 5 5 5 5 5 5 5 5 5 5 5 5 5 5 5 5 5 5 3 5 3 5 5 3 5 5 5 3 5 5 5 5 5 5 5 5 5 5 5 5 5 5 5 5 5 5 5 5 5 5 5 5 5 5 5 3 5 5 3 5 5 5 5 5 5 5 5 5 5 5 5 5 5 5 5 5 5 5 5 5 5 5 5 5 5 5 5 5 5 5 5 5 5 5 3 5 3 5 5 5 5 5 5 5 5 5 5 5 5 5 5 5 5 5 3 3 5 5 5 5 5 3 5 5 5 5 3 5 5 5 5 3 5 5 5 5 5 5 5 5 5 5 5 5 5 5 5 5 5 5 3 5 5 5 5 5 5 3 5 5 3 5 5 5 5 5 5 5 5 5 5 5 5 3 5 5 3 5 5 5 5 5 5 5 5 3 5 5 5 5 5 5 3 5 5 3 5 5 5 5 5 5 5 5 5 5 5 5 5 5 5 5 5 5 5 5 5 5 5 5 5 5 5 5 5 5 5 5 5 5 5 5 3 5 5 5 3 5 5 3 5 5 5 5 5 5 3 5 5 5 5 5 3 5 5 5 5 5 5 3 5 5 5 5 3 5 3 5 5 3 5 5 5 3 5 5 5 5 5 5 5 5 5 5 5 5 5 3 5 5 5 5 5 5 5 5 5 5 5 5 5 5 5 5 5 5 5 5 5 5 5 5 3 5 3 5 3 5 3 5 5 5 5 3 5 5 5 5 3 5 5 5 5 5 5 5 5 5 5 5 5 5 5 3 5 5 5 3 5 5 5 3 5 5 3 5 5 5 3 5 5 5 5 3 5 5 5 5 3 5 5 5 5 5 5 5 5 5 5 3 5 5 5 5 5 3 5 3 5 5 5 5 5 3 3 5 5 3 5 3 5 5 3 5 5 5 5 5 5 5 5 5 5 5 5 5 3 5 5 5 5 5 3 5 5 5 5 5 5 5 5 5 5 3 5 3 5 5 3 5 5 3 5 3 5 3 5 5 5 5 5 3 3 5 5 5 5 5 5 5 5 5 5 5 3 5 5 5 5 5 3 5 5 5 3 5 3 5 5 5 5 5 5 5 5 5 5 5 5 5 5 5 3 5 5 5 5 3 5 5 5 5 5 5 5 5 5 5 5 5 5 5 5 5 5 5 5 5 5 5 5 3 5 5 3 5 5 5 5 5 5 5 3 5 5 3 5 3 5 5 5 5 5 5 5 5 5 3 5 5 3 5 5 5 3 5 5 5 5 5 5 5 3 5 5 5 5 3 3 5 5 5 5 5 5 5 5 5 3 5 5 5 5 5 5 5 5 5 5 5 5 5 5 5 5 3 5 3 5 5 5 3 5 5 5 5 5 5 5 5 5 5 5 5 5 3 5 5 5 5 5 3 5 5 5 3 3 5 5 5 3 5 5 3 5 5 5 5 3 3 5 5 5 3 5 5 3 5 5 5 5 3 5 3 5 5 5 3 5 5 5 5 5 5 5 5 5 5 5 5 5 5 5 5 5 5 5 5 5 3 5 5 5 5 5 5 5 5 5 3 5 5 5 3 5 3 5 5 5 5 5 5 5 5 5 5 5 3 5 5 5 5 5 3 5 5 5 5 5 3 5 5 5 5 5 5 5 5 5 5 5 5 5 5 5 5 3 5 5 5 5 5 5 5 5 5 3 5 5 5 5 5 5 5 5 5 5 5 5 5 5 5 3 5 5 5 5 5 5 5 5 5 5 5 5 5 5 5 5 5 5 5 5 5 5 5 5 5 5 5 5 5 3 5 5 5 5 3 5 3 3 5 5 5 5 5 5 3 5 3 5 5 5 3 5 5 3 5 5 5 5 5 5 3 5 5 5 5 5 5 5 3 5 5 5 5 3 5 5 5 5 5 5 3 5 5 5 5 5 5 5 5 5 5 5 5 3 5 3 5 5 5 5 5 5 5 3 3 5 5 5 5 5 5 5 5 3 5 5 5 3 5 5 3 5 5 5 5 5 5 5 5 5 5 5 5 5 5 5 5 5 5 5 5 5 5 5 5 5 3 5 5 3 5 5 5 5 5 3 5 5 3 5 3 5 5 5 3 5 5 5 5 3 5 5 3 3 5 5 5 5 5 3 5 5 3 5 5 5 5 5 3 5 5 5 5 5 5 5 5 5 3 5 5 5 5 3 5 5 5 5 5 5 3 5 3 5 5 5 3 5 3 5 5 3 5 3 5 5 5 3 5 5 5 5 5 5 5 5 5 5 5 5 5 3 5 5 5 5 3 5 5 5 5 5 5 3 5 5 5 5 5 5 5 3 5 5 5 5 5 5 3 5 5 5 5 5 5 5 3 5 5 3 5 5 5 5 5 5 5 5 5 3 3 5 5 5 5 5 5 5 5 5 5 5 5 3 5 5 5 5 5 5 5 3 5 5 5 3 5 3 5 5 3 5 5 5 5 5 3 5 5 5 3 5 5 5 5 3 5 5 5 3 5 5 5 5 5 5 5 3 5 5 3 5 5 5 3 5 5 5 3 5 5 5 5 3 5 5 5 3 5 5 5 5 5 5 5 5 5 3 5 5 5 5 5 5 5 5 5 3 5 5 5 5 3 5 5 3 5 5 5 5 5 5 5 5 5 5 5 5 5 5 5 5 5 5 5 5 5 5 5 5 5 5 3 5 5 5 5 5 5 5 5 5 5 5 3 5 5 5 3 5 5 5 5 5 5 3 5 5 5 5 5 5 5 5 5 5 5 5 5 5 5 5 5 5 5 5 5 5 5 5 5 5 3 5 3 5 5 3 3 5 5 5 5 5 5 5 5 5 5 5 5 5 5 5 5 5 3 5 5 5 5 5 5 5 5 5 5 5 5 5 5 5 5 5 5 5 5 5 5 5 5 5 5 5 5 5 5 5 5 5 5 5 5 5 5 5 5 5 5 5 5 5 5 5 5 5 5 5 5 5 5 5 5 5 5 5 5 5 3 5 5 3 5 5 5 5 3 5 5 5 5 5 5 5 5 5 5 3 5 3 5 5 5 3 5 5 5 3 5 3 5 5 5 3 5 3 5 3 5 5 5 3 5 5 5 5 3 5 3 5 5 5 5 5 3 5 3 3 5 5 5 5 5 5 3 5 5 5 3 5 5 5 5 5 5 5 5 5 5 5 5 5 5 5 5 5 5 5 3 5 5 5 3 3 5 5 5 5 5 3 5 5 5 5 5 5 5 5 5 5 5 5 5 5 3 5 5 3 5 3 5 5 5 3 5 3 5 5 3 5 5 5 5 5 5 5 5 5 5 5 3 5 5 5 5 5 5 5 5 5 5 3 3 5 5 5 5 5 5 5 3 5 5 5 5 5 5 5 5 5 5 5 5 5 5 3 5 5 5 5 5 5 5 5 5 5 3 5 5 5 3 5 3 3 5 5 5 5 5 5 5 5 3 5 5 5 5 5 5 5 5 5 3 5 3 5 3 5 5 5 5 5 5 5 5 3 5 3 5 5 5 5 5 5 3 5 5 3 5 3 5 5 5 5 5 5 5 5 5 5 5 5 5 5 3 5 5 5 5 5 5 5 5 5 5 3 5 5 5 5 5 5 3 5 5 5 5 5 5 5 5 5 5 5 5 5 5 5 5 5 5 5 5 5 5 5 5 5 3 5 5 5 5 5 3 5 5 5 5 5 5 5 5 5 5 5 3 5 5 5 5 3 5 5 5 5 5 3 5 5 5 5 5 3 5 5 3 5 5 5 5 5 5 5 5 5 5 5 5 5 5 5 5 5 5 5 5 5 5 5 5 5 5 3 5 5 3 5 5 5 5 5 5 5 5 5 5 5 5 5 5 5 3 5 5 5 5 5 5 5 5 5 3 5 5 5 5 5 5 5 3 5 5 5 5 5 3 5 5 5 5 5 5 3 5 5 5 5 3 5 5 5 5 5 5 5 3 5 5 3 5 5 3 5 5 5 5 3 5 5 5 5 5 5 5 5 3 5 5 3 5 5 5 5 5 5 5 5 5 3 5 5 5 5 5 3 5 5 5 5 3 5 5 5 3 5 5 5 5 5 5 5 5 5 5 5 3 3 5 5 5 5 5 5 5 5 5 5 5 3 5 5 5 5 5 3 5 3 3 5 3 3 5 5 3 5 5 5 5 5 5 3 5 3 3 5 5 5 5 5 3 5 5 5 5 5 5 5 5 3 5 5 5 5 3 5 5 5 5 5 3 5 5 3 5 5 5 5 5 5 5 3 5 3 5 5 5 5 5 5 5 3 3 5 5 5 5 5 5 5 3 5 5 5 5 5 5 3 5 5 5 5 5 5 5 5 5 5 5 5 5 5 3 5 5 3 5 5 5 5 3 5 5 5 5 3 5 5 5 5 5 5 3 5 5 5 5 5 5 5 3 5 5 5 3 5 5 5 5 3 5 5 3 5 5 5 5 5 5 5 3 5 5 5 5 3 5 3 5 5 5 5 5 5 5 5 5 5 5 5 5 5 3 5 5 5 5 5 5 5 3 5 5 3 5 5 3 5 5 5 5 5 5 5 5 5 3 5 5 5 3 5 5 5 5 5 5 5 5 5 3 5 5 5 5 5 5 5 5 5 5 5 3 5 5 5 3 5 5 5 5 5 5 5 5 5 5 5 3 5 5 5 5 5 5 5 5 5 5 3 5 5 5 5 5 3 5 5 5 5 5 5 5 5 3 5 5 3 5 5 3 5 5 5 5 3 3 5 5 5 5 3 5 5 5 5 3 5 5 3 5 5 5 5 3 5 5 3 5 5 5 5 5 3 5 5 5 5 5 5 5 5 3 5 3 5 5 5 5 5 5 5 5 5 3 3 5 5 5 5 5 5 3 5 5 3 5 5 3 5 3 5 5 5 3 5 5 3 5 5 5 5 5 5 5 5 3 3 5 5 3 3 5 5 5 5 3 5 5 5 3 5 3 5 3 3 3 5 3 5 5 5 3 5 5 5 5 5 5 5 5 5 3 5 5 3 5 5 5 5 5 5 3 5 5 5 5 5 5 3 3 3 5 5 5 5 5 5 5 5 5 5 5 3 5 5 5 5 3 5 5 5 5 5 5 5 5 3 5 5 3 5 5 5 3 5 5 5 5 5 5 5 5 5 3 5 5 5 5 5 5 5 5 3 5 5 5 3 5 5 3 5 5 5 3 5 3 5 5 3 5 3 5 5 3 5 5 5 5 5 5 3 5 5 3 5 5 5 5 5 5 5 5 5 5 5 5 5 5 5 5 5 5 5 5 5 5 5 5 5 5 5 5 5 5 5 5 5 5 5 5 5 5 5 5 5 5 5 5 5 5 5 5 5 5 5 5 5 5 5 5 5 5 5 5 5 5 5 5 5 5 5 5 5 5 5 5 5 5 5 5 5 5 5 5 5 5 5 5 5 5 5 5 5 5 5 5 5 5 5 5 3 5 5 5 5 3 5 5 5 5 5 5 5 5 5 5 5 5 3 3 5 5 5 5 5 5 5 5 5 5 5 5 5 5 5 3 5 5 5 3 5 5 5 5 5 5 5 5 5 5 3 5 3 5 5 5 5 5 5 5 5 5 5 5 5 5 5 5 5 5 5 5 5 5 5 5 5 3 5 5 5 5 3 5 5 5 5 5 5 5 5 3 5 5 5 5 5 5 5 5 5 5 5 5 5 5 5 5 5 5 5 5 5 5 5 5 5 5 5 5 5 5 5 5 5 5 5 5 5 5 5 5 5 5 5 5 5 5 5 5 5 3 5 5 5 5 5 5 5 5 5 5 5 5 5 5 5 5 5 5 5 5 5 5 5 5 5 5 5 5 5 5 5 5 3 5 5 5 5 5 5 3 5 5 5 5 5 5 3 5 5 3 5 3 5 3 5 5 5 5 3 5 5 5 5 5 3 5 5 5 3 3 5 5 5 3 5 5 5 5 3 3 5 5 5 5 5 5 5 5 5 5 5 5 5 5 3 5 5 3 5 5 3 3 5 5 5 5 5 5 5 5 5 5 3 5 3 5 5 5 5 5 5 5 5 5 5 5 3 5 5 5 5 5 5 5 3 5 5 5 5 5 5 5 5 5 5 5 5 5 5 5 5 5 5 3 3 5 5 5 5 5 5 5 5 5 5 5 5 5 5 5 5 5 3 5 5 5 5 5 5 5 5 5 3 5 5 5 5 5 5 5 5 5 5 5 5 3 5 5 5 5 3 5 3 5 5 5 5 5 5 5 5 5 3 5 5 5 5 3 5 5 5 5 3 5 3 5 5 5 5 5 5 5 5 5 5 5 5 3 5 5 5 5 5 5 5 5 5 5 5 5 5 5 5 3 5 3 5 5 3 5 5 5 3 5 3 5 5 3 5 5 3 5 3 5 5 5 5 5 5 5 3 3 5 5 5 5 3 3 5 5 3 3 5 3 5 5 3 3 5 5 3 5 5 3 5 5 5 5 5 5 5 5 3 5 5 3 5 3 5 5 5 3 5 5 5 5 5 5 5 5 3 5 5 5 5 5 5 5 5 5 5 5 5 5 5 5 5 5 5 5 5 5 5 3 5 5 5 5 5 5 5 5 5 5 5 5 5 5 5 5 5 5 
</DataArray>
</Cells>
<PointData Scalars="" Vectors="displacement," Tensors="">
<DataArray type="Float64" Name="displacement" NumberOfComponents="3" format="ascii">
-0.024998256250580771 -0.024998256670201197 0 -0.024480885129955766 -0.024252894783332393 0 -0.022385996332337694 -0.024998414395962992 0 -0.024998256250580771 -0.024998256670201197 0 -0.024480885129955766 -0.024252894783332393 0 -0.024998082416691634 -0.021856737025661294 0 -0.024480885129955766 -0.024252894783332393 0 -0.024479818891788331 -0.02355597543286193 0 -0.024998082416691634 -0.021856737025661294 0 -0.024480885129955766 -0.024252894783332393 0 -0.024479818891788331 -0.02355597543286193 0 -0.023892895903137455 -0.024012262406785626 0 -0.024479818891788331 -0.02355597543286193 0 -0.024317880168920749 -0.023632986252815312 0 -0.023892895903137455 -0.024012262406785626 0 -0.024479818891788331 -0.02355597543286193 0 -0.024317880168920749 -0.023632986252815312 0 -0.024998082416691634 -0.021856737025661294 0 -0.024961544735809423 -0.022776086359828973 0 -0.024999648194653685 -0.021851503962628766 0 -0.025386377585529325 -0.022384535663215837 0 -0.025435000973118467 -0.022358669002634727 0 -0.025549173976260067 -0.022161599222623753 0 -0.024317880168920749 -0.023632986252815312 0 -0.023948716496974928 -0.02376617524813646 0 -0.023892895903137455 -0.024012262406785626 0 -0.025745028094734349 -0.022043635263034694 0 -0.025386377585529325 -0.022384535663215837 0 -0.025549173976260067 -0.022161599222623753 0 -0.024961544735809423 -0.022776086359828973 0 -0.024760209438773623 -0.023085881876572255 0 -0.023892895903137455 -0.024012262406785626 0 -0.023285961533123633 -0.024802239457129206 0 -0.02407913474550348 -0.024137794843653387 0 -0.023948716496974928 -0.02376617524813646 0 -0.023892895903137455 -0.024012262406785626 0 -0.02407913474550348 -0.024137794843653387 0 -0.023285961533123633 -0.024802239457129206 0 -0.024573305154760243 -0.024811518035486653 0 -0.02407913474550348 -0.024137794843653387 0 -0.023128132362923902 -0.024861414743466807 0 -0.023323593557169019 -0.025063737886411148 0 -0.024480885129955766 -0.024252894783332393 0 -0.023285961533123633 -0.024802239457129206 0 -0.022385996332337694 -0.024998414395962992 0 -0.024480885129955766 -0.024252894783332393 0 -0.023892895903137455 -0.024012262406785626 0 -0.023285961533123633 -0.024802239457129206 0 -0.023285961533123633 -0.024802239457129206 0 -0.022385996332337694 -0.024998414395962992 0 -0.021742739057622244 -0.025366059796676291 0 -0.022385996332337694 -0.024998414395962992 0 -0.021136469619559308 -0.025117934722832698 0 -0.021742739057622244 -0.025366059796676291 0 -0.022385996332337694 -0.024998414395962992 0 -0.021136469619559308 -0.025117934722832698 0 -0.018951446384212967 -0.025000434365981317 0 -0.021136469619559308 -0.025117934722832698 0 -0.021076084455843802 -0.025366223367932563 0 -0.021742739057622244 -0.025366059796676291 0 -0.02058347860997713 -0.025556365367054617 0 -0.022580100591041579 -0.025039237063774894 0 -0.022580100591041579 -0.025039237063774894 0 -0.023323593557169019 -0.025063737886411148 0 -0.025820432701861021 -0.024854255713650599 0 -0.024573305154760243 -0.024811518035486653 0 -0.025477169942354088 -0.023332862934839757 0 -0.021136469619559308 -0.025117934722832698 0 -0.020389712609250692 -0.025914006832136349 0 -0.018951446384212967 -0.025000434365981317 0 -0.018952124820797535 -0.024999903588094917 0 -0.019210952763487107 -0.025725093698874074 0 -0.018362376538778993 -0.02557836453965296 0 -0.020389712609250692 -0.025914006832136349 0 -0.018951446384212967 -0.025000434365981317 0 -0.01926153814235616 -0.025762268708345099 0 -0.019670549714997349 -0.025376332367736131 0 -0.01829880423525259 -0.025561397633772995 0 -0.018952498257834509 -0.025000345584812182 0 -0.019670549714997349 -0.025376332367736131 0 -0.022295180156453459 -0.024819850677456078 0 -0.021653504807383414 -0.024725187203544812 0 -0.021871537604181687 -0.025258983217723741 0 -0.022580100591041579 -0.025039237063774894 0 -0.019670549714997349 -0.025376332367736131 0 -0.022580100591041579 -0.025039237063774894 0 -0.023591910604317881 -0.024453191869345942 0 -0.019041556113438451 -0.025664844398699382 0 -0.018815578583355204 -0.026193483035008885 0 -0.019362821499313523 -0.026439520568304994 0 -0.019670549714997349 -0.025376332367736131 0 -0.023591910604317881 -0.024453191869345942 0 -0.019041556113438451 -0.025664844398699382 0 -0.018815578583355204 -0.026193483035008885 0 -0.018362376538778993 -0.02557836453965296 0 -0.025783645024059023 -0.022037819275813681 0 -0.025747401564659676 -0.022499923211907562 0 -0.02531529747301144 -0.022412916426651188 0 -0.018815578583355204 -0.026193483035008885 0 -0.019362821499313523 -0.026439520568304994 0 -0.018732251455306756 -0.027069780208045936 0 -0.023591910604317881 -0.024453191869345942 0 -0.021942623882767322 -0.024821583857153853 0 -0.025820432701861021 -0.024854255713650599 0 -0.026600114804389639 -0.023856144781721021 0 -0.025477169942354088 -0.023332862934839757 0 -0.026600114804389639 -0.023856144781721021 0 -0.025982831051107474 -0.022682598736122411 0 -0.025477169942354088 -0.023332862934839757 0 -0.023591910604317881 -0.024453191869345942 0 -0.026509802290217006 -0.022296506772577166 0 -0.025783645024059023 -0.022037819275813681 0 -0.025982831051107474 -0.022682598736122411 0 -0.025747401564659676 -0.022499923211907562 0 -0.025982831051107474 -0.022682598736122411 0 -0.02597582790818392 -0.022695298264959508 0 -0.025747401564659676 -0.022499923211907562 0 -0.025523206055451768 -0.022706521946486275 0 -0.02531529747301144 -0.022412916426651188 0 -0.02473758336894441 -0.022938017878610197 0 -0.025747401564659676 -0.022499923211907562 0 -0.025523206055451768 -0.022706521946486275 0 -0.02531529747301144 -0.022412916426651188 0 -0.02597582790818392 -0.022695298264959508 0 -0.025523206055451768 -0.022706521946486275 0 -0.025690140568988797 -0.023143306148390497 0 -0.02597582790818392 -0.022695298264959508 0 -0.025747401564659676 -0.022499923211907562 0 -0.025523206055451768 -0.022706521946486275 0 -0.024573305154760243 -0.024811518035486653 0 -0.02407913474550348 -0.024137794843653387 0 -0.025477169942354088 -0.023332862934839757 0 -0.024760209438773623 -0.023085881876572255 0 -0.02550421819160615 -0.023332612151610616 0 -0.023948716496974928 -0.02376617524813646 0 -0.02407913474550348 -0.024137794843653387 0 -0.025477169942354088 -0.023332862934839757 0 -0.025982831051107474 -0.022682598736122411 0 -0.025477169942354088 -0.023332862934839757 0 -0.02548619595309521 -0.022618905880693194 0 -0.025386377585529325 -0.022384535663215837 0 -0.025477169942354088 -0.023332862934839757 0 -0.02548619595309521 -0.022618905880693194 0 -0.025386377585529325 -0.022384535663215837 0 -0.02548619595309521 -0.022618905880693194 0 -0.025435000973118467 -0.022358669002634727 0 -0.025435000973118467 -0.022358669002634727 0 -0.025641796512411753 -0.022297739317416011 0 -0.025439811044859876 -0.022207153975345385 0 -0.02548619595309521 -0.022618905880693194 0 -0.025435000973118467 -0.022358669002634727 0 -0.025641796512411753 -0.022297739317416011 0 -0.025982831051107474 -0.022682598736122411 0 -0.02548619595309521 -0.022618905880693194 0 -0.025641796512411753 -0.022297739317416011 0 -0.026880494646290037 -0.018750060270946039 0 -0.027062100791206488 -0.018606873440698876 0 -0.02686334929409406 -0.018492846551005467 0 -0.026381718029633291 -0.020471812303788643 0 -0.026011632297695601 -0.020474644537160309 0 -0.026880494646290037 -0.018750060270946039 0 -0.02686334929409406 -0.018492846551005467 0 -0.026611342448510038 -0.018687607266817955 0 -0.025523206055451768 -0.022706521946486275 0 -0.025690140568988797 -0.023143306148390497 0 -0.02473758336894441 -0.022938017878610197 0 -0.026013299902592664 -0.021147989542045571 0 -0.020818787536523727 -0.024717706353452662 0 -0.02597582790818392 -0.022695298264959508 0 -0.025641796512411753 -0.022297739317416011 0 -0.026126488263685639 -0.02247758902274782 0 -0.026381718029633291 -0.020471812303788643 0 -0.026013299902592664 -0.021147989542045571 0 -0.025982831051107474 -0.022682598736122411 0 -0.02597582790818392 -0.022695298264959508 0 -0.025641796512411753 -0.022297739317416011 0 -0.025624708274612475 -0.022849939209070778 0 -0.026013299902592664 -0.021147989542045571 0 -0.026880494646290037 -0.018750060270946039 0 -0.027135476248077908 -0.018831420542926063 0 -0.027062100791206488 -0.018606873440698876 0 -0.026013299902592664 -0.021147989542045571 0 -0.024953277664229612 -0.020686336898224141 0 -0.027135476248077908 -0.018831420542926063 0 -0.027062100791206488 -0.018606873440698876 0 -0.027293809042753345 -0.018586735769727743 0 -0.027062100791206488 -0.018606873440698876 0 -0.027226844157525444 -0.018400729144699472 0 -0.027293809042753345 -0.018586735769727743 0 -0.027062100791206488 -0.018606873440698876 0 -0.027226844157525444 -0.018400729144699472 0 -0.027056762428184035 -0.018407618842220797 0 -0.027062100791206488 -0.018606873440698876 0 -0.027056762428184035 -0.018407618842220797 0 -0.02686334929409406 -0.018492846551005467 0 -0.027056762428184035 -0.018407618842220797 0 -0.026969825074496925 -0.018251177464974289 0 -0.027101658257877068 -0.01803955780186061 0 -0.027226844157525444 -0.018400729144699472 0 -0.027293100944894018 -0.018203971047780276 0 -0.027101658257877068 -0.01803955780186061 0 -0.027226844157525444 -0.018400729144699472 0 -0.027056762428184035 -0.018407618842220797 0 -0.027101658257877068 -0.01803955780186061 0 -0.02686334929409406 -0.018492846551005467 0 -0.026636893974809363 -0.018434444071289018 0 -0.026611342448510038 -0.018687607266817955 0 -0.02686334929409406 -0.018492846551005467 0 -0.026819035922418855 -0.018258911970446483 0 -0.026636893974809363 -0.018434444071289018 0 -0.027056762428184035 -0.018407618842220797 0 -0.02686334929409406 -0.018492846551005467 0 -0.026969825074496925 -0.018251177464974289 0 -0.02686334929409406 -0.018492846551005467 0 -0.026969825074496925 -0.018251177464974289 0 -0.026819035922418855 -0.018258911970446483 0 -0.026969825074496925 -0.018251177464974289 0 -0.026819035922418855 -0.018258911970446483 0 -0.026971282947726053 -0.018068314860067165 0 -0.026819035922418855 -0.018258911970446483 0 -0.026636893974809363 -0.018434444071289018 0 -0.026640264633898306 -0.018184839346095934 0 -0.026636893974809363 -0.018434444071289018 0 -0.026429118809932695 -0.01830305998340874 0 -0.026640264633898306 -0.018184839346095934 0 -0.026498136658789806 -0.018513694420106131 0 -0.026636893974809363 -0.018434444071289018 0 -0.026429118809932695 -0.01830305998340874 0 -0.026498136658789806 -0.018513694420106131 0 -0.026636893974809363 -0.018434444071289018 0 -0.026611342448510038 -0.018687607266817955 0 -0.026538669939049696 -0.018483299803057799 0 -0.025988654874569018 -0.020260587960068924 0 -0.026526936253881805 -0.01906765039948911 0 -0.026041783652724641 -0.019555179701664847 0 -0.026294167859127245 -0.020191415844491346 0 -0.026498136658789806 -0.018513694420106131 0 -0.026429118809932695 -0.01830305998340874 0 -0.026312690686237913 -0.018627354900640374 0 -0.026526936253881805 -0.01906765039948911 0 -0.026082174325232615 -0.019092698822537588 0 -0.026041783652724641 -0.019555179701664847 0 -0.026082174325232615 -0.019092698822537588 0 -0.025573646596050971 -0.019378376705423681 0 -0.025641596049210742 -0.018325297289354302 0 -0.026082174325232615 -0.019092698822537588 0 -0.025573646596050971 -0.019378376705423681 0 -0.026041783652724641 -0.019555179701664847 0 -0.024999896213550744 -0.01875032051759884 0 -0.025573646596050971 -0.019378376705423681 0 -0.024999939552897824 -0.020069586640090342 0 -0.024999896213550744 -0.01875032051759884 0 -0.025573646596050971 -0.019378376705423681 0 -0.025641596049210742 -0.018325297289354302 0 -0.025573646596050971 -0.019378376705423681 0 -0.024999939552897824 -0.020069586640090342 0 -0.025656150718475611 -0.020081097085221485 0 -0.025000055061558855 -0.020070106552023102 0 -0.025643457815914279 -0.020283865823420462 0 -0.025656150718475611 -0.020081097085221485 0 -0.026041783652724641 -0.019555179701664847 0 -0.026294167859127245 -0.020191415844491346 0 -0.025573646596050971 -0.019378376705423681 0 -0.025656150718475611 -0.020081097085221485 0 -0.026041783652724641 -0.019555179701664847 0 -0.025643457815914279 -0.020283865823420462 0 -0.025988654874569018 -0.020260587960068924 0 -0.025729861385733879 -0.02214859442295801 0 -0.025988654874569018 -0.020260587960068924 0 -0.025456794756375276 -0.021189453686665253 0 -0.025811312182987708 -0.021762791289153025 0 -0.026250454699411115 -0.020751334610441916 0 -0.025572407720574272 -0.020487217171807997 0 -0.025456794756375276 -0.021189453686665253 0 -0.026250454699411115 -0.020751334610441916 0 -0.025572407720574272 -0.020487217171807997 0 -0.025456794756375276 -0.021189453686665253 0 -0.024999710318375994 -0.020961025979596617 0 -0.024999992267025779 -0.020070307265125657 0 -0.025572407720574272 -0.020487217171807997 0 -0.024999710318375994 -0.020961025979596617 0 -0.025456794756375276 -0.021189453686665253 0 -0.024999710318375994 -0.020961025979596617 0 -0.025000178533677111 -0.021850910707628495 0 -0.025456794756375276 -0.021189453686665253 0 -0.025000178533677111 -0.021850910707628495 0 -0.025811312182987708 -0.021762791289153025 0 -0.025745028094734349 -0.022043635263034694 0 -0.025000178533677111 -0.021850910707628495 0 -0.025811312182987708 -0.021762791289153025 0 -0.025811312182987708 -0.021762791289153025 0 -0.025594284306800441 -0.022097358998728917 0 -0.025549173976260067 -0.022161599222623753 0 -0.025745028094734349 -0.022043635263034694 0 -0.025811312182987708 -0.021762791289153025 0 -0.025549173976260067 -0.022161599222623753 0 -0.025435000973118467 -0.022358669002634727 0 -0.025549173976260067 -0.022161599222623753 0 -0.025439811044859876 -0.022207153975345385 0 -0.025594284306800441 -0.022097358998728917 0 -0.025549173976260067 -0.022161599222623753 0 -0.025439811044859876 -0.022207153975345385 0 -0.025594284306800441 -0.022097358998728917 0 -0.025439811044859876 -0.022207153975345385 0 -0.025706521844589672 -0.022232595095407457 0 -0.026011632297695601 -0.020474644537160309 0 -0.025988654874569018 -0.020260587960068924 0 -0.026498136658789806 -0.018513694420106131 0 -0.026611342448510038 -0.018687607266817955 0 -0.026312690686237913 -0.018627354900640374 0 -0.025811312182987708 -0.021762791289153025 0 -0.025594284306800441 -0.022097358998728917 0 -0.025706521844589672 -0.022232595095407457 0 -0.012272821549001073 -0.026047655723605141 0 -0.012172353613130219 -0.026410981604885548 0 -0.011980861472799705 -0.026085524117555915 0 -0.012529739829042515 -0.026342986550908734 0 -0.012272821549001073 -0.026047655723605141 0 -0.012172353613130219 -0.026410981604885548 0 -0.01434989173076278 -0.026844310411740405 0 -0.014276202861470058 -0.026501787669443975 0 -0.013467447182096302 -0.02654839077017088 0 -0.013151834933831718 -0.026539247492500806 0 -0.012900346298338857 -0.026295235657880382 0 -0.014276202861470058 -0.026501787669443975 0 -0.013625488655287473 -0.025844903793420672 0 -0.014591684779659502 -0.026094986801580646 0 -0.014276202861470058 -0.026501787669443975 0 -0.013467447182096302 -0.02654839077017088 0 -0.013625488655287473 -0.025844903793420672 0 -0.012900346298338857 -0.026295235657880382 0 -0.01220874756959865 -0.025773886490277956 0 -0.013467447182096302 -0.02654839077017088 0 -0.013625488655287473 -0.025844903793420672 0 -0.012475309962342439 -0.025934888617458584 0 -0.012925255072999709 -0.025521615137053189 0 -0.013625488655287473 -0.025844903793420672 0 -0.012475309962342439 -0.025934888617458584 0 -0.012925255072999709 -0.025521615137053189 0 -0.012503400638343673 -0.024999815882881603 0 -0.013793231791462589 -0.02499992614169691 0 -0.012925255072999709 -0.025521615137053189 0 -0.012503400638343673 -0.024999815882881603 0 -0.01235925746023638 -0.025386402935857193 0 -0.012925255072999709 -0.025521615137053189 0 -0.013793231791462589 -0.02499992614169691 0 -0.013625488655287473 -0.025844903793420672 0 -0.013793231791462589 -0.02499992614169691 0 -0.013625488655287473 -0.025844903793420672 0 -0.014460365869564534 -0.025523726527235117 0 -0.013625488655287473 -0.025844903793420672 0 -0.014591684779659502 -0.026094986801580646 0 -0.014460365869564534 -0.025523726527235117 0 -0.014591684779659502 -0.026094986801580646 0 -0.014460365869564534 -0.025523726527235117 0 -0.015202201288114003 -0.025758362223974259 0 -0.013793231791462589 -0.02499992614169691 0 -0.014460365869564534 -0.025523726527235117 0 -0.015082827510138645 -0.02499990404836526 0 -0.014460365869564534 -0.025523726527235117 0 -0.015082827510138645 -0.02499990404836526 0 -0.015202201288114003 -0.025758362223974259 0 -0.015082827510138645 -0.02499990404836526 0 -0.015202201288114003 -0.025758362223974259 0 -0.016372507860775525 -0.024999885003852168 0 -0.014591684779659502 -0.026094986801580646 0 -0.015202201288114003 -0.025758362223974259 0 -0.015125838150578965 -0.026446897397694454 0 -0.015202201288114003 -0.025758362223974259 0 -0.015125838150578965 -0.026446897397694454 0 -0.015993882878937809 -0.025998279864192793 0 -0.014276202861470058 -0.026501787669443975 0 -0.014591684779659502 -0.026094986801580646 0 -0.015125838150578965 -0.026446897397694454 0 -0.014276202861470058 -0.026501787669443975 0 -0.015125838150578965 -0.026446897397694454 0 -0.01497845121386816 -0.026694387431343565 0 -0.01434989173076278 -0.026844310411740405 0 -0.014276202861470058 -0.026501787669443975 0 -0.01497845121386816 -0.026694387431343565 0 -0.015125838150578965 -0.026446897397694454 0 -0.01497845121386816 -0.026694387431343565 0 -0.015280485840285182 -0.026654056174711498 0 -0.015280485840285182 -0.026654056174711498 0 -0.01551873384697584 -0.026592618724207283 0 -0.01498030180672812 -0.026565002802305098 0 -0.015125838150578965 -0.026446897397694454 0 -0.015280485840285182 -0.026654056174711498 0 -0.01551873384697584 -0.026592618724207283 0 -0.015894364908941302 -0.02672997536925768 0 -0.015729601245558049 -0.027424959557604746 0 -0.016290100474188295 -0.027076490184280041 0 -0.01693234938242905 -0.027460649530410455 0 -0.016877000463146739 -0.026689425067991525 0 -0.01693234938242905 -0.027460649530410455 0 -0.016877000463146739 -0.026689425067991525 0 -0.017392803178917383 -0.027094794824048175 0 -0.016290100474188295 -0.027076490184280041 0 -0.01693234938242905 -0.027460649530410455 0 -0.016460561932570644 -0.0279660188975514 0 -0.015125838150578965 -0.026446897397694454 0 -0.01551873384697584 -0.026592618724207283 0 -0.015993882878937809 -0.025998279864192793 0 -0.016290100474188295 -0.027076490184280041 0 -0.016877000463146739 -0.026689425067991525 0 -0.015993882878937809 -0.025998279864192793 0 -0.015894364908941302 -0.02672997536925768 0 -0.015971891180360704 -0.026037407458316661 0 -0.015202201288114003 -0.025758362223974259 0 -0.015993882878937809 -0.025998279864192793 0 -0.016372507860775525 -0.024999885003852168 0 -0.015993882878937809 -0.025998279864192793 0 -0.016372507860775525 -0.024999885003852168 0 -0.017036639038047301 -0.025814098789480627 0 -0.016372507860775525 -0.024999885003852168 0 -0.017036639038047301 -0.025814098789480627 0 -0.017662494835330798 -0.024999948673357052 0 -0.016877000463146739 -0.026689425067991525 0 -0.017036639038047301 -0.025814098789480627 0 -0.017535426819373024 -0.026496658581448642 0 -0.016877000463146739 -0.026689425067991525 0 -0.015993882878937809 -0.025998279864192793 0 -0.017036639038047301 -0.025814098789480627 0 -0.017036639038047301 -0.025814098789480627 0 -0.017771789368464234 -0.025861200378695118 0 -0.017535426819373024 -0.026496658581448642 0 -0.017771789368464234 -0.025861200378695118 0 -0.018230668411327644 -0.026390078121435973 0 -0.017535426819373024 -0.026496658581448642 0 -0.017771789368464234 -0.025861200378695118 0 -0.017662494835330798 -0.024999948673357052 0 -0.018362376538778993 -0.02557836453965296 0 -0.017036639038047301 -0.025814098789480627 0 -0.017771789368464234 -0.025861200378695118 0 -0.017662494835330798 -0.024999948673357052 0 -0.018952124820797535 -0.024999903588094917 0 -0.017662494835330798 -0.024999948673357052 0 -0.018362376538778993 -0.02557836453965296 0 -0.018815578583355204 -0.026193483035008885 0 -0.018362376538778993 -0.02557836453965296 0 -0.018230668411327644 -0.026390078121435973 0 -0.017771789368464234 -0.025861200378695118 0 -0.018362376538778993 -0.02557836453965296 0 -0.018230668411327644 -0.026390078121435973 0 -0.018732251455306756 -0.027069780208045936 0 -0.018230668411327644 -0.026390078121435973 0 -0.018016316193449823 -0.027040847261347079 0 -0.018815578583355204 -0.026193483035008885 0 -0.018732251455306756 -0.027069780208045936 0 -0.018230668411327644 -0.026390078121435973 0 -0.018230668411327644 -0.026390078121435973 0 -0.017535426819373024 -0.026496658581448642 0 -0.018016316193449823 -0.027040847261347079 0 -0.016877000463146739 -0.026689425067991525 0 -0.017535426819373024 -0.026496658581448642 0 -0.017392803178917383 -0.027094794824048175 0 -0.017535426819373024 -0.026496658581448642 0 -0.017392803178917383 -0.027094794824048175 0 -0.018016316193449823 -0.027040847261347079 0 -0.017696478678064492 -0.027297195351997264 0 -0.017392803178917383 -0.027094794824048175 0 -0.018016316193449823 -0.027040847261347079 0 -0.017696478678064492 -0.027297195351997264 0 -0.017392803178917383 -0.027094794824048175 0 -0.017386668693391262 -0.027446097197997777 0 -0.01693234938242905 -0.027460649530410455 0 -0.017386668693391262 -0.027446097197997777 0 -0.017257158328787842 -0.027756583376922009 0 -0.017386668693391262 -0.027446097197997777 0 -0.017730971256444465 -0.027595172589082714 0 -0.017257158328787842 -0.027756583376922009 0 -0.01693234938242905 -0.027460649530410455 0 -0.017392803178917383 -0.027094794824048175 0 -0.017386668693391262 -0.027446097197997777 0 -0.017696478678064492 -0.027297195351997264 0 -0.017386668693391262 -0.027446097197997777 0 -0.017730971256444465 -0.027595172589082714 0 -0.017696478678064492 -0.027297195351997264 0 -0.017730971256444465 -0.027595172589082714 0 -0.018073473989204471 -0.027684919586419582 0 -0.018588271842438657 -0.02562807317413613 0 -0.020818787536523727 -0.024717706353452662 0 -0.017696478678064492 -0.027297195351997264 0 -0.018016316193449823 -0.027040847261347079 0 -0.018073473989204471 -0.027684919586419582 0 -0.021942623882767322 -0.024821583857153853 0 -0.020818787536523727 -0.024717706353452662 0 -0.018732251455306756 -0.027069780208045936 0 -0.018016316193449823 -0.027040847261347079 0 -0.018073473989204471 -0.027684919586419582 0 -0.023629309693128955 -0.021296753540331403 0 -0.021758732226513897 -0.020835787081995523 0 -0.022404430309286044 -0.022977058990167148 0 -0.017730971256444465 -0.027595172589082714 0 -0.018015856425284121 -0.027658668717603859 0 -0.017287442015761285 -0.028278607056241436 0 -0.020818787536523727 -0.024717706353452662 0 -0.01890116463459332 -0.025339888761831814 0 -0.017730971256444465 -0.027595172589082714 0 -0.017257158328787842 -0.027756583376922009 0 -0.017287442015761285 -0.028278607056241436 0 -0.020450142419598801 -0.022163132172180005 0 -0.022404430309286044 -0.022977058990167148 0 -0.021105512260773361 -0.023457627644218864 0 -0.021758732226513897 -0.020835787081995523 0 -0.020450142419598801 -0.022163132172180005 0 -0.022404430309286044 -0.022977058990167148 0 -0.024953277664229612 -0.020686336898224141 0 -0.023119901693222027 -0.020799113181933705 0 -0.022404430309286044 -0.022977058990167148 0 -0.021188270315581105 -0.024648358465604269 0 -0.021105512260773361 -0.023457627644218864 0 -0.027226844157525444 -0.018400729144699472 0 -0.027293809042753345 -0.018586735769727743 0 -0.027441440276455113 -0.018346462416281135 0 -0.027226844157525444 -0.018400729144699472 0 -0.027293100944894018 -0.018203971047780276 0 -0.027441440276455113 -0.018346462416281135 0 -0.027582333423649366 -0.018248368539674955 0 -0.023119901693222027 -0.020799113181933705 0 -0.023119901693222027 -0.020799113181933705 0 -0.021204498649148966 -0.02062281956056345 0 -0.015752020804820008 -0.022673861677849634 0 -0.015685942921764201 -0.022878922333528756 0 -0.015632508956632468 -0.022852092860469339 0 -0.015752020804820008 -0.022673861677849634 0 -0.015632508956632468 -0.022852092860469339 0 -0.015633113813680079 -0.022589107412476786 0 -0.023119901693222027 -0.020799113181933705 0 -0.017677406555915112 -0.023178747760557034 0 -0.020450142419598801 -0.022163132172180005 0 -0.021105512260773361 -0.023457627644218864 0 -0.020160517932205729 -0.024076783295919911 0 -0.021188270315581105 -0.024648358465604269 0 -0.021105512260773361 -0.023457627644218864 0 -0.020160517932205729 -0.024076783295919911 0 -0.020450142419598801 -0.022163132172180005 0 -0.019130134864851191 -0.023494979008223581 0 -0.020160517932205729 -0.024076783295919911 0 -0.015633537937851931 -0.022934435882248548 0 -0.015633094806866647 -0.023022767919093162 0 -0.015685942921764201 -0.022878922333528756 0 -0.016454468811858282 -0.024723538001347339 0 -0.017677406555915112 -0.023178747760557034 0 -0.015633094806866647 -0.023022767919093162 0 -0.015685942921764201 -0.022878922333528756 0 -0.015632508956632468 -0.022852092860469339 0 -0.015632508956632468 -0.022852092860469339 0 -0.015563348257082062 -0.023289202197606298 0 -0.01572940787156292 -0.022703484770571564 0 -0.015563348257082062 -0.023289202197606298 0 -0.01631139191695926 -0.023227844890939767 0 -0.01572940787156292 -0.022703484770571564 0 -0.015633094806866647 -0.023022767919093162 0 -0.015632508956632468 -0.022852092860469339 0 -0.015563348257082062 -0.023289202197606298 0 -0.015563348257082062 -0.023289202197606298 0 -0.015257749429305184 -0.024465390836194877 0 -0.015942067534214604 -0.023920867003197857 0 -0.016454468811858282 -0.024723538001347339 0 -0.015406462558619815 -0.023425021974974758 0 -0.014134268923862891 -0.024465029142385204 0 -0.015563348257082062 -0.023289202197606298 0 -0.014634894630878676 -0.024303112637343579 0 -0.015563348257082062 -0.023289202197606298 0 -0.014634894630878676 -0.024303112637343579 0 -0.015257749429305184 -0.024465390836194877 0 -0.015633537937851931 -0.022934435882248548 0 -0.015633094806866647 -0.023022767919093162 0 -0.015563348257082062 -0.023289202197606298 0 -0.014134268923862891 -0.024465029142385204 0 -0.014634894630878676 -0.024303112637343579 0 -0.014653625397229883 -0.024792591703135042 0 -0.015476394883154309 -0.025125017401589136 0 -0.015664134158097847 -0.025815934294693001 0 -0.014634894630878676 -0.024303112637343579 0 -0.014631481955698465 -0.024689739856585433 0 -0.015257749429305184 -0.024465390836194877 0 -0.016454468811858282 -0.024723538001347339 0 -0.015664134158097847 -0.025815934294693001 0 -0.015257749429305184 -0.024465390836194877 0 -0.015258617801760856 -0.025182220369807197 0 -0.015883984753923192 -0.024776531775719288 0 -0.014631481955698465 -0.024689739856585433 0 -0.015257749429305184 -0.024465390836194877 0 -0.015258617801760856 -0.025182220369807197 0 -0.015664134158097847 -0.025815934294693001 0 -0.015729601245558049 -0.027424959557604746 0 -0.015258617801760856 -0.025182220369807197 0 -0.01498030180672812 -0.026565002802305098 0 -0.01554525844892957 -0.025665550681114212 0 -0.01469131349465424 -0.024851250939301378 0 -0.015258617801760856 -0.025182220369807197 0 -0.01498030180672812 -0.026565002802305098 0 -0.016533236502014884 -0.028736653449317136 0 -0.016773530309344111 -0.028356688903907069 0 -0.016460561932570644 -0.0279660188975514 0 -0.015664134158097847 -0.025815934294693001 0 -0.014941433708457342 -0.025151264360047377 0 -0.016672039140050363 -0.028818429826056327 0 -0.016533236502014884 -0.028736653449317136 0 -0.016773530309344111 -0.028356688903907069 0 -0.017287442015761285 -0.028278607056241436 0 -0.016672039140050363 -0.028818429826056327 0 -0.016773530309344111 -0.028356688903907069 0 -0.01890116463459332 -0.025339888761831814 0 -0.016454468811858282 -0.024723538001347339 0 -0.017287442015761285 -0.028278607056241436 0 -0.016773530309344111 -0.028356688903907069 0 -0.016949352296341431 -0.027973809465581277 0 -0.016773530309344111 -0.028356688903907069 0 -0.016949352296341431 -0.027973809465581277 0 -0.016460561932570644 -0.0279660188975514 0 -0.017257158328787842 -0.027756583376922009 0 -0.017287442015761285 -0.028278607056241436 0 -0.016949352296341431 -0.027973809465581277 0 -0.01693234938242905 -0.027460649530410455 0 -0.017257158328787842 -0.027756583376922009 0 -0.016949352296341431 -0.027973809465581277 0 -0.01693234938242905 -0.027460649530410455 0 -0.016949352296341431 -0.027973809465581277 0 -0.016460561932570644 -0.0279660188975514 0 -0.015280485840285182 -0.026654056174711498 0 -0.01498030180672812 -0.026565002802305098 0 -0.015481746292365067 -0.026415406448066066 0 -0.01498030180672812 -0.026565002802305098 0 -0.015481746292365067 -0.026415406448066066 0 -0.01554525844892957 -0.025665550681114212 0 -0.01497845121386816 -0.026694387431343565 0 -0.015481746292365067 -0.026415406448066066 0 -0.014927140390208074 -0.026937919686601332 0 -0.01497845121386816 -0.026694387431343565 0 -0.015280485840285182 -0.026654056174711498 0 -0.015481746292365067 -0.026415406448066066 0 -0.01434989173076278 -0.026844310411740405 0 -0.01497845121386816 -0.026694387431343565 0 -0.014927140390208074 -0.026937919686601332 0 -0.013151834933831718 -0.026539247492500806 0 -0.015868508051874942 -0.026365255832588443 0 -0.017016944459579016 -0.025518088053722163 0 -0.017121798531328804 -0.025379901494887142 0 -0.017016493311834403 -0.025152034253547621 0 -0.017081455235959532 -0.025591446814503944 0 -0.017016944459579016 -0.025518088053722163 0 -0.017121798531328804 -0.025379901494887142 0 -0.015868508051874942 -0.026365255832588443 0 -0.015988161101606512 -0.026304656083616748 0 -0.017081455235959532 -0.025591446814503944 0 -0.017121798531328804 -0.025379901494887142 0 -0.017362943550951606 -0.025216863474633592 0 -0.017362943550951606 -0.025216863474633592 0 -0.017219689855132728 -0.024773697973038893 0 -0.017681781721422225 -0.024629405804004294 0 -0.017121798531328804 -0.025379901494887142 0 -0.017362943550951606 -0.025216863474633592 0 -0.017016493311834403 -0.025152034253547621 0 -0.017362943550951606 -0.025216863474633592 0 -0.017219689855132728 -0.024773697973038893 0 -0.017016493311834403 -0.025152034253547621 0 -0.017016944459579016 -0.025518088053722163 0 -0.017016493311834403 -0.025152034253547621 0 -0.01649143989167802 -0.025308481564417028 0 -0.017219689855132728 -0.024773697973038893 0 -0.017016493311834403 -0.025152034253547621 0 -0.016839844350633737 -0.024704088922172216 0 -0.017016493311834403 -0.025152034253547621 0 -0.01649143989167802 -0.025308481564417028 0 -0.016839844350633737 -0.024704088922172216 0 -0.015542787255691408 -0.026414502876743712 0 -0.015868508051874942 -0.026365255832588443 0 -0.015481746292365067 -0.026415406448066066 0 -0.017016944459579016 -0.025518088053722163 0 -0.01649143989167802 -0.025308481564417028 0 -0.015481746292365067 -0.026415406448066066 0 -0.017179847017902553 -0.025729156466461449 0 -0.017016944459579016 -0.025518088053722163 0 -0.01637873643116957 -0.024876463861470948 0 -0.01649143989167802 -0.025308481564417028 0 -0.016839844350633737 -0.024704088922172216 0 -0.01637873643116957 -0.024876463861470948 0 -0.01649143989167802 -0.025308481564417028 0 -0.015994840135669434 -0.025373204140850671 0 -0.015481746292365067 -0.026415406448066066 0 -0.01649143989167802 -0.025308481564417028 0 -0.015994840135669434 -0.025373204140850671 0 -0.015481746292365067 -0.026415406448066066 0 -0.01554525844892957 -0.025665550681114212 0 -0.015994840135669434 -0.025373204140850671 0 -0.015258617801760856 -0.025182220369807197 0 -0.01554525844892957 -0.025665550681114212 0 -0.015883984753923192 -0.024776531775719288 0 -0.01554525844892957 -0.025665550681114212 0 -0.015994840135669434 -0.025373204140850671 0 -0.015883984753923192 -0.024776531775719288 0 -0.01637873643116957 -0.024876463861470948 0 -0.015994840135669434 -0.025373204140850671 0 -0.015883984753923192 -0.024776531775719288 0 -0.015257749429305184 -0.024465390836194877 0 -0.015883984753923192 -0.024776531775719288 0 -0.015942067534214604 -0.023920867003197857 0 -0.015883984753923192 -0.024776531775719288 0 -0.016470592137800191 -0.024164385518777465 0 -0.015942067534214604 -0.023920867003197857 0 -0.01637873643116957 -0.024876463861470948 0 -0.015883984753923192 -0.024776531775719288 0 -0.016470592137800191 -0.024164385518777465 0 -0.01637873643116957 -0.024876463861470948 0 -0.016470592137800191 -0.024164385518777465 0 -0.016839844350633737 -0.024704088922172216 0 -0.016470592137800191 -0.024164385518777465 0 -0.015942067534214604 -0.023920867003197857 0 -0.01631139191695926 -0.023227844890939767 0 -0.015563348257082062 -0.023289202197606298 0 -0.015942067534214604 -0.023920867003197857 0 -0.01631139191695926 -0.023227844890939767 0 -0.01631139191695926 -0.023227844890939767 0 -0.017138829274523253 -0.024009869405220673 0 -0.017396258707303765 -0.022789193578009608 0 -0.016470592137800191 -0.024164385518777465 0 -0.01631139191695926 -0.023227844890939767 0 -0.017138829274523253 -0.024009869405220673 0 -0.016470592137800191 -0.024164385518777465 0 -0.017138829274523253 -0.024009869405220673 0 -0.016839844350633737 -0.024704088922172216 0 -0.017219689855132728 -0.024773697973038893 0 -0.017138829274523253 -0.024009869405220673 0 -0.016839844350633737 -0.024704088922172216 0 -0.017219689855132728 -0.024773697973038893 0 -0.017138829274523253 -0.024009869405220673 0 -0.017681781721422225 -0.024629405804004294 0 -0.017681781721422225 -0.024629405804004294 0 -0.018022798460141543 -0.023956102692353265 0 -0.018511374928170805 -0.025136612689241025 0 -0.011185309278345759 -0.021417673453511886 0 -0.011036054099117428 -0.02389478892757092 0 -0.017138829274523253 -0.024009869405220673 0 -0.017681781721422225 -0.024629405804004294 0 -0.018022798460141543 -0.023956102692353265 0 -0.011185309278345759 -0.021417673453511886 0 -0.012011497478967964 -0.01877998653874248 0 -0.017138829274523253 -0.024009869405220673 0 -0.018022798460141543 -0.023956102692353265 0 -0.017396258707303765 -0.022789193578009608 0 -0.00443824479088462 -0.01887359231983142 0 -0.0045647984736777447 -0.019030099501689941 0 -0.0046349732983613874 -0.019049042877244755 0 -0.00443824479088462 -0.01887359231983142 0 -0.0043692338102650939 -0.019044061111204155 0 -0.0042459287240282631 -0.018974974972675234 0 -0.00443824479088462 -0.01887359231983142 0 -0.0043692338102650939 -0.019044061111204155 0 -0.0045647984736777447 -0.019030099501689941 0 -0.0043692338102650939 -0.019044061111204155 0 -0.0045647984736777447 -0.019030099501689941 0 -0.0045053118052425407 -0.019076239001734937 0 -0.00877594557926978 -0.017764427948211706 0 -0.012011497478967964 -0.01877998653874248 0 -0.0042459287240282631 -0.018974974972675234 0 -0.0041194729681134235 -0.019078197725601893 0 -0.0040405966493763275 -0.019001740849431636 0 -0.0043692338102650939 -0.019044061111204155 0 -0.0042459287240282631 -0.018974974972675234 0 -0.0041194729681134235 -0.019078197725601893 0 -0.0042459287240282631 -0.018974974972675234 0 -0.004213945397544409 -0.018876521533704699 0 -0.0040405966493763275 -0.019001740849431636 0 -0.004213945397544409 -0.018876521533704699 0 -0.0039900500910582766 -0.018917223679360808 0 -0.0040405966493763275 -0.019001740849431636 0 -0.00443824479088462 -0.01887359231983142 0 -0.004213945397544409 -0.018876521533704699 0 -0.0043273678863539593 -0.018675142689391275 0 -0.004213945397544409 -0.018876521533704699 0 -0.0043273678863539593 -0.018675142689391275 0 -0.0039845101939640177 -0.018746426421810493 0 -0.00443824479088462 -0.01887359231983142 0 -0.0042459287240282631 -0.018974974972675234 0 -0.004213945397544409 -0.018876521533704699 0 -0.010568410550320513 -0.026199731783744209 0 -0.010379252361638117 -0.025946429892882497 0 -0.010123488231398643 -0.026315497400615812 0 -0.011036054099117428 -0.02389478892757092 0 -0.0064147606960222236 -0.022532076984714988 0 -0.017081455235959532 -0.025591446814503944 0 -0.017362943550951606 -0.025216863474633592 0 -0.018511374928170805 -0.025136612689241025 0 -0.017362943550951606 -0.025216863474633592 0 -0.017681781721422225 -0.024629405804004294 0 -0.018511374928170805 -0.025136612689241025 0 -0.012807117555060706 -0.026658836620854082 0 -0.012337611590792472 -0.026745773818117304 0 -0.012480972801863863 -0.026551985442794659 0 -0.015868508051874942 -0.026365255832588443 0 -0.011036054099117428 -0.02389478892757092 0 -0.012529739829042515 -0.026342986550908734 0 -0.012480972801863863 -0.026551985442794659 0 -0.012172353613130219 -0.026410981604885548 0 -0.012529739829042515 -0.026342986550908734 0 -0.012807117555060706 -0.026658836620854082 0 -0.012480972801863863 -0.026551985442794659 0 -0.011036054099117428 -0.02389478892757092 0 -0.011466285526302874 -0.02666430359897027 0 -0.012337611590792472 -0.026745773818117304 0 -0.012480972801863863 -0.026551985442794659 0 -0.012172353613130219 -0.026410981604885548 0 -0.010568410550320513 -0.026199731783744209 0 -0.01042996480382139 -0.025892931611744562 0 -0.010379252361638117 -0.025946429892882497 0 -0.0043847441815665399 -0.017401636239036247 0 -0.0045452411449697291 -0.017316739560461352 0 -0.0044331341622284998 -0.017587261073835261 0 -0.0043847441815665399 -0.017401636239036247 0 -0.0045452411449697291 -0.017316739560461352 0 -0.0042926682719226662 -0.017278624352118233 0 -0.0053737912955265912 -0.018090845205772352 0 -0.0055596258329647166 -0.015493532057001358 0 -0.0043847441815665399 -0.017401636239036247 0 -0.0042926682719226662 -0.017278624352118233 0 -0.0042339356480287742 -0.017423054138214943 0 -0.0043847441815665399 -0.017401636239036247 0 -0.0044331341622284998 -0.017587261073835261 0 -0.0042339356480287742 -0.017423054138214943 0 -0.0055596258329647166 -0.015493532057001358 0 -0.0027508540743236189 -0.017426059004004828 0 -0.0015256229281863062 -0.017086055774139332 0 -0.00069848778171718862 -0.016879970604198345 0 -0.0015693710577861899 -0.017773782820920202 0 -0.0077043556981973536 -0.015641437598868112 0 -0.007797269265911894 -0.015879704613583259 0 -0.0079197723032174427 -0.015568097764841127 0 -0.0077043556981973536 -0.015641437598868112 0 -0.007797269265911894 -0.015879704613583259 0 -0.0074114358505897558 -0.015813097202590973 0 -0.0044079113269536114 -0.019855934823401783 0 -0.0042651731208198868 -0.019670243216082704 0 -0.0045341191651171158 -0.019560604109721852 0 -0.0046050463982711225 -0.01977803957629037 0 -0.0047189201524975768 -0.019495492468341674 0 -0.0048625326656390909 -0.01971026849343234 0 -0.0053737912955265912 -0.018090845205772352 0 -0.0045084602617453872 -0.019825189908332593 0 -0.0047189201524975768 -0.019495492468341674 0 -0.0048765955395521816 -0.019498555873468954 0 -0.0048625326656390909 -0.01971026849343234 0 -0.0053737912955265912 -0.018090845205772352 0 -0.0041386252161745227 -0.018527645694421471 0 -0.0044079113269536114 -0.019855934823401783 0 -0.0042651731208198868 -0.019670243216082704 0 -0.0040650526410489982 -0.019815339773283393 0 -0.0042651731208198868 -0.019670243216082704 0 -0.0042064971197392741 -0.01944949919727668 0 -0.0039505448557221939 -0.019552889723284537 0 -0.0042651731208198868 -0.019670243216082704 0 -0.0040650526410489982 -0.019815339773283393 0 -0.0039505448557221939 -0.019552889723284537 0 -0.0042064971197392741 -0.01944949919727668 0 -0.0039387075827247682 -0.01933885101452909 0 -0.0039505448557221939 -0.019552889723284537 0 -0.0042064971197392741 -0.01944949919727668 0 -0.0041199306116771143 -0.019289354062694487 0 -0.0043717675837110209 -0.019315350312951514 0 -0.0042064971197392741 -0.01944949919727668 0 -0.0041199306116771143 -0.019289354062694487 0 -0.0039387075827247682 -0.01933885101452909 0 -0.0041199306116771143 -0.019289354062694487 0 -0.0039683346643314089 -0.019187976254479138 0 -0.0039387075827247682 -0.01933885101452909 0 -0.0041199306116771143 -0.019289354062694487 0 -0.004236283476618692 -0.019177853909021807 0 -0.0039683346643314089 -0.019187976254479138 0 -0.0041199306116771143 -0.019289354062694487 0 -0.004236283476618692 -0.019177853909021807 0 -0.0043717675837110209 -0.019315350312951514 0 -0.0043692338102650939 -0.019044061111204155 0 -0.004236283476618692 -0.019177853909021807 0 -0.0041194729681134235 -0.019078197725601893 0 -0.004236283476618692 -0.019177853909021807 0 -0.0041194729681134235 -0.019078197725601893 0 -0.0039683346643314089 -0.019187976254479138 0 -0.0045053118052425407 -0.019076239001734937 0 -0.0044746966775899392 -0.019161698581489289 0 -0.0046600171919182528 -0.019039711334360592 0 -0.0045647984736777447 -0.019030099501689941 0 -0.0045053118052425407 -0.019076239001734937 0 -0.0046600171919182528 -0.019039711334360592 0 -0.0043692338102650939 -0.019044061111204155 0 -0.0045053118052425407 -0.019076239001734937 0 -0.0044746966775899392 -0.019161698581489289 0 -0.0043692338102650939 -0.019044061111204155 0 -0.004236283476618692 -0.019177853909021807 0 -0.0044746966775899392 -0.019161698581489289 0 -0.004236283476618692 -0.019177853909021807 0 -0.0044746966775899392 -0.019161698581489289 0 -0.0043717675837110209 -0.019315350312951514 0 -0.0044746966775899392 -0.019161698581489289 0 -0.0043717675837110209 -0.019315350312951514 0 -0.0047208309347728482 -0.019259473930181268 0 -0.0044746966775899392 -0.019161698581489289 0 -0.0047208309347728482 -0.019259473930181268 0 -0.0046600171919182528 -0.019039711334360592 0 -0.0045084602617453872 -0.019825189908332593 0 -0.0047553264168785159 -0.019181763629490967 0 -0.0043717675837110209 -0.019315350312951514 0 -0.0045341191651171158 -0.019560604109721852 0 -0.0047208309347728482 -0.019259473930181268 0 -0.0047189201524975768 -0.019495492468341674 0 -0.0048765955395521816 -0.019498555873468954 0 -0.0047208309347728482 -0.019259473930181268 0 -0.0042064971197392741 -0.01944949919727668 0 -0.0043717675837110209 -0.019315350312951514 0 -0.0045341191651171158 -0.019560604109721852 0 -0.0042651731208198868 -0.019670243216082704 0 -0.0042064971197392741 -0.01944949919727668 0 -0.0045341191651171158 -0.019560604109721852 0 -0.0048765955395521816 -0.019498555873468954 0 -0.0050360362712278412 -0.01941352157205592 0 -0.0047208309347728482 -0.019259473930181268 0 -0.012011497478967964 -0.01877998653874248 0 -0.016816207369654786 -0.018980662171119319 0 -0.0098204502658130466 -0.017259892325188153 0 -0.012011497478967964 -0.01877998653874248 0 -0.0050360362712278412 -0.01941352157205592 0 -0.0047208309347728482 -0.019259473930181268 0 -0.0046600171919182528 -0.019039711334360592 0 -0.01631139191695926 -0.023227844890939767 0 -0.017396258707303765 -0.022789193578009608 0 -0.016201173742295832 -0.022358153237140153 0 -0.01570494820322469 -0.016091529046758795 0 -0.014875307799480715 -0.014419218335870381 0 -0.016595855674625445 -0.015253330906754672 0 -0.01631139191695926 -0.023227844890939767 0 -0.016201173742295832 -0.022358153237140153 0 -0.01572940787156292 -0.022703484770571564 0 -0.016595855674625445 -0.015253330906754672 0 -0.016526373332934649 -0.016033141437219189 0 -0.017287347146093982 -0.01628057981436409 0 -0.01570494820322469 -0.016091529046758795 0 -0.016595855674625445 -0.015253330906754672 0 -0.016526373332934649 -0.016033141437219189 0 -0.01570494820322469 -0.016091529046758795 0 -0.016526373332934649 -0.016033141437219189 0 -0.016751318013585034 -0.016739147316461117 0 -0.016526373332934649 -0.016033141437219189 0 -0.016751318013585034 -0.016739147316461117 0 -0.017287347146093982 -0.01628057981436409 0 -0.01570494820322469 -0.016091529046758795 0 -0.016751318013585034 -0.016739147316461117 0 -0.016520374980760286 -0.017891945357786446 0 -0.016751318013585034 -0.016739147316461117 0 -0.01702553547800208 -0.017411444956583373 0 -0.016520374980760286 -0.017891945357786446 0 -0.0098204502658130466 -0.017259892325188153 0 -0.012089388926397899 -0.01880129808450199 0 -0.016751318013585034 -0.016739147316461117 0 -0.01702553547800208 -0.017411444956583373 0 -0.017438578230179837 -0.016920608776285991 0 -0.0050360362712278412 -0.01941352157205592 0 -0.0050449398106553918 -0.019652473596387856 0 -0.0053890224116904277 -0.019887217848791449 0 -0.0046050463982711225 -0.01977803957629037 0 -0.0048625326656390909 -0.01971026849343234 0 -0.0051214227603022184 -0.019868547360983882 0 -0.0048765955395521816 -0.019498555873468954 0 -0.0050360362712278412 -0.01941352157205592 0 -0.0050449398106553918 -0.019652473596387856 0 -0.0048765955395521816 -0.019498555873468954 0 -0.0050449398106553918 -0.019652473596387856 0 -0.0048625326656390909 -0.01971026849343234 0 -0.0048625326656390909 -0.01971026849343234 0 -0.0050309241614397045 -0.019755121051060098 0 -0.0051214227603022184 -0.019868547360983882 0 -0.0050449398106553918 -0.019652473596387856 0 -0.0048625326656390909 -0.01971026849343234 0 -0.0050309241614397045 -0.019755121051060098 0 -0.0050449398106553918 -0.019652473596387856 0 -0.0051398810238563681 -0.019819045824814842 0 -0.0053890224116904277 -0.019887217848791449 0 -0.0050449398106553918 -0.019652473596387856 0 -0.0050309241614397045 -0.019755121051060098 0 -0.0051398810238563681 -0.019819045824814842 0 -0.0077269591850125325 -0.017224843150278064 0 -0.010346612135007156 -0.012978449839363309 0 -0.011876393653793119 -0.015354612353350896 0 -0.012072252868155659 -0.015382107878502336 0 -0.011795571016394509 -0.015736141957343922 0 -0.0077043556981973536 -0.015641437598868112 0 -0.0074114358505897558 -0.015813097202590973 0 -0.0075057676880365808 -0.015428788041588039 0 -0.0053737912955265912 -0.018090845205772352 0 -0.0077269591850125325 -0.017224843150278064 0 -0.0077269591850125325 -0.017224843150278064 0 -0.0074846391281803652 -0.017809878542584954 0 -0.0050309241614397045 -0.019755121051060098 0 -0.0051214227603022184 -0.019868547360983882 0 -0.0051398810238563681 -0.019819045824814842 0 -0.016748747120208903 -0.017930257692546282 0 -0.016504415532890136 -0.017893078237367351 0 -0.017331914769408402 -0.01968964856768796 0 -0.01702553547800208 -0.017411444956583373 0 -0.016748747120208903 -0.017930257692546282 0 -0.017373301697852023 -0.017847519130286732 0 -0.013474668011285756 -0.018865422131300342 0 -0.012089388926397899 -0.01880129808450199 0 -0.01702553547800208 -0.017411444956583373 0 -0.016748747120208903 -0.017930257692546282 0 -0.016520374980760286 -0.017891945357786446 0 -0.0051328100762905934 -0.019869520567108976 0 -0.0051398810238563681 -0.019819045824814842 0 -0.0053890224116904277 -0.019887217848791449 0 -0.0077269591850125325 -0.017224843150278064 0 -0.012089388926397899 -0.01880129808450199 0 -0.016748747120208903 -0.017930257692546282 0 -0.017601064864519064 -0.018427879670773126 0 -0.017331914769408402 -0.01968964856768796 0 -0.017871558208843577 -0.017967944257381217 0 -0.018503484506107032 -0.017312731198446975 0 -0.017628184033152711 -0.017511057282631682 0 -0.017871558208843577 -0.017967944257381217 0 -0.018369927210691254 -0.018252186961491619 0 -0.018503484506107032 -0.017312731198446975 0 -0.017871558208843577 -0.017967944257381217 0 -0.017373301697852023 -0.017847519130286732 0 -0.017628184033152711 -0.017511057282631682 0 -0.016748747120208903 -0.017930257692546282 0 -0.017373301697852023 -0.017847519130286732 0 -0.017601064864519064 -0.018427879670773126 0 -0.01702553547800208 -0.017411444956583373 0 -0.017373301697852023 -0.017847519130286732 0 -0.017628184033152711 -0.017511057282631682 0 -0.017871558208843577 -0.017967944257381217 0 -0.017373301697852023 -0.017847519130286732 0 -0.017601064864519064 -0.018427879670773126 0 -0.017871558208843577 -0.017967944257381217 0 -0.017601064864519064 -0.018427879670773126 0 -0.018369927210691254 -0.018252186961491619 0 -0.017601064864519064 -0.018427879670773126 0 -0.018369927210691254 -0.018252186961491619 0 -0.018208937098554572 -0.018981277029054562 0 -0.018369927210691254 -0.018252186961491619 0 -0.019006287167541394 -0.018781238066885135 0 -0.018208937098554572 -0.018981277029054562 0 -0.018369927210691254 -0.018252186961491619 0 -0.019275892643308128 -0.018028966003009655 0 -0.019006287167541394 -0.018781238066885135 0 -0.019275892643308128 -0.018028966003009655 0 -0.019927038205981591 -0.018772705226490813 0 -0.019006287167541394 -0.018781238066885135 0 -0.018369927210691254 -0.018252186961491619 0 -0.019275892643308128 -0.018028966003009655 0 -0.018503484506107032 -0.017312731198446975 0 -0.018503484506107032 -0.017312731198446975 0 -0.018459257555468917 -0.016025500022809072 0 -0.020493303522318939 -0.017035992215945484 0 -0.019275892643308128 -0.018028966003009655 0 -0.018503484506107032 -0.017312731198446975 0 -0.020493303522318939 -0.017035992215945484 0 -0.019257606833125697 -0.018377137590033208 0 -0.024219646065764162 -0.01742658603151135 0 -0.018503484506107032 -0.017312731198446975 0 -0.018018881761250886 -0.016633074921487565 0 -0.018459257555468917 -0.016025500022809072 0 -0.018018881761250886 -0.016633074921487565 0 -0.017894231903008758 -0.017093200790999356 0 -0.017438578230179837 -0.016920608776285991 0 -0.018503484506107032 -0.017312731198446975 0 -0.018018881761250886 -0.016633074921487565 0 -0.017894231903008758 -0.017093200790999356 0 -0.018503484506107032 -0.017312731198446975 0 -0.017894231903008758 -0.017093200790999356 0 -0.017628184033152711 -0.017511057282631682 0 -0.017894231903008758 -0.017093200790999356 0 -0.017628184033152711 -0.017511057282631682 0 -0.017438578230179837 -0.016920608776285991 0 -0.01702553547800208 -0.017411444956583373 0 -0.017628184033152711 -0.017511057282631682 0 -0.017438578230179837 -0.016920608776285991 0 -0.016751318013585034 -0.016739147316461117 0 -0.017438578230179837 -0.016920608776285991 0 -0.017287347146093982 -0.01628057981436409 0 -0.018018881761250886 -0.016633074921487565 0 -0.017438578230179837 -0.016920608776285991 0 -0.017287347146093982 -0.01628057981436409 0 -0.016816207369654786 -0.018980662171119319 0 -0.019257606833125697 -0.018377137590033208 0 -0.016595855674625445 -0.015253330906754672 0 -0.017287347146093982 -0.01628057981436409 0 -0.018383449498762316 -0.016128520557393132 0 -0.018018881761250886 -0.016633074921487565 0 -0.017287347146093982 -0.01628057981436409 0 -0.018383449498762316 -0.016128520557393132 0 -0.018936933289349398 -0.016966278744498166 0 -0.019257606833125697 -0.018377137590033208 0 -0.016201173742295832 -0.022358153237140153 0 -0.01572940787156292 -0.022703484770571564 0 -0.015689803405246398 -0.022238854006596715 0 -0.015632508956632468 -0.022852092860469339 0 -0.01572940787156292 -0.022703484770571564 0 -0.015633113813680079 -0.022589107412476786 0 -0.01572940787156292 -0.022703484770571564 0 -0.015633113813680079 -0.022589107412476786 0 -0.015689803405246398 -0.022238854006596715 0 -0.026910256235662778 -0.018077922627609919 0 -0.026917935303375957 -0.018079182104449892 0 -0.026970568087459467 -0.017971330634846152 0 -0.021204498649148966 -0.02062281956056345 0 -0.019257606833125697 -0.018377137590033208 0 -0.026876251927661653 -0.018222197824717692 0 -0.026910256235662778 -0.018077922627609919 0 -0.026917935303375957 -0.018079182104449892 0 -0.026876251927661653 -0.018222197824717692 0 -0.026917935303375957 -0.018079182104449892 0 -0.026940838143410271 -0.018067253644601836 0 -0.026917935303375957 -0.018079182104449892 0 -0.026940838143410271 -0.018067253644601836 0 -0.026970568087459467 -0.017971330634846152 0 -0.026803385937265483 -0.018336760656496767 0 -0.026876251927661653 -0.018222197824717692 0 -0.026940838143410271 -0.018067253644601836 0 -0.026935122045423456 -0.018125860078968995 0 -0.026803385937265483 -0.018336760656496767 0 -0.026940838143410271 -0.018067253644601836 0 -0.026935122045423456 -0.018125860078968995 0 -0.026940838143410271 -0.018067253644601836 0 -0.027075971856071565 -0.017970232912599585 0 -0.026940838143410271 -0.018067253644601836 0 -0.027034315052923238 -0.017946210110946402 0 -0.027075971856071565 -0.017970232912599585 0 -0.026940838143410271 -0.018067253644601836 0 -0.027034315052923238 -0.017946210110946402 0 -0.026970568087459467 -0.017971330634846152 0 -0.027034315052923238 -0.017946210110946402 0 -0.026970568087459467 -0.017971330634846152 0 -0.027099801862893499 -0.017817588506279122 0 -0.026970568087459467 -0.017971330634846152 0 -0.027099801862893499 -0.017817588506279122 0 -0.027122866551595348 -0.017731355607856915 0 -0.019275892643308128 -0.018028966003009655 0 -0.020493303522318939 -0.017035992215945484 0 -0.019927038205981591 -0.018772705226490813 0 -0.020493303522318939 -0.017035992215945484 0 -0.021183491934836374 -0.01841999963878636 0 -0.019927038205981591 -0.018772705226490813 0 -0.021183491934836374 -0.01841999963878636 0 -0.021743595498473101 -0.019791086819953101 0 -0.022582980101174554 -0.018109190913000679 0 -0.020493303522318939 -0.017035992215945484 0 -0.021183491934836374 -0.01841999963878636 0 -0.022582980101174554 -0.018109190913000679 0 -0.024219646065764162 -0.01742658603151135 0 -0.02558681342240544 -0.017687820456918368 0 -0.02302186881541779 -0.018228000442726145 0 -0.02558681342240544 -0.017687820456918368 0 -0.021595788448045106 -0.019650331100566739 0 -0.019927038205981591 -0.018772705226490813 0 -0.021405077794308433 -0.020031973477596561 0 -0.021183491934836374 -0.01841999963878636 0 -0.021743595498473101 -0.019791086819953101 0 -0.019927038205981591 -0.018772705226490813 0 -0.02302186881541779 -0.018228000442726145 0 -0.022611187737616674 -0.014756713820920597 0 -0.02302186881541779 -0.018228000442726145 0 -0.026037472023816611 -0.016338806271299754 0 -0.019927038205981591 -0.018772705226490813 0 -0.021405077794308433 -0.020031973477596561 0 -0.019389867163446869 -0.019890737471372096 0 -0.02302186881541779 -0.018228000442726145 0 -0.019676361114909269 -0.019083553053401488 0 -0.020277004601903782 -0.0121520059186319 0 -0.019996133600082174 -0.012625532596610402 0 -0.019734289618544905 -0.01241576012893823 0 -0.022611187737616674 -0.014756713820920597 0 -0.019696987192346721 -0.016358119545128585 0 -0.020277004601903782 -0.0121520059186319 0 -0.019734289618544905 -0.01241576012893823 0 -0.019733910017118144 -0.012085749333984383 0 -0.022611187737616674 -0.014756713820920597 0 -0.023892807717786922 -0.012510517210807781 0 -0.026351884500749226 -0.013938600332654568 0 -0.026469300038107907 -0.013324820656883458 0 -0.026740277102518285 -0.012914906422374427 0 -0.026351884500749226 -0.013938600332654568 0 -0.026064463009175212 -0.013560464153211979 0 -0.025704197393931053 -0.013954535293961779 0 -0.022611187737616674 -0.014756713820920597 0 -0.026037472023816611 -0.016338806271299754 0 -0.023189880303231592 -0.015331379625361392 0 -0.022688925541876501 -0.016336147843473221 0 -0.025442621513698534 -0.016587282891505968 0 -0.026351884500749226 -0.013938600332654568 0 -0.026064463009175212 -0.013560464153211979 0 -0.026469300038107907 -0.013324820656883458 0 -0.026064463009175212 -0.013560464153211979 0 -0.026469300038107907 -0.013324820656883458 0 -0.02575224163684478 -0.012999591601775476 0 -0.026469300038107907 -0.013324820656883458 0 -0.026381162135346751 -0.012562701013424301 0 -0.02575224163684478 -0.012999591601775476 0 -0.026469300038107907 -0.013324820656883458 0 -0.026381162135346751 -0.012562701013424301 0 -0.027167471025071128 -0.012266509530437073 0 -0.026381162135346751 -0.012562701013424301 0 -0.025979889589862307 -0.012203721171137943 0 -0.02575224163684478 -0.012999591601775476 0 -0.026381162135346751 -0.012562701013424301 0 -0.025979889589862307 -0.012203721171137943 0 -0.026619860170511711 -0.011976301327237884 0 -0.026381162135346751 -0.012562701013424301 0 -0.026619860170511711 -0.011976301327237884 0 -0.027167471025071128 -0.012266509530437073 0 -0.025979889589862307 -0.012203721171137943 0 -0.026619860170511711 -0.011976301327237884 0 -0.026150881317227731 -0.011567344305443327 0 -0.02731749969415952 -0.012227130773371193 0 -0.023877839973324433 -0.011628265130711232 0 -0.023892807717786922 -0.012510517210807781 0 -0.020739548507843101 -0.011631387715424445 0 -0.026724482679362904 -0.012604544673773786 0 -0.026740277102518285 -0.012914906422374427 0 -0.026948633195932388 -0.012035764821112571 0 -0.026619860170511711 -0.011976301327237884 0 -0.027167471025071128 -0.012266509530437073 0 -0.027132705817167847 -0.011600748833874056 0 -0.026412934115104741 -0.013355732799053178 0 -0.02731749969415952 -0.012227130773371193 0 -0.026469300038107907 -0.013324820656883458 0 -0.026724482679362904 -0.012604544673773786 0 -0.026740277102518285 -0.012914906422374427 0 -0.019734289618544905 -0.01241576012893823 0 -0.019573088518127901 -0.012744871699820286 0 -0.019371181132029007 -0.012401974604171546 0 -0.019996133600082174 -0.012625532596610402 0 -0.019734289618544905 -0.01241576012893823 0 -0.019573088518127901 -0.012744871699820286 0 -0.014539438550980827 -0.010255088210179088 0 -0.014541874666210963 -0.010962736833149873 0 -0.014068430381182714 -0.011048958089263075 0 -0.014539438550980827 -0.010255088210179088 0 -0.014906988437032911 -0.011045991649582001 0 -0.014541874666210963 -0.010962736833149873 0 -0.016843360363210838 -0.011500167793298237 0 -0.020739548507843101 -0.011631387715424445 0 -0.019996133600082174 -0.012625532596610402 0 -0.019573088518127901 -0.012744871699820286 0 -0.019746605491851935 -0.013070716122203022 0 -0.014539438550980827 -0.010255088210179088 0 -0.013733609749125629 -0.010377632661271632 0 -0.014068430381182714 -0.011048958089263075 0 -0.016843360363210838 -0.011500167793298237 0 -0.016628359431395106 -0.010335132757682495 0 -0.013733609749125629 -0.010377632661271632 0 -0.014142542085598035 -0.0094197478624956452 0 -0.013163850709622395 -0.00984458004360011 0 -0.014539438550980827 -0.010255088210179088 0 -0.013733609749125629 -0.010377632661271632 0 -0.014142542085598035 -0.0094197478624956452 0 -0.014142542085598035 -0.0094197478624956452 0 -0.013738399287677318 -0.0086000303156631014 0 -0.01343592152276132 -0.009259326237905945 0 -0.019371181132029007 -0.012401974604171546 0 -0.019733910017118144 -0.012085749333984383 0 -0.019164475204524922 -0.012033300631959339 0 -0.016628359431395106 -0.010335132757682495 0 -0.015957601245460109 -0.013965199426748677 0 -0.019734289618544905 -0.01241576012893823 0 -0.019371181132029007 -0.012401974604171546 0 -0.019733910017118144 -0.012085749333984383 0 -0.019927038205981591 -0.018772705226490813 0 -0.019389867163446869 -0.019890737471372096 0 -0.019006287167541394 -0.018781238066885135 0 -0.019389867163446869 -0.019890737471372096 0 -0.019006287167541394 -0.018781238066885135 0 -0.018208937098554572 -0.018981277029054562 0 -0.019696987192346721 -0.016358119545128585 0 -0.015957601245460109 -0.013965199426748677 0 -0.019389867163446869 -0.019890737471372096 0 -0.018208937098554572 -0.018981277029054562 0 -0.017331914769408402 -0.01968964856768796 0 -0.017601064864519064 -0.018427879670773126 0 -0.018208937098554572 -0.018981277029054562 0 -0.017331914769408402 -0.01968964856768796 0 -0.012072252868155659 -0.015382107878502336 0 -0.012296946426562183 -0.015781787731941364 0 -0.011795571016394509 -0.015736141957343922 0 -0.015957601245460109 -0.013965199426748677 0 -0.010346612135007156 -0.012978449839363309 0 -0.013738399287677318 -0.0086000303156631014 0 -0.012545849897727359 -0.008496550592437405 0 -0.013103824322528095 -0.0089190568105975768 0 -0.012089388926397899 -0.01880129808450199 0 -0.015957601245460109 -0.013965199426748677 0 -0.012545849897727359 -0.008496550592437405 0 -0.012673982026159141 -0.009014477224456606 0 -0.013103824322528095 -0.0089190568105975768 0 -0.012545849897727359 -0.008496550592437405 0 -0.012673982026159141 -0.009014477224456606 0 -0.012393409774163535 -0.0091231594251562301 0 -0.010346612135007156 -0.012978449839363309 0 -0.011342598429635968 -0.0095454274799106394 0 -0.012673982026159141 -0.009014477224456606 0 -0.012393409774163535 -0.0091231594251562301 0 -0.012894009017555439 -0.0093730304780697861 0 -0.012673982026159141 -0.009014477224456606 0 -0.012894009017555439 -0.0093730304780697861 0 -0.013103824322528095 -0.0089190568105975768 0 -0.012894009017555439 -0.0093730304780697861 0 -0.013103824322528095 -0.0089190568105975768 0 -0.01343592152276132 -0.009259326237905945 0 -0.013738399287677318 -0.0086000303156631014 0 -0.013103824322528095 -0.0089190568105975768 0 -0.01343592152276132 -0.009259326237905945 0 -0.014142542085598035 -0.0094197478624956452 0 -0.01343592152276132 -0.009259326237905945 0 -0.013163850709622395 -0.00984458004360011 0 -0.012894009017555439 -0.0093730304780697861 0 -0.01343592152276132 -0.009259326237905945 0 -0.013163850709622395 -0.00984458004360011 0 -0.013733609749125629 -0.010377632661271632 0 -0.012936766373747948 -0.010475774631838096 0 -0.013526379841138058 -0.011133987379685874 0 -0.013733609749125629 -0.010377632661271632 0 -0.013163850709622395 -0.00984458004360011 0 -0.012936766373747948 -0.010475774631838096 0 -0.012936766373747948 -0.010475774631838096 0 -0.01248517151164772 -0.01081228100796322 0 -0.012113449984100827 -0.0099434627949387781 0 -0.01248517151164772 -0.01081228100796322 0 -0.012113449984100827 -0.0099434627949387781 0 -0.011670125439140977 -0.011025772909528829 0 -0.013163850709622395 -0.00984458004360011 0 -0.012936766373747948 -0.010475774631838096 0 -0.012113449984100827 -0.0099434627949387781 0 -0.011342598429635968 -0.0095454274799106394 0 -0.011902931843260869 -0.010032488670617875 0 -0.012894009017555439 -0.0093730304780697861 0 -0.013163850709622395 -0.00984458004360011 0 -0.012113449984100827 -0.0099434627949387781 0 -0.012393409774163535 -0.0091231594251562301 0 -0.012894009017555439 -0.0093730304780697861 0 -0.012113449984100827 -0.0099434627949387781 0 -0.011612028065658558 -0.010180533768517273 0 -0.011319371198471524 -0.0097236166138791255 0 -0.010898538056967897 -0.0098992290839771922 0 -0.011700452203021289 -0.0094269815686524993 0 -0.011612028065658558 -0.010180533768517273 0 -0.011319371198471524 -0.0097236166138791255 0 -0.011612028065658558 -0.010180533768517273 0 -0.011095947732532984 -0.01043825998250509 0 -0.010898538056967897 -0.0098992290839771922 0 -0.011319371198471524 -0.0097236166138791255 0 -0.010898538056967897 -0.0098992290839771922 0 -0.011061710624743579 -0.0094042619390081392 0 -0.011902931843260869 -0.010032488670617875 0 -0.011668742277937832 -0.010991731417863086 0 -0.011612028065658558 -0.010180533768517273 0 -0.011095947732532984 -0.01043825998250509 0 -0.011670125439140977 -0.011025772909528829 0 -0.011095947732532984 -0.01043825998250509 0 -0.010825804701849307 -0.010851104887813488 0 -0.011670125439140977 -0.011025772909528829 0 -0.010302826355313006 -0.010675776981774276 0 -0.01061169214880079 -0.010291765031322285 0 -0.010135236205274553 -0.0099545421674790257 0 -0.010404114513948893 -0.01043455034405996 0 -0.0054095858549257419 -0.011733640092279557 0 -0.010302826355313006 -0.010675776981774276 0 -0.010825804701849307 -0.010851104887813488 0 -0.010633152625058163 -0.011471880579978984 0 -0.010302826355313006 -0.010675776981774276 0 -0.010825804701849307 -0.010851104887813488 0 -0.01061169214880079 -0.010291765031322285 0 -0.011095947732532984 -0.01043825998250509 0 -0.010825804701849307 -0.010851104887813488 0 -0.01061169214880079 -0.010291765031322285 0 -0.010898538056967897 -0.0098992290839771922 0 -0.010406546242533987 -0.0093642874901703147 0 -0.010135236205274553 -0.0099545421674790257 0 -0.01061169214880079 -0.010291765031322285 0 -0.010898538056967897 -0.0098992290839771922 0 -0.010135236205274553 -0.0099545421674790257 0 -0.011095947732532984 -0.01043825998250509 0 -0.01061169214880079 -0.010291765031322285 0 -0.010898538056967897 -0.0098992290839771922 0 -0.010406546242533987 -0.0093642874901703147 0 -0.010786227370812846 -0.0091312516644055791 0 -0.011061710624743579 -0.0094042619390081392 0 -0.0058927543768992254 -0.012169468112554305 0 -0.0054095858549257419 -0.011733640092279557 0 -0.010898538056967897 -0.0098992290839771922 0 -0.010406546242533987 -0.0093642874901703147 0 -0.011061710624743579 -0.0094042619390081392 0 -0.010406546242533987 -0.0093642874901703147 0 -0.010786227370812846 -0.0091312516644055791 0 -0.010643386038483752 -0.008796079972454799 0 -0.010786227370812846 -0.0091312516644055791 0 -0.011061710624743579 -0.0094042619390081392 0 -0.010973971227398811 -0.008814613325520082 0 -0.011700452203021289 -0.0094269815686524993 0 -0.011319371198471524 -0.0097236166138791255 0 -0.011061710624743579 -0.0094042619390081392 0 -0.011700452203021289 -0.0094269815686524993 0 -0.011061710624743579 -0.0094042619390081392 0 -0.010973971227398811 -0.008814613325520082 0 -0.011342598429635968 -0.0095454274799106394 0 -0.0085722908112130444 -0.013009163100592682 0 -0.0077043556981973536 -0.015641437598868112 0 -0.0075057676880365808 -0.015428788041588039 0 -0.0078256837640009302 -0.015465967889972938 0 -0.010346612135007156 -0.012978449839363309 0 -0.0085722908112130444 -0.013009163100592682 0 -0.010015551757296801 -0.011806691809507303 0 -0.010023965578924711 -0.011777954492060715 0 -0.010029173909028521 -0.011815610139869983 0 -0.0077043556981973536 -0.015641437598868112 0 -0.0078256837640009302 -0.015465967889972938 0 -0.0079197723032174427 -0.015568097764841127 0 -0.0071540606103936647 -0.013970212233920165 0 -0.0064478712146566813 -0.013306591078529717 0 -0.0062186014287503241 -0.013887925743939966 0 -0.0012817425446147708 -0.01521554397096807 0 -0.00113175800786054 -0.016512082880380963 0 -0.0016890121290490832 -0.016046599867645547 0 -0.0012817425446147708 -0.01521554397096807 0 -0.0008234297536101016 -0.016477722861632946 0 -0.00113175800786054 -0.016512082880380963 0 -0.0085722908112130444 -0.013009163100592682 0 -0.0055596258329647166 -0.015493532057001358 0 -0.0055596258329647166 -0.015493532057001358 0 -0.0059149163836417808 -0.013537201760599592 0 -0.00069848778171718862 -0.016879970604198345 0 -0.00085142113124847746 -0.016485910289668313 0 -0.00113175800786054 -0.016512082880380963 0 -0.0015256229281863062 -0.017086055774139332 0 -0.00069848778171718862 -0.016879970604198345 0 -0.00113175800786054 -0.016512082880380963 0 -0.0015256229281863062 -0.017086055774139332 0 -0.00113175800786054 -0.016512082880380963 0 -0.0016037884714975475 -0.016581186993617179 0 -0.0059149163836417808 -0.013537201760599592 0 -0.0038228327458424351 -0.01383853073852168 0 -0.0058927543768992254 -0.012169468112554305 0 -0.0059149163836417808 -0.013537201760599592 0 -0.00113175800786054 -0.016512082880380963 0 -0.0016890121290490832 -0.016046599867645547 0 -0.0016037884714975475 -0.016581186993617179 0 -0.0085722908112130444 -0.013009163100592682 0 -0.0059149163836417808 -0.013537201760599592 0 -0.010786227370812846 -0.0091312516644055791 0 -0.010973971227398811 -0.008814613325520082 0 -0.010643386038483752 -0.008796079972454799 0 -0.026276014989519342 -0.017361486542456232 0 -0.025865844432958855 -0.017371888038182039 0 -0.026227445446634561 -0.017707778698695747 0 -0.026532861766672307 -0.017656340713628628 0 -0.026638566794067099 -0.017198283777096091 0 -0.026864093797726942 -0.017618613360145394 0 -0.026276014989519342 -0.017361486542456232 0 -0.026532861766672307 -0.017656340713628628 0 -0.026638566794067099 -0.017198283777096091 0 -0.026276014989519342 -0.017361486542456232 0 -0.026227445446634561 -0.017707778698695747 0 -0.026532861766672307 -0.017656340713628628 0 -0.026276014989519342 -0.017361486542456232 0 -0.026638566794067099 -0.017198283777096091 0 -0.026203929203574543 -0.016915615020781729 0 -0.026638566794067099 -0.017198283777096091 0 -0.026203929203574543 -0.016915615020781729 0 -0.026487462648152132 -0.016593799999566866 0 -0.026089422202515363 -0.016959963627748501 0 -0.025924861630649148 -0.016313232914884356 0 -0.025865844432958855 -0.017371888038182039 0 -0.026203929203574543 -0.016915615020781729 0 -0.025867750015171446 -0.01624666122944006 0 -0.026356392843214359 -0.01653699003963699 0 -0.026173858373629712 -0.016360953048900943 0 -0.025867750015171446 -0.01624666122944006 0 -0.026276014989519342 -0.017361486542456232 0 -0.025865844432958855 -0.017371888038182039 0 -0.026203929203574543 -0.016915615020781729 0 -0.026356392843214359 -0.01653699003963699 0 -0.026173858373629712 -0.016360953048900943 0 -0.025710583107792565 -0.016515735653945533 0 -0.026173858373629712 -0.016360953048900943 0 -0.025710583107792565 -0.016515735653945533 0 -0.025642407925808991 -0.015732744350960507 0 -0.024999950720335704 -0.016110773155647046 0 -0.025710583107792565 -0.016515735653945533 0 -0.025642407925808991 -0.015732744350960507 0 -0.024999950720335704 -0.016110773155647046 0 -0.025710583107792565 -0.016515735653945533 0 -0.024999904826589918 -0.017430356728870579 0 -0.025710583107792565 -0.016515735653945533 0 -0.025830914901804284 -0.017335178190161529 0 -0.024999904826589918 -0.017430356728870579 0 -0.026356392843214359 -0.01653699003963699 0 -0.025710583107792565 -0.016515735653945533 0 -0.025830914901804284 -0.017335178190161529 0 -0.026356392843214359 -0.01653699003963699 0 -0.026357465050605832 -0.017845220640333247 0 -0.025830914901804284 -0.017335178190161529 0 -0.026357465050605832 -0.017845220640333247 0 -0.025830914901804284 -0.017335178190161529 0 -0.025641596049210742 -0.018325297289354302 0 -0.025830914901804284 -0.017335178190161529 0 -0.024999904826589918 -0.017430356728870579 0 -0.025641596049210742 -0.018325297289354302 0 -0.024999896213550744 -0.01875032051759884 0 -0.024999904826589918 -0.017430356728870579 0 -0.025641596049210742 -0.018325297289354302 0 -0.026082174325232615 -0.019092698822537588 0 -0.026357465050605832 -0.017845220640333247 0 -0.025641596049210742 -0.018325297289354302 0 -0.026083777918584978 -0.01900572011809112 0 -0.026150285009356313 -0.017989587721552711 0 -0.026526936253881805 -0.01906765039948911 0 -0.026082174325232615 -0.019092698822537588 0 -0.025958427305794365 -0.018124596961447994 0 -0.026526936253881805 -0.01906765039948911 0 -0.025958427305794365 -0.018124596961447994 0 -0.026535225352171871 -0.018016543243336004 0 -0.026538669939049696 -0.018483299803057799 0 -0.026515204259375761 -0.018158744113253723 0 -0.026227445446634561 -0.017707778698695747 0 -0.025958427305794365 -0.018124596961447994 0 -0.026535225352171871 -0.018016543243336004 0 -0.026089422202515363 -0.016959963627748501 0 -0.026150285009356313 -0.017989587721552711 0 -0.025865844432958855 -0.017371888038182039 0 -0.026227445446634561 -0.017707778698695747 0 -0.025958427305794365 -0.018124596961447994 0 -0.026532861766672307 -0.017656340713628628 0 -0.026535225352171871 -0.018016543243336004 0 -0.026734952587445911 -0.017941694272228866 0 -0.026227445446634561 -0.017707778698695747 0 -0.026532861766672307 -0.017656340713628628 0 -0.026535225352171871 -0.018016543243336004 0 -0.026535225352171871 -0.018016543243336004 0 -0.026640264633898306 -0.018184839346095934 0 -0.026734952587445911 -0.017941694272228866 0 -0.026429118809932695 -0.01830305998340874 0 -0.026535225352171871 -0.018016543243336004 0 -0.026640264633898306 -0.018184839346095934 0 -0.026819035922418855 -0.018258911970446483 0 -0.026640264633898306 -0.018184839346095934 0 -0.026827084645592608 -0.018065992703857607 0 -0.026640264633898306 -0.018184839346095934 0 -0.026827084645592608 -0.018065992703857607 0 -0.026734952587445911 -0.017941694272228866 0 -0.026819035922418855 -0.018258911970446483 0 -0.026827084645592608 -0.018065992703857607 0 -0.026971282947726053 -0.018068314860067165 0 -0.026827084645592608 -0.018065992703857607 0 -0.026971282947726053 -0.018068314860067165 0 -0.026956166790466769 -0.01788198331571194 0 -0.026971282947726053 -0.018068314860067165 0 -0.026956166790466769 -0.01788198331571194 0 -0.02709214319183954 -0.017887638825613655 0 -0.026956166790466769 -0.01788198331571194 0 -0.02709214319183954 -0.017887638825613655 0 -0.027158345986751656 -0.017647943003123126 0 -0.026956166790466769 -0.01788198331571194 0 -0.026734952587445911 -0.017941694272228866 0 -0.026864093797726942 -0.017618613360145394 0 -0.026532861766672307 -0.017656340713628628 0 -0.026734952587445911 -0.017941694272228866 0 -0.026864093797726942 -0.017618613360145394 0 -0.026827084645592608 -0.018065992703857607 0 -0.026956166790466769 -0.01788198331571194 0 -0.026734952587445911 -0.017941694272228866 0 -0.027582333423649366 -0.018248368539674955 0 -0.02695338568020661 -0.018000625688645702 0 -0.026935122045423456 -0.018125860078968995 0 -0.027101658257877068 -0.01803955780186061 0 -0.027075971856071565 -0.017970232912599585 0 -0.026971282947726053 -0.018068314860067165 0 -0.027101658257877068 -0.01803955780186061 0 -0.02709214319183954 -0.017887638825613655 0 -0.026969825074496925 -0.018251177464974289 0 -0.026971282947726053 -0.018068314860067165 0 -0.027101658257877068 -0.01803955780186061 0 -0.02709214319183954 -0.017887638825613655 0 -0.027075971856071565 -0.017970232912599585 0 -0.027127768944289494 -0.017785217048198805 0 -0.027101658257877068 -0.01803955780186061 0 -0.02709214319183954 -0.017887638825613655 0 -0.027075971856071565 -0.017970232912599585 0 -0.027034315052923238 -0.017946210110946402 0 -0.027075971856071565 -0.017970232912599585 0 -0.027099801862893499 -0.017817588506279122 0 -0.027075971856071565 -0.017970232912599585 0 -0.027099801862893499 -0.017817588506279122 0 -0.027127768944289494 -0.017785217048198805 0 -0.027099801862893499 -0.017817588506279122 0 -0.027162750511824992 -0.017654477637105117 0 -0.027131958565815489 -0.017701221501161036 0 -0.027099801862893499 -0.017817588506279122 0 -0.027127768944289494 -0.017785217048198805 0 -0.027162750511824992 -0.017654477637105117 0 -0.027127768944289494 -0.017785217048198805 0 -0.027162750511824992 -0.017654477637105117 0 -0.027158345986751656 -0.017647943003123126 0 -0.027162750511824992 -0.017654477637105117 0 -0.027158345986751656 -0.017647943003123126 0 -0.02734167813861129 -0.017392057185862297 0 -0.02709214319183954 -0.017887638825613655 0 -0.027127768944289494 -0.017785217048198805 0 -0.027158345986751656 -0.017647943003123126 0 -0.027162750511824992 -0.017654477637105117 0 -0.027134350937881978 -0.017593757592076233 0 -0.02734167813861129 -0.017392057185862297 0 -0.027162750511824992 -0.017654477637105117 0 -0.027131958565815489 -0.017701221501161036 0 -0.027134350937881978 -0.017593757592076233 0 -0.027134350937881978 -0.017593757592076233 0 -0.027033326735887354 -0.017535136152012531 0 -0.027059188589447593 -0.017641975906522556 0 -0.027131958565815489 -0.017701221501161036 0 -0.027134350937881978 -0.017593757592076233 0 -0.027122866551595348 -0.017731355607856915 0 -0.027257391266697694 -0.01789478564673179 0 -0.02558681342240544 -0.017687820456918368 0 -0.027099801862893499 -0.017817588506279122 0 -0.027131958565815489 -0.017701221501161036 0 -0.027122866551595348 -0.017731355607856915 0 -0.026638566794067099 -0.017198283777096091 0 -0.026864093797726942 -0.017618613360145394 0 -0.027062942631595328 -0.017379399489855413 0 -0.026956166790466769 -0.01788198331571194 0 -0.026864093797726942 -0.017618613360145394 0 -0.027158345986751656 -0.017647943003123126 0 -0.026864093797726942 -0.017618613360145394 0 -0.027158345986751656 -0.017647943003123126 0 -0.027062942631595328 -0.017379399489855413 0 -0.027158345986751656 -0.017647943003123126 0 -0.02734167813861129 -0.017392057185862297 0 -0.027062942631595328 -0.017379399489855413 0 -0.02734167813861129 -0.017392057185862297 0 -0.027079670587271006 -0.016891180199365492 0 -0.027062942631595328 -0.017379399489855413 0 -0.026638566794067099 -0.017198283777096091 0 -0.027079670587271006 -0.016891180199365492 0 -0.026487462648152132 -0.016593799999566866 0 -0.026638566794067099 -0.017198283777096091 0 -0.027079670587271006 -0.016891180199365492 0 -0.027062942631595328 -0.017379399489855413 0 -0.027079670587271006 -0.016891180199365492 0 -0.026897938532678155 -0.016183577914469366 0 -0.027828620332716415 -0.016217246093199585 0 -0.027079670587271006 -0.016891180199365492 0 -0.026897938532678155 -0.016183577914469366 0 -0.026487462648152132 -0.016593799999566866 0 -0.02734167813861129 -0.017392057185862297 0 -0.027079670587271006 -0.016891180199365492 0 -0.027828620332716415 -0.016217246093199585 0 -0.027384925965902605 -0.01719963036270513 0 -0.027620193481341846 -0.017232947532651727 0 -0.027620193481341846 -0.017232947532651727 0 -0.026728089942488799 -0.015005693595415556 0 -0.027305286334297942 -0.017671059113444972 0 -0.027172391929173034 -0.017756627502026241 0 -0.027277163526518402 -0.017786518379723212 0 -0.027828620332716415 -0.016217246093199585 0 -0.027345877180938331 -0.015527146029246951 0 -0.028005055166458088 -0.015086302392893198 0 -0.026897938532678155 -0.016183577914469366 0 -0.027828620332716415 -0.016217246093199585 0 -0.027345877180938331 -0.015527146029246951 0 -0.027345877180938331 -0.015527146029246951 0 -0.026896307273712894 -0.01515389463057123 0 -0.026696531650944495 -0.015678323446730313 0 -0.026897938532678155 -0.016183577914469366 0 -0.027345877180938331 -0.015527146029246951 0 -0.026696531650944495 -0.015678323446730313 0 -0.026943352660482232 -0.01768260624034973 0 -0.027033326735887354 -0.017535136152012531 0 -0.027059188589447593 -0.017641975906522556 0 -0.026943352660482232 -0.01768260624034973 0 -0.02704090755555031 -0.017691078599765552 0 -0.027059188589447593 -0.017641975906522556 0 -0.026943352660482232 -0.01768260624034973 0 -0.02704090755555031 -0.017691078599765552 0 -0.02704301977002279 -0.017718265267068132 0 -0.027134350937881978 -0.017593757592076233 0 -0.027059188589447593 -0.017641975906522556 0 -0.027165795109277982 -0.017655091796082364 0 -0.02704090755555031 -0.017691078599765552 0 -0.027059188589447593 -0.017641975906522556 0 -0.027103444904474985 -0.017693812363989862 0 -0.027059188589447593 -0.017641975906522556 0 -0.027165795109277982 -0.017655091796082364 0 -0.027103444904474985 -0.017693812363989862 0 -0.027134350937881978 -0.017593757592076233 0 -0.02734167813861129 -0.017392057185862297 0 -0.027165795109277982 -0.017655091796082364 0 -0.02734167813861129 -0.017392057185862297 0 -0.027305286334297942 -0.017671059113444972 0 -0.027165795109277982 -0.017655091796082364 0 -0.027165795109277982 -0.017655091796082364 0 -0.027172391929173034 -0.017756627502026241 0 -0.027103444904474985 -0.017693812363989862 0 -0.027305286334297942 -0.017671059113444972 0 -0.027165795109277982 -0.017655091796082364 0 -0.027172391929173034 -0.017756627502026241 0 -0.024913092101525539 -0.013553332091509525 0 -0.025610917610762039 -0.01351792405319439 0 -0.025704197393931053 -0.013954535293961779 0 -0.025938345864641627 -0.015599568446931764 0 -0.026037472023816611 -0.016338806271299754 0 -0.027172391929173034 -0.017756627502026241 0 -0.027103444904474985 -0.017693812363989862 0 -0.02704301977002279 -0.017718265267068132 0 -0.024913092101525539 -0.013553332091509525 0 -0.025610917610762039 -0.01351792405319439 0 -0.02575224163684478 -0.012999591601775476 0 -0.026064463009175212 -0.013560464153211979 0 -0.025610917610762039 -0.01351792405319439 0 -0.02575224163684478 -0.012999591601775476 0 -0.026064463009175212 -0.013560464153211979 0 -0.025610917610762039 -0.01351792405319439 0 -0.025704197393931053 -0.013954535293961779 0 -0.02704090755555031 -0.017691078599765552 0 -0.027103444904474985 -0.017693812363989862 0 -0.02704301977002279 -0.017718265267068132 0 -0.024913092101525539 -0.013553332091509525 0 -0.02575224163684478 -0.012999591601775476 0 -0.02490622363085962 -0.012645703571608385 0 -0.02575224163684478 -0.012999591601775476 0 -0.02490622363085962 -0.012645703571608385 0 -0.025447579359587667 -0.01239535348409705 0 -0.025938345864641627 -0.015599568446931764 0 -0.026728089942488799 -0.015005693595415556 0 -0.024913092101525539 -0.013553332091509525 0 -0.02490622363085962 -0.012645703571608385 0 -0.024093118626046958 -0.013112976451109279 0 -0.02490622363085962 -0.012645703571608385 0 -0.025148687223415005 -0.011724025331859017 0 -0.024024800640659896 -0.011971934790369782 0 -0.02490622363085962 -0.012645703571608385 0 -0.025148687223415005 -0.011724025331859017 0 -0.025447579359587667 -0.01239535348409705 0 -0.025979889589862307 -0.012203721171137943 0 -0.025148687223415005 -0.011724025331859017 0 -0.025447579359587667 -0.01239535348409705 0 -0.025979889589862307 -0.012203721171137943 0 -0.025148687223415005 -0.011724025331859017 0 -0.026150881317227731 -0.011567344305443327 0 -0.025979889589862307 -0.012203721171137943 0 -0.02575224163684478 -0.012999591601775476 0 -0.025447579359587667 -0.01239535348409705 0 -0.027517660280302888 -0.014669236587553055 0 -0.026896307273712894 -0.01515389463057123 0 -0.026675889215416099 -0.014515896375988444 0 -0.027345877180938331 -0.015527146029246951 0 -0.027517660280302888 -0.014669236587553055 0 -0.026896307273712894 -0.01515389463057123 0 -0.026728089942488799 -0.015005693595415556 0 -0.026117703746565399 -0.01269513466440401 0 -0.027345877180938331 -0.015527146029246951 0 -0.027517660280302888 -0.014669236587553055 0 -0.028005055166458088 -0.015086302392893198 0 -0.027517660280302888 -0.014669236587553055 0 -0.028294362675415231 -0.015106345465012038 0 -0.028278640245742115 -0.013807080843701823 0 -0.02490622363085962 -0.012645703571608385 0 -0.024093118626046958 -0.013112976451109279 0 -0.024024800640659896 -0.011971934790369782 0 -0.027873773492632828 -0.01497367147119268 0 -0.026728089942488799 -0.015005693595415556 0 -0.027517660280302888 -0.014669236587553055 0 -0.027272906461827638 -0.014074086294738752 0 -0.026675889215416099 -0.014515896375988444 0 -0.028278640245742115 -0.013807080843701823 0 -0.027272906461827638 -0.014074086294738752 0 -0.027345473603950645 -0.013358749957437105 0 -0.027517660280302888 -0.014669236587553055 0 -0.028278640245742115 -0.013807080843701823 0 -0.027272906461827638 -0.014074086294738752 0 -0.027272906461827638 -0.014074086294738752 0 -0.026804700061731492 -0.013816744745371321 0 -0.027345473603950645 -0.013358749957437105 0 -0.026804700061731492 -0.013816744745371321 0 -0.026157414607140696 -0.013798487450478784 0 -0.02665277618888592 -0.013241525624768675 0 -0.026804700061731492 -0.013816744745371321 0 -0.026157414607140696 -0.013798487450478784 0 -0.026675889215416099 -0.014515896375988444 0 -0.026157414607140696 -0.013798487450478784 0 -0.026015857138994538 -0.014588093022573157 0 -0.026675889215416099 -0.014515896375988444 0 -0.027272906461827638 -0.014074086294738752 0 -0.026804700061731492 -0.013816744745371321 0 -0.026675889215416099 -0.014515896375988444 0 -0.025629853698072858 -0.013581432164053522 0 -0.026157414607140696 -0.013798487450478784 0 -0.025360837657600433 -0.014149334799957143 0 -0.026157414607140696 -0.013798487450478784 0 -0.026015857138994538 -0.014588093022573157 0 -0.025360837657600433 -0.014149334799957143 0 -0.025558022524030746 -0.015108284409035685 0 -0.026015857138994538 -0.014588093022573157 0 -0.025360837657600433 -0.014149334799957143 0 -0.025558022524030746 -0.015108284409035685 0 -0.026015857138994538 -0.014588093022573157 0 -0.026300421809849543 -0.01530294698802096 0 -0.026015857138994538 -0.014588093022573157 0 -0.026675889215416099 -0.014515896375988444 0 -0.026300421809849543 -0.01530294698802096 0 -0.026896307273712894 -0.01515389463057123 0 -0.026675889215416099 -0.014515896375988444 0 -0.026300421809849543 -0.01530294698802096 0 -0.026897938532678155 -0.016183577914469366 0 -0.026696531650944495 -0.015678323446730313 0 -0.026312870589639863 -0.016018204942141876 0 -0.026896307273712894 -0.01515389463057123 0 -0.026696531650944495 -0.015678323446730313 0 -0.026300421809849543 -0.01530294698802096 0 -0.026696531650944495 -0.015678323446730313 0 -0.026300421809849543 -0.01530294698802096 0 -0.026312870589639863 -0.016018204942141876 0 -0.025558022524030746 -0.015108284409035685 0 -0.025862202986818263 -0.015764539443860297 0 -0.025271256141837603 -0.015965368015937634 0 -0.025558022524030746 -0.015108284409035685 0 -0.026300421809849543 -0.01530294698802096 0 -0.025862202986818263 -0.015764539443860297 0 -0.026300421809849543 -0.01530294698802096 0 -0.025862202986818263 -0.015764539443860297 0 -0.026312870589639863 -0.016018204942141876 0 -0.025862202986818263 -0.015764539443860297 0 -0.025867750015171446 -0.01624666122944006 0 -0.026312870589639863 -0.016018204942141876 0 -0.026203929203574543 -0.016915615020781729 0 -0.025867750015171446 -0.01624666122944006 0 -0.026487462648152132 -0.016593799999566866 0 -0.025862202986818263 -0.015764539443860297 0 -0.025867750015171446 -0.01624666122944006 0 -0.025271256141837603 -0.015965368015937634 0 -0.026897938532678155 -0.016183577914469366 0 -0.026487462648152132 -0.016593799999566866 0 -0.026312870589639863 -0.016018204942141876 0 -0.025867750015171446 -0.01624666122944006 0 -0.026487462648152132 -0.016593799999566866 0 -0.026312870589639863 -0.016018204942141876 0 -0.025642407925808991 -0.015732744350960507 0 -0.026113146006350764 -0.014824442277571674 0 -0.024999887431006024 -0.014790949806520251 0 -0.024999950720335704 -0.016110773155647046 0 -0.025642407925808991 -0.015732744350960507 0 -0.024999887431006024 -0.014790949806520251 0 -0.026173858373629712 -0.016360953048900943 0 -0.025867750015171446 -0.01624666122944006 0 -0.025271256141837603 -0.015965368015937634 0 -0.026108750104117825 -0.016265834363661805 0 -0.025697280184035998 -0.015354042784855353 0 -0.026173858373629712 -0.016360953048900943 0 -0.025642407925808991 -0.015732744350960507 0 -0.026113146006350764 -0.014824442277571674 0 -0.025697280184035998 -0.015354042784855353 0 -0.02513187078946244 -0.014060254609603841 0 -0.026113146006350764 -0.014824442277571674 0 -0.025543182006506585 -0.014250999402471494 0 -0.025780215171770225 -0.013453581294309713 0 -0.026113146006350764 -0.014824442277571674 0 -0.025543182006506585 -0.014250999402471494 0 -0.024999887431006024 -0.014790949806520251 0 -0.025543182006506585 -0.014250999402471494 0 -0.024999887431006024 -0.014790949806520251 0 -0.02499999818359162 -0.013470976411675675 0 -0.025543182006506585 -0.014250999402471494 0 -0.02499999818359162 -0.013470976411675675 0 -0.025780215171770225 -0.013453581294309713 0 -0.025558022524030746 -0.015108284409035685 0 -0.025271256141837603 -0.015965368015937634 0 -0.024566215327385548 -0.014616679853762493 0 -0.025558022524030746 -0.015108284409035685 0 -0.024566215327385548 -0.014616679853762493 0 -0.025360837657600433 -0.014149334799957143 0 -0.024566215327385548 -0.014616679853762493 0 -0.025360837657600433 -0.014149334799957143 0 -0.02462413780408703 -0.01373243158630426 0 -0.025360837657600433 -0.014149334799957143 0 -0.02462413780408703 -0.01373243158630426 0 -0.02508968744062787 -0.013560374817448489 0 -0.025629853698072858 -0.013581432164053522 0 -0.025360837657600433 -0.014149334799957143 0 -0.02508968744062787 -0.013560374817448489 0 -0.02499999818359162 -0.013470976411675675 0 -0.025780215171770225 -0.013453581294309713 0 -0.02529051166122109 -0.012723115147895456 0 -0.02499999818359162 -0.013470976411675675 0 -0.02529051166122109 -0.012723115147895456 0 -0.024999993681929625 -0.012151159217613125 0 -0.025780215171770225 -0.013453581294309713 0 -0.02529051166122109 -0.012723115147895456 0 -0.025393627712942828 -0.012145790222887438 0 -0.024566215327385548 -0.014616679853762493 0 -0.02462413780408703 -0.01373243158630426 0 -0.023967097508284796 -0.013084362334615195 0 -0.02513187078946244 -0.014060254609603841 0 -0.025026252533675793 -0.012404550066013055 0 -0.02529051166122109 -0.012723115147895456 0 -0.024999993681929625 -0.012151159217613125 0 -0.025279668301975519 -0.012393437102667864 0 -0.02529051166122109 -0.012723115147895456 0 -0.025279668301975519 -0.012393437102667864 0 -0.025393627712942828 -0.012145790222887438 0 -0.024999993681929625 -0.012151159217613125 0 -0.025279668301975519 -0.012393437102667864 0 -0.025394220215560797 -0.012145157919045463 0 -0.025134646694943672 -0.012303112105366042 0 -0.025026252533675793 -0.012404550066013055 0 -0.023967097508284796 -0.013084362334615195 0 -0.024592575112605049 -0.013160949318139792 0 -0.024777876168443989 -0.012534793077043358 0 -0.02462413780408703 -0.01373243158630426 0 -0.023967097508284796 -0.013084362334615195 0 -0.024592575112605049 -0.013160949318139792 0 -0.02462413780408703 -0.01373243158630426 0 -0.02508968744062787 -0.013560374817448489 0 -0.024592575112605049 -0.013160949318139792 0 -0.024592575112605049 -0.013160949318139792 0 -0.025204503805240804 -0.013164804453726368 0 -0.024961269550481419 -0.012859989145252014 0 -0.025629853698072858 -0.013581432164053522 0 -0.02508968744062787 -0.013560374817448489 0 -0.025204503805240804 -0.013164804453726368 0 -0.02508968744062787 -0.013560374817448489 0 -0.024592575112605049 -0.013160949318139792 0 -0.025204503805240804 -0.013164804453726368 0 -0.025204503805240804 -0.013164804453726368 0 -0.024961269550481419 -0.012859989145252014 0 -0.025271120929773402 -0.012572996442905979 0 -0.024961269550481419 -0.012859989145252014 0 -0.025271120929773402 -0.012572996442905979 0 -0.024777876168443989 -0.012534793077043358 0 -0.024592575112605049 -0.013160949318139792 0 -0.024961269550481419 -0.012859989145252014 0 -0.024777876168443989 -0.012534793077043358 0 -0.024777876168443989 -0.012534793077043358 0 -0.025389274693315426 -0.011912015140968409 0 -0.024564875036790761 -0.011550558336280199 0 -0.023967097508284796 -0.013084362334615195 0 -0.024777876168443989 -0.012534793077043358 0 -0.024564875036790761 -0.011550558336280199 0 -0.025271120929773402 -0.012572996442905979 0 -0.024777876168443989 -0.012534793077043358 0 -0.025389274693315426 -0.011912015140968409 0 -0.024999993681929625 -0.012151159217613125 0 -0.025394220215560797 -0.012145157919045463 0 -0.025000000063755003 -0.010831332878558746 0 -0.025026252533675793 -0.012404550066013055 0 -0.025000192247613809 -0.010831162461501044 0 -0.025026252533675793 -0.012404550066013055 0 -0.025152330431623984 -0.011306561777099284 0 -0.025354750237540628 -0.012014816213306806 0 -0.025830865527631905 -0.010977607842405063 0 -0.024999892847956 -0.010831110272092777 0 -0.02665277618888592 -0.013241525624768675 0 -0.026057543736133282 -0.012745253546099436 0 -0.027177687898420986 -0.012572930313106965 0 -0.026157414607140696 -0.013798487450478784 0 -0.02665277618888592 -0.013241525624768675 0 -0.026057543736133282 -0.012745253546099436 0 -0.026804700061731492 -0.013816744745371321 0 -0.02665277618888592 -0.013241525624768675 0 -0.027345473603950645 -0.013358749957437105 0 -0.025629853698072858 -0.013581432164053522 0 -0.026157414607140696 -0.013798487450478784 0 -0.026057543736133282 -0.012745253546099436 0 -0.025629853698072858 -0.013581432164053522 0 -0.025204503805240804 -0.013164804453726368 0 -0.026057543736133282 -0.012745253546099436 0 -0.025204503805240804 -0.013164804453726368 0 -0.025271120929773402 -0.012572996442905979 0 -0.026057543736133282 -0.012745253546099436 0 -0.025342964825542193 -0.011873764868775012 0 -0.027222126193217112 -0.011539550284517043 0 -0.025389274693315426 -0.011912015140968409 0 -0.026057543736133282 -0.012745253546099436 0 -0.026773438101818665 -0.011805241840359816 0 -0.025271120929773402 -0.012572996442905979 0 -0.025389274693315426 -0.011912015140968409 0 -0.026057543736133282 -0.012745253546099436 0 -0.026057543736133282 -0.012745253546099436 0 -0.026773438101818665 -0.011805241840359816 0 -0.027177687898420986 -0.012572930313106965 0 -0.027278322015491879 -0.011090613814120664 0 -0.026045365565167775 -0.010702474649553099 0 -0.027261396075141848 -0.0093362250714187477 0 -0.025389274693315426 -0.011912015140968409 0 -0.027278322015491879 -0.011090613814120664 0 -0.026045365565167775 -0.010702474649553099 0 -0.026045365565167775 -0.010702474649553099 0 -0.027261396075141848 -0.0093362250714187477 0 -0.025474371870792156 -0.0098437729684742563 0 -0.027261396075141848 -0.0093362250714187477 0 -0.025474371870792156 -0.0098437729684742563 0 -0.026423247912790389 -0.0085594599897185642 0 -0.025526087176509289 -0.010144543493104992 0 -0.024999892847956 -0.010831110272092777 0 -0.024999898558389386 -0.0095591534302171752 0 -0.025830865527631905 -0.010977607842405063 0 -0.025526087176509289 -0.010144543493104992 0 -0.024999892847956 -0.010831110272092777 0 -0.025389274693315426 -0.011912015140968409 0 -0.024564875036790761 -0.011550558336280199 0 -0.026045365565167775 -0.010702474649553099 0 -0.025830865527631905 -0.010977607842405063 0 -0.025526087176509289 -0.010144543493104992 0 -0.026247851910973438 -0.0097762674793844956 0 -0.025152330431623984 -0.011306561777099284 0 -0.025862128487221376 -0.0098114572909553319 0 -0.024564875036790761 -0.011550558336280199 0 -0.026045365565167775 -0.010702474649553099 0 -0.025474371870792156 -0.0098437729684742563 0 -0.025526087176509289 -0.010144543493104992 0 -0.026247851910973438 -0.0097762674793844956 0 -0.025705875235516845 -0.0089862778840830264 0 -0.025526087176509289 -0.010144543493104992 0 -0.024999898558389386 -0.0095591534302171752 0 -0.025705875235516845 -0.0089862778840830264 0 -0.024999898558389386 -0.0095591534302171752 0 -0.024999894925957968 -0.0082870778422005301 0 -0.025705875235516845 -0.0089862778840830264 0 -0.024999894925957968 -0.0082870778422005301 0 -0.025705875235516845 -0.0089862778840830264 0 -0.025934102566416747 -0.0077490196030181062 0 -0.025705875235516845 -0.0089862778840830264 0 -0.026423247912790389 -0.0085594599897185642 0 -0.025934102566416747 -0.0077490196030181062 0 -0.026247851910973438 -0.0097762674793844956 0 -0.025705875235516845 -0.0089862778840830264 0 -0.026423247912790389 -0.0085594599897185642 0 -0.025862128487221376 -0.0098114572909553319 0 -0.026372204486139503 -0.0086757146466684022 0 -0.027261396075141848 -0.0093362250714187477 0 -0.026423247912790389 -0.0085594599897185642 0 -0.027461037504860838 -0.0079123680950100323 0 -0.026423247912790389 -0.0085594599897185642 0 -0.026772940118742521 -0.0077571290255987278 0 -0.027461037504860838 -0.0079123680950100323 0 -0.026423247912790389 -0.0085594599897185642 0 -0.026772940118742521 -0.0077571290255987278 0 -0.025934102566416747 -0.0077490196030181062 0 -0.026772940118742521 -0.0077571290255987278 0 -0.026537861544008914 -0.0071443098140444288 0 -0.025934102566416747 -0.0077490196030181062 0 -0.026772940118742521 -0.0077571290255987278 0 -0.026537861544008914 -0.0071443098140444288 0 -0.027335264504899277 -0.007156539125234603 0 -0.026772940118742521 -0.0077571290255987278 0 -0.027335264504899277 -0.007156539125234603 0 -0.027461037504860838 -0.0079123680950100323 0 -0.026537861544008914 -0.0071443098140444288 0 -0.026928254080101008 -0.0066819012002553796 0 -0.027335264504899277 -0.007156539125234603 0 -0.026928254080101008 -0.0066819012002553796 0 -0.027335264504899277 -0.007156539125234603 0 -0.027287903440574204 -0.0064605958439922073 0 -0.026537861544008914 -0.0071443098140444288 0 -0.026928254080101008 -0.0066819012002553796 0 -0.026483477188032668 -0.0064965320754541873 0 -0.026537861544008914 -0.0071443098140444288 0 -0.026483477188032668 -0.0064965320754541873 0 -0.025828642962593268 -0.0065738872600585785 0 -0.025828642962593268 -0.0065738872600585785 0 -0.024999919072373696 -0.0070152264233631339 0 -0.02499992699024222 -0.0057431281557071053 0 -0.024999894925957968 -0.0082870778422005301 0 -0.024999919072373696 -0.0070152264233631339 0 -0.025934102566416747 -0.0077490196030181062 0 -0.025828642962593268 -0.0065738872600585785 0 -0.024999919072373696 -0.0070152264233631339 0 -0.025934102566416747 -0.0077490196030181062 0 -0.026537861544008914 -0.0071443098140444288 0 -0.025828642962593268 -0.0065738872600585785 0 -0.025934102566416747 -0.0077490196030181062 0 -0.028381679908765712 -0.0071312429319737502 0 -0.028036592390309961 -0.0070166406120984468 0 -0.028037889113110528 -0.0074908657801803571 0 -0.028036592390309961 -0.0070166406120984468 0 -0.027782231933018178 -0.0071866652181674573 0 -0.028037889113110528 -0.0074908657801803571 0 -0.028381679908765712 -0.0071312429319737502 0 -0.028037889113110528 -0.0074908657801803571 0 -0.028313355643487904 -0.0076932424145689619 0 -0.028189241671283193 -0.0068932648210216158 0 -0.027951951076455324 -0.0064456329198713629 0 -0.028381679908765712 -0.0071312429319737502 0 -0.028036592390309961 -0.0070166406120984468 0 -0.027957918746044367 -0.0064061533661248591 0 -0.028036592390309961 -0.0070166406120984468 0 -0.027678629516576268 -0.006606645178872131 0 -0.027782231933018178 -0.0071866652181674573 0 -0.028036592390309961 -0.0070166406120984468 0 -0.027678629516576268 -0.006606645178872131 0 -0.027957918746044367 -0.0064061533661248591 0 -0.027678629516576268 -0.006606645178872131 0 -0.027335264504899277 -0.007156539125234603 0 -0.027287903440574204 -0.0064605958439922073 0 -0.027678629516576268 -0.006606645178872131 0 -0.027335264504899277 -0.007156539125234603 0 -0.027782231933018178 -0.0071866652181674573 0 -0.027335264504899277 -0.007156539125234603 0 -0.027461037504860838 -0.0079123680950100323 0 -0.027705243508966484 -0.0075838973232904058 0 -0.027335264504899277 -0.007156539125234603 0 -0.027782231933018178 -0.0071866652181674573 0 -0.027705243508966484 -0.0075838973232904058 0 -0.027782231933018178 -0.0071866652181674573 0 -0.027705243508966484 -0.0075838973232904058 0 -0.028037889113110528 -0.0074908657801803571 0 -0.027824604711303481 -0.0077813108053742834 0 -0.027705243508966484 -0.0075838973232904058 0 -0.028037889113110528 -0.0074908657801803571 0 -0.027824604711303481 -0.0077813108053742834 0 -0.027461037504860838 -0.0079123680950100323 0 -0.027705243508966484 -0.0075838973232904058 0 -0.028159217332253666 -0.0081254181555856057 0 -0.027500921569548743 -0.0079176642849588495 0 -0.027261396075141848 -0.0093362250714187477 0 -0.027461037504860838 -0.0079123680950100323 0 -0.027995815915176383 -0.008745228690633166 0 -0.02859846682878972 -0.0084728699761274732 0 -0.027461037504860838 -0.0079123680950100323 0 -0.027995815915176383 -0.008745228690633166 0 -0.02859846682878972 -0.0084728699761274732 0 -0.028654050409543306 -0.0088960676623886809 0 -0.028681107441266687 -0.0087200247245842796 0 -0.02859846682878972 -0.0084728699761274732 0 -0.027995815915176383 -0.008745228690633166 0 -0.028654050409543306 -0.0088960676623886809 0 -0.028654050409543306 -0.0088960676623886809 0 -0.028681107441266687 -0.0087200247245842796 0 -0.028638373622792812 -0.0087378330811821395 0 -0.028159217332253666 -0.0081254181555856057 0 -0.028402595869502594 -0.0082681184368813519 0 -0.027824604711303481 -0.0077813108053742834 0 -0.028128961907231114 -0.0078464756510696291 0 -0.028037889113110528 -0.0074908657801803571 0 -0.028128961907231114 -0.0078464756510696291 0 -0.028037889113110528 -0.0074908657801803571 0 -0.028313355643487904 -0.0076932424145689619 0 -0.028128961907231114 -0.0078464756510696291 0 -0.028313355643487904 -0.0076932424145689619 0 -0.028309822855021507 -0.0079487778268310175 0 -0.028402595869502594 -0.0082681184368813519 0 -0.028427460452299293 -0.0082687735184326303 0 -0.028681107441266687 -0.0087200247245842796 0 -0.028572206261321922 -0.0086056076834146542 0 -0.028500295462424625 -0.0085732822334038516 0 -0.028681107441266687 -0.0087200247245842796 0 -0.028638373622792812 -0.0087378330811821395 0 -0.028572206261321922 -0.0086056076834146542 0 -0.02539899190963283 -0.0092485386852055717 0 -0.023944479256578298 -0.0096387326687628182 0 -0.024969245118970182 -0.01050806612108981 0 -0.028638373622792812 -0.0087378330811821395 0 -0.028572206261321922 -0.0086056076834146542 0 -0.028695374428524361 -0.0086652753686897958 0 -0.026737831748517325 -0.0087838090047729113 0 -0.027483082796137252 -0.010275146778860733 0 -0.02539899190963283 -0.0092485386852055717 0 -0.026011169158632282 -0.01014639096087885 0 -0.026436897817208763 -0.0095519797082198703 0 -0.02539899190963283 -0.0092485386852055717 0 -0.024969245118970182 -0.01050806612108981 0 -0.026011169158632282 -0.01014639096087885 0 -0.027995815915176383 -0.008745228690633166 0 -0.028654050409543306 -0.0088960676623886809 0 -0.028087884707518284 -0.0097565033184321449 0 -0.027261396075141848 -0.0093362250714187477 0 -0.027995815915176383 -0.008745228690633166 0 -0.028087884707518284 -0.0097565033184321449 0 -0.027278322015491879 -0.011090613814120664 0 -0.027261396075141848 -0.0093362250714187477 0 -0.028087884707518284 -0.0097565033184321449 0 -0.028654050409543306 -0.0088960676623886809 0 -0.028638373622792812 -0.0087378330811821395 0 -0.028695374428524361 -0.0086652753686897958 0 -0.028654050409543306 -0.0088960676623886809 0 -0.028087884707518284 -0.0097565033184321449 0 -0.028872663660262528 -0.010548265285468882 0 -0.028945387496038776 -0.0086754220110690037 0 -0.027483082796137252 -0.010275146778860733 0 -0.027278322015491879 -0.011090613814120664 0 -0.028087884707518284 -0.0097565033184321449 0 -0.028872663660262528 -0.010548265285468882 0 -0.027222126193217112 -0.011539550284517043 0 -0.027483082796137252 -0.010275146778860733 0 -0.026773438101818665 -0.011805241840359816 0 -0.028211215701262633 -0.011460284730136132 0 -0.027177687898420986 -0.012572930313106965 0 -0.023944479256578298 -0.0096387326687628182 0 -0.023971945309869718 -0.010800856149096354 0 -0.024969245118970182 -0.01050806612108981 0 -0.027483082796137252 -0.010275146778860733 0 -0.02602392187468193 -0.0117881177953542 0 -0.028211215701262633 -0.011460284730136132 0 -0.027177687898420986 -0.012572930313106965 0 -0.02825411772971733 -0.012604887998001104 0 -0.026117703746565399 -0.01269513466440401 0 -0.02602392187468193 -0.0117881177953542 0 -0.024024800640659896 -0.011971934790369782 0 -0.023971945309869718 -0.010800856149096354 0 -0.024527784756686582 -0.011252733206550113 0 -0.028278640245742115 -0.013807080843701823 0 -0.02825411772971733 -0.012604887998001104 0 -0.027345473603950645 -0.013358749957437105 0 -0.027177687898420986 -0.012572930313106965 0 -0.02825411772971733 -0.012604887998001104 0 -0.027345473603950645 -0.013358749957437105 0 -0.02665277618888592 -0.013241525624768675 0 -0.027177687898420986 -0.012572930313106965 0 -0.027345473603950645 -0.013358749957437105 0 -0.024969245118970182 -0.01050806612108981 0 -0.025882142025000651 -0.010929748994218259 0 -0.026011169158632282 -0.01014639096087885 0 -0.025148687223415005 -0.011724025331859017 0 -0.024969245118970182 -0.01050806612108981 0 -0.024527784756686582 -0.011252733206550113 0 -0.025148687223415005 -0.011724025331859017 0 -0.024024800640659896 -0.011971934790369782 0 -0.024527784756686582 -0.011252733206550113 0 -0.023971945309869718 -0.010800856149096354 0 -0.024969245118970182 -0.01050806612108981 0 -0.024527784756686582 -0.011252733206550113 0 -0.025148687223415005 -0.011724025331859017 0 -0.025882142025000651 -0.010929748994218259 0 -0.026150881317227731 -0.011567344305443327 0 -0.025148687223415005 -0.011724025331859017 0 -0.024969245118970182 -0.01050806612108981 0 -0.025882142025000651 -0.010929748994218259 0 -0.026619860170511711 -0.011976301327237884 0 -0.026150881317227731 -0.011567344305443327 0 -0.026813375255401832 -0.011441025228465499 0 -0.026150881317227731 -0.011567344305443327 0 -0.026813375255401832 -0.011441025228465499 0 -0.026490909350980512 -0.011118586955476314 0 -0.026490909350980512 -0.011118586955476314 0 -0.026594878934992319 -0.010605888358336021 0 -0.026879278278895764 -0.011018927087182193 0 -0.026813375255401832 -0.011441025228465499 0 -0.026490909350980512 -0.011118586955476314 0 -0.026879278278895764 -0.011018927087182193 0 -0.025882142025000651 -0.010929748994218259 0 -0.026490909350980512 -0.011118586955476314 0 -0.026594878934992319 -0.010605888358336021 0 -0.025882142025000651 -0.010929748994218259 0 -0.026150881317227731 -0.011567344305443327 0 -0.026490909350980512 -0.011118586955476314 0 -0.025882142025000651 -0.010929748994218259 0 -0.026594878934992319 -0.010605888358336021 0 -0.026011169158632282 -0.01014639096087885 0 -0.026594878934992319 -0.010605888358336021 0 -0.026797887913848531 -0.010097206678829131 0 -0.027113254066440447 -0.010651131394346737 0 -0.026594878934992319 -0.010605888358336021 0 -0.026797887913848531 -0.010097206678829131 0 -0.026011169158632282 -0.01014639096087885 0 -0.026797887913848531 -0.010097206678829131 0 -0.027640831639895242 -0.010197294309724689 0 -0.027113254066440447 -0.010651131394346737 0 -0.026594878934992319 -0.010605888358336021 0 -0.027113254066440447 -0.010651131394346737 0 -0.026879278278895764 -0.011018927087182193 0 -0.027640831639895242 -0.010197294309724689 0 -0.027409261264255878 -0.010801622932898202 0 -0.027704706882304805 -0.010999016237614142 0 -0.027640831639895242 -0.010197294309724689 0 -0.027113254066440447 -0.010651131394346737 0 -0.027409261264255878 -0.010801622932898202 0 -0.027167471025071128 -0.012266509530437073 0 -0.027132705817167847 -0.011600748833874056 0 -0.027781231484929347 -0.011182021196887265 0 -0.027113254066440447 -0.010651131394346737 0 -0.027409261264255878 -0.010801622932898202 0 -0.027280805565988955 -0.011137437168612301 0 -0.026724482679362904 -0.012604544673773786 0 -0.026948633195932388 -0.012035764821112571 0 -0.026899821388176665 -0.01194674668081539 0 -0.027280805565988955 -0.011137437168612301 0 -0.027704706882304805 -0.010999016237614142 0 -0.027781231484929347 -0.011182021196887265 0 -0.027409261264255878 -0.010801622932898202 0 -0.027280805565988955 -0.011137437168612301 0 -0.027704706882304805 -0.010999016237614142 0 -0.027113254066440447 -0.010651131394346737 0 -0.027280805565988955 -0.011137437168612301 0 -0.026879278278895764 -0.011018927087182193 0 -0.026813375255401832 -0.011441025228465499 0 -0.027280805565988955 -0.011137437168612301 0 -0.026879278278895764 -0.011018927087182193 0 -0.026813375255401832 -0.011441025228465499 0 -0.027280805565988955 -0.011137437168612301 0 -0.027132705817167847 -0.011600748833874056 0 -0.026619860170511711 -0.011976301327237884 0 -0.026813375255401832 -0.011441025228465499 0 -0.027132705817167847 -0.011600748833874056 0 -0.027280805565988955 -0.011137437168612301 0 -0.027132705817167847 -0.011600748833874056 0 -0.027781231484929347 -0.011182021196887265 0 -0.014906988437032911 -0.011045991649582001 0 -0.014541874666210963 -0.010962736833149873 0 -0.014822344409931808 -0.011197283442846682 0 -0.014541874666210963 -0.010962736833149873 0 -0.014398738238197407 -0.011350747114762095 0 -0.014822344409931808 -0.011197283442846682 0 -0.024471949622214804 -0.01182552207642828 0 -0.023877839973324433 -0.011628265130711232 0 -0.014915505841144309 -0.011051488620780779 0 -0.014962008996181496 -0.011171330661467006 0 -0.014822344409931808 -0.011197283442846682 0 -0.020739548507843101 -0.011631387715424445 0 -0.023877839973324433 -0.011628265130711232 0 -0.020739548507843101 -0.011631387715424445 0 -0.019550424835860791 -0.012170420013723218 0 -0.013733609749125629 -0.010377632661271632 0 -0.014068430381182714 -0.011048958089263075 0 -0.013526379841138058 -0.011133987379685874 0 -0.014541874666210963 -0.010962736833149873 0 -0.014398738238197407 -0.011350747114762095 0 -0.014068430381182714 -0.011048958089263075 0 -0.014398738238197407 -0.011350747114762095 0 -0.014068430381182714 -0.011048958089263075 0 -0.014120139377392382 -0.011598036952870166 0 -0.014068430381182714 -0.011048958089263075 0 -0.014120139377392382 -0.011598036952870166 0 -0.013754847888903065 -0.01151212194633254 0 -0.014068430381182714 -0.011048958089263075 0 -0.013526379841138058 -0.011133987379685874 0 -0.013754847888903065 -0.01151212194633254 0 -0.014120139377392382 -0.011598036952870166 0 -0.013754847888903065 -0.01151212194633254 0 -0.013882633468302364 -0.011933218546225708 0 -0.014398738238197407 -0.011350747114762095 0 -0.014120139377392382 -0.011598036952870166 0 -0.014406800044644097 -0.011840669423395039 0 -0.014120139377392382 -0.011598036952870166 0 -0.014406800044644097 -0.011840669423395039 0 -0.013983357803848488 -0.011884059564171838 0 -0.014120139377392382 -0.011598036952870166 0 -0.013983357803848488 -0.011884059564171838 0 -0.013882633468302364 -0.011933218546225708 0 -0.027640831639895242 -0.010197294309724689 0 -0.027704706882304805 -0.010999016237614142 0 -0.028441114821673268 -0.010037315568696668 0 -0.014398738238197407 -0.011350747114762095 0 -0.014822344409931808 -0.011197283442846682 0 -0.014406800044644097 -0.011840669423395039 0 -0.023877839973324433 -0.011628265130711232 0 -0.021146975160666208 -0.01101104440304051 0 -0.014962008996181496 -0.011171330661467006 0 -0.014822344409931808 -0.011197283442846682 0 -0.014406800044644097 -0.011840669423395039 0 -0.027704706882304805 -0.010999016237614142 0 -0.027786356176460865 -0.011197507257244586 0 -0.028441114821673268 -0.010037315568696668 0 -0.027640831639895242 -0.010197294309724689 0 -0.028441114821673268 -0.010037315568696668 0 -0.027920384788785738 -0.0092671992425557674 0 -0.028441114821673268 -0.010037315568696668 0 -0.028480162273642463 -0.0089647447395373586 0 -0.027920384788785738 -0.0092671992425557674 0 -0.013983357803848488 -0.011884059564171838 0 -0.014222881737572815 -0.011946951690677237 0 -0.014140882280394701 -0.011982017567834381 0 -0.014406800044644097 -0.011840669423395039 0 -0.013983357803848488 -0.011884059564171838 0 -0.014140882280394701 -0.011982017567834381 0 -0.028441114821673268 -0.010037315568696668 0 -0.028480162273642463 -0.0089647447395373586 0 -0.029005512055950033 -0.0087698751499914046 0 -0.021146975160666208 -0.01101104440304051 0 -0.021947177156074742 -0.010225898931703309 0 -0.013983357803848488 -0.011884059564171838 0 -0.013912874562346482 -0.010986363457572671 0 -0.014156710356529179 -0.011460547138348291 0 -0.014021595293265864 -0.011698432112805034 0 -0.013939659459954096 -0.011752219662919441 0 -0.014222881737572815 -0.011946951690677237 0 -0.014140882280394701 -0.011982017567834381 0 -0.01433239471019521 -0.011546196794499084 0 -0.021947177156074742 -0.010225898931703309 0 -0.018346840628564728 -0.0094803891082737395 0 -0.029005512055950033 -0.0087698751499914046 0 -0.028625052138832659 -0.0082935171981327847 0 -0.029230813633360303 -0.007975245951039921 0 -0.028480162273642463 -0.0089647447395373586 0 -0.029005512055950033 -0.0087698751499914046 0 -0.028625052138832659 -0.0082935171981327847 0 -0.028480162273642463 -0.0089647447395373586 0 -0.027920384788785738 -0.0092671992425557674 0 -0.028625052138832659 -0.0082935171981327847 0 -0.027920384788785738 -0.0092671992425557674 0 -0.028625052138832659 -0.0082935171981327847 0 -0.027646061497840466 -0.0089562240150650504 0 -0.028625052138832659 -0.0082935171981327847 0 -0.028471150243148842 -0.0082588370293506432 0 -0.028548377640334435 -0.0081183022072030854 0 -0.028625052138832659 -0.0082935171981327847 0 -0.028471150243148842 -0.0082588370293506432 0 -0.028432764556063212 -0.0083746146510535868 0 -0.028557873378333206 -0.0083078409434221515 0 -0.02773209786723586 -0.00859727737120667 0 -0.028625052138832659 -0.0082935171981327847 0 -0.027646061497840466 -0.0089562240150650504 0 -0.026892594998630948 -0.0087772071345575686 0 -0.028495978076386964 -0.0082716618349931836 0 -0.028427460452299293 -0.0082687735184326303 0 -0.026737831748517325 -0.0087838090047729113 0 -0.02773209786723586 -0.00859727737120667 0 -0.028572206261321922 -0.0086056076834146542 0 -0.028432764556063212 -0.0083746146510535868 0 -0.028500295462424625 -0.0085732822334038516 0 -0.028471150243148842 -0.0082588370293506432 0 -0.028432764556063212 -0.0083746146510535868 0 -0.028500295462424625 -0.0085732822334038516 0 -0.02539899190963283 -0.0092485386852055717 0 -0.026892594998630948 -0.0087772071345575686 0 -0.026436897817208763 -0.0095519797082198703 0 -0.026892594998630948 -0.0087772071345575686 0 -0.026436897817208763 -0.0095519797082198703 0 -0.027165252314002568 -0.0094653855304393936 0 -0.026797887913848531 -0.010097206678829131 0 -0.026011169158632282 -0.01014639096087885 0 -0.026436897817208763 -0.0095519797082198703 0 -0.026797887913848531 -0.010097206678829131 0 -0.026436897817208763 -0.0095519797082198703 0 -0.027165252314002568 -0.0094653855304393936 0 -0.026797887913848531 -0.010097206678829131 0 -0.027640831639895242 -0.010197294309724689 0 -0.027165252314002568 -0.0094653855304393936 0 -0.027640831639895242 -0.010197294309724689 0 -0.027920384788785738 -0.0092671992425557674 0 -0.027165252314002568 -0.0094653855304393936 0 -0.027920384788785738 -0.0092671992425557674 0 -0.027646061497840466 -0.0089562240150650504 0 -0.027165252314002568 -0.0094653855304393936 0 -0.027646061497840466 -0.0089562240150650504 0 -0.026892594998630948 -0.0087772071345575686 0 -0.027165252314002568 -0.0094653855304393936 0 -0.0099355902831056685 -0.011572036621810437 0 -0.010144528794729843 -0.012422049664225361 0 -0.0089268052614102453 -0.012233543943747337 0 -0.0099355902831056685 -0.011572036621810437 0 -0.010883034174902956 -0.011942162085160685 0 -0.010144528794729843 -0.012422049664225361 0 -0.0099355902831056685 -0.011572036621810437 0 -0.0088850872231473078 -0.011098332106918973 0 -0.0089268052614102453 -0.012233543943747337 0 -0.0099355902831056685 -0.011572036621810437 0 -0.0099496838857358917 -0.010471705408073836 0 -0.0088850872231473078 -0.011098332106918973 0 -0.010302826355313006 -0.010675776981774276 0 -0.010633152625058163 -0.011471880579978984 0 -0.009917322998744333 -0.011048677951223199 0 -0.0099355902831056685 -0.011572036621810437 0 -0.0099496838857358917 -0.010471705408073836 0 -0.010876476350116092 -0.011228123445283714 0 -0.0099496838857358917 -0.010471705408073836 0 -0.010876476350116092 -0.011228123445283714 0 -0.011902432363626703 -0.010674659137589665 0 -0.011107517575053624 -0.010980618339583388 0 -0.011811314167015684 -0.011039599950228974 0 -0.010633152625058163 -0.011471880579978984 0 -0.011670125439140977 -0.011025772909528829 0 -0.012110917767882555 -0.011407200355323955 0 -0.010825804701849307 -0.010851104887813488 0 -0.010633152625058163 -0.011471880579978984 0 -0.011670125439140977 -0.011025772909528829 0 -0.010876476350116092 -0.011228123445283714 0 -0.011714609112445689 -0.011508136460209446 0 -0.011902432363626703 -0.010674659137589665 0 -0.010876476350116092 -0.011228123445283714 0 -0.010883034174902956 -0.011942162085160685 0 -0.011714609112445689 -0.011508136460209446 0 -0.0099355902831056685 -0.011572036621810437 0 -0.010876476350116092 -0.011228123445283714 0 -0.010883034174902956 -0.011942162085160685 0 -0.010883034174902956 -0.011942162085160685 0 -0.011686727137515089 -0.01227806981190179 0 -0.011714609112445689 -0.011508136460209446 0 -0.011686727137515089 -0.01227806981190179 0 -0.012374176876494926 -0.011827820879428186 0 -0.011714609112445689 -0.011508136460209446 0 -0.011686727137515089 -0.01227806981190179 0 -0.012374176876494926 -0.011827820879428186 0 -0.012514735263401015 -0.012519985571806622 0 -0.012374176876494926 -0.011827820879428186 0 -0.012935180227564354 -0.011897997296528719 0 -0.012514735263401015 -0.012519985571806622 0 -0.012374176876494926 -0.011827820879428186 0 -0.012325904669446662 -0.01124448747902175 0 -0.012912974185837152 -0.01149901602271231 0 -0.012374176876494926 -0.011827820879428186 0 -0.012912974185837152 -0.01149901602271231 0 -0.012935180227564354 -0.011897997296528719 0 -0.012374176876494926 -0.011827820879428186 0 -0.012325904669446662 -0.01124448747902175 0 -0.011714609112445689 -0.011508136460209446 0 -0.01248517151164772 -0.01081228100796322 0 -0.012110917767882555 -0.011407200355323955 0 -0.013526379841138058 -0.011133987379685874 0 -0.012325904669446662 -0.01124448747902175 0 -0.011902432363626703 -0.010674659137589665 0 -0.013526379841138058 -0.011133987379685874 0 -0.011811314167015684 -0.011039599950228974 0 -0.01346252067976102 -0.011123300428846801 0 -0.012325904669446662 -0.01124448747902175 0 -0.011714609112445689 -0.011508136460209446 0 -0.011902432363626703 -0.010674659137589665 0 -0.01248517151164772 -0.01081228100796322 0 -0.011670125439140977 -0.011025772909528829 0 -0.012110917767882555 -0.011407200355323955 0 -0.012936766373747948 -0.010475774631838096 0 -0.01248517151164772 -0.01081228100796322 0 -0.013526379841138058 -0.011133987379685874 0 -0.012325904669446662 -0.01124448747902175 0 -0.013526379841138058 -0.011133987379685874 0 -0.012912974185837152 -0.01149901602271231 0 -0.013526379841138058 -0.011133987379685874 0 -0.013754847888903065 -0.01151212194633254 0 -0.013313113154863903 -0.011557506190600638 0 -0.013754847888903065 -0.01151212194633254 0 -0.013313113154863903 -0.011557506190600638 0 -0.013434135285582613 -0.011836473316806262 0 -0.013526379841138058 -0.011133987379685874 0 -0.012912974185837152 -0.01149901602271231 0 -0.013313113154863903 -0.011557506190600638 0 -0.012912974185837152 -0.01149901602271231 0 -0.013313113154863903 -0.011557506190600638 0 -0.012935180227564354 -0.011897997296528719 0 -0.013313113154863903 -0.011557506190600638 0 -0.012935180227564354 -0.011897997296528719 0 -0.013434135285582613 -0.011836473316806262 0 -0.012935180227564354 -0.011897997296528719 0 -0.013434135285582613 -0.011836473316806262 0 -0.013144388552140696 -0.012289081481678992 0 -0.012935180227564354 -0.011897997296528719 0 -0.013144388552140696 -0.012289081481678992 0 -0.012514735263401015 -0.012519985571806622 0 -0.013882633468302364 -0.011933218546225708 0 -0.013434135285582613 -0.011836473316806262 0 -0.013144388552140696 -0.012289081481678992 0 -0.013754847888903065 -0.01151212194633254 0 -0.013882633468302364 -0.011933218546225708 0 -0.013434135285582613 -0.011836473316806262 0 -0.013955389780186145 -0.011941308170388682 0 -0.013770920807970434 -0.01236468178604767 0 -0.013983357803848488 -0.011884059564171838 0 -0.014130410144606878 -0.011684562447235482 0 -0.014156710356529179 -0.011460547138348291 0 -0.013882633468302364 -0.011933218546225708 0 -0.014130410144606878 -0.011684562447235482 0 -0.014671406614003643 -0.011454283453613542 0 -0.013983357803848488 -0.011884059564171838 0 -0.013882633468302364 -0.011933218546225708 0 -0.014130410144606878 -0.011684562447235482 0 -0.013144388552140696 -0.012289081481678992 0 -0.013055178585843326 -0.013103225190830913 0 -0.012514735263401015 -0.012519985571806622 0 -0.013882633468302364 -0.011933218546225708 0 -0.013144388552140696 -0.012289081481678992 0 -0.013055178585843326 -0.013103225190830913 0 -0.014671406614003643 -0.011454283453613542 0 -0.014299925737896235 -0.011150172035811657 0 -0.014670345826650708 -0.011003884322651133 0 -0.013912874562346482 -0.010986363457572671 0 -0.014156710356529179 -0.011460547138348291 0 -0.014299925737896235 -0.011150172035811657 0 -0.014130410144606878 -0.011684562447235482 0 -0.014671406614003643 -0.011454283453613542 0 -0.014156710356529179 -0.011460547138348291 0 -0.014671406614003643 -0.011454283453613542 0 -0.014156710356529179 -0.011460547138348291 0 -0.014299925737896235 -0.011150172035811657 0 -0.013939659459954096 -0.011752219662919441 0 -0.018346840628564728 -0.0094803891082737395 0 -0.013912874562346482 -0.010986363457572671 0 -0.014299925737896235 -0.011150172035811657 0 -0.014416085684740464 -0.010531355467786788 0 -0.013912874562346482 -0.010986363457572671 0 -0.014416085684740464 -0.010531355467786788 0 -0.014091179025263592 -0.0097455005940096616 0 -0.014416085684740464 -0.010531355467786788 0 -0.014875251638932061 -0.010310450479523453 0 -0.014626808109210902 -0.0097597979483733891 0 -0.014416085684740464 -0.010531355467786788 0 -0.014875251638932061 -0.010310450479523453 0 -0.014670345826650708 -0.011003884322651133 0 -0.014299925737896235 -0.011150172035811657 0 -0.014416085684740464 -0.010531355467786788 0 -0.014670345826650708 -0.011003884322651133 0 -0.013770920807970434 -0.01236468178604767 0 -0.013581166166484873 -0.011258402909184064 0 -0.01517488646303166 -0.010665786487700193 0 -0.013581166166484873 -0.011258402909184064 0 -0.014671406614003643 -0.011454283453613542 0 -0.014670345826650708 -0.011003884322651133 0 -0.015314674820279379 -0.010648702913442384 0 -0.013055178585843326 -0.013103225190830913 0 -0.012201703201488863 -0.014162490276263694 0 -0.01225347535920159 -0.01334567853627459 0 -0.014875251638932061 -0.010310450479523453 0 -0.015492380899262624 -0.010564310199656693 0 -0.015163357093887947 -0.0096831034416193819 0 -0.014875251638932061 -0.010310450479523453 0 -0.014670345826650708 -0.011003884322651133 0 -0.015492380899262624 -0.010564310199656693 0 -0.013581166166484873 -0.011258402909184064 0 -0.0082828264915023181 -0.010275762422147183 0 -0.013581166166484873 -0.011258402909184064 0 -0.012154539004380916 -0.0081443068816295754 0 -0.012201703201488863 -0.014162490276263694 0 -0.01225347535920159 -0.01334567853627459 0 -0.011382104888049737 -0.013597203704508195 0 -0.011775592720939351 -0.012979248822621461 0 -0.01225347535920159 -0.01334567853627459 0 -0.011382104888049737 -0.013597203704508195 0 -0.011775592720939351 -0.012979248822621461 0 -0.01225347535920159 -0.01334567853627459 0 -0.012514735263401015 -0.012519985571806622 0 -0.013055178585843326 -0.013103225190830913 0 -0.01225347535920159 -0.01334567853627459 0 -0.012514735263401015 -0.012519985571806622 0 -0.011686727137515089 -0.01227806981190179 0 -0.011775592720939351 -0.012979248822621461 0 -0.012514735263401015 -0.012519985571806622 0 -0.010876165076711616 -0.012855765249394678 0 -0.011382104888049737 -0.013597203704508195 0 -0.010080461777459278 -0.013485100793632515 0 -0.010883034174902956 -0.011942162085160685 0 -0.011686727137515089 -0.01227806981190179 0 -0.010876165076711616 -0.012855765249394678 0 -0.011686727137515089 -0.01227806981190179 0 -0.011775592720939351 -0.012979248822621461 0 -0.010876165076711616 -0.012855765249394678 0 -0.010883034174902956 -0.011942162085160685 0 -0.010876165076711616 -0.012855765249394678 0 -0.010144528794729843 -0.012422049664225361 0 -0.011775592720939351 -0.012979248822621461 0 -0.010876165076711616 -0.012855765249394678 0 -0.011382104888049737 -0.013597203704508195 0 -0.011382104888049737 -0.013597203704508195 0 -0.010080461777459278 -0.013485100793632515 0 -0.011156701035116276 -0.014708719606561768 0 -0.0055983841717312487 -0.011834448114775487 0 -0.0082828264915023181 -0.010275762422147183 0 -0.0014090833132070798 -0.0098478431847642892 0 -0.0014104574666909434 -0.0098668153955511605 0 -0.0014675250259786287 -0.0098556488559798441 0 -0.012201703201488863 -0.014162490276263694 0 -0.011382104888049737 -0.013597203704508195 0 -0.011156701035116276 -0.014708719606561768 0 -0.0014090833132070798 -0.0098478431847642892 0 -0.0014104574666909434 -0.0098668153955511605 0 -0.0013844488479632527 -0.0098644547617695484 0 -0.010080461777459278 -0.013485100793632515 0 -0.010144528794729843 -0.012422049664225361 0 -0.0089268052614102453 -0.012233543943747337 0 -0.0055983841717312487 -0.011834448114775487 0 -0.0053425308163544925 -0.011089893696718188 0 -0.0014104574666909434 -0.0098668153955511605 0 -0.0013844488479632527 -0.0098644547617695484 0 -0.0014013323439895204 -0.0099101893608617084 0 -0.010876165076711616 -0.012855765249394678 0 -0.010080461777459278 -0.013485100793632515 0 -0.010144528794729843 -0.012422049664225361 0 -0.0064385167498292074 -0.008153113481170279 0 -0.0059945267931618062 -0.0069370055209801136 0 -0.00776882332992014 -0.0065208229411770086 0 -0.0064385167498292074 -0.008153113481170279 0 -0.0059945267931618062 -0.0069370055209801136 0 -0.0052424510256029707 -0.0083295171476224662 0 -0.0014090833132070798 -0.0098478431847642892 0 -0.0013817799313065289 -0.009811807520335121 0 -0.0013844488479632527 -0.0098644547617695484 0 -0.0014090833132070798 -0.0098478431847642892 0 -0.0013817799313065289 -0.009811807520335121 0 -0.0014675250259786287 -0.0098556488559798441 0 -0.0031198741756786872 -0.0083112552172816268 0 -0.0082828264915023181 -0.010275762422147183 0 -0.0059945267931618062 -0.0069370055209801136 0 -0.0074747492951509368 -0.0061778188284458933 0 -0.00776882332992014 -0.0065208229411770086 0 -0.012195842440111836 -0.0099413721423676129 0 -0.011431511311540792 -0.010336433598065131 0 -0.011656720669775106 -0.010599375539354335 0 -0.0082828264915023181 -0.010275762422147183 0 -0.012154539004380916 -0.0081443068816295754 0 -0.011933876185409732 -0.0070974710155750917 0 -0.013454336609006608 -0.0051889037153097419 0 -0.013265162800933188 -0.0069086011122125165 0 -0.0087716854868825217 -0.0075453042178159936 0 -0.012154539004380916 -0.0081443068816295754 0 -0.013265162800933188 -0.0069086011122125165 0 -0.014511928686206207 -0.0064035760217443496 0 -0.013849775928109426 -0.0081081214097975165 0 -0.013454336609006608 -0.0051889037153097419 0 -0.013265162800933188 -0.0069086011122125165 0 -0.014511928686206207 -0.0064035760217443496 0 -0.015326853182932478 -0.0087663180072872372 0 -0.015163357093887947 -0.0096831034416193819 0 -0.014751512309730935 -0.0088584734300734894 0 -0.012154539004380916 -0.0081443068816295754 0 -0.014804314314901368 -0.0075502703339506124 0 -0.016106738892341658 -0.0097395690297862741 0 -0.015326853182932478 -0.0087663180072872372 0 -0.015163357093887947 -0.0096831034416193819 0 -0.015492380899262624 -0.010564310199656693 0 -0.016106738892341658 -0.0097395690297862741 0 -0.015163357093887947 -0.0096831034416193819 0 -0.015163357093887947 -0.0096831034416193819 0 -0.014626808109210902 -0.0097597979483733891 0 -0.014751512309730935 -0.0088584734300734894 0 -0.014626808109210902 -0.0097597979483733891 0 -0.014337777460484636 -0.0093316068253403699 0 -0.014751512309730935 -0.0088584734300734894 0 -0.014875251638932061 -0.010310450479523453 0 -0.015163357093887947 -0.0096831034416193819 0 -0.014626808109210902 -0.0097597979483733891 0 -0.014416085684740464 -0.010531355467786788 0 -0.014626808109210902 -0.0097597979483733891 0 -0.014091179025263592 -0.0097455005940096616 0 -0.014626808109210902 -0.0097597979483733891 0 -0.014091179025263592 -0.0097455005940096616 0 -0.014337777460484636 -0.0093316068253403699 0 -0.018346840628564728 -0.0094803891082737395 0 -0.016443808898973313 -0.010282463586283097 0 -0.01412455205429934 -0.0097232028117358125 0 -0.014337777460484636 -0.0093316068253403699 0 -0.01446926905541574 -0.0078293969152086838 0 -0.015326853182932478 -0.0087663180072872372 0 -0.014751512309730935 -0.0088584734300734894 0 -0.014584901738706959 -0.0077979547554234124 0 -0.014337777460484636 -0.0093316068253403699 0 -0.014751512309730935 -0.0088584734300734894 0 -0.01446926905541574 -0.0078293969152086838 0 -0.014751512309730935 -0.0088584734300734894 0 -0.01446926905541574 -0.0078293969152086838 0 -0.014584901738706959 -0.0077979547554234124 0 -0.018346840628564728 -0.0094803891082737395 0 -0.022924207877191918 -0.0067582533245543032 0 -0.014804314314901368 -0.0075502703339506124 0 -0.019452960670662354 -0.0063144720062710356 0 -0.029124659858547373 -0.0070599270037486972 0 -0.029090651783866661 -0.0070123645203627339 0 -0.029150939190601011 -0.0067032566016452253 0 -0.018530380467863608 -0.0019302580659590193 0 -0.018219877717235645 -0.0039545350427111449 0 -0.017414946728833577 -0.0027891952231231905 0 -0.022924207877191918 -0.0067582533245543032 0 -0.030013388767583807 -0.0063871843617597677 0 -0.029120999474791034 -0.0070997329506071877 0 -0.029090651783866661 -0.0070123645203627339 0 -0.028990886143543653 -0.0070420648199115083 0 -0.029120999474791034 -0.0070997329506071877 0 -0.029124915486643414 -0.0070587063472815834 0 -0.029090651783866661 -0.0070123645203627339 0 -0.021916403976048209 -0.0087325959485072165 0 -0.022427699704383047 -0.0053584703830903977 0 -0.024621711118061402 -0.0079907806819782701 0 -0.022924207877191918 -0.0067582533245543032 0 -0.022553569874849085 -0.0062392773540115888 0 -0.022924207877191918 -0.0067582533245543032 0 -0.019452960670662354 -0.0063144720062710356 0 -0.022553569874849085 -0.0062392773540115888 0 -0.019452960670662354 -0.0063144720062710356 0 -0.022553569874849085 -0.0062392773540115888 0 -0.024018127066715082 -0.0072339085964428056 0 -0.018530380467863608 -0.0019302580659590193 0 -0.018365297908836641 -0.0017332595733947781 0 -0.017414946728833577 -0.0027891952231231905 0 -0.029090651783866661 -0.0070123645203627339 0 -0.029019346778267938 -0.0068091471266023386 0 -0.028990886143543653 -0.0070420648199115083 0 -0.022553569874849085 -0.0062392773540115888 0 -0.023766725937006981 -0.0049622640410900577 0 -0.029090651783866661 -0.0070123645203627339 0 -0.029019346778267938 -0.0068091471266023386 0 -0.029150939190601011 -0.0067032566016452253 0 -0.018219877717235645 -0.0039545350427111449 0 -0.017414946728833577 -0.0027891952231231905 0 -0.017016208252453049 -0.0048154930388932806 0 -0.029019346778267938 -0.0068091471266023386 0 -0.029150939190601011 -0.0067032566016452253 0 -0.02903395368794719 -0.0065352996383819034 0 -0.01605277726070669 -0.0023162102669866771 0 -0.017414946728833577 -0.0027891952231231905 0 -0.015633258091764558 -0.0037392617362630122 0 -0.017414946728833577 -0.0027891952231231905 0 -0.015633258091764558 -0.0037392617362630122 0 -0.017016208252453049 -0.0048154930388932806 0 -0.015633258091764558 -0.0037392617362630122 0 -0.015445215934082395 -0.0050696856676420406 0 -0.017016208252453049 -0.0048154930388932806 0 -0.014511928686206207 -0.0064035760217443496 0 -0.015595193499365789 -0.0076424740509837621 0 -0.013849775928109426 -0.0081081214097975165 0 -0.018365297908836641 -0.0017332595733947781 0 -0.01605277726070669 -0.0023162102669866771 0 -0.017414946728833577 -0.0027891952231231905 0 -0.019452960670662354 -0.0063144720062710356 0 -0.014446160093428662 -0.0052111880208553125 0 -0.014446160093428662 -0.0052111880208553125 0 -0.013451033298617633 -0.0055286438433792317 0 -0.013265162800933188 -0.0069086011122125165 0 -0.013849775928109426 -0.0081081214097975165 0 -0.012124398479989 -0.0085644025553823291 0 -0.011933876185409732 -0.0070974710155750917 0 -0.013265162800933188 -0.0069086011122125165 0 -0.012124398479989 -0.0085644025553823291 0 -0.015633258091764558 -0.0037392617362630122 0 -0.014134418117773263 -0.0045305960492061847 0 -0.01372400429970466 -0.0029192368535105803 0 -0.01605277726070669 -0.0023162102669866771 0 -0.015633258091764558 -0.0037392617362630122 0 -0.01372400429970466 -0.0029192368535105803 0 -0.015633258091764558 -0.0037392617362630122 0 -0.014134418117773263 -0.0045305960492061847 0 -0.015445215934082395 -0.0050696856676420406 0 -0.01372400429970466 -0.0029192368535105803 0 -0.012383958518437684 -0.0042548419930496344 0 -0.011415786392553754 -0.003537363166966605 0 -0.013451033298617633 -0.0055286438433792317 0 -0.00886151722531444 -0.008091845021683074 0 -0.014134418117773263 -0.0045305960492061847 0 -0.01372400429970466 -0.0029192368535105803 0 -0.012383958518437684 -0.0042548419930496344 0 -0.0087716854868825217 -0.0075453042178159936 0 -0.00886151722531444 -0.008091845021683074 0 -0.011933876185409732 -0.0070974710155750917 0 -0.012124398479989 -0.0085644025553823291 0 -0.010391215101985143 -0.0090179322270299289 0 -0.028440043851768224 -0.0078763051926357148 0 -0.028571609973578698 -0.0078264533852740528 0 -0.028493395826182683 -0.0075811383315621279 0 -0.028571609973578698 -0.0078264533852740528 0 -0.02857478971273706 -0.0071450512768361802 0 -0.028186456565687985 -0.0071391341217748516 0 -0.028578390706897158 -0.0077918942753521375 0 -0.028348287517731337 -0.0073680462650722043 0 -0.028313355643487904 -0.0076932424145689619 0 -0.028440043851768224 -0.0078763051926357148 0 -0.028493395826182683 -0.0075811383315621279 0 -0.028313355643487904 -0.0076932424145689619 0 -0.028309822855021507 -0.0079487778268310175 0 -0.028440043851768224 -0.0078763051926357148 0 -0.028471150243148842 -0.0082588370293506432 0 -0.028309822855021507 -0.0079487778268310175 0 -0.028440043851768224 -0.0078763051926357148 0 -0.028440043851768224 -0.0078763051926357148 0 -0.028571609973578698 -0.0078264533852740528 0 -0.028548377640334435 -0.0081183022072030854 0 -0.028471150243148842 -0.0082588370293506432 0 -0.028440043851768224 -0.0078763051926357148 0 -0.028548377640334435 -0.0081183022072030854 0 -0.028625052138832659 -0.0082935171981327847 0 -0.028571609973578698 -0.0078264533852740528 0 -0.028548377640334435 -0.0081183022072030854 0 -0.028625052138832659 -0.0082935171981327847 0 -0.028571609973578698 -0.0078264533852740528 0 -0.028900391944778586 -0.0076625667967285616 0 -0.028625052138832659 -0.0082935171981327847 0 -0.029230813633360303 -0.007975245951039921 0 -0.028900391944778586 -0.0076625667967285616 0 -0.029230813633360303 -0.007975245951039921 0 -0.029264639007052434 -0.0071314250204098572 0 -0.028900391944778586 -0.0076625667967285616 0 -0.029264639007052434 -0.0071314250204098572 0 -0.028900391944778586 -0.0076625667967285616 0 -0.028977340718030323 -0.0072160663424947705 0 -0.028900391944778586 -0.0076625667967285616 0 -0.028977340718030323 -0.0072160663424947705 0 -0.028789919944718429 -0.0070891292019595832 0 -0.028571609973578698 -0.0078264533852740528 0 -0.028900391944778586 -0.0076625667967285616 0 -0.02857478971273706 -0.0071450512768361802 0 -0.028900391944778586 -0.0076625667967285616 0 -0.02857478971273706 -0.0071450512768361802 0 -0.028789919944718429 -0.0070891292019595832 0 -0.02857478971273706 -0.0071450512768361802 0 -0.028789919944718429 -0.0070891292019595832 0 -0.028706119371188575 -0.0067409671233535518 0 -0.028789919944718429 -0.0070891292019595832 0 -0.028885213527648189 -0.0068762184617879992 0 -0.028706119371188575 -0.0067409671233535518 0 -0.028977340718030323 -0.0072160663424947705 0 -0.028789919944718429 -0.0070891292019595832 0 -0.028990886143543653 -0.0070420648199115083 0 -0.029120999474791034 -0.0070997329506071877 0 -0.028977340718030323 -0.0072160663424947705 0 -0.028990886143543653 -0.0070420648199115083 0 -0.028789919944718429 -0.0070891292019595832 0 -0.028990886143543653 -0.0070420648199115083 0 -0.028885213527648189 -0.0068762184617879992 0 -0.029019346778267938 -0.0068091471266023386 0 -0.028990886143543653 -0.0070420648199115083 0 -0.028885213527648189 -0.0068762184617879992 0 -0.029019346778267938 -0.0068091471266023386 0 -0.028885213527648189 -0.0068762184617879992 0 -0.028875394433696241 -0.0066460808746091971 0 -0.028885213527648189 -0.0068762184617879992 0 -0.028875394433696241 -0.0066460808746091971 0 -0.028706119371188575 -0.0067409671233535518 0 -0.028875394433696241 -0.0066460808746091971 0 -0.028706119371188575 -0.0067409671233535518 0 -0.028757931822458688 -0.0065441680405088848 0 -0.029019346778267938 -0.0068091471266023386 0 -0.028875394433696241 -0.0066460808746091971 0 -0.02903395368794719 -0.0065352996383819034 0 -0.028706119371188575 -0.0067409671233535518 0 -0.028359717942486137 -0.0066828956755120451 0 -0.028606975910503315 -0.006417697558630339 0 -0.02857478971273706 -0.0071450512768361802 0 -0.028706119371188575 -0.0067409671233535518 0 -0.028359717942486137 -0.0066828956755120451 0 -0.02857478971273706 -0.0071450512768361802 0 -0.028359717942486137 -0.0066828956755120451 0 -0.028186456565687985 -0.0071391341217748516 0 -0.028014339141122072 -0.0066760272307015067 0 -0.028359717942486137 -0.0066828956755120451 0 -0.028186456565687985 -0.0071391341217748516 0 -0.028381679908765712 -0.0071312429319737502 0 -0.028313355643487904 -0.0076932424145689619 0 -0.028493395826182683 -0.0075811383315621279 0 -0.028189241671283193 -0.0068932648210216158 0 -0.028348287517731337 -0.0073680462650722043 0 -0.028014339141122072 -0.0066760272307015067 0 -0.028359717942486137 -0.0066828956755120451 0 -0.028219511126846234 -0.0064342591287200566 0 -0.028219511126846234 -0.0064342591287200566 0 -0.028241428582576389 -0.0061723719667359078 0 -0.028094380428545687 -0.0063139468392747807 0 -0.028219511126846234 -0.0064342591287200566 0 -0.028241428582576389 -0.0061723719667359078 0 -0.028393784305059191 -0.006303542069913559 0 -0.028241428582576389 -0.0061723719667359078 0 -0.028216778439417133 -0.0060334246735030432 0 -0.028273447170837043 -0.0060615485315013507 0 -0.028241428582576389 -0.0061723719667359078 0 -0.028388016141798478 -0.0060825584243527058 0 -0.028273447170837043 -0.0060615485315013507 0 -0.028241428582576389 -0.0061723719667359078 0 -0.028216778439417133 -0.0060334246735030432 0 -0.028119839021342505 -0.0060309001351970051 0 -0.028388016141798478 -0.0060825584243527058 0 -0.028393784305059191 -0.006303542069913559 0 -0.028557534206857055 -0.0060995564529496837 0 -0.028241428582576389 -0.0061723719667359078 0 -0.028388016141798478 -0.0060825584243527058 0 -0.028393784305059191 -0.006303542069913559 0 -0.028359717942486137 -0.0066828956755120451 0 -0.028393784305059191 -0.006303542069913559 0 -0.028606975910503315 -0.006417697558630339 0 -0.028359717942486137 -0.0066828956755120451 0 -0.028219511126846234 -0.0064342591287200566 0 -0.028393784305059191 -0.006303542069913559 0 -0.028706119371188575 -0.0067409671233535518 0 -0.028606975910503315 -0.006417697558630339 0 -0.028757931822458688 -0.0065441680405088848 0 -0.028606975910503315 -0.006417697558630339 0 -0.028856921951077561 -0.0064117088006944659 0 -0.028710260109599723 -0.006124719316241283 0 -0.028606975910503315 -0.006417697558630339 0 -0.028757931822458688 -0.0065441680405088848 0 -0.028856921951077561 -0.0064117088006944659 0 -0.028875394433696241 -0.0066460808746091971 0 -0.028856921951077561 -0.0064117088006944659 0 -0.02903395368794719 -0.0065352996383819034 0 -0.028875394433696241 -0.0066460808746091971 0 -0.028757931822458688 -0.0065441680405088848 0 -0.028856921951077561 -0.0064117088006944659 0 -0.028856921951077561 -0.0064117088006944659 0 -0.029036381163728385 -0.0063937237962216655 0 -0.028993839169351825 -0.0062954718703053603 0 -0.028856921951077561 -0.0064117088006944659 0 -0.02903395368794719 -0.0065352996383819034 0 -0.029036381163728385 -0.0063937237962216655 0 -0.028856921951077561 -0.0064117088006944659 0 -0.028710260109599723 -0.006124719316241283 0 -0.028993839169351825 -0.0062954718703053603 0 -0.028606975910503315 -0.006417697558630339 0 -0.028710260109599723 -0.006124719316241283 0 -0.028557534206857055 -0.0060995564529496837 0 -0.028393784305059191 -0.006303542069913559 0 -0.028606975910503315 -0.006417697558630339 0 -0.028557534206857055 -0.0060995564529496837 0 -0.025391313407958156 0.00085402223832389173 0 -0.025364733160552693 0.00085503491116993623 0 -0.025333001491674768 0.00084134427853042437 0 -0.027263858413985265 -0.0023791087334736499 0 -0.026837726016429038 -0.0025020022455442825 0 -0.028557534206857055 -0.0060995564529496837 0 -0.028715881486727098 -0.0059855448585014537 0 -0.028490981172401595 -0.0059486684568311448 0 -0.028710260109599723 -0.006124719316241283 0 -0.028557534206857055 -0.0060995564529496837 0 -0.028715881486727098 -0.0059855448585014537 0 -0.028710260109599723 -0.006124719316241283 0 -0.028715881486727098 -0.0059855448585014537 0 -0.028737282904038795 -0.006028747418268283 0 -0.025391313407958156 0.00085402223832389173 0 -0.02538482843876326 0.00087905608291788081 0 -0.025364733160552693 0.00085503491116993623 0 -0.025391313407958156 0.00085402223832389173 0 -0.02538482843876326 0.00087905608291788081 0 -0.025313038551096213 0.00083588834461164555 0 -0.02538482843876326 0.00087905608291788081 0 -0.025364733160552693 0.00085503491116993623 0 -0.02536161824674114 0.00087209560631211296 0 -0.025364733160552693 0.00085503491116993623 0 -0.025377854617552601 0.00082129926818643958 0 -0.025333001491674768 0.00084134427853042437 0 -0.025364733160552693 0.00085503491116993623 0 -0.02536161824674114 0.00087209560631211296 0 -0.025377854617552601 0.00082129926818643958 0 -0.02536161824674114 0.00087209560631211296 0 -0.025377854617552601 0.00082129926818643958 0 -0.025305909352536016 0.00087670998905047275 0 -0.025512055090943769 0.00076734606357564141 0 -0.025475554882256373 0.00051660850923147914 0 -0.025782350129708198 0.00049452563751395319 0 -0.025534278048301263 0.00079374393011249372 0 -0.025630103553047508 5.9880990585766825e-05 0 -0.025377854617552601 0.00082129926818643958 0 -0.025534278048301263 0.00079374393011249372 0 -0.025305909352536016 0.00087670998905047275 0 -0.026060037529113168 0.00029693792315597126 0 -0.025782350129708198 0.00049452563751395319 0 -0.025630103553047508 5.9880990585766825e-05 0 -0.026060037529113168 0.00029693792315597126 0 -0.025782350129708198 0.00049452563751395319 0 -0.025890156068209033 0.00080087772439028926 0 -0.025782350129708198 0.00049452563751395319 0 -0.025890156068209033 0.00080087772439028926 0 -0.025534278048301263 0.00079374393011249372 0 -0.028249597303527468 -0.0059653060508420477 0 -0.028202549983253056 -0.0059377274422957758 0 -0.028490981172401595 -0.0059486684568311448 0 -0.027999632467361039 -0.0040241484553037955 0 -0.027221958193154299 -0.0033096260726742329 0 -0.028215714908781726 -0.0059472642325003955 0 -0.028216778439417133 -0.0060334246735030432 0 -0.028119839021342505 -0.0060309001351970051 0 -0.028249597303527468 -0.0059653060508420477 0 -0.028215714908781726 -0.0059472642325003955 0 -0.028216778439417133 -0.0060334246735030432 0 -0.028388016141798478 -0.0060825584243527058 0 -0.028249597303527468 -0.0059653060508420477 0 -0.028273447170837043 -0.0060615485315013507 0 -0.028249597303527468 -0.0059653060508420477 0 -0.028216778439417133 -0.0060334246735030432 0 -0.028273447170837043 -0.0060615485315013507 0 -0.028388016141798478 -0.0060825584243527058 0 -0.028249597303527468 -0.0059653060508420477 0 -0.028490981172401595 -0.0059486684568311448 0 -0.027221958193154299 -0.0033096260726742329 0 -0.026837726016429038 -0.0025020022455442825 0 -0.025890156068209033 0.00080087772439028926 0 -0.025333001491674768 0.00084134427853042437 0 -0.025534278048301263 0.00079374393011249372 0 -0.028388016141798478 -0.0060825584243527058 0 -0.028557534206857055 -0.0060995564529496837 0 -0.028490981172401595 -0.0059486684568311448 0 -0.025377854617552601 0.00082129926818643958 0 -0.025333001491674768 0.00084134427853042437 0 -0.025534278048301263 0.00079374393011249372 0 -0.015208003433026971 -0.0065028051229796902 0 -0.013207204607712497 -0.0075803078732592337 0 -0.012033348816310161 -0.0065070060425531573 0 -0.013010557843393609 -0.0063133021753580924 0 -0.01427735371874945 -0.0072755913234409152 0 -0.011519073450114832 -0.0070636904750437622 0 -0.014301786938099631 -0.0068820493983061184 0 -0.011868621165885291 -0.0067912294132104426 0 -0.015208003433026971 -0.0065028051229796902 0 -0.014605918646065546 -0.007676510200377103 0 -0.013207204607712497 -0.0075803078732592337 0 -0.013010557843393609 -0.0063133021753580924 0 -0.01429594439646545 -0.0058425905060057841 0 -0.01427735371874945 -0.0072755913234409152 0 -0.013010557843393609 -0.0063133021753580924 0 -0.012934356221136704 -0.005355705492655123 0 -0.012040967690620789 -0.0060283902720699402 0 -0.012383958518437684 -0.0042548419930496344 0 -0.012934356221136704 -0.005355705492655123 0 -0.011425652460406364 -0.005174028633073713 0 -0.014134418117773263 -0.0045305960492061847 0 -0.012934356221136704 -0.005355705492655123 0 -0.01429594439646545 -0.0058425905060057841 0 -0.014134418117773263 -0.0045305960492061847 0 -0.012383958518437684 -0.0042548419930496344 0 -0.012934356221136704 -0.005355705492655123 0 -0.013010557843393609 -0.0063133021753580924 0 -0.012934356221136704 -0.005355705492655123 0 -0.01429594439646545 -0.0058425905060057841 0 -0.014134418117773263 -0.0045305960492061847 0 -0.01429594439646545 -0.0058425905060057841 0 -0.015445215934082395 -0.0050696856676420406 0 -0.01429594439646545 -0.0058425905060057841 0 -0.015445215934082395 -0.0050696856676420406 0 -0.016002308009936784 -0.0060676786677763593 0 -0.015208003433026971 -0.0065028051229796902 0 -0.018370726765365372 -0.0066189608101138893 0 -0.015608337168376722 -0.007998974245510106 0 -0.014301786938099631 -0.0068820493983061184 0 -0.019817122403724199 -0.0070017492329606428 0 -0.01429594439646545 -0.0058425905060057841 0 -0.01427735371874945 -0.0072755913234409152 0 -0.016002308009936784 -0.0060676786677763593 0 -0.015208003433026971 -0.0065028051229796902 0 -0.015608337168376722 -0.007998974245510106 0 -0.014605918646065546 -0.007676510200377103 0 -0.017043770599228934 -0.0074110469247693029 0 -0.016002308009936784 -0.0060676786677763593 0 -0.017921197149395118 -0.0060035579702376546 0 -0.01427735371874945 -0.0072755913234409152 0 -0.017043770599228934 -0.0074110469247693029 0 -0.016002308009936784 -0.0060676786677763593 0 -0.019817122403724199 -0.0070017492329606428 0 -0.026196131289300494 -0.0063928197944967038 0 -0.019817122403724199 -0.0070017492329606428 0 -0.023500946673235722 -0.0064086773799769906 0 -0.016002308009936784 -0.0060676786677763593 0 -0.017016208252453049 -0.0048154930388932806 0 -0.017921197149395118 -0.0060035579702376546 0 -0.015445215934082395 -0.0050696856676420406 0 -0.016002308009936784 -0.0060676786677763593 0 -0.017016208252453049 -0.0048154930388932806 0 -0.023766725937006981 -0.0049622640410900577 0 -0.023500946673235722 -0.0064086773799769906 0 -0.029150939190601011 -0.0067032566016452253 0 -0.029164043249921359 -0.0063755197960144285 0 -0.02903395368794719 -0.0065352996383819034 0 -0.018219877717235645 -0.0039545350427111449 0 -0.017016208252453049 -0.0048154930388932806 0 -0.017921197149395118 -0.0060035579702376546 0 -0.029164043249921359 -0.0063755197960144285 0 -0.029036381163728385 -0.0063937237962216655 0 -0.028993839169351825 -0.0062954718703053603 0 -0.029164043249921359 -0.0063755197960144285 0 -0.02903395368794719 -0.0065352996383819034 0 -0.029036381163728385 -0.0063937237962216655 0 -0.029909290009770287 -0.0060660440855027573 0 -0.026196131289300494 -0.0063928197944967038 0 -0.028710260109599723 -0.006124719316241283 0 -0.028742529832907301 -0.0060485066373486742 0 -0.028737282904038795 -0.006028747418268283 0 -0.028710260109599723 -0.006124719316241283 0 -0.028993839169351825 -0.0062954718703053603 0 -0.029192809034344316 -0.0061592564150905983 0 -0.023500946673235722 -0.0064086773799769906 0 -0.026196131289300494 -0.0063928197944967038 0 -0.02323103241436654 -0.0062411486904431464 0 -0.023224670171623347 -0.0062754942926552138 0 -0.023224133673416109 -0.0062405624899288734 0 -0.029164043249921359 -0.0063755197960144285 0 -0.028993839169351825 -0.0062954718703053603 0 -0.029192809034344316 -0.0061592564150905983 0 -0.025391313407958156 0.00085402223832389173 0 -0.025239984737441316 0.00085253796443219957 0 -0.02516263772320361 0.00090942907075143597 0 -0.028715881486727098 -0.0059855448585014537 0 -0.028737282904038795 -0.006028747418268283 0 -0.028740222447410681 -0.0060100279356243274 0 -0.028742529832907301 -0.0060485066373486742 0 -0.028737282904038795 -0.006028747418268283 0 -0.028740222447410681 -0.0060100279356243274 0 -0.027263858413985265 -0.0023791087334736499 0 -0.025992003774056204 -0.0043181409054022521 0 -0.025130253801163554 0.00091429262336367246 0 -0.025905237370105281 0.00086033149298547762 0 -0.02538482843876326 0.00087905608291788081 0 -0.025469468566240307 0.0010440184927415711 0 -0.025429748591995677 0.00097113323509411432 0 -0.025391313407958156 0.00085402223832389173 0 -0.025313038551096213 0.00083588834461164555 0 -0.025239984737441316 0.00085253796443219957 0 -0.02538482843876326 0.00087905608291788081 0 -0.025313038551096213 0.00083588834461164555 0 -0.025201498948292125 0.00072878833392891454 0 -0.025201498948292125 0.00072878833392891454 0 -0.025239984737441316 0.00085253796443219957 0 -0.025172759849364106 0.00083285564725484767 0 -0.025313038551096213 0.00083588834461164555 0 -0.025201498948292125 0.00072878833392891454 0 -0.025239984737441316 0.00085253796443219957 0 -0.025239984737441316 0.00085253796443219957 0 -0.025172759849364106 0.00083285564725484767 0 -0.02516263772320361 0.00090942907075143597 0 -0.025905237370105281 0.00086033149298547762 0 -0.021957428425517591 0.00075866879432725501 0 -0.025172759849364106 0.00083285564725484767 0 -0.025075229916869071 0.00084364431822847531 0 -0.02516263772320361 0.00090942907075143597 0 -0.025469468566240307 0.0010440184927415711 0 -0.025314873469308125 0.0010607291118398447 0 -0.02505547189829933 0.0014220301510071466 0 -0.025201498948292125 0.00072878833392891454 0 -0.024961440594239343 0.00082298547478013755 0 -0.024657064559366764 0.0007288761232007204 0 -0.025075229916869071 0.00084364431822847531 0 -0.024961440594239343 0.00082298547478013755 0 -0.02516263772320361 0.00090942907075143597 0 -0.025201498948292125 0.00072878833392891454 0 -0.025075229916869071 0.00084364431822847531 0 -0.024961440594239343 0.00082298547478013755 0 -0.025201498948292125 0.00072878833392891454 0 -0.025172759849364106 0.00083285564725484767 0 -0.025075229916869071 0.00084364431822847531 0 -0.025469468566240307 0.0010440184927415711 0 -0.025314873469308125 0.0010607291118398447 0 -0.025414465276292188 0.00097864444015822007 0 -0.019817122403724199 -0.0070017492329606428 0 -0.020694478017676626 -0.0046435087777896063 0 -0.026196131289300494 -0.0063928197944967038 0 -0.025992003774056204 -0.0043181409054022521 0 -0.024961440594239343 0.00082298547478013755 0 -0.02516263772320361 0.00090942907075143597 0 -0.024756258953693929 0.00090361006805088644 0 -0.02281755033527191 -0.0058031735027346282 0 -0.022794170383325218 -0.0055693926076461168 0 -0.022945948833559295 -0.0055576218934348517 0 -0.02281755033527191 -0.0058031735027346282 0 -0.022761193859808071 -0.0058009651691194215 0 -0.022794170383325218 -0.0055693926076461168 0 -0.025992003774056204 -0.0043181409054022521 0 -0.020694478017676626 -0.0046435087777896063 0 -0.018370726765365372 -0.0066189608101138893 0 -0.015608337168376722 -0.007998974245510106 0 -0.016643890533194317 -0.0093458883482910749 0 -0.015608337168376722 -0.007998974245510106 0 -0.014406283910071996 -0.008606013949869146 0 -0.014605918646065546 -0.007676510200377103 0 -0.015608337168376722 -0.007998974245510106 0 -0.014619158921827255 -0.0094371518101021134 0 -0.014406283910071996 -0.008606013949869146 0 -0.020694478017676626 -0.0046435087777896063 0 -0.01569631053074479 -0.0058514888218904335 0 -0.015608337168376722 -0.007998974245510106 0 -0.016643890533194317 -0.0093458883482910749 0 -0.014619158921827255 -0.0094371518101021134 0 -0.024961440594239343 0.00082298547478013755 0 -0.024756258953693929 0.00090361006805088644 0 -0.024657064559366764 0.0007288761232007204 0 -0.021957428425517591 0.00075866879432725501 0 -0.020910892342912761 -8.4108062890436648e-05 0 -0.02505547189829933 0.0014220301510071466 0 -0.02490962375288884 0.0011000330875155465 0 -0.024160683713824686 0.00041356947138043834 0 -0.020694478017676626 -0.0046435087777896063 0 -0.021957428425517591 0.00075866879432725501 0 -0.02505547189829933 0.0014220301510071466 0 -0.02490962375288884 0.0011000330875155465 0 -0.025179936507337995 0.0010334783754417066 0 -0.025314873469308125 0.0010607291118398447 0 -0.02505547189829933 0.0014220301510071466 0 -0.025179936507337995 0.0010334783754417066 0 -0.0212219910109771 -0.0023890379736707973 0 -0.020191523700412009 -0.0040274380428880659 0 -0.017465024373963751 -0.0025680983275770865 0 -0.021957428425517591 0.00075866879432725501 0 -0.013448265946841629 -0.0028086347238385516 0 -0.020191523700412009 -0.0040274380428880659 0 -0.017465024373963751 -0.0025680983275770865 0 -0.013705491238598147 -0.0027536657459631192 0 -0.018991584717738031 0.0023274702478197269 0 -0.017123952327607557 -0.00060246166892937434 0 -0.014933040819487587 0.0031207205150749332 0 -0.01569631053074479 -0.0058514888218904335 0 -0.013448265946841629 -0.0028086347238385516 0 -0.014168091279190978 -0.0085685189121143639 0 -0.011717295488639409 -0.0081820897307839351 0 -0.014406283910071996 -0.008606013949869146 0 -0.013207204607712497 -0.0075803078732592337 0 -0.011734665059238886 -0.0083539310778965141 0 -0.014406283910071996 -0.008606013949869146 0 -0.011733354268947033 -0.008027473111268538 0 -0.01259348081137986 -0.009462920759185537 0 -0.014619158921827255 -0.0094371518101021134 0 -0.014406283910071996 -0.008606013949869146 0 -0.01259348081137986 -0.009462920759185537 0 -0.014406283910071996 -0.008606013949869146 0 -0.014605918646065546 -0.007676510200377103 0 -0.013207204607712497 -0.0075803078732592337 0 -0.015269733042508036 -0.0035292185939339517 0 -0.017123952327607557 -0.00060246166892937434 0 -0.014238180615574065 -0.00085907723042590891 0 -0.023237821584743745 -0.00088329948084855882 0 -0.024160683713824686 0.00041356947138043834 0 -0.023696536226178767 -0.0010275234392736808 0 -0.016793227942469714 -0.00047881968225443362 0 -0.020910892342912761 -8.4108062890436648e-05 0 -0.024160683713824686 0.00041356947138043834 0 -0.025063406625809356 0.00016155931056505097 0 -0.023696536226178767 -0.0010275234392736808 0 -0.016793227942469714 -0.00047881968225443362 0 -0.020080931088109374 0.0016009319974613319 0 -0.017123952327607557 -0.00060246166892937434 0 -0.014238180615574065 -0.00085907723042590891 0 -0.014933040819487587 0.0031207205150749332 0 -0.024977559497614151 0.00087380053405135651 0 -0.024635728076541397 0.0009168095569329778 0 -0.02490962375288884 0.0011000330875155465 0 -0.024160683713824686 0.00041356947138043834 0 -0.025063406625809356 0.00016155931056505097 0 -0.02490962375288884 0.0011000330875155465 0 -0.025179936507337995 0.0010334783754417066 0 -0.025166131441707339 0.00075163249213668244 0 -0.025179936507337995 0.0010334783754417066 0 -0.025166131441707339 0.00075163249213668244 0 -0.025333659337200828 0.0009127299181274735 0 -0.024635728076541397 0.0009168095569329778 0 -0.025152827285508515 0.0010763795685443328 0 -0.024635728076541397 0.0009168095569329778 0 -0.020080931088109374 0.0016009319974613319 0 -0.0227571231073198 0.0021329828104346862 0 -0.022969473351898962 0.0010676033523175431 0 -0.021925451447293496 0.0014027237207924687 0 -0.024635728076541397 0.0009168095569329778 0 -0.023216607052633134 0.0021425357887623598 0 -0.025457664185959655 0.00096075546054233266 0 -0.025432206460996348 0.001035004091600727 0 -0.025580551649672816 0.0012467010291127433 0 -0.025432206460996348 0.001035004091600727 0 -0.02541307957977712 0.0010658366076115821 0 -0.025471285451816268 0.0011593362198143303 0 -0.025432206460996348 0.001035004091600727 0 -0.025390241375134681 0.00096244670301360571 0 -0.025412605428080576 0.00099336812826525552 0 -0.025457664185959655 0.00096075546054233266 0 -0.025432206460996348 0.001035004091600727 0 -0.025390241375134681 0.00096244670301360571 0 -0.025457664185959655 0.00096075546054233266 0 -0.025390241375134681 0.00096244670301360571 0 -0.025333659337200828 0.0009127299181274735 0 -0.025390241375134681 0.00096244670301360571 0 -0.025333659337200828 0.0009127299181274735 0 -0.025414465276292188 0.00097864444015822007 0 -0.025314873469308125 0.0010607291118398447 0 -0.025333659337200828 0.0009127299181274735 0 -0.025414465276292188 0.00097864444015822007 0 -0.025314873469308125 0.0010607291118398447 0 -0.025179936507337995 0.0010334783754417066 0 -0.025333659337200828 0.0009127299181274735 0 -0.025390241375134681 0.00096244670301360571 0 -0.025414465276292188 0.00097864444015822007 0 -0.025412605428080576 0.00099336812826525552 0 -0.025414465276292188 0.00097864444015822007 0 -0.025412605428080576 0.00099336812826525552 0 -0.025429748591995677 0.00097113323509411432 0 -0.025469468566240307 0.0010440184927415711 0 -0.025414465276292188 0.00097864444015822007 0 -0.025429748591995677 0.00097113323509411432 0 -0.025412605428080576 0.00099336812826525552 0 -0.025429748591995677 0.00097113323509411432 0 -0.025389381634371617 0.00097347582360776956 0 -0.025412605428080576 0.00099336812826525552 0 -0.025389381634371617 0.00097347582360776956 0 -0.025372667896948625 0.0010450437701912177 0 -0.025412605428080576 0.00099336812826525552 0 -0.02541307957977712 0.0010658366076115821 0 -0.025372667896948625 0.0010450437701912177 0 -0.025432206460996348 0.001035004091600727 0 -0.025412605428080576 0.00099336812826525552 0 -0.02541307957977712 0.0010658366076115821 0 -0.02541307957977712 0.0010658366076115821 0 -0.025393891631308844 0.0011825033862946043 0 -0.025372667896948625 0.0010450437701912177 0 -0.025390722069665427 0.0011895670004131273 0 -0.025245751042775214 0.0012415322290637687 0 -0.025393891631308844 0.0011825033862946043 0 -0.025372667896948625 0.0010450437701912177 0 -0.02536026780371688 0.0010699226659056202 0 -0.025393891631308844 0.0011825033862946043 0 -0.025344032896767045 0.0014426631722492794 0 -0.025067020104342065 0.0014362823851864894 0 -0.02541307957977712 0.0010658366076115821 0 -0.025393891631308844 0.0011825033862946043 0 -0.025471285451816268 0.0011593362198143303 0 -0.025393891631308844 0.0011825033862946043 0 -0.025344032896767045 0.0014426631722492794 0 -0.025530779557192136 0.0013346693356110272 0 -0.025243278294192956 0.0016636787301949226 0 -0.025492913962119595 0.0016111186711179064 0 -0.025292640983930428 0.0020155782035848144 0 -0.025344032896767045 0.0014426631722492794 0 -0.025243278294192956 0.0016636787301949226 0 -0.025067020104342065 0.0014362823851864894 0 -0.025344032896767045 0.0014426631722492794 0 -0.025243278294192956 0.0016636787301949226 0 -0.025492913962119595 0.0016111186711179064 0 -0.023216607052633134 0.0021425357887623598 0 -0.023814348421273161 0.0033395026883077934 0 -0.020926292987575434 0.0032744202224231273 0 -0.020967851938101776 0.0043582807118773895 0 -0.021458122607808054 0.0020313670773237863 0 -0.025492913962119595 0.0016111186711179064 0 -0.025708526709205252 0.0012873952434511249 0 -0.025630350317520281 0.0018159460595955457 0 -0.025344032896767045 0.0014426631722492794 0 -0.025492913962119595 0.0016111186711179064 0 -0.025530779557192136 0.0013346693356110272 0 -0.020926292987575434 0.0032744202224231273 0 -0.020605349050598253 0.0024540417941435453 0 -0.021458122607808054 0.0020313670773237863 0 -0.025432206460996348 0.001035004091600727 0 -0.025580551649672816 0.0012467010291127433 0 -0.025471285451816268 0.0011593362198143303 0 -0.023216607052633134 0.0021425357887623598 0 -0.025677521479851154 0.0013019062017010435 0 -0.025492913962119595 0.0016111186711179064 0 -0.025708526709205252 0.0012873952434511249 0 -0.025530779557192136 0.0013346693356110272 0 -0.025393891631308844 0.0011825033862946043 0 -0.025530779557192136 0.0013346693356110272 0 -0.025471285451816268 0.0011593362198143303 0 -0.025580551649672816 0.0012467010291127433 0 -0.025530779557192136 0.0013346693356110272 0 -0.025471285451816268 0.0011593362198143303 0 -0.023216607052633134 0.0021425357887623598 0 -0.020080931088109374 0.0016009319974613319 0 -0.020967851938101776 0.0043582807118773895 0 -0.019985295365673887 0.0036808241487431828 0 -0.018535391807179898 0.0051543861950406758 0 -0.020926292987575434 0.0032744202224231273 0 -0.020967851938101776 0.0043582807118773895 0 -0.019985295365673887 0.0036808241487431828 0 -0.0165106203326882 0.0074423046862057522 0 -0.014669969076817843 0.008333318612147856 0 -0.014819911808973569 0.0066712913456183345 0 -0.020577785541001106 0.0024194357521503812 0 -0.019985295365673887 0.0036808241487431828 0 -0.018908917336035825 0.0032045322768990661 0 -0.020401283946630225 0.0052345413916193269 0 -0.016557477322333182 0.0059799659920051779 0 -0.020926292987575434 0.0032744202224231273 0 -0.020577785541001106 0.0024194357521503812 0 -0.019985295365673887 0.0036808241487431828 0 -0.020288621399377378 0.0030567403668581702 0 -0.020401283946630225 0.0052345413916193269 0 -0.014669969076817843 0.008333318612147856 0 -0.014819911808973569 0.0066712913456183345 0 -0.013473998380733276 0.0070097271486419888 0 -0.016557477322333182 0.0059799659920051779 0 -0.013512671910238369 0.0032394546816136224 0 -0.014669969076817843 0.008333318612147856 0 -0.012831232329171546 0.0092046247441381172 0 -0.013473998380733276 0.0070097271486419888 0 -0.018908917336035825 0.0032045322768990661 0 -0.018535391807179898 0.0051543861950406758 0 -0.017222224554719851 0.0040001904822712002 0 -0.019985295365673887 0.0036808241487431828 0 -0.018908917336035825 0.0032045322768990661 0 -0.018535391807179898 0.0051543861950406758 0 -0.015658063607784697 0.001462161251094026 0 -0.016887913860728243 0.0010590476147894761 0 -0.014934443968560895 0.00032340868626099737 0 -0.020080931088109374 0.0016009319974613319 0 -0.013512671910238369 0.0032394546816136224 0 -0.025271228208836472 0.00098941617987842196 0 -0.025305909352536016 0.00087670998905047275 0 -0.025351064570963519 0.00096814149942283756 0 -0.025271228208836472 0.00098941617987842196 0 -0.025351064570963519 0.00096814149942283756 0 -0.025318542118384451 0.0010158139205491447 0 -0.025588534751130768 0.00010007132670071399 0 -0.025475554882256373 0.00051660850923147914 0 -0.025799009389306574 -0.00052281235434933329 0 -0.026124243412838789 -0.00056766556724197276 0 -0.026191700086760309 -0.00026130400451944538 0 -0.025799009389306574 -0.00052281235434933329 0 -0.025630103553047508 5.9880990585766825e-05 0 -0.026191700086760309 -0.00026130400451944538 0 -0.026060037529113168 0.00029693792315597126 0 -0.025630103553047508 5.9880990585766825e-05 0 -0.026191700086760309 -0.00026130400451944538 0 -0.02536161824674114 0.00087209560631211296 0 -0.025305909352536016 0.00087670998905047275 0 -0.025351064570963519 0.00096814149942283756 0 -0.02538482843876326 0.00087905608291788081 0 -0.02536161824674114 0.00087209560631211296 0 -0.025351064570963519 0.00096814149942283756 0 -0.02538482843876326 0.00087905608291788081 0 -0.025389381634371617 0.00097347582360776956 0 -0.025351064570963519 0.00096814149942283756 0 -0.02538482843876326 0.00087905608291788081 0 -0.025429748591995677 0.00097113323509411432 0 -0.025389381634371617 0.00097347582360776956 0 -0.025389381634371617 0.00097347582360776956 0 -0.025372667896948625 0.0010450437701912177 0 -0.025351064570963519 0.00096814149942283756 0 -0.025372667896948625 0.0010450437701912177 0 -0.025351064570963519 0.00096814149942283756 0 -0.02536026780371688 0.0010699226659056202 0 -0.025351064570963519 0.00096814149942283756 0 -0.02536026780371688 0.0010699226659056202 0 -0.025318542118384451 0.0010158139205491447 0 -0.025318159229018262 0.0010520140628961288 0 -0.02536026780371688 0.0010699226659056202 0 -0.025318542118384451 0.0010158139205491447 0 -0.024982540211092297 0.0013836408057107759 0 -0.025245751042775214 0.0012415322290637687 0 -0.025243278294192956 0.0016636787301949226 0 -0.025067020104342065 0.0014362823851864894 0 -0.025008422139857 0.0018202877763836812 0 -0.024791890094088082 0.001589918178366554 0 -0.024697930726015744 0.0018598233701025619 0 -0.025008422139857 0.0018202877763836812 0 -0.024791890094088082 0.001589918178366554 0 -0.025067020104342065 0.0014362823851864894 0 -0.025008422139857 0.0018202877763836812 0 -0.024791890094088082 0.001589918178366554 0 -0.024697930726015744 0.0018598233701025619 0 -0.024478765547079423 0.0016953513889666953 0 -0.024982540211092297 0.0013836408057107759 0 -0.025131015208890346 0.00068287836581052807 0 -0.025318159229018262 0.0010520140628961288 0 -0.025292165973344036 0.0010288522210185589 0 -0.025318542118384451 0.0010158139205491447 0 -0.025318159229018262 0.0010520140628961288 0 -0.025292165973344036 0.0010288522210185589 0 -0.025259315475064003 0.0010619707368285155 0 -0.025271228208836472 0.00098941617987842196 0 -0.025292165973344036 0.0010288522210185589 0 -0.025318542118384451 0.0010158139205491447 0 -0.025799009389306574 -0.00052281235434933329 0 -0.026032133919841015 -0.0007354624212679116 0 -0.025933997586317304 -0.00093735066222077029 0 -0.025588534751130768 0.00010007132670071399 0 -0.025131015208890346 0.00068287836581052807 0 -0.025271228208836472 0.00098941617987842196 0 -0.025292165973344036 0.0010288522210185589 0 -0.025259315475064003 0.0010619707368285155 0 -0.025799009389306574 -0.00052281235434933329 0 -0.026032133919841015 -0.0007354624212679116 0 -0.026124243412838789 -0.00056766556724197276 0 -0.026032133919841015 -0.0007354624212679116 0 -0.026103388263860668 -0.00082515500102186765 0 -0.026052382417614539 -0.00087157672629741901 0 -0.026052382417614539 -0.00087157672629741901 0 -0.026109935324851511 -0.00094634444720709168 0 -0.026154214661349564 -0.00088000109427374478 0 -0.026128785391186543 -0.00097504510132133057 0 -0.026109935324851511 -0.00094634444720709168 0 -0.025933997586317304 -0.00093735066222077029 0 -0.026032133919841015 -0.0007354624212679116 0 -0.026052382417614539 -0.00087157672629741901 0 -0.025933997586317304 -0.00093735066222077029 0 -0.025131015208890346 0.00068287836581052807 0 -0.02453027580915694 0.0019713557602395655 0 -0.026103388263860668 -0.00082515500102186765 0 -0.026052382417614539 -0.00087157672629741901 0 -0.026154214661349564 -0.00088000109427374478 0 -0.024697930726015744 0.0018598233701025619 0 -0.024478765547079423 0.0016953513889666953 0 -0.024450120358985798 0.0019816097967808055 0 -0.024356342979762944 0.0011828689089535881 0 -0.024727029728921358 0.0010854436571093315 0 -0.024631645717149424 0.0016942571456755287 0 -0.025745647310005733 -0.00012868956087421001 0 -0.025131015208890346 0.00068287836581052807 0 -0.026052382417614539 -0.00087157672629741901 0 -0.026109935324851511 -0.00094634444720709168 0 -0.025933997586317304 -0.00093735066222077029 0 -0.025745647310005733 -0.00012868956087421001 0 -0.025802029322948134 -0.00022827106977224931 0 -0.025745647310005733 -0.00012868956087421001 0 -0.026776521888754845 -0.0010548986843451013 0 -0.026144277914169796 -0.00097319064137092021 0 -0.026256463392918084 -0.00089542883926022737 0 -0.026477382417367697 -0.0008634805760195203 0 -0.026256463392918084 -0.00089542883926022737 0 -0.026477382417367697 -0.0008634805760195203 0 -0.026339977992751701 -0.00085054565551324782 0 -0.026256463392918084 -0.00089542883926022737 0 -0.026215845794108225 -0.00083658223324705957 0 -0.026339977992751701 -0.00085054565551324782 0 -0.026154214661349564 -0.00088000109427374478 0 -0.026256463392918084 -0.00089542883926022737 0 -0.026215845794108225 -0.00083658223324705957 0 -0.026103388263860668 -0.00082515500102186765 0 -0.026154214661349564 -0.00088000109427374478 0 -0.026215845794108225 -0.00083658223324705957 0 -0.026154214661349564 -0.00088000109427374478 0 -0.026168539915192541 -0.00092392465809191051 0 -0.026256463392918084 -0.00089542883926022737 0 -0.026144277914169796 -0.00097319064137092021 0 -0.026168539915192541 -0.00092392465809191051 0 -0.026256463392918084 -0.00089542883926022737 0 -0.026109935324851511 -0.00094634444720709168 0 -0.026154214661349564 -0.00088000109427374478 0 -0.026168539915192541 -0.00092392465809191051 0 -0.026144277914169796 -0.00097319064137092021 0 -0.026109935324851511 -0.00094634444720709168 0 -0.026168539915192541 -0.00092392465809191051 0 -0.026477382417367697 -0.0008634805760195203 0 -0.026470126871366847 -0.00088529246465758116 0 -0.026339977992751701 -0.00085054565551324782 0 -0.026477382417367697 -0.0008634805760195203 0 -0.026470126871366847 -0.00088529246465758116 0 -0.026345841538283288 -0.00087792888962713817 0 -0.026470126871366847 -0.00088529246465758116 0 -0.026378612509269563 -0.0007404261157303246 0 -0.026550081299450138 -0.00063550541420750854 0 -0.026470126871366847 -0.00088529246465758116 0 -0.026378612509269563 -0.0007404261157303246 0 -0.026339977992751701 -0.00085054565551324782 0 -0.026378612509269563 -0.0007404261157303246 0 -0.026550081299450138 -0.00063550541420750854 0 -0.026356371766404613 -0.00057098341347799225 0 -0.026032133919841015 -0.0007354624212679116 0 -0.026103388263860668 -0.00082515500102186765 0 -0.02621355860483332 -0.00071946978776391229 0 -0.026103388263860668 -0.00082515500102186765 0 -0.026215845794108225 -0.00083658223324705957 0 -0.02621355860483332 -0.00071946978776391229 0 -0.026215845794108225 -0.00083658223324705957 0 -0.026339977992751701 -0.00085054565551324782 0 -0.02621355860483332 -0.00071946978776391229 0 -0.026378612509269563 -0.0007404261157303246 0 -0.026339977992751701 -0.00085054565551324782 0 -0.02621355860483332 -0.00071946978776391229 0 -0.026378612509269563 -0.0007404261157303246 0 -0.02621355860483332 -0.00071946978776391229 0 -0.026356371766404613 -0.00057098341347799225 0 -0.02621355860483332 -0.00071946978776391229 0 -0.026124243412838789 -0.00056766556724197276 0 -0.026356371766404613 -0.00057098341347799225 0 -0.026032133919841015 -0.0007354624212679116 0 -0.02621355860483332 -0.00071946978776391229 0 -0.026124243412838789 -0.00056766556724197276 0 -0.026124243412838789 -0.00056766556724197276 0 -0.026191700086760309 -0.00026130400451944538 0 -0.026356371766404613 -0.00057098341347799225 0 -0.026191700086760309 -0.00026130400451944538 0 -0.026356371766404613 -0.00057098341347799225 0 -0.026405305472452296 -0.000338032555268742 0 -0.026356371766404613 -0.00057098341347799225 0 -0.026643536720513235 -0.00041070439385006922 0 -0.026405305472452296 -0.000338032555268742 0 -0.026550081299450138 -0.00063550541420750854 0 -0.026356371766404613 -0.00057098341347799225 0 -0.026643536720513235 -0.00041070439385006922 0 -0.02646212596977409 -0.00014000127300975047 0 -0.026792767951158272 -0.00023596233706127943 0 -0.026738613805124802 1.196773950110796e-05 0 -0.026643536720513235 -0.00041070439385006922 0 -0.02646212596977409 -0.00014000127300975047 0 -0.026792767951158272 -0.00023596233706127943 0 -0.026643536720513235 -0.00041070439385006922 0 -0.026405305472452296 -0.000338032555268742 0 -0.02646212596977409 -0.00014000127300975047 0 -0.026598543754767126 -1.27214566753739e-05 0 -0.027528243967699848 -0.0016806518691622611 0 -0.026060037529113168 0.00029693792315597126 0 -0.026191700086760309 -0.00026130400451944538 0 -0.02663617147226139 2.2910025799426031e-06 0 -0.026191700086760309 -0.00026130400451944538 0 -0.026405305472452296 -0.000338032555268742 0 -0.02646212596977409 -0.00014000127300975047 0 -0.026209606622367931 -0.00026089669218674373 0 -0.026598543754767126 -1.27214566753739e-05 0 -0.027938753590353183 -0.0016213117567331621 0 -0.027026932567448383 -0.0016411336783516306 0 -0.027056338097487392 -0.00013861690479430804 0 -0.026792767951158272 -0.00023596233706127943 0 -0.026738613805124802 1.196773950110796e-05 0 -0.027938753590353183 -0.0016213117567331621 0 -0.027528243967699848 -0.0016806518691622611 0 -0.027056338097487392 -0.00013861690479430804 0 -0.026792767951158272 -0.00023596233706127943 0 -0.026949566934918564 -0.00056336591068274864 0 -0.026550081299450138 -0.00063550541420750854 0 -0.026643536720513235 -0.00041070439385006922 0 -0.026949566934918564 -0.00056336591068274864 0 -0.026643536720513235 -0.00041070439385006922 0 -0.026792767951158272 -0.00023596233706127943 0 -0.026949566934918564 -0.00056336591068274864 0 -0.026258749869085322 -0.0011938560022256108 0 -0.026103568234319391 -0.001114983533534477 0 -0.026000650157164726 -0.0014441224499778488 0 -0.026560262738145841 -0.00076065670415324663 0 -0.027026932567448383 -0.0016411336783516306 0 -0.027056338097487392 -0.00013861690479430804 0 -0.026949566934918564 -0.00056336591068274864 0 -0.027363757432818225 -0.00028984694035793065 0 -0.026258749869085322 -0.0011938560022256108 0 -0.026103568234319391 -0.001114983533534477 0 -0.026188915553880272 -0.00093021079256813016 0 -0.026481438756832409 -0.00093078426558312834 0 -0.026560262738145841 -0.00076065670415324663 0 -0.026258749869085322 -0.0011938560022256108 0 -0.026345841538283288 -0.00087792888962713817 0 -0.026188915553880272 -0.00093021079256813016 0 -0.026470126871366847 -0.00088529246465758116 0 -0.026550081299450138 -0.00063550541420750854 0 -0.026949566934918564 -0.00056336591068274864 0 -0.026470126871366847 -0.00088529246465758116 0 -0.026258749869085322 -0.0011938560022256108 0 -0.026345841538283288 -0.00087792888962713817 0 -0.026345841538283288 -0.00087792888962713817 0 -0.026188915553880272 -0.00093021079256813016 0 -0.026232667295989023 -0.00075969271887560777 0 -0.026103568234319391 -0.001114983533534477 0 -0.026188915553880272 -0.00093021079256813016 0 -0.025988955562348901 -0.0009511032318346523 0 -0.026188915553880272 -0.00093021079256813016 0 -0.025988955562348901 -0.0009511032318346523 0 -0.026107818606110333 -0.00074805325858228031 0 -0.026188915553880272 -0.00093021079256813016 0 -0.026232667295989023 -0.00075969271887560777 0 -0.026107818606110333 -0.00074805325858228031 0 -0.025988955562348901 -0.0009511032318346523 0 -0.025792097516506286 -0.00099327318090829597 0 -0.025840912340462093 -0.00077458479429913063 0 -0.025988955562348901 -0.0009511032318346523 0 -0.025792097516506286 -0.00099327318090829597 0 -0.025840091354339581 -0.0011636580256661718 0 -0.025792097516506286 -0.00099327318090829597 0 -0.025663394705201428 -0.00083603487358047601 0 -0.025840912340462093 -0.00077458479429913063 0 -0.025840091354339581 -0.0011636580256661718 0 -0.025947191542512574 -0.001213326164569773 0 -0.025774909025838792 -0.0013852949189284052 0 -0.025840091354339581 -0.0011636580256661718 0 -0.025697284877446578 -0.0012353122539853427 0 -0.025774909025838792 -0.0013852949189284052 0 -0.025792097516506286 -0.00099327318090829597 0 -0.025840091354339581 -0.0011636580256661718 0 -0.025697284877446578 -0.0012353122539853427 0 -0.026103568234319391 -0.001114983533534477 0 -0.025988955562348901 -0.0009511032318346523 0 -0.025947191542512574 -0.001213326164569773 0 -0.025988955562348901 -0.0009511032318346523 0 -0.025840091354339581 -0.0011636580256661718 0 -0.025947191542512574 -0.001213326164569773 0 -0.02500001203098141 -0.00011657808246415778 0 -0.025413940582294268 -0.00022008055657848425 0 -0.025069142479733342 -0.001411207478180569 0 -0.025346050915446477 -0.00085872040870227915 0 -0.02552680902898934 -0.00088317458071914012 0 -0.025511595946586384 -0.00072952349565626564 0 -0.025346050915446477 -0.00085872040870227915 0 -0.025480210940028388 -0.00099631430798176584 0 -0.02552680902898934 -0.00088317458071914012 0 -0.025346050915446477 -0.00085872040870227915 0 -0.025480210940028388 -0.00099631430798176584 0 -0.025374447962375649 -0.0011575051614426742 0 -0.025480210940028388 -0.00099631430798176584 0 -0.025619409209385352 -0.0010054312206321139 0 -0.025527581721120188 -0.0011942763222127875 0 -0.025480210940028388 -0.00099631430798176584 0 -0.02552680902898934 -0.00088317458071914012 0 -0.025619409209385352 -0.0010054312206321139 0 -0.025792097516506286 -0.00099327318090829597 0 -0.025663394705201428 -0.00083603487358047601 0 -0.025619409209385352 -0.0010054312206321139 0 -0.02552680902898934 -0.00088317458071914012 0 -0.025663394705201428 -0.00083603487358047601 0 -0.025619409209385352 -0.0010054312206321139 0 -0.025792097516506286 -0.00099327318090829597 0 -0.025619409209385352 -0.0010054312206321139 0 -0.025697284877446578 -0.0012353122539853427 0 -0.025697284877446578 -0.0012353122539853427 0 -0.025527581721120188 -0.0011942763222127875 0 -0.025564659667812132 -0.0015004497004053429 0 -0.025619409209385352 -0.0010054312206321139 0 -0.025697284877446578 -0.0012353122539853427 0 -0.025527581721120188 -0.0011942763222127875 0 -0.02500001203098141 -0.00011657808246415778 0 -0.025069142479733342 -0.001411207478180569 0 -0.024999945552964944 -0.0015679660258342966 0 -0.025346050915446477 -0.00085872040870227915 0 -0.025374447962375649 -0.0011575051614426742 0 -0.025069142479733342 -0.001411207478180569 0 -0.025365500766707183 -0.00052348462598617864 0 -0.025094459949513148 -0.0013763465226843529 0 -0.025480210940028388 -0.00099631430798176584 0 -0.025527581721120188 -0.0011942763222127875 0 -0.025374447962375649 -0.0011575051614426742 0 -0.025527581721120188 -0.0011942763222127875 0 -0.025374447962375649 -0.0011575051614426742 0 -0.025337217035950012 -0.0013397684026339152 0 -0.025527581721120188 -0.0011942763222127875 0 -0.025564659667812132 -0.0015004497004053429 0 -0.025337217035950012 -0.0013397684026339152 0 -0.025337217035950012 -0.0013397684026339152 0 -0.025069142479733342 -0.001411207478180569 0 -0.024999945552964944 -0.0015679660258342966 0 -0.025564659667812132 -0.0015004497004053429 0 -0.025337217035950012 -0.0013397684026339152 0 -0.024999945552964944 -0.0015679660258342966 0 -0.025374447962375649 -0.0011575051614426742 0 -0.025337217035950012 -0.0013397684026339152 0 -0.025069142479733342 -0.001411207478180569 0 -0.024999945552964944 -0.0015679660258342966 0 -0.025799163042782094 -0.0024183150309533812 0 -0.024999914069229724 -0.0030195752446642416 0 -0.025564659667812132 -0.0015004497004053429 0 -0.024999945552964944 -0.0015679660258342966 0 -0.025799163042782094 -0.0024183150309533812 0 -0.025609446680680516 -0.0014940371573330152 0 -0.026164723354967771 -0.0017265394353745012 0 -0.025564659667812132 -0.0015004497004053429 0 -0.025799163042782094 -0.0024183150309533812 0 -0.026627600673329678 -0.0020173040077167219 0 -0.025697284877446578 -0.0012353122539853427 0 -0.025564659667812132 -0.0015004497004053429 0 -0.025774909025838792 -0.0013852949189284052 0 -0.025799163042782094 -0.0024183150309533812 0 -0.026627600673329678 -0.0020173040077167219 0 -0.026728559676035199 -0.0031698370771102032 0 -0.025799163042782094 -0.0024183150309533812 0 -0.026728559676035199 -0.0031698370771102032 0 -0.025768486701488583 -0.0033973551432286983 0 -0.025799163042782094 -0.0024183150309533812 0 -0.024999914069229724 -0.0030195752446642416 0 -0.025768486701488583 -0.0033973551432286983 0 -0.026103568234319391 -0.001114983533534477 0 -0.025947191542512574 -0.001213326164569773 0 -0.026000650157164726 -0.0014441224499778488 0 -0.025947191542512574 -0.001213326164569773 0 -0.025774909025838792 -0.0013852949189284052 0 -0.026000650157164726 -0.0014441224499778488 0 -0.026164723354967771 -0.0017265394353745012 0 -0.027026932567448383 -0.0016411336783516306 0 -0.026627600673329678 -0.0020173040077167219 0 -0.026728559676035199 -0.0031698370771102032 0 -0.027684817154179885 -0.0025057303700116427 0 -0.026869434156636552 -0.0032532605881493938 0 -0.027026932567448383 -0.0016411336783516306 0 -0.028517274190335867 -0.0030093952625430747 0 -0.027555823433310308 -0.0026022231105084356 0 -0.027582858959568517 -0.003545799635349684 0 -0.026728559676035199 -0.0031698370771102032 0 -0.027555823433310308 -0.0026022231105084356 0 -0.027582858959568517 -0.003545799635349684 0 -0.027582858959568517 -0.003545799635349684 0 -0.027602030581623412 -0.0047867402138083315 0 -0.028569870864983166 -0.0040673610577622787 0 -0.027538729594226243 -0.0035728380941226104 0 -0.026185824884339126 -0.0041199895973646327 0 -0.027582858959568517 -0.003545799635349684 0 -0.026988131637217905 -0.0043876623864881883 0 -0.0260455737859215 -0.0043522109643170772 0 -0.026728559676035199 -0.0031698370771102032 0 -0.027582858959568517 -0.003545799635349684 0 -0.026302610645108814 -0.0039237046033060779 0 -0.026784835007815855 -0.0049052291914087314 0 -0.0260455737859215 -0.0043522109643170772 0 -0.026297268421178379 -0.0051252368752225351 0 -0.026988131637217905 -0.0043876623864881883 0 -0.026784835007815855 -0.0049052291914087314 0 -0.0260455737859215 -0.0043522109643170772 0 -0.026784835007815855 -0.0049052291914087314 0 -0.027005259577778759 -0.0052400920008783911 0 -0.026712778994300915 -0.0053166293486782788 0 -0.026784835007815855 -0.0049052291914087314 0 -0.026712778994300915 -0.0053166293486782788 0 -0.026297268421178379 -0.0051252368752225351 0 -0.027582858959568517 -0.003545799635349684 0 -0.026988131637217905 -0.0043876623864881883 0 -0.027602030581623412 -0.0047867402138083315 0 -0.026918094727848778 -0.0048314876211240825 0 -0.027272507732451431 -0.0045005182890863384 0 -0.026784835007815855 -0.0049052291914087314 0 -0.027005259577778759 -0.0052400920008783911 0 -0.027348238683215436 -0.0050575495005211754 0 -0.026938158352882872 -0.0050042196446841835 0 -0.027272507732451431 -0.0045005182890863384 0 -0.026988131637217905 -0.0043876623864881883 0 -0.026784835007815855 -0.0049052291914087314 0 -0.027602030581623412 -0.0047867402138083315 0 -0.024999914069229724 -0.0030195752446642416 0 -0.025768486701488583 -0.0033973551432286983 0 -0.024999996526319755 -0.0044709335782803341 0 -0.026728559676035199 -0.0031698370771102032 0 -0.025768486701488583 -0.0033973551432286983 0 -0.026302610645108814 -0.0039237046033060779 0 -0.0260455737859215 -0.0043522109643170772 0 -0.025690358509890498 -0.0050898503063942007 0 -0.026297268421178379 -0.0051252368752225351 0 -0.025768486701488583 -0.0033973551432286983 0 -0.026302610645108814 -0.0039237046033060779 0 -0.024999996526319755 -0.0044709335782803341 0 -0.026185824884339126 -0.0041199895973646327 0 -0.025000104923711974 -0.0044710299747702485 0 -0.0260455737859215 -0.0043522109643170772 0 -0.024999881070969548 -0.0044718172531632242 0 -0.025690358509890498 -0.0050898503063942007 0 -0.025690358509890498 -0.0050898503063942007 0 -0.02577378154979516 -0.0057732162834108879 0 -0.02499992699024222 -0.0057431281557071053 0 -0.024999881070969548 -0.0044718172531632242 0 -0.025690358509890498 -0.0050898503063942007 0 -0.02499992699024222 -0.0057431281557071053 0 -0.025690358509890498 -0.0050898503063942007 0 -0.026107094178384235 -0.0055182603439784409 0 -0.02577378154979516 -0.0057732162834108879 0 -0.025690358509890498 -0.0050898503063942007 0 -0.026107094178384235 -0.0055182603439784409 0 -0.026297268421178379 -0.0051252368752225351 0 -0.026483477188032668 -0.0064965320754541873 0 -0.025828642962593268 -0.0065738872600585785 0 -0.026227972495419808 -0.0059930826269822572 0 -0.025828642962593268 -0.0065738872600585785 0 -0.026227972495419808 -0.0059930826269822572 0 -0.02577378154979516 -0.0057732162834108879 0 -0.026107094178384235 -0.0055182603439784409 0 -0.026227972495419808 -0.0059930826269822572 0 -0.02577378154979516 -0.0057732162834108879 0 -0.025828642962593268 -0.0065738872600585785 0 -0.02577378154979516 -0.0057732162834108879 0 -0.02499992699024222 -0.0057431281557071053 0 -0.026904760864192023 -0.0056316009466230001 0 -0.027261531908699045 -0.0057559823143180072 0 -0.02683835491716683 -0.006100984372248798 0 -0.027005259577778759 -0.0052400920008783911 0 -0.027147263251880899 -0.0053227110604379749 0 -0.027261531908699045 -0.0057559823143180072 0 -0.027005259577778759 -0.0052400920008783911 0 -0.026904760864192023 -0.0056316009466230001 0 -0.027261531908699045 -0.0057559823143180072 0 -0.026904760864192023 -0.0056316009466230001 0 -0.026712778994300915 -0.0053166293486782788 0 -0.026524202574669604 -0.0056048250852876015 0 -0.027005259577778759 -0.0052400920008783911 0 -0.026904760864192023 -0.0056316009466230001 0 -0.026712778994300915 -0.0053166293486782788 0 -0.026107094178384235 -0.0055182603439784409 0 -0.026297268421178379 -0.0051252368752225351 0 -0.026524202574669604 -0.0056048250852876015 0 -0.026712778994300915 -0.0053166293486782788 0 -0.026297268421178379 -0.0051252368752225351 0 -0.026524202574669604 -0.0056048250852876015 0 -0.026107094178384235 -0.0055182603439784409 0 -0.026227972495419808 -0.0059930826269822572 0 -0.026524202574669604 -0.0056048250852876015 0 -0.026904760864192023 -0.0056316009466230001 0 -0.026524202574669604 -0.0056048250852876015 0 -0.02683835491716683 -0.006100984372248798 0 -0.026483477188032668 -0.0064965320754541873 0 -0.026227972495419808 -0.0059930826269822572 0 -0.02683835491716683 -0.006100984372248798 0 -0.026227972495419808 -0.0059930826269822572 0 -0.026524202574669604 -0.0056048250852876015 0 -0.02683835491716683 -0.006100984372248798 0 -0.026928254080101008 -0.0066819012002553796 0 -0.026483477188032668 -0.0064965320754541873 0 -0.02683835491716683 -0.006100984372248798 0 -0.026928254080101008 -0.0066819012002553796 0 -0.02683835491716683 -0.006100984372248798 0 -0.027287903440574204 -0.0064605958439922073 0 -0.027261531908699045 -0.0057559823143180072 0 -0.02683835491716683 -0.006100984372248798 0 -0.027287903440574204 -0.0064605958439922073 0 -0.027261531908699045 -0.0057559823143180072 0 -0.027287903440574204 -0.0064605958439922073 0 -0.027690547641600703 -0.0060763050982032248 0 -0.027678629516576268 -0.006606645178872131 0 -0.027287903440574204 -0.0064605958439922073 0 -0.027690547641600703 -0.0060763050982032248 0 -0.027261531908699045 -0.0057559823143180072 0 -0.027690547641600703 -0.0060763050982032248 0 -0.027673658139009301 -0.0056375934979330557 0 -0.027690547641600703 -0.0060763050982032248 0 -0.027958891449030365 -0.0060606507329987432 0 -0.027673658139009301 -0.0056375934979330557 0 -0.027690547641600703 -0.0060763050982032248 0 -0.027957918746044367 -0.0064061533661248591 0 -0.027958891449030365 -0.0060606507329987432 0 -0.027678629516576268 -0.006606645178872131 0 -0.027690547641600703 -0.0060763050982032248 0 -0.027957918746044367 -0.0064061533661248591 0 -0.027957918746044367 -0.0064061533661248591 0 -0.028094380428545687 -0.0063139468392747807 0 -0.027958891449030365 -0.0060606507329987432 0 -0.028014339141122072 -0.0066760272307015067 0 -0.028219511126846234 -0.0064342591287200566 0 -0.028094380428545687 -0.0063139468392747807 0 -0.028014339141122072 -0.0066760272307015067 0 -0.027957918746044367 -0.0064061533661248591 0 -0.028094380428545687 -0.0063139468392747807 0 -0.028094380428545687 -0.0063139468392747807 0 -0.028119839021342505 -0.0060309001351970051 0 -0.027958891449030365 -0.0060606507329987432 0 -0.028241428582576389 -0.0061723719667359078 0 -0.028094380428545687 -0.0063139468392747807 0 -0.028119839021342505 -0.0060309001351970051 0 -0.028119839021342505 -0.0060309001351970051 0 -0.027958891449030365 -0.0060606507329987432 0 -0.028005431927987434 -0.0058669480213162997 0 -0.027347978360812653 -0.0033326854661567228 0 -0.027349994885344463 -0.0033172366683417672 0 -0.027332845471979356 -0.003327533762433874 0 -0.027958891449030365 -0.0060606507329987432 0 -0.028005431927987434 -0.0058669480213162997 0 -0.027673658139009301 -0.0056375934979330557 0 -0.028215714908781726 -0.0059472642325003955 0 -0.028119839021342505 -0.0060309001351970051 0 -0.028005431927987434 -0.0058669480213162997 0 -0.027361807387992161 -0.0033253536489581082 0 -0.027347978360812653 -0.0033326854661567228 0 -0.027349994885344463 -0.0033172366683417672 0 -0.027221958193154299 -0.0033096260726742329 0 -0.027784180703522759 -0.0047308060266760361 0 -0.027221958193154299 -0.0033096260726742329 0 -0.026660897108607421 -0.0011474496893107199 0 -0.026060037529113168 0.00029693792315597126 0 -0.025890156068209033 0.00080087772439028926 0 -0.026502886329116924 0.00053185865412664225 0 -0.026060037529113168 0.00029693792315597126 0 -0.02663617147226139 2.2910025799426031e-06 0 -0.026502886329116924 0.00053185865412664225 0 -0.026660897108607421 -0.0011474496893107199 0 -0.027528243967699848 -0.0016806518691622611 0 -0.02663617147226139 2.2910025799426031e-06 0 -0.026502886329116924 0.00053185865412664225 0 -0.027074261551732967 0.0002596034935681775 0 -0.027349994885344463 -0.0033172366683417672 0 -0.027332845471979356 -0.003327533762433874 0 -0.027330929648737692 -0.0033032681107852983 0 -0.028517274190335867 -0.0030093952625430747 0 -0.02948339862342142 -0.0034468084351041888 0 -0.028569870864983166 -0.0040673610577622787 0 -0.027528243967699848 -0.0016806518691622611 0 -0.028010506577519405 -0.0037594622157104199 0 -0.027332845471979356 -0.003327533762433874 0 -0.027330929648737692 -0.0033032681107852983 0 -0.027303934865435173 -0.0033339759624136673 0 -0.028517274190335867 -0.0030093952625430747 0 -0.027582858959568517 -0.003545799635349684 0 -0.028569870864983166 -0.0040673610577622787 0 -0.027147263251880899 -0.0053227110604379749 0 -0.027261531908699045 -0.0057559823143180072 0 -0.027673658139009301 -0.0056375934979330557 0 -0.027272507732451431 -0.0045005182890863384 0 -0.028010506577519405 -0.0037594622157104199 0 -0.027272507732451431 -0.0045005182890863384 0 -0.027435906111204389 -0.0044635029363682081 0 -0.027264669249597646 -0.0033780824177970571 0 -0.027303934865435173 -0.0033339759624136673 0 -0.02731839474195014 -0.0033519862294985785 0 -0.027332845471979356 -0.003327533762433874 0 -0.027303934865435173 -0.0033339759624136673 0 -0.02731839474195014 -0.0033519862294985785 0 -0.027784180703522759 -0.0047308060266760361 0 -0.027435906111204389 -0.0044635029363682081 0 -0.027347978360812653 -0.0033326854661567228 0 -0.027332845471979356 -0.003327533762433874 0 -0.02731839474195014 -0.0033519862294985785 0 0.0097090184338415944 -0.0025703516763493548 0 0.0098949761396332648 -0.0018289971549588649 0 0.010121835030153277 -0.0030100474207360992 0 0.0097090184338415944 -0.0025703516763493548 0 0.0091717080440371617 -0.00189672967902974 0 0.0098949761396332648 -0.0018289971549588649 0 0.0091717080440371617 -0.00189672967902974 0 0.0095366807967002705 -0.0033488011680727213 0 0.0075008639763527486 -0.0021353527389545109 0 0.0097090184338415944 -0.0025703516763493548 0 0.0091717080440371617 -0.00189672967902974 0 0.0095366807967002705 -0.0033488011680727213 0 0.0091717080440371617 -0.00189672967902974 0 0.0084647121884646598 -0.0010840556767498456 0 0.0091602010586348155 -0.00093715802935244723 0 0.0084647121884646598 -0.0010840556767498456 0 0.0091602010586348155 -0.00093715802935244723 0 0.0085541780536370331 -0.0002082610622747187 0 0.0091602010586348155 -0.00093715802935244723 0 0.0095611439158259665 -0.0011351597150735752 0 0.0095320223735459973 -0.0015008810072366318 0 0.0091717080440371617 -0.00189672967902974 0 0.0091602010586348155 -0.00093715802935244723 0 0.0095320223735459973 -0.0015008810072366318 0 0.0091717080440371617 -0.00189672967902974 0 0.0095320223735459973 -0.0015008810072366318 0 0.0098949761396332648 -0.0018289971549588649 0 0.0098949761396332648 -0.0018289971549588649 0 0.0098843024359378008 -0.0015913352652672309 0 0.0096265697738234582 -0.0016423913188739455 0 0.0095320223735459973 -0.0015008810072366318 0 0.0098949761396332648 -0.0018289971549588649 0 0.0098843024359378008 -0.0015913352652672309 0 0.0095611439158259665 -0.0011351597150735752 0 0.0098843024359378008 -0.0015913352652672309 0 0.0097120057385807427 -0.00041916033293451971 0 0.0095611439158259665 -0.0011351597150735752 0 0.0095320223735459973 -0.0015008810072366318 0 0.0098843024359378008 -0.0015913352652672309 0 0.0096265697738234582 -0.0016423913188739455 0 0.0093257833565946434 -0.0018499907697649054 0 0.0093564193995019657 -0.0013172204533022027 0 0.0098949761396332648 -0.0018289971549588649 0 0.0096265697738234582 -0.0016423913188739455 0 0.0093564193995019657 -0.0013172204533022027 0 0.0098843024359378008 -0.0015913352652672309 0 0.0096707949494756577 -0.0018147958115170585 0 0.0096265697738234582 -0.0016423913188739455 0 0.0096707949494756577 -0.0018147958115170585 0 0.0096265697738234582 -0.0016423913188739455 0 0.0093257833565946434 -0.0018499907697649054 0 0.0093257833565946434 -0.0018499907697649054 0 0.0093564193995019657 -0.0013172204533022027 0 0.0088402616150702312 -0.0016103780270060161 0 0.0093257833565946434 -0.0018499907697649054 0 0.0089305230394503658 -0.0019649646458802612 0 0.0088402616150702312 -0.0016103780270060161 0 0.0093564193995019657 -0.0013172204533022027 0 0.0085810078679680706 -0.0010970267276837239 0 0.0088402616150702312 -0.0016103780270060161 0 0.010243778376833271 -0.0017596660911497718 0 0.0084198206579298423 -0.0034011361458538632 0 0.010654733925596592 -0.0024234486254521275 0 0.010598394728427272 -0.0030076970013377894 0 0.011242874740810666 -0.0026762791837909188 0 0.0097619251863237354 -0.0018276932667425753 0 0.010243778376833271 -0.0017596660911497718 0 0.0098949761396332648 -0.0018289971549588649 0 0.010654733925596592 -0.0024234486254521275 0 0.010121835030153277 -0.0030100474207360992 0 0.010654733925596592 -0.0024234486254521275 0 0.010121835030153277 -0.0030100474207360992 0 0.010598394728427272 -0.0030076970013377894 0 0.010121835030153277 -0.0030100474207360992 0 0.010598394728427272 -0.0030076970013377894 0 0.01023427446812278 -0.0034613588653274376 0 0.010598394728427272 -0.0030076970013377894 0 0.010741384233745647 -0.0034105874799758617 0 0.011242874740810666 -0.0026762791837909188 0 0.010741384233745647 -0.0034105874799758617 0 0.01023427446812278 -0.0034613588653274376 0 0.010038903973989615 -0.003850507391565098 0 0.010598394728427272 -0.0030076970013377894 0 0.010741384233745647 -0.0034105874799758617 0 0.01023427446812278 -0.0034613588653274376 0 0.010121835030153277 -0.0030100474207360992 0 0.01023427446812278 -0.0034613588653274376 0 0.0099988719097646242 -0.0036148549188200901 0 0.010121835030153277 -0.0030100474207360992 0 0.0099988719097646242 -0.0036148549188200901 0 0.0095366807967002705 -0.0033488011680727213 0 0.0097090184338415944 -0.0025703516763493548 0 0.010121835030153277 -0.0030100474207360992 0 0.0095366807967002705 -0.0033488011680727213 0 0.0099988719097646242 -0.0036148549188200901 0 0.0095366807967002705 -0.0033488011680727213 0 0.010066294519366775 -0.0035948298265689026 0 0.0095366807967002705 -0.0033488011680727213 0 0.010066294519366775 -0.0035948298265689026 0 0.010320866525816657 -0.0036525437159372694 0 0.010066294519366775 -0.0035948298265689026 0 0.010320866525816657 -0.0036525437159372694 0 0.010635345346344235 -0.0036077242066408929 0 0.010717937946315049 -0.0037134205454092154 0 0.011027736186546873 -0.0036981813955754266 0 0.010635345346344235 -0.0036077242066408929 0 0.010320866525816657 -0.0036525437159372694 0 0.010717937946315049 -0.0037134205454092154 0 0.010635345346344235 -0.0036077242066408929 0 0.010717937946315049 -0.0037134205454092154 0 0.010728938986218222 -0.0039413449154160037 0 0.010956845699779089 -0.0038415271444025164 0 0.010320866525816657 -0.0036525437159372694 0 0.010717937946315049 -0.0037134205454092154 0 0.010728938986218222 -0.0039413449154160037 0 0.010320866525816657 -0.0036525437159372694 0 0.010728938986218222 -0.0039413449154160037 0 0.010453014273874094 -0.0042507352283313524 0 0.010728938986218222 -0.0039413449154160037 0 0.010920235917679421 -0.0042142701238470932 0 0.010453014273874094 -0.0042507352283313524 0 0.0095366807967002705 -0.0033488011680727213 0 0.010320866525816657 -0.0036525437159372694 0 0.010453014273874094 -0.0042507352283313524 0 0.011502857600100622 -0.0038363061150972128 0 0.011352529734004326 -0.0036804242703632351 0 0.011657833662407661 -0.0036833095652225403 0 0.011502857600100622 -0.0038363061150972128 0 0.011221765965351056 -0.0038548563918653017 0 0.011352529734004326 -0.0036804242703632351 0 0.011502857600100622 -0.0038363061150972128 0 0.011221765965351056 -0.0038548563918653017 0 0.011405313549415073 -0.0040593264543000249 0 0.011221765965351056 -0.0038548563918653017 0 0.011027736186546873 -0.0036981813955754266 0 0.011352529734004326 -0.0036804242703632351 0 0.010717937946315049 -0.0037134205454092154 0 0.011027736186546873 -0.0036981813955754266 0 0.010956845699779089 -0.0038415271444025164 0 0.011221765965351056 -0.0038548563918653017 0 0.011027736186546873 -0.0036981813955754266 0 0.010956845699779089 -0.0038415271444025164 0 0.010728938986218222 -0.0039413449154160037 0 0.010956845699779089 -0.0038415271444025164 0 0.011085292916972916 -0.0040472202358104604 0 0.010728938986218222 -0.0039413449154160037 0 0.011085292916972916 -0.0040472202358104604 0 0.010920235917679421 -0.0042142701238470932 0 0.011085292916972916 -0.0040472202358104604 0 0.011229131768059234 -0.0042898055652962966 0 0.010920235917679421 -0.0042142701238470932 0 0.011221765965351056 -0.0038548563918653017 0 0.011085292916972916 -0.0040472202358104604 0 0.011405313549415073 -0.0040593264543000249 0 0.011221765965351056 -0.0038548563918653017 0 0.010956845699779089 -0.0038415271444025164 0 0.011085292916972916 -0.0040472202358104604 0 0.011085292916972916 -0.0040472202358104604 0 0.011405313549415073 -0.0040593264543000249 0 0.011229131768059234 -0.0042898055652962966 0 0.011405313549415073 -0.0040593264543000249 0 0.011490457525780109 -0.0043018160060487439 0 0.011683228491866862 -0.0041295826221449559 0 0.011405313549415073 -0.0040593264543000249 0 0.011683228491866862 -0.0041295826221449559 0 0.011609964279787518 -0.00398112088832252 0 0.011502857600100622 -0.0038363061150972128 0 0.011405313549415073 -0.0040593264543000249 0 0.011609964279787518 -0.00398112088832252 0 0.011546698637190251 -0.0045062587660998372 0 0.011490457525780109 -0.0043018160060487439 0 0.011350105270610698 -0.0044936665852473847 0 0.011490457525780109 -0.0043018160060487439 0 0.011229131768059234 -0.0042898055652962966 0 0.011350105270610698 -0.0044936665852473847 0 0.011405313549415073 -0.0040593264543000249 0 0.011490457525780109 -0.0043018160060487439 0 0.011229131768059234 -0.0042898055652962966 0 0.011229131768059234 -0.0042898055652962966 0 0.011350105270610698 -0.0044936665852473847 0 0.011120360415292982 -0.0045716366952366751 0 0.011229131768059234 -0.0042898055652962966 0 0.010920235917679421 -0.0042142701238470932 0 0.011120360415292982 -0.0045716366952366751 0 0.0068372171991651154 -0.00083890186985655275 0 0.0064666309955059235 -0.001129097583040172 0 0.0071200572473584019 -0.0012003002778792566 0 0.0068372171991651154 -0.00083890186985655275 0 0.0065221255151552545 -0.0010009226900289329 0 0.0068265113238636368 -0.00024804885554187872 0 0.0068372171991651154 -0.00083890186985655275 0 0.0065221255151552545 -0.0010009226900289329 0 0.0064666309955059235 -0.001129097583040172 0 0.011350105270610698 -0.0044936665852473847 0 0.011120360415292982 -0.0045716366952366751 0 0.011719075151038569 -0.004814843108537306 0 0.011546698637190251 -0.0045062587660998372 0 0.011350105270610698 -0.0044936665852473847 0 0.011719075151038569 -0.004814843108537306 0 0.0064666309955059235 -0.001129097583040172 0 0.0066481668559377951 -0.0011185894166859276 0 0.0068333444038752933 -0.0010224093929434739 0 0.0064775259898819278 -0.00097408314532124174 0 0.0061482162026771283 -0.00080931557600594196 0 0.0065221255151552545 -0.0010009226900289329 0 0.0064666309955059235 -0.001129097583040172 0 0.0066481668559377951 -0.0011185894166859276 0 0.0087970884760163858 -0.002859748222399771 0 0.0093661668283107676 -0.0030062170760861828 0 0.0091717080440371617 -0.00189672967902974 0 0.0084647121884646598 -0.0010840556767498456 0 0.0075008639763527486 -0.0021353527389545109 0 0.0095364300418739941 -0.0033678298665595044 0 0.0090316652554774599 -0.0031854935100308918 0 0.0064666309955059235 -0.001129097583040172 0 0.0075008639763527486 -0.0021353527389545109 0 0.0071200572473584019 -0.0012003002778792566 0 0.010920235917679421 -0.0042142701238470932 0 0.011120360415292982 -0.0045716366952366751 0 0.010453014273874094 -0.0042507352283313524 0 0.0087970884760163858 -0.002859748222399771 0 0.0090316652554774599 -0.0031854935100308918 0 0.0071200572473584019 -0.0012003002778792566 0 0.0078567302880312943 -0.00062262028767419745 0 0.0073468558395864258 -0.0003006525817008194 0 0.0075008639763527486 -0.0021353527389545109 0 0.0071200572473584019 -0.0012003002778792566 0 0.0078567302880312943 -0.00062262028767419745 0 0.0068372171991651154 -0.00083890186985655275 0 0.0071200572473584019 -0.0012003002778792566 0 0.0073468558395864258 -0.0003006525817008194 0 0.0084647121884646598 -0.0010840556767498456 0 0.0075008639763527486 -0.0021353527389545109 0 0.0078567302880312943 -0.00062262028767419745 0 0.0079320883486881794 2.1676792569229048e-06 0 0.0078567302880312943 -0.00062262028767419745 0 0.0085541780536370331 -0.0002082610622747187 0 0.0084647121884646598 -0.0010840556767498456 0 0.0078567302880312943 -0.00062262028767419745 0 0.0085541780536370331 -0.0002082610622747187 0 0.0079320883486881794 2.1676792569229048e-06 0 0.0080794281140358932 0.00049495151123514014 0 0.0085541780536370331 -0.0002082610622747187 0 0.0079320883486881794 2.1676792569229048e-06 0 0.0073468558395864258 -0.0003006525817008194 0 0.0075790797002471483 0.00040082662773710889 0 0.0079320883486881794 2.1676792569229048e-06 0 0.0078567302880312943 -0.00062262028767419745 0 0.0073468558395864258 -0.0003006525817008194 0 0.0068372171991651154 -0.00083890186985655275 0 0.0073468558395864258 -0.0003006525817008194 0 0.0068265113238636368 -0.00024804885554187872 0 0.0073468558395864258 -0.0003006525817008194 0 0.0071196387269044483 0.00020412780264277206 0 0.0068265113238636368 -0.00024804885554187872 0 0.0073468558395864258 -0.0003006525817008194 0 0.0071196387269044483 0.00020412780264277206 0 0.0075790797002471483 0.00040082662773710889 0 0.0072044270332020802 0.00079462208922430192 0 0.0077596985404598823 0.00088125595587653835 0 0.0075790797002471483 0.00040082662773710889 0 0.0071196387269044483 0.00020412780264277206 0 0.0072044270332020802 0.00079462208922430192 0 0.0075790797002471483 0.00040082662773710889 0 0.0077596985404598823 0.00088125595587653835 0 0.0080794281140358932 0.00049495151123514014 0 0.0082249937463261258 0.0010734877197690529 0 0.0077596985404598823 0.00088125595587653835 0 0.0080794281140358932 0.00049495151123514014 0 0.0075790797002471483 0.00040082662773710889 0 0.0079320883486881794 2.1676792569229048e-06 0 0.0080794281140358932 0.00049495151123514014 0 0.0075790797002471483 0.00040082662773710889 0 0.0065221255151552545 -0.0010009226900289329 0 0.005597736032665097 -0.00042961909385833073 0 0.0062862995485109671 -0.00031982911494585003 0 0.0055655045995765418 0.00030199143128022604 0 0.005597736032665097 -0.00042961909385833073 0 0.0062862995485109671 -0.00031982911494585003 0 0.0055655045995765418 0.00030199143128022604 0 0.0062862995485109671 -0.00031982911494585003 0 0.0065879129541863406 0.00053789356607245856 0 0.0062862995485109671 -0.00031982911494585003 0 0.0068265113238636368 -0.00024804885554187872 0 0.0065879129541863406 0.00053789356607245856 0 0.0065221255151552545 -0.0010009226900289329 0 0.0062862995485109671 -0.00031982911494585003 0 0.0068265113238636368 -0.00024804885554187872 0 0.0071196387269044483 0.00020412780264277206 0 0.0068265113238636368 -0.00024804885554187872 0 0.0065879129541863406 0.00053789356607245856 0 0.0071196387269044483 0.00020412780264277206 0 0.0072044270332020802 0.00079462208922430192 0 0.0065879129541863406 0.00053789356607245856 0 0.0072044270332020802 0.00079462208922430192 0 0.0065879129541863406 0.00053789356607245856 0 0.0067821490136388352 0.0010357225425190631 0 0.0065879129541863406 0.00053789356607245856 0 0.0065505753505531649 0.00086131348449179439 0 0.0067821490136388352 0.0010357225425190631 0 0.0065052866617342428 0.00080298050351313051 0 0.0065879129541863406 0.00053789356607245856 0 0.0065505753505531649 0.00086131348449179439 0 0.0059860832391141318 0.00050723779354984715 0 0.0065563484542145592 0.00057788110954497653 0 0.0065505753505531649 0.00086131348449179439 0 0.0065707944908708522 0.001164235098697177 0 0.0064446362189421093 0.00098363635560297456 0 0.0065052866617342428 0.00080298050351313051 0 0.0065505753505531649 0.00086131348449179439 0 0.0064446362189421093 0.00098363635560297456 0 0.0065707944908708522 0.001164235098697177 0 0.0067821490136388352 0.0010357225425190631 0 0.0067553701633513872 0.0014975644987503015 0 0.0065707944908708522 0.001164235098697177 0 0.0067553701633513872 0.0014975644987503015 0 0.0065375916813384376 0.001536979857549311 0 0.0065505753505531649 0.00086131348449179439 0 0.0065707944908708522 0.001164235098697177 0 0.0067821490136388352 0.0010357225425190631 0 0.0072044270332020802 0.00079462208922430192 0 0.0067821490136388352 0.0010357225425190631 0 0.0070900749375828317 0.0014039355808241314 0 0.0067821490136388352 0.0010357225425190631 0 0.0070900749375828317 0.0014039355808241314 0 0.0067553701633513872 0.0014975644987503015 0 0.0070900749375828317 0.0014039355808241314 0 0.0069485937836420387 0.0018683335005725279 0 0.0072310961841594336 0.0018571710189820812 0 0.0070900749375828317 0.0014039355808241314 0 0.0067553701633513872 0.0014975644987503015 0 0.0069485937836420387 0.0018683335005725279 0 0.0067553701633513872 0.0014975644987503015 0 0.0066473471330010855 0.001881282331684957 0 0.0069485937836420387 0.0018683335005725279 0 0.0067553701633513872 0.0014975644987503015 0 0.0065375916813384376 0.001536979857549311 0 0.0066473471330010855 0.001881282331684957 0 0.0077596985404598823 0.00088125595587653835 0 0.007842001598122695 0.0014407869781905584 0 0.0074661894789888319 0.0012458442374396154 0 0.0077596985404598823 0.00088125595587653835 0 0.007842001598122695 0.0014407869781905584 0 0.0082249937463261258 0.0010734877197690529 0 0.0072044270332020802 0.00079462208922430192 0 0.0070900749375828317 0.0014039355808241314 0 0.0074661894789888319 0.0012458442374396154 0 0.0072044270332020802 0.00079462208922430192 0 0.0077596985404598823 0.00088125595587653835 0 0.0074661894789888319 0.0012458442374396154 0 0.0070900749375828317 0.0014039355808241314 0 0.0074532383652486361 0.0016050211794414325 0 0.0072310961841594336 0.0018571710189820812 0 0.0074532383652486361 0.0016050211794414325 0 0.0072310961841594336 0.0018571710189820812 0 0.0076599525435104886 0.0019561973685822205 0 0.0070900749375828317 0.0014039355808241314 0 0.0074661894789888319 0.0012458442374396154 0 0.0074532383652486361 0.0016050211794414325 0 0.007842001598122695 0.0014407869781905584 0 0.0074532383652486361 0.0016050211794414325 0 0.0076599525435104886 0.0019561973685822205 0 0.007842001598122695 0.0014407869781905584 0 0.0080284711902895989 0.0016958929870550701 0 0.0076599525435104886 0.0019561973685822205 0 0.007842001598122695 0.0014407869781905584 0 0.0074661894789888319 0.0012458442374396154 0 0.0074532383652486361 0.0016050211794414325 0 0.0080284711902895989 0.0016958929870550701 0 0.0082862496617269951 0.001763239923986377 0 0.008027738785004011 0.0020385277712490321 0 0.0080284711902895989 0.0016958929870550701 0 0.0081039377631105906 0.0014187848772797807 0 0.0083107492917154097 0.001450089320648474 0 0.0080284711902895989 0.0016958929870550701 0 0.0082862496617269951 0.001763239923986377 0 0.0083107492917154097 0.001450089320648474 0 0.007842001598122695 0.0014407869781905584 0 0.0080284711902895989 0.0016958929870550701 0 0.0081039377631105906 0.0014187848772797807 0 0.0085032090858777436 0.0017270256345330299 0 0.0082862496617269951 0.001763239923986377 0 0.0082968213436600009 0.0021304774687812525 0 0.0082862496617269951 0.001763239923986377 0 0.0085296397008615965 0.0014746021102281521 0 0.0083107492917154097 0.001450089320648474 0 0.0085032090858777436 0.0017270256345330299 0 0.0082862496617269951 0.001763239923986377 0 0.0085296397008615965 0.0014746021102281521 0 0.0085032090858777436 0.0017270256345330299 0 0.0085296397008615965 0.0014746021102281521 0 0.0087010274922264541 0.0014887767104277728 0 0.0085296397008615965 0.0014746021102281521 0 0.008542883804657158 0.0012279242697620216 0 0.0087382234446218999 0.0011898010703888186 0 0.0085296397008615965 0.0014746021102281521 0 0.0087382234446218999 0.0011898010703888186 0 0.0087010274922264541 0.0014887767104277728 0 0.0085296397008615965 0.0014746021102281521 0 0.008542883804657158 0.0012279242697620216 0 0.0083107492917154097 0.001450089320648474 0 0.008542883804657158 0.0012279242697620216 0 0.0087382234446218999 0.0011898010703888186 0 0.0086421552550933773 0.00093041854738222214 0 0.0087382234446218999 0.0011898010703888186 0 0.0086421552550933773 0.00093041854738222214 0 0.0088816646496593533 0.00089251817795955618 0 0.007842001598122695 0.0014407869781905584 0 0.0081039377631105906 0.0014187848772797807 0 0.0082249937463261258 0.0010734877197690529 0 0.0081039377631105906 0.0014187848772797807 0 0.0083107492917154097 0.001450089320648474 0 0.0082249937463261258 0.0010734877197690529 0 0.008542883804657158 0.0012279242697620216 0 0.0083107492917154097 0.001450089320648474 0 0.0082249937463261258 0.0010734877197690529 0 0.008542883804657158 0.0012279242697620216 0 0.0082249937463261258 0.0010734877197690529 0 0.0086421552550933773 0.00093041854738222214 0 0.0080794281140358932 0.00049495151123514014 0 0.0082249937463261258 0.0010734877197690529 0 0.0084608272121042671 0.00055202657233728808 0 0.0080794281140358932 0.00049495151123514014 0 0.0084608272121042671 0.00055202657233728808 0 0.0085541780536370331 -0.0002082610622747187 0 0.0084608272121042671 0.00055202657233728808 0 0.0088340061906961795 0.00047208969801617364 0 0.0085541780536370331 -0.0002082610622747187 0 0.0082249937463261258 0.0010734877197690529 0 0.0084608272121042671 0.00055202657233728808 0 0.0086421552550933773 0.00093041854738222214 0 0.0084608272121042671 0.00055202657233728808 0 0.0086421552550933773 0.00093041854738222214 0 0.0088340061906961795 0.00047208969801617364 0 0.0086421552550933773 0.00093041854738222214 0 0.0088916849493802051 0.00072308396322594596 0 0.0088340061906961795 0.00047208969801617364 0 0.0086421552550933773 0.00093041854738222214 0 0.0088816646496593533 0.00089251817795955618 0 0.0088916849493802051 0.00072308396322594596 0 0.0088816646496593533 0.00089251817795955618 0 0.0088916849493802051 0.00072308396322594596 0 0.0089804922129377227 0.00070884810040660836 0 0.009087252326773293 0.0005286514762113041 0 0.0092442275431696679 -2.7082722599047204e-05 0 0.009309403243359507 0.00053454959082223895 0 0.0089804922129377227 0.00070884810040660836 0 0.009087252326773293 0.0005286514762113041 0 0.0090076518983296296 0.00066260348047206773 0 0.0088916849493802051 0.00072308396322594596 0 0.0089804922129377227 0.00070884810040660836 0 0.009087252326773293 0.0005286514762113041 0 0.0091124615512119672 0.0006519117952205432 0 0.0091643178942837477 0.00069915336997114269 0 0.0088916849493802051 0.00072308396322594596 0 0.009087252326773293 0.0005286514762113041 0 0.0088340061906961795 0.00047208969801617364 0 0.009087252326773293 0.0005286514762113041 0 0.0088340061906961795 0.00047208969801617364 0 0.0092442275431696679 -2.7082722599047204e-05 0 0.0088340061906961795 0.00047208969801617364 0 0.0092442275431696679 -2.7082722599047204e-05 0 0.0085541780536370331 -0.0002082610622747187 0 0.0098843024359378008 -0.0015913352652672309 0 0.0097120057385807427 -0.00041916033293451971 0 0.010658317711978036 0.0007004525492436915 0 0.0093025557453183891 0.00022170751518420993 0 0.0091643178942837477 0.00069915336997114269 0 0.0092442275431696679 -2.7082722599047204e-05 0 0.0097120057385807427 -0.00041916033293451971 0 0.01023494118349428 0.00073980509708337027 0 0.0091602010586348155 -0.00093715802935244723 0 0.0095611439158259665 -0.0011351597150735752 0 0.0097120057385807427 -0.00041916033293451971 0 0.0091602010586348155 -0.00093715802935244723 0 0.0092442275431696679 -2.7082722599047204e-05 0 0.0097120057385807427 -0.00041916033293451971 0 0.0091602010586348155 -0.00093715802935244723 0 0.0092442275431696679 -2.7082722599047204e-05 0 0.0085541780536370331 -0.0002082610622747187 0 0.0093257833565946434 -0.0018499907697649054 0 0.0094541561371110014 -0.0021163516920538446 0 0.0089881151589598588 -0.0023896032424404229 0 0.0093257833565946434 -0.0018499907697649054 0 0.0089305230394503658 -0.0019649646458802612 0 0.0089881151589598588 -0.0023896032424404229 0 0.0096707949494756577 -0.0018147958115170585 0 0.0094541561371110014 -0.0021163516920538446 0 0.0096508909652972558 -0.0024244067964363371 0 0.0094541561371110014 -0.0021163516920538446 0 0.0096508909652972558 -0.0024244067964363371 0 0.0089881151589598588 -0.0023896032424404229 0 0.010218563493407407 -0.0019934612187241401 0 0.0086661162751057782 0.00041520626839399219 0 0.0098843024359378008 -0.0015913352652672309 0 0.0096707949494756577 -0.0018147958115170585 0 0.0096508909652972558 -0.0024244067964363371 0 0.0096707949494756577 -0.0018147958115170585 0 0.0093257833565946434 -0.0018499907697649054 0 0.0094541561371110014 -0.0021163516920538446 0 0.0097120057385807427 -0.00041916033293451971 0 0.01023494118349428 0.00073980509708337027 0 0.010658317711978036 0.0007004525492436915 0 0.007439371802397246 0.0026759119933212729 0 0.0072528542344557027 0.0022184350114469562 0 0.0058578703474799548 0.0028234784118388524 0 0.0089804922129377227 0.00070884810040660836 0 0.0090076518983296296 0.00066260348047206773 0 0.0090583839132302463 0.00079265747664417931 0 0.0091643178942837477 0.00069915336997114269 0 0.0086661162751057782 0.00041520626839399219 0 0.0091643178942837477 0.00069915336997114269 0 0.0082124366290841581 0.001499079401083643 0 0.0086661162751057782 0.00041520626839399219 0 0.0082124366290841581 0.001499079401083643 0 0.008592816032622904 0.00097179195251665903 0 0.0085672111971647549 0.00097481284525551709 0 0.0085531265269960712 0.00094608487237260756 0 0.0088816646496593533 0.00089251817795955618 0 0.0089804922129377227 0.00070884810040660836 0 0.0090583839132302463 0.00079265747664417931 0 0.0088816646496593533 0.00089251817795955618 0 0.0090583839132302463 0.00079265747664417931 0 0.0088977405613981618 0.0010212096782121842 0 0.0072528542344557027 0.0022184350114469562 0 0.0058578703474799548 0.0028234784118388524 0 0.0052039113411320934 0.0018596096176478078 0 0.0086661162751057782 0.00041520626839399219 0 0.0075835285658890925 0.00016204418923172317 0 0.0082124366290841581 0.001499079401083643 0 0.005548937142747578 0.0010888814046250376 0 0.0072528542344557027 0.0022184350114469562 0 0.0056007830827116143 0.00093295856452780017 0 0.0052039113411320934 0.0018596096176478078 0 0.0076623627789325867 0.0025335755317588897 0 0.0057506120117871082 0.0010476061465963505 0 0.0068137260332556369 0.00041238052923389104 0 0.0082124366290841581 0.001499079401083643 0 0.0078176011121226015 0.001242992514463883 0 0.0090583839132302463 0.00079265747664417931 0 0.0088969652120707374 0.0012335533551700998 0 0.0089649817192198611 0.0016000175446873035 0 0.0090583839132302463 0.00079265747664417931 0 0.0088977405613981618 0.0010212096782121842 0 0.0088969652120707374 0.0012335533551700998 0 0.0087382234446218999 0.0011898010703888186 0 0.0088977405613981618 0.0010212096782121842 0 0.0088969652120707374 0.0012335533551700998 0 0.0087382234446218999 0.0011898010703888186 0 0.0088816646496593533 0.00089251817795955618 0 0.0088977405613981618 0.0010212096782121842 0 0.0088969652120707374 0.0012335533551700998 0 0.0088874112602247649 0.0015156377294185802 0 0.0089649817192198611 0.0016000175446873035 0 0.0088969652120707374 0.0012335533551700998 0 0.0088874112602247649 0.0015156377294185802 0 0.0087010274922264541 0.0014887767104277728 0 0.0087382234446218999 0.0011898010703888186 0 0.0088969652120707374 0.0012335533551700998 0 0.0087010274922264541 0.0014887767104277728 0 0.0086602205270464756 0.0017744443911036644 0 0.0088881092395745286 0.0016274605837931844 0 0.0085379423805361059 0.0021047315021453213 0 0.0085032090858777436 0.0017270256345330299 0 0.0087010274922264541 0.0014887767104277728 0 0.0086602205270464756 0.0017744443911036644 0 0.0088874112602247649 0.0015156377294185802 0 0.0087010274922264541 0.0014887767104277728 0 0.0086602205270464756 0.0017744443911036644 0 0.0088874112602247649 0.0015156377294185802 0 0.0086602205270464756 0.0017744443911036644 0 0.0088881092395745286 0.0016274605837931844 0 0.0085032090858777436 0.0017270256345330299 0 0.0086602205270464756 0.0017744443911036644 0 0.0082968213436600009 0.0021304774687812525 0 0.0057506120117871082 0.0010476061465963505 0 0.0068137260332556369 0.00041238052923389104 0 0.0051980922689337048 -0.00053344132769479529 0 0.0073277368619458442 0.0014463836661137753 0 0.0078615151162589585 0.0017707401956634972 0 0.0076438966615760551 0.0022459299137756951 0 0.0078176011121226015 0.001242992514463883 0 0.0064133699278531289 0.0005701187298769217 0 0.0084415299935833178 0.0015339173158424697 0 0.0078176011121226015 0.001242992514463883 0 0.0056007830827116143 0.00093295856452780017 0 0.0039350464826138588 0.00035346165056010916 0 0.0038515891524325769 -0.00045825107420508404 0 0.005548937142747578 0.0010888814046250376 0 0.0039711262559150714 -0.00041535552303400501 0 0.0057506120117871082 0.0010476061465963505 0 0.0051980922689337048 -0.00053344132769479529 0 0.0038515891524325769 -0.00045825107420508404 0 0.0056007830827116143 0.00093295856452780017 0 0.0048868303081117575 0.0013788396958240431 0 0.0043535169697082451 0.00097196869685603189 0 0.0056007830827116143 0.00093295856452780017 0 0.0043535169697082451 0.00097196869685603189 0 0.0039350464826138588 0.00035346165056010916 0 0.0048868303081117575 0.0013788396958240431 0 0.0052039113411320934 0.0018596096176478078 0 0.0043707311771680286 0.0017647786492712347 0 0.0048868303081117575 0.0013788396958240431 0 0.0043535169697082451 0.00097196869685603189 0 0.0043707311771680286 0.0017647786492712347 0 0.0056007830827116143 0.00093295856452780017 0 0.0048868303081117575 0.0013788396958240431 0 0.0052039113411320934 0.0018596096176478078 0 0.0037124780038761012 0.0014349897045928812 0 0.0030437424558171946 0.0011660944829065996 0 0.0031675974768603926 0.0018259596959095692 0 0.0037124780038761012 0.0014349897045928812 0 0.0036694704909825452 0.002031724178566602 0 0.0031675974768603926 0.0018259596959095692 0 0.0037124780038761012 0.0014349897045928812 0 0.0043535169697082451 0.00097196869685603189 0 0.0043707311771680286 0.0017647786492712347 0 0.0037124780038761012 0.0014349897045928812 0 0.0043707311771680286 0.0017647786492712347 0 0.0036694704909825452 0.002031724178566602 0 0.0043535169697082451 0.00097196869685603189 0 0.0036073931321638848 0.00083408809365597238 0 0.0039350464826138588 0.00035346165056010916 0 0.0037124780038761012 0.0014349897045928812 0 0.0043535169697082451 0.00097196869685603189 0 0.0036073931321638848 0.00083408809365597238 0 0.0036073931321638848 0.00083408809365597238 0 0.0031906975896307359 0.00040260412393635351 0 0.0039350464826138588 0.00035346165056010916 0 0.0037124780038761012 0.0014349897045928812 0 0.0036073931321638848 0.00083408809365597238 0 0.0030437424558171946 0.0011660944829065996 0 0.0036073931321638848 0.00083408809365597238 0 0.0030437424558171946 0.0011660944829065996 0 0.0031906975896307359 0.00040260412393635351 0 0.0039350464826138588 0.00035346165056010916 0 0.0038515891524325769 -0.00045825107420508404 0 0.0032608276540243113 -0.00017171250652834135 0 0.0031906975896307359 0.00040260412393635351 0 0.0039350464826138588 0.00035346165056010916 0 0.0032608276540243113 -0.00017171250652834135 0 0.0038515891524325769 -0.00045825107420508404 0 0.0032608276540243113 -0.00017171250652834135 0 0.0027552459158188157 -0.00050290915972362989 0 0.002949076924999427 0.00030633783469033156 0 0.0012006396235740495 -0.00049983963666453269 0 0.0031906975896307359 0.00040260412393635351 0 0.0027552459158188157 -0.00050290915972362989 0 0.0017951432317409024 -5.7953863817734226e-05 0 0.0031906975896307359 0.00040260412393635351 0 0.00028267385175420189 -0.00084187464057318688 0 0.0017833364898796134 0.00074889636360364414 0 0.0027552459158188157 -0.00050290915972362989 0 0.0017951432317409024 -5.7953863817734226e-05 0 0.0022608929053985196 -0.0011891480553257612 0 0.00028267385175420189 -0.00084187464057318688 0 0.00057375473938696506 0.00086407689124033465 0 0.0017833364898796134 0.00074889636360364414 0 0.0031906975896307359 0.00040260412393635351 0 0.0032608276540243113 -0.00017171250652834135 0 0.0027552459158188157 -0.00050290915972362989 0 0.00028267385175420189 -0.00084187464057318688 0 -0.0027800419578349399 -0.0019793327133896298 0 -0.0019850765927364724 0.00010213181187421621 0 0.0012006396235740495 -0.00049983963666453269 0 -0.0024721286770790787 0.00056370074584619198 0 0.0017951432317409024 -5.7953863817734226e-05 0 0.00031301301287646211 -0.00055383700674136382 0 0.0012822873739669251 -0.0013682922039386415 0 0.00028267385175420189 -0.00084187464057318688 0 -0.00055017013949600589 0.00092061365124046599 0 -0.0019850765927364724 0.00010213181187421621 0 -0.00055017013949600589 0.00092061365124046599 0 -0.0019850765927364724 0.00010213181187421621 0 -0.0019881661995699231 0.001683268231732131 0 0.00028267385175420189 -0.00084187464057318688 0 -0.00055017013949600589 0.00092061365124046599 0 0.00057375473938696506 0.00086407689124033465 0 -0.00055017013949600589 0.00092061365124046599 0 0.00057375473938696506 0.00086407689124033465 0 0.00014313075495414043 0.0018475486182288022 0 -0.00055017013949600589 0.00092061365124046599 0 0.00014313075495414043 0.0018475486182288022 0 -0.00089976301040594654 0.0023050416883055864 0 0.00014313075495414043 0.0018475486182288022 0 0.00085897380592687435 0.0028126455034448209 0 -0.00012705077251713685 0.0028617266931549889 0 0.00014313075495414043 0.0018475486182288022 0 -0.00089976301040594654 0.0023050416883055864 0 -0.00012705077251713685 0.0028617266931549889 0 -0.00089976301040594654 0.0023050416883055864 0 -0.0017467448865700192 0.0029508842807283932 0 -0.0019881661995699231 0.001683268231732131 0 -0.00055017013949600589 0.00092061365124046599 0 -0.00089976301040594654 0.0023050416883055864 0 -0.0019881661995699231 0.001683268231732131 0 0.0030437424558171946 0.0011660944829065996 0 0.0019672346021756349 0.0014216719947688272 0 0.0017833364898796134 0.00074889636360364414 0 0.0030437424558171946 0.0011660944829065996 0 0.0031906975896307359 0.00040260412393635351 0 0.0017833364898796134 0.00074889636360364414 0 0.00057375473938696506 0.00086407689124033465 0 0.0017833364898796134 0.00074889636360364414 0 0.0011920324652806098 0.0016147983337022923 0 0.00057375473938696506 0.00086407689124033465 0 0.00014313075495414043 0.0018475486182288022 0 0.0011920324652806098 0.0016147983337022923 0 0.0019672346021756349 0.0014216719947688272 0 0.0017833364898796134 0.00074889636360364414 0 0.0011920324652806098 0.0016147983337022923 0 0.0019672346021756349 0.0014216719947688272 0 0.0011920324652806098 0.0016147983337022923 0 0.001851881152590219 0.0021654032728844245 0 0.00014313075495414043 0.0018475486182288022 0 0.0011920324652806098 0.0016147983337022923 0 0.00085897380592687435 0.0028126455034448209 0 0.0011920324652806098 0.0016147983337022923 0 0.001851881152590219 0.0021654032728844245 0 0.00085897380592687435 0.0028126455034448209 0 0.0029875161189516753 0.0012998963254744881 0 0.0020793339563373136 0.0030667880257624 0 0.0030437424558171946 0.0011660944829065996 0 0.001851881152590219 0.0021654032728844245 0 0.0019626451286233822 0.0034875022572772338 0 0.0030437424558171946 0.0011660944829065996 0 0.0025873093593498657 0.0022009181226264611 0 0.0031675974768603926 0.0018259596959095692 0 0.0030437424558171946 0.0011660944829065996 0 0.0019672346021756349 0.0014216719947688272 0 0.001851881152590219 0.0021654032728844245 0 0.0025873093593498657 0.0022009181226264611 0 0.0031675974768603926 0.0018259596959095692 0 0.003099990667349515 0.0022691156384459007 0 0.0025873093593498657 0.0022009181226264611 0 0.0027525168865439923 0.0026372774068251798 0 0.003099990667349515 0.0022691156384459007 0 0.0019626451286233822 0.0034875022572772338 0 0.00085897380592687435 0.0028126455034448209 0 0.00076759340707258789 0.004155732459741871 0 0.001851881152590219 0.0021654032728844245 0 0.0019626451286233822 0.0034875022572772338 0 0.00085897380592687435 0.0028126455034448209 0 0.0019626451286233822 0.0034875022572772338 0 0.00076759340707258789 0.004155732459741871 0 0.00088021344201512277 0.0056987864321656834 0 0.0025873093593498657 0.0022009181226264611 0 0.0027525168865439923 0.0026372774068251798 0 0.0020833685268396322 0.0032176498335065831 0 0.0020793339563373136 0.0030667880257624 0 -0.00016271549651888584 0.0014426953189569042 0 0.0027525168865439923 0.0026372774068251798 0 0.003099990667349515 0.0022691156384459007 0 0.0033663483667673607 0.0026515048840314906 0 0.0027525168865439923 0.0026372774068251798 0 0.0030620705740304613 0.0032084664060181151 0 0.0033663483667673607 0.0026515048840314906 0 0.003075032845600568 0.0026102436815589837 0 0.0023705383496519356 0.00083140881245254248 0 -0.0017467448865700192 0.0029508842807283932 0 -0.00079305360583941796 0.0033545175760875566 0 -0.0013824204001516335 0.0039638326183546969 0 -0.00089976301040594654 0.0023050416883055864 0 -0.0017467448865700192 0.0029508842807283932 0 -0.00079305360583941796 0.0033545175760875566 0 0.00085897380592687435 0.0028126455034448209 0 0.00076759340707258789 0.004155732459741871 0 6.1849006691117262e-05 0.0037520537670258807 0 -0.00079305360583941796 0.0033545175760875566 0 6.1849006691117262e-05 0.0037520537670258807 0 -0.0005839911316346091 0.0043326057546042582 0 -0.00079305360583941796 0.0033545175760875566 0 -0.00012705077251713685 0.0028617266931549889 0 6.1849006691117262e-05 0.0037520537670258807 0 -0.00089976301040594654 0.0023050416883055864 0 -0.00079305360583941796 0.0033545175760875566 0 -0.00012705077251713685 0.0028617266931549889 0 0.00085897380592687435 0.0028126455034448209 0 -0.00012705077251713685 0.0028617266931549889 0 6.1849006691117262e-05 0.0037520537670258807 0 0.00076759340707258789 0.004155732459741871 0 5.7974245427518367e-05 0.0048406967193567168 0 0.00088021344201512277 0.0056987864321656834 0 0.00076759340707258789 0.004155732459741871 0 6.1849006691117262e-05 0.0037520537670258807 0 5.7974245427518367e-05 0.0048406967193567168 0 5.7974245427518367e-05 0.0048406967193567168 0 -0.0005839911316346091 0.0043326057546042582 0 -0.00091241064122957053 0.005401272212822307 0 6.1849006691117262e-05 0.0037520537670258807 0 5.7974245427518367e-05 0.0048406967193567168 0 -0.0005839911316346091 0.0043326057546042582 0 -0.0005839911316346091 0.0043326057546042582 0 -0.0013824204001516335 0.0039638326183546969 0 -0.00091241064122957053 0.005401272212822307 0 -0.0013824204001516335 0.0039638326183546969 0 -0.00091241064122957053 0.005401272212822307 0 -0.0024691827860521022 0.0036519593271900665 0 -0.00079305360583941796 0.0033545175760875566 0 -0.0005839911316346091 0.0043326057546042582 0 -0.0013824204001516335 0.0039638326183546969 0 -0.0031299440781640772 -0.00025339450914848525 0 -0.0030943090335006735 -0.0003813832265783867 0 -0.0031978489141737489 -0.00044192280810136846 0 -0.0031299440781640772 -0.00025339450914848525 0 -0.0032560936902784974 -0.00023504845745100269 0 -0.0031978489141737489 -0.00044192280810136846 0 -0.00016271549651888584 0.0014426953189569042 0 -0.0015504323052136732 -0.0012651397599675541 0 -0.0015825105501608547 0.0059261068032657772 0 -0.00091241064122957053 0.005401272212822307 0 0.00088021344201512277 0.0056987864321656834 0 -0.0023111579056971534 0.0027098457995546749 0 -0.00016271549651888584 0.0014426953189569042 0 5.7974245427518367e-05 0.0048406967193567168 0 -0.00091241064122957053 0.005401272212822307 0 0.00088021344201512277 0.0056987864321656834 0 0.00012729969531785417 -0.0016206478472796236 0 0.00011254783386769925 -0.0016594770674957784 0 0.00012880673896796427 -0.0016893977043619462 0 0.00010858136600148267 -0.0016205611645324241 0 0.00012729969531785417 -0.0016206478472796236 0 0.00011254783386769925 -0.0016594770674957784 0 0.0027525168865439923 0.0026372774068251798 0 0.0030254283269796709 0.00312523171283662 0 0.0020833685268396322 0.0032176498335065831 0 0.0023705383496519356 0.00083140881245254248 0 -0.00016271549651888584 0.0014426953189569042 0 0.00010858136600148267 -0.0016205611645324241 0 0.00011254783386769925 -0.0016594770674957784 0 9.8264019591310812e-05 -0.0016517276616802737 0 0.0023705383496519356 0.00083140881245254248 0 0.0033024798668241004 -0.0023697303777834126 0 0.0030620705740304613 0.0032084664060181151 0 0.004178869297177314 0.0031245184580833843 0 0.0033663483667673607 0.0026515048840314906 0 0.003543843742339113 -0.00020145022766977172 0 0.0036948663617193248 5.6179090995253249e-05 0 0.0039414812498422538 -0.0002359647126349872 0 0.0023705383496519356 0.00083140881245254248 0 0.0054147955416212088 0.00067785314311725174 0 0.0033024798668241004 -0.0023697303777834126 0 0.0054147955416212088 0.00067785314311725174 0 0.0080138722962835654 -0.0020169409500264057 0 0.0082962165078782155 -0.002348756506959412 0 0.0085063780426031434 -0.0019656963218337986 0 0.0089881151589598588 -0.0023896032424404229 0 0.0082962165078782155 -0.002348756506959412 0 0.0085063780426031434 -0.0019656963218337986 0 0.0075835285658890925 0.00016204418923172317 0 0.0054147955416212088 0.00067785314311725174 0 0.0089305230394503658 -0.0019649646458802612 0 0.0089881151589598588 -0.0023896032424404229 0 0.0085063780426031434 -0.0019656963218337986 0 0.0058578703474799548 0.0028234784118388524 0 0.0043650603576490697 0.0029317801544282195 0 0.0052039113411320934 0.0018596096176478078 0 0.004178869297177314 0.0031245184580833843 0 0.0052039113411320934 0.0018596096176478078 0 0.0043707311771680286 0.0017647786492712347 0 0.0054147955416212088 0.00067785314311725174 0 0.0045758959811797572 0.0027312006935035151 0 0.004178869297177314 0.0031245184580833843 0 0.0043707311771680286 0.0017647786492712347 0 0.0036694704909825452 0.002031724178566602 0 0.0036694704909825452 0.002031724178566602 0 0.003099990667349515 0.0022691156384459007 0 0.0033663483667673607 0.0026515048840314906 0 0.0036694704909825452 0.002031724178566602 0 0.0031675974768603926 0.0018259596959095692 0 0.003099990667349515 0.0022691156384459007 0 0.004178869297177314 0.0031245184580833843 0 0.0036694704909825452 0.002031724178566602 0 0.0033663483667673607 0.0026515048840314906 0 -0.016887913860728243 0.0010590476147894761 0 -0.014934443968560895 0.00032340868626099737 0 -0.014362093144937357 -0.0011903343208090366 0 -0.015641152421138969 0.0014449260663460224 0 -0.014934443968560895 0.00032340868626099737 0 -0.013002081539356928 0.001054147201738283 0 -0.016793227942469714 -0.00047881968225443362 0 -0.016210207325032359 2.8427070369965467e-05 0 -0.014934443968560895 0.00032340868626099737 0 -0.013002081539356928 0.001054147201738283 0 -0.014362093144937357 -0.0011903343208090366 0 -0.012831232329171546 0.0092046247441381172 0 -0.012246311356588655 0.0071635577505683133 0 -0.013473998380733276 0.0070097271486419888 0 -0.012831232329171546 0.0092046247441381172 0 -0.011352108102682454 0.0079050042164097011 0 -0.012246311356588655 0.0071635577505683133 0 -0.013512671910238369 0.0032394546816136224 0 -0.0097604634634080242 0.0042098941066350259 0 -0.009697699715322269 0.0017041151666840461 0 -0.0084320079016302757 0.00063629629601038966 0 -0.0076484629675975767 0.0013892254042341364 0 -0.0084320079016302757 0.00063629629601038966 0 -0.0071145965401434221 0.00058711673262958595 0 -0.0072170114113069431 -0.0004135762630558433 0 -0.0084320079016302757 0.00063629629601038966 0 -0.0076484629675975767 0.0013892254042341364 0 -0.0071145965401434221 0.00058711673262958595 0 -0.009697699715322269 0.0017041151666840461 0 -0.0077318605588841492 0.0026380006207092099 0 -0.0078446863833354311 0.0024214048335552255 0 -0.013512671910238369 0.0032394546816136224 0 -0.0089741670364607215 0.0014064351929910946 0 -0.009697699715322269 0.0017041151666840461 0 -0.0076484629675975767 0.0013892254042341364 0 -0.0078446863833354311 0.0024214048335552255 0 -0.013002081539356928 0.001054147201738283 0 -0.014362093144937357 -0.0011903343208090366 0 -0.010381663497427958 0.00074253972728576608 0 -0.0077318605588841492 0.0026380006207092099 0 -0.0078446863833354311 0.0024214048335552255 0 -0.006206322840728867 0.0016560706888905929 0 -0.0052826539923319675 0.0025905258443229624 0 -0.0039467667580949566 0.0011646044840464946 0 -0.0039688340505030454 0.0045052230270684231 0 -0.0077318605588841492 0.0026380006207092099 0 -0.0052826539923319675 0.0025905258443229624 0 -0.006206322840728867 0.0016560706888905929 0 -0.0052826539923319675 0.0025905258443229624 0 -0.006206322840728867 0.0016560706888905929 0 -0.0039467667580949566 0.0011646044840464946 0 -0.006206322840728867 0.0016560706888905929 0 -0.0052769191526226954 5.8863807090917098e-05 0 -0.0039467667580949566 0.0011646044840464946 0 -0.0076422839376983119 0.0022337633694946971 0 -0.0060508336408133349 0.0007163892710639753 0 -0.0076484629675975767 0.0013892254042341364 0 -0.0078446863833354311 0.0024214048335552255 0 -0.0065855799443215292 0.0013451828526633239 0 -0.0078446863833354311 0.0024214048335552255 0 -0.006206322840728867 0.0016560706888905929 0 -0.0052769191526226954 5.8863807090917098e-05 0 -0.0076484629675975767 0.0013892254042341364 0 -0.0071145965401434221 0.00058711673262958595 0 -0.0065855799443215292 0.0013451828526633239 0 -0.0071145965401434221 0.00058711673262958595 0 -0.0065855799443215292 0.0013451828526633239 0 -0.0052886548484927833 0.00026197853433800018 0 -0.0071145965401434221 0.00058711673262958595 0 -0.0052886548484927833 0.00026197853433800018 0 -0.0072170114113069431 -0.0004135762630558433 0 -0.0060508336408133349 0.0007163892710639753 0 -0.0024721286770790787 0.00056370074584619198 0 -0.0052769191526226954 5.8863807090917098e-05 0 -0.0033579851422866143 -0.00026195819846185379 0 -0.0027800419578349399 -0.0019793327133896298 0 -0.0033579851422866143 -0.00026195819846185379 0 -0.0027800419578349399 -0.0019793327133896298 0 -0.0019850765927364724 0.00010213181187421621 0 -0.0038949764874740673 0.0016652414245597012 0 -0.0047511871107253426 0.003643705489539129 0 -0.0019850765927364724 0.00010213181187421621 0 -0.0039467667580949566 0.0011646044840464946 0 -0.0019881661995699231 0.001683268231732131 0 -0.0039467667580949566 0.0011646044840464946 0 -0.0028177652566634373 0.0026215169742355585 0 -0.0038760724839951017 0.0039812333848859302 0 -0.0052769191526226954 5.8863807090917098e-05 0 -0.0033579851422866143 -0.00026195819846185379 0 -0.0039467667580949566 0.0011646044840464946 0 -0.0033579851422866143 -0.00026195819846185379 0 -0.0019850765927364724 0.00010213181187421621 0 -0.0039467667580949566 0.0011646044840464946 0 -0.0039467667580949566 0.0011646044840464946 0 -0.0028177652566634373 0.0026215169742355585 0 -0.0019881661995699231 0.001683268231732131 0 -0.0017467448865700192 0.0029508842807283932 0 -0.0028177652566634373 0.0026215169742355585 0 -0.0019881661995699231 0.001683268231732131 0 -0.00091241064122957053 0.005401272212822307 0 -0.0024691827860521022 0.0036519593271900665 0 -0.0038760724839951017 0.0039812333848859302 0 -0.00088166828216102648 0.0053929837904074284 0 -0.0047511871107253426 0.003643705489539129 0 -0.0017467448865700192 0.0029508842807283932 0 -0.0013824204001516335 0.0039638326183546969 0 -0.0024691827860521022 0.0036519593271900665 0 -0.0017467448865700192 0.0029508842807283932 0 -0.0028177652566634373 0.0026215169742355585 0 -0.0024691827860521022 0.0036519593271900665 0 -0.0028177652566634373 0.0026215169742355585 0 -0.0024691827860521022 0.0036519593271900665 0 -0.0038760724839951017 0.0039812333848859302 0 -0.0047511871107253426 0.003643705489539129 0 -0.0065969452438612236 0.0022165985566858352 0 -0.0023111579056971534 0.0027098457995546749 0 -0.0053126555540849163 0.0011074518043264904 0 -0.0015825105501608547 0.0059261068032657772 0 -0.00091241064122957053 0.005401272212822307 0 -0.004185446315978697 0.0037267778329085964 0 -0.0031299440781640772 -0.00025339450914848525 0 -0.002992646479892926 -0.00026237361993369232 0 -0.0030943090335006735 -0.0003813832265783867 0 -0.0015825105501608547 0.0059261068032657772 0 -0.004185446315978697 0.0037267778329085964 0 -0.0041961306767989322 0.0053308961435064037 0 -0.0053126555540849163 0.0011074518043264904 0 -0.0065969452438612236 0.0022165985566858352 0 -0.0015825105501608547 0.0059261068032657772 0 -0.004201048482469414 0.0061320878838582596 0 -0.0041961306767989322 0.0053308961435064037 0 -0.0078038223289084285 -0.0011032511759286768 0 -0.0089838358304136952 -0.00028272482910167353 0 -0.011541738571964713 -0.0023265725263872175 0 -0.0078259580138027376 -0.00038939617027554981 0 -0.0089838358304136952 -0.00028272482910167353 0 -0.0078432206418042241 0.0027630747839769575 0 -0.0089838358304136952 -0.00028272482910167353 0 -0.011589547382121172 0.00031849726789748739 0 -0.0099461852554876534 0.0014386818776288156 0 -0.007804241024718858 -0.00037978251389478139 0 -0.0078038223289084285 -0.0011032511759286768 0 -0.0089838358304136952 -0.00028272482910167353 0 -0.0053126555540849163 0.0011074518043264904 0 -0.0082725695797256082 0.00063625452141154344 0 -0.0065969452438612236 0.0022165985566858352 0 -0.011150494549142808 0.00019000987130947478 0 -0.0089741670364607215 0.0014064351929910946 0 -0.0047511871107253426 0.003643705489539129 0 -0.0077318605588841492 0.0026380006207092099 0 -0.0052826539923319675 0.0025905258443229624 0 -0.0039688340505030454 0.0045052230270684231 0 -0.0064244323822044485 0.0026668085154829269 0 -0.0064335325223046176 0.0044182079151929019 0 -0.011020129910247792 0.0029346586918397193 0 -0.010381663497427958 0.00074253972728576608 0 -0.0064244323822044485 0.0026668085154829269 0 -0.011020129910247792 0.0029346586918397193 0 -0.013002081539356928 0.001054147201738283 0 -0.010381663497427958 0.00074253972728576608 0 -0.011020129910247792 0.0029346586918397193 0 -0.011541738571964713 -0.0023265725263872175 0 -0.011589547382121172 0.00031849726789748739 0 -0.014238180615574065 -0.00085907723042590891 0 -0.0089838358304136952 -0.00028272482910167353 0 -0.011541738571964713 -0.0023265725263872175 0 -0.011589547382121172 0.00031849726789748739 0 -0.011589547382121172 0.00031849726789748739 0 -0.014238180615574065 -0.00085907723042590891 0 -0.014933040819487587 0.0031207205150749332 0 -0.015269733042508036 -0.0035292185939339517 0 -0.011541738571964713 -0.0023265725263872175 0 -0.014238180615574065 -0.00085907723042590891 0 -0.015641152421138969 0.0014449260663460224 0 -0.013002081539356928 0.001054147201738283 0 -0.011020129910247792 0.0029346586918397193 0 -0.016793227942469714 -0.00047881968225443362 0 -0.011150494549142808 0.00019000987130947478 0 -0.013448265946841629 -0.0028086347238385516 0 -0.0098978074433391985 -0.0058869329189503708 0 -0.011733354268947033 -0.008027473111268538 0 -0.01259348081137986 -0.009462920759185537 0 -0.0093761250673079239 -0.0087634770834246235 0 -0.013448265946841629 -0.0028086347238385516 0 -0.011028394997073487 0.0003082707455875113 0 -0.011589547382121172 0.00031849726789748739 0 -0.014933040819487587 0.0031207205150749332 0 -0.011376897347258358 0.0029510959689668056 0 -0.011589547382121172 0.00031849726789748739 0 -0.011376897347258358 0.0029510959689668056 0 -0.0099461852554876534 0.0014386818776288156 0 -0.013335243591295917 -0.0027333372977465004 0 -0.010125868835733562 -0.002884250829091088 0 -0.010128140378875909 -0.0020992494667748662 0 -0.011734665059238886 -0.0083539310778965141 0 -0.0092464209595800456 -0.0080113564444982046 0 -0.01049820743673929 -0.007390662446600171 0 -0.011733354268947033 -0.008027473111268538 0 -0.0093761250673079239 -0.0087634770834246235 0 -0.0089278753391660564 -0.0075006679805539505 0 -0.011717295488639409 -0.0081820897307839351 0 -0.0093147459639695059 -0.0078482950806723611 0 -0.010128140378875909 -0.0020992494667748662 0 -0.0069203425800966733 -0.0030338725277947827 0 -0.0069247123396347894 -0.0014689748609177731 0 -0.0093761250673079239 -0.0087634770834246235 0 -0.0089278753391660564 -0.0075006679805539505 0 -0.0060281677493536799 -0.0080631221906938121 0 -0.0093147459639695059 -0.0078482950806723611 0 -0.0055366868159995508 -0.0060466806025528024 0 -0.0089278753391660564 -0.0075006679805539505 0 -0.0060281677493536799 -0.0080631221906938121 0 -0.0060313431254154747 -0.0070109824251812997 0 -0.0098978074433391985 -0.0058869329189503708 0 -0.005743453334683425 -0.003510960713640075 0 -0.011376897347258358 0.0029510959689668056 0 -0.0099461852554876534 0.0014386818776288156 0 -0.0078432206418042241 0.0027630747839769575 0 -0.0089838358304136952 -0.00028272482910167353 0 -0.0099461852554876534 0.0014386818776288156 0 -0.0078432206418042241 0.0027630747839769575 0 -0.010125868835733562 -0.002884250829091088 0 -0.010128140378875909 -0.0020992494667748662 0 -0.0069203425800966733 -0.0030338725277947827 0 -0.011028394997073487 0.0003082707455875113 0 -0.0067869980812543208 -9.1566546270243894e-05 0 -0.002992646479892926 -0.00026237361993369232 0 -0.0029858073525988252 -0.00050322635232912048 0 -0.0030339629857391451 -0.00044441648087054851 0 -0.002992646479892926 -0.00026237361993369232 0 -0.0030339629857391451 -0.00044441648087054851 0 -0.0030943090335006735 -0.0003813832265783867 0 -0.0053126555540849163 0.0011074518043264904 0 -0.0067869980812543208 -9.1566546270243894e-05 0 -0.0029858073525988252 -0.00050322635232912048 0 -0.0030403652112044256 -0.00050276218041711671 0 -0.0030382990105072036 -0.00055921063827329401 0 -0.0029858073525988252 -0.00050322635232912048 0 -0.0030403652112044256 -0.00050276218041711671 0 -0.0030339629857391451 -0.00044441648087054851 0 -0.0030339629857391451 -0.00044441648087054851 0 -0.0030943090335006735 -0.0003813832265783867 0 -0.0030957948850294141 -0.00050554241474056003 0 -0.0030403652112044256 -0.00050276218041711671 0 -0.0030339629857391451 -0.00044441648087054851 0 -0.0030957948850294141 -0.00050554241474056003 0 -0.0030403652112044256 -0.00050276218041711671 0 -0.0030957948850294141 -0.00050554241474056003 0 -0.0030382990105072036 -0.00055921063827329401 0 -0.0030957948850294141 -0.00050554241474056003 0 -0.0030382990105072036 -0.00055921063827329401 0 -0.0031194649634388896 -0.00067578406726828753 0 -0.0030382990105072036 -0.00055921063827329401 0 -0.0029875868538903794 -0.00065082432219621571 0 -0.0031194649634388896 -0.00067578406726828753 0 -0.0067869980812543208 -9.1566546270243894e-05 0 -0.005743453334683425 -0.003510960713640075 0 -0.0029858073525988252 -0.00050322635232912048 0 -0.0030382990105072036 -0.00055921063827329401 0 -0.0029875868538903794 -0.00065082432219621571 0 -0.0046894708240675358 -0.0044281154869232368 0 -0.0032679168572503966 -0.0031324382604887686 0 -0.0046927847232692372 -0.0033542774803336432 0 -0.005743453334683425 -0.003510960713640075 0 -0.0055366868159995508 -0.0060466806025528024 0 -0.005743453334683425 -0.003510960713640075 0 -0.0018411984173737498 -0.0020891085352977971 0 -0.0046894708240675358 -0.0044281154869232368 0 -0.0028223891388396202 -0.0040566837193373399 0 -0.0032679168572503966 -0.0031324382604887686 0 0.00010860784335287519 -0.0017663282774685715 0 0.00010827257176508281 -0.0017735799143236235 0 0.00011463204791544174 -0.0017593295129306877 0 -0.0018411984173737498 -0.0020891085352977971 0 -0.00181682771912843 -0.003609608298569916 0 -0.00026236811465363822 -0.0034323203509095419 0 -0.0005511206860793306 -0.0028505201585348567 0 0.0002824853161951983 -0.0032205786589005422 0 -0.00181682771912843 -0.003609608298569916 0 -0.0018712619702794951 -0.0060949911345662879 0 -0.0036816867083522796 -0.0053800297402128274 0 -0.0036078755309660688 -0.0054393783381118501 0 -0.0036214102545596458 -0.0055236276055356153 0 -0.0035562290706939903 -0.0053643432091120815 0 -0.0036078755309660688 -0.0054393783381118501 0 -0.0035541287514046119 -0.0055440545179238103 0 -0.00181682771912843 -0.003609608298569916 0 -0.0055366868159995508 -0.0060466806025528024 0 -0.0036816867083522796 -0.0053800297402128274 0 -0.0035562290706939903 -0.0053643432091120815 0 -0.0036078755309660688 -0.0054393783381118501 0 -0.0071654082887018522 -0.0076435323922752268 0 -0.0072107402691577354 -0.0063734226341913879 0 -0.0076196536879389268 -0.0070128615155104811 0 -0.0055366868159995508 -0.0060466806025528024 0 -0.0053135736691114939 -0.0060695085132938774 0 -0.0036078755309660688 -0.0054393783381118501 0 -0.0035541287514046119 -0.0055440545179238103 0 -0.0036214102545596458 -0.0055236276055356153 0 -0.0053135736691114939 -0.0060695085132938774 0 -0.0018712619702794951 -0.0060949911345662879 0 -0.0016834092785230725 -0.0092185046918035942 0 -0.0017386166945875391 -0.0091615216857274303 0 -0.0016410793042003758 -0.0092100933645481234 0 -0.0017577786060117505 -0.0095516244267674719 0 -0.0016226875561267315 -0.0094137643870084477 0 -0.001712994924180251 -0.0094678479457016192 0 -0.0016977602340846041 -0.0092491230561169372 0 -0.0016834092785230725 -0.0092185046918035942 0 -0.001630127354213897 -0.0092479689890237245 0 -0.0025967851926035528 -0.0090227442952659845 0 -0.0014860398650080827 -0.0093619693875448464 0 -0.0035983310894219939 -0.0085583169354244842 0 -0.0035998210908173354 -0.0077783827637706122 0 -0.0031772356067551882 -0.0086743828178048148 0 -0.0016834092785230725 -0.0092185046918035942 0 -0.0017386166945875391 -0.0091615216857274303 0 -0.0017372801450252974 -0.0091999481287632599 0 -0.0025967851926035528 -0.0090227442952659845 0 -0.0036349349507780208 -0.0073936832967134158 0 -0.0016977602340846041 -0.0092491230561169372 0 -0.0016834092785230725 -0.0092185046918035942 0 -0.0017372801450252974 -0.0091999481287632599 0 -0.0018712619702794951 -0.0060949911345662879 0 -0.0036349349507780208 -0.0073936832967134158 0 -0.0065338992035208565 -0.0067673351481196513 0 -0.0065360120555214554 -0.0056204151903925786 0 -0.0071343850644438071 -0.0055993592055757378 0 -0.0032689994692529419 -0.0059999979185417964 0 -0.0037612778638240816 -0.0058661238271108728 0 -0.0032687328044147456 -0.0069197379373411565 0 -0.0053135736691114939 -0.0060695085132938774 0 -0.0036349349507780208 -0.0073936832967134158 0 -0.0065338992035208565 -0.0067673351481196513 0 -0.0084530194211978188 -0.005372570309453044 0 -0.010013906353860591 -0.0057508822154940823 0 -0.0053135736691114939 -0.0060695085132938774 0 -0.010521786805698685 -0.0058711936584061597 0 -0.0070143469256483152 -0.004647485650462942 0 -0.0084530194211978188 -0.005372570309453044 0 -0.0092916900268106145 -0.0040643292166058602 0 -0.0065338992035208565 -0.0067673351481196513 0 -0.0071343850644438071 -0.0055993592055757378 0 -0.0084530194211978188 -0.005372570309453044 0 -0.0071343850644438071 -0.0055993592055757378 0 -0.0070143469256483152 -0.004647485650462942 0 -0.0084530194211978188 -0.005372570309453044 0 -0.0065360120555214554 -0.0056204151903925786 0 -0.0071343850644438071 -0.0055993592055757378 0 -0.0070143469256483152 -0.004647485650462942 0 -0.0036349349507780208 -0.0073936832967134158 0 -0.0042005233525111846 -0.0080897507735455676 0 -0.0025967851926035528 -0.0090227442952659845 0 -0.0042005233525111846 -0.0080897507735455676 0 -0.0072107402691577354 -0.0063734226341913879 0 -0.0083046714912398782 -0.0066863272220669782 0 -0.010013906353860591 -0.0057508822154940823 0 -0.0092464209595800456 -0.0080113564444982046 0 -0.0071654082887018522 -0.0076435323922752268 0 -0.0082790683361773382 -0.0072092044230329042 0 -0.0083046714912398782 -0.0066863272220669782 0 -0.0082790683361773382 -0.0072092044230329042 0 -0.0090475929817851464 -0.0067116929659791387 0 -0.0072107402691577354 -0.0063734226341913879 0 -0.0083046714912398782 -0.0066863272220669782 0 -0.0076196536879389268 -0.0070128615155104811 0 -0.0083046714912398782 -0.0066863272220669782 0 -0.0076196536879389268 -0.0070128615155104811 0 -0.0082790683361773382 -0.0072092044230329042 0 -0.0071654082887018522 -0.0076435323922752268 0 -0.0076196536879389268 -0.0070128615155104811 0 -0.0082790683361773382 -0.0072092044230329042 0 -0.0092464209595800456 -0.0080113564444982046 0 -0.0082790683361773382 -0.0072092044230329042 0 -0.0090475929817851464 -0.0067116929659791387 0 -0.01049820743673929 -0.007390662446600171 0 -0.0090475929817851464 -0.0067116929659791387 0 -0.012033348816310161 -0.0065070060425531573 0 -0.0083046714912398782 -0.0066863272220669782 0 -0.0090475929817851464 -0.0067116929659791387 0 -0.010013906353860591 -0.0057508822154940823 0 -0.0092164085825456338 -0.0067091172031283437 0 -0.011868621165885291 -0.0067912294132104426 0 -0.0090475929817851464 -0.0067116929659791387 0 -0.010776802234075591 -0.006177248631387377 0 -0.011519073450114832 -0.0070636904750437622 0 -0.0092464209595800456 -0.0080113564444982046 0 -0.01049820743673929 -0.007390662446600171 0 -0.0090475929817851464 -0.0067116929659791387 0 -0.0090475929817851464 -0.0067116929659791387 0 -0.010013906353860591 -0.0057508822154940823 0 -0.010776802234075591 -0.006177248631387377 0 -0.0084530194211978188 -0.005372570309453044 0 -0.010013906353860591 -0.0057508822154940823 0 -0.0092916900268106145 -0.0040643292166058602 0 -0.010013906353860591 -0.0057508822154940823 0 -0.010577932390963119 -0.0045034290607008478 0 -0.0092916900268106145 -0.0040643292166058602 0 -0.010013906353860591 -0.0057508822154940823 0 -0.010776802234075591 -0.006177248631387377 0 -0.011425652460406364 -0.005174028633073713 0 -0.010013906353860591 -0.0057508822154940823 0 -0.011425652460406364 -0.005174028633073713 0 -0.010577932390963119 -0.0045034290607008478 0 -0.011425652460406364 -0.005174028633073713 0 -0.010577932390963119 -0.0045034290607008478 0 -0.011266999632658462 -0.0043856633334478888 0 -0.010776802234075591 -0.006177248631387377 0 -0.011425652460406364 -0.005174028633073713 0 -0.012040967690620789 -0.0060283902720699402 0 -0.012934356221136704 -0.005355705492655123 0 -0.011425652460406364 -0.005174028633073713 0 -0.012040967690620789 -0.0060283902720699402 0 -0.013010557843393609 -0.0063133021753580924 0 -0.012040967690620789 -0.0060283902720699402 0 -0.011519073450114832 -0.0070636904750437622 0 -0.010776802234075591 -0.006177248631387377 0 -0.012040967690620789 -0.0060283902720699402 0 -0.011519073450114832 -0.0070636904750437622 0 -0.011734665059238886 -0.0083539310778965141 0 -0.01049820743673929 -0.007390662446600171 0 -0.012033348816310161 -0.0065070060425531573 0 -0.013207204607712497 -0.0075803078732592337 0 -0.011734665059238886 -0.0083539310778965141 0 -0.012033348816310161 -0.0065070060425531573 0 0.0027130300360281002 -0.0036388105303530576 0 0.0018659786831570499 -0.0038656440299944376 0 0.0011127830486187271 -0.0032371489460324512 0 0.0023290124022323751 -0.0042060743005112077 0 0.0027478693355936792 -0.0038745890308733918 0 0.002672512912777807 -0.0045919382559062661 0 0.0023290124022323751 -0.0042060743005112077 0 0.0027130300360281002 -0.0036388105303530576 0 0.0018659786831570499 -0.0038656440299944376 0 0.0023290124022323751 -0.0042060743005112077 0 0.0027478693355936792 -0.0038745890308733918 0 0.0027130300360281002 -0.0036388105303530576 0 0.0024293405738252008 -0.0051229190020847517 0 0.0024913947446221804 -0.006251922246861324 0 0.0024913947446221804 -0.006251922246861324 0 0.0084198206579298423 -0.0034011361458538632 0 0.0085810078679680706 -0.0010970267276837239 0 0.0088402616150702312 -0.0016103780270060161 0 0.0082983371345469702 -0.0015654127701052729 0 0.0027478693355936792 -0.0038745890308733918 0 0.0027192564071625643 -0.0036445537433603503 0 0.0031785031236190335 -0.0037600288177618377 0 0.0027478693355936792 -0.0038745890308733918 0 0.0031785031236190335 -0.0037600288177618377 0 0.002672512912777807 -0.0045919382559062661 0 0.0084198206579298423 -0.0034011361458538632 0 0.0054341517682911285 -0.0031772539851307059 0 0.0085063780426031434 -0.0019656963218337986 0 0.0088402616150702312 -0.0016103780270060161 0 0.0082983371345469702 -0.0015654127701052729 0 0.0089305230394503658 -0.0019649646458802612 0 0.0085063780426031434 -0.0019656963218337986 0 0.0088402616150702312 -0.0016103780270060161 0 0.0021990027568713107 -0.0054100599228467773 0 0.0023290124022323751 -0.0042060743005112077 0 0.002672512912777807 -0.0045919382559062661 0 0.0021990027568713107 -0.0054100599228467773 0 0.0023290124022323751 -0.0042060743005112077 0 0.0013120018044720915 -0.0043742970137569618 0 0.0033024798668241004 -0.0023697303777834126 0 0.0054341517682911285 -0.0031772539851307059 0 0.0080138722962835654 -0.0020169409500264057 0 0.0085063780426031434 -0.0019656963218337986 0 0.0082983371345469702 -0.0015654127701052729 0 0.00011254783386769925 -0.0016594770674957784 0 0.00012880673896796427 -0.0016893977043619462 0 0.00010346352742007014 -0.001716060178331354 0 0.0033024798668241004 -0.0023697303777834126 0 0.00045336560098417113 -0.0030720472702565182 0 0.00011254783386769925 -0.0016594770674957784 0 9.8264019591310812e-05 -0.0016517276616802737 0 0.00010346352742007014 -0.001716060178331354 0 -0.0030943090335006735 -0.0003813832265783867 0 -0.0030957948850294141 -0.00050554241474056003 0 -0.0031978489141737489 -0.00044192280810136846 0 0.00012880673896796427 -0.0016893977043619462 0 0.00011572727859936648 -0.0017366845996216202 0 0.00010346352742007014 -0.001716060178331354 0 -0.0018411984173737498 -0.0020891085352977971 0 -0.0015504323052136732 -0.0012651397599675541 0 -0.0030957948850294141 -0.00050554241474056003 0 -0.0031194649634388896 -0.00067578406726828753 0 -0.0031978489141737489 -0.00044192280810136846 0 0.0013120018044720915 -0.0043742970137569618 0 0.0011127830486187271 -0.0032371489460324512 0 0.00036929648185692721 -0.0033145356362659635 0 0.00045336560098417113 -0.0030720472702565182 0 0.00022658781444731581 -0.0028418344728785958 0 0.00011572727859936648 -0.0017366845996216202 0 0.00010346352742007014 -0.001716060178331354 0 0.00010992291148769554 -0.0017758260458494953 0 0.00012590451488893361 -0.0017564358064766166 0 0.00012880673896796427 -0.0016893977043619462 0 0.00011572727859936648 -0.0017366845996216202 0 0.00012590451488893361 -0.0017564358064766166 0 0.00011572727859936648 -0.0017366845996216202 0 0.00011463204791544174 -0.0017593295129306877 0 0.00011572727859936648 -0.0017366845996216202 0 0.00011463204791544174 -0.0017593295129306877 0 0.00010992291148769554 -0.0017758260458494953 0 -0.0018411984173737498 -0.0020891085352977971 0 -0.00051873864999641881 -0.0018429928542033473 0 0.0023290124022323751 -0.0042060743005112077 0 0.0013120018044720915 -0.0043742970137569618 0 0.0018659786831570499 -0.0038656440299944376 0 0.0013120018044720915 -0.0043742970137569618 0 0.0018659786831570499 -0.0038656440299944376 0 0.0011127830486187271 -0.0032371489460324512 0 -0.0015928160402600331 -0.0092638831158680952 0 -0.001630127354213897 -0.0092479689890237245 0 -0.0016038747409530222 -0.0092939836868357988 0 -0.0015928160402600331 -0.0092638831158680952 0 -0.0016038747409530222 -0.0092939836868357988 0 -0.0016027690125946061 -0.0092667981199636793 0 -0.0005511206860793306 -0.0028505201585348567 0 0.0011127830486187271 -0.0032371489460324512 0 0.0002824853161951983 -0.0032205786589005422 0 -0.0018712619702794951 -0.0060949911345662879 0 -0.00048595182624356579 -0.0062419970129475146 0 -0.0016977602340846041 -0.0092491230561169372 0 -0.0015928160402600331 -0.0092638831158680952 0 -0.001630127354213897 -0.0092479689890237245 0 -0.00026236811465363822 -0.0034323203509095419 0 0.00036518817656655544 -0.0033240562356008562 0 0.0002824853161951983 -0.0032205786589005422 0 0.00010827257176508281 -0.0017735799143236235 0 0.00011463204791544174 -0.0017593295129306877 0 0.00010992291148769554 -0.0017758260458494953 0 -0.00181682771912843 -0.003609608298569916 0 0.00022658781444731581 -0.0028418344728785958 0 0.00022658781444731581 -0.0028418344728785958 0 0.00025769851777313009 -0.0028946851814970163 0 0.0011127830486187271 -0.0032371489460324512 0 0.00036929648185692721 -0.0033145356362659635 0 0.0002824853161951983 -0.0032205786589005422 0 -0.0016226875561267315 -0.0094137643870084477 0 -0.0016038747409530222 -0.0092939836868357988 0 -0.0016176560705412958 -0.0093910685914809777 0 -0.0014860398650080827 -0.0093619693875448464 0 -0.0016772775401994815 -0.0092809608320844721 0 -0.001630127354213897 -0.0092479689890237245 0 -0.0016410793042003758 -0.0092100933645481234 0 -0.0016038747409530222 -0.0092939836868357988 0 -0.0016834092785230725 -0.0092185046918035942 0 -0.001630127354213897 -0.0092479689890237245 0 -0.0016410793042003758 -0.0092100933645481234 0 -0.0016038747409530222 -0.0092939836868357988 0 -0.001631780447406146 -0.0092989417439893838 0 -0.0016347561301852628 -0.0093447260970998293 0 -0.0016038747409530222 -0.0092939836868357988 0 -0.001631780447406146 -0.0092989417439893838 0 -0.0016027690125946061 -0.0092667981199636793 0 0.0090152764790637652 -0.0051927760767683873 0 0.0089687111042164157 -0.0044507041620766409 0 0.0092581212701490206 -0.0048178563312726175 0 0.0024913947446221804 -0.006251922246861324 0 0.0038571095322398889 -0.0070903666028822865 0 0.0024913947446221804 -0.006251922246861324 0 -0.00048595182624356579 -0.0062419970129475146 0 -0.0015869020342173879 -0.0092172483359600887 0 -0.001631780447406146 -0.0092989417439893838 0 -0.0016027690125946061 -0.0092667981199636793 0 -0.0015869020342173879 -0.0092172483359600887 0 -0.0015928160402600331 -0.0092638831158680952 0 -0.0016027690125946061 -0.0092667981199636793 0 0.0096382715114303533 -0.0045925566903165446 0 0.0092324506867729923 -0.0052427179486061078 0 0.0092581212701490206 -0.0048178563312726175 0 0.0090152764790637652 -0.0051927760767683873 0 0.0092324506867729923 -0.0052427179486061078 0 0.0092581212701490206 -0.0048178563312726175 0 0.010455238517976116 -0.0040223993967119622 0 0.0084198206579298423 -0.0034011361458538632 0 0.0096382715114303533 -0.0045925566903165446 0 0.0089687111042164157 -0.0044507041620766409 0 0.0094164444900247061 -0.0040703441415765622 0 0.0096382715114303533 -0.0045925566903165446 0 0.0089687111042164157 -0.0044507041620766409 0 0.0092581212701490206 -0.0048178563312726175 0 0.0089901910577442935 -0.0038199135741983042 0 0.0092655955580420619 -0.0035649916324386765 0 0.0095699310654824496 -0.003688728403198116 0 0.0094164444900247061 -0.0040703441415765622 0 0.0089901910577442935 -0.0038199135741983042 0 0.0095699310654824496 -0.003688728403198116 0 0.0038571095322398889 -0.0070903666028822865 0 0.0035917756248168308 -0.0066792909996017859 0 0.0089687111042164157 -0.0044507041620766409 0 0.0094164444900247061 -0.0040703441415765622 0 0.0089901910577442935 -0.0038199135741983042 0 -0.001631780447406146 -0.0092989417439893838 0 -0.0016770495584503165 -0.009409289336169779 0 -0.0016347561301852628 -0.0093447260970998293 0 -0.0016038747409530222 -0.0092939836868357988 0 -0.0016272781507225035 -0.0093781437527972605 0 -0.0016176560705412958 -0.0093910685914809777 0 -0.0016038747409530222 -0.0092939836868357988 0 -0.0016347561301852628 -0.0093447260970998293 0 -0.0016272781507225035 -0.0093781437527972605 0 -0.0016770495584503165 -0.009409289336169779 0 -0.0016347561301852628 -0.0093447260970998293 0 -0.0016272781507225035 -0.0093781437527972605 0 -0.0016176560705412958 -0.0093910685914809777 0 -0.001638717093666323 -0.0093793053711317895 0 -0.0016556166882071869 -0.0094205227124985989 0 -0.0016226875561267315 -0.0094137643870084477 0 -0.0016176560705412958 -0.0093910685914809777 0 -0.0016556166882071869 -0.0094205227124985989 0 -0.0016272781507225035 -0.0093781437527972605 0 -0.0016176560705412958 -0.0093910685914809777 0 -0.0016277386936029508 -0.0093885350185786247 0 -0.0016277386936029508 -0.0093885350185786247 0 -0.001638717093666323 -0.0093793053711317895 0 -0.001632954786687668 -0.0093852595940418886 0 -0.0016176560705412958 -0.0093910685914809777 0 -0.0016277386936029508 -0.0093885350185786247 0 -0.001638717093666323 -0.0093793053711317895 0 -0.0016272781507225035 -0.0093781437527972605 0 -0.0016277386936029508 -0.0093885350185786247 0 -0.0016449680834603199 -0.0094434156715464609 0 -0.0016277386936029508 -0.0093885350185786247 0 -0.001632954786687668 -0.0093852595940418886 0 -0.0016449680834603199 -0.0094434156715464609 0 -0.001632954786687668 -0.0093852595940418886 0 -0.0016449680834603199 -0.0094434156715464609 0 -0.0016236510756521241 -0.0094634268949675571 0 -0.0016770495584503165 -0.009409289336169779 0 -0.0016272781507225035 -0.0093781437527972605 0 -0.0016449680834603199 -0.0094434156715464609 0 -0.0016770495584503165 -0.009409289336169779 0 -0.0016449680834603199 -0.0094434156715464609 0 -0.0016948340506344555 -0.0095717791783278376 0 -0.0016449680834603199 -0.0094434156715464609 0 -0.0016345112865597401 -0.0095372667767615951 0 -0.0016948340506344555 -0.0095717791783278376 0 -0.0016345112865597401 -0.0095372667767615951 0 -0.0016236510756521241 -0.0094634268949675571 0 -0.0015832345217229569 -0.0095768548234997728 0 -0.0016449680834603199 -0.0094434156715464609 0 -0.0016345112865597401 -0.0095372667767615951 0 -0.0016236510756521241 -0.0094634268949675571 0 -0.0016345112865597401 -0.0095372667767615951 0 -0.0016429496550156271 -0.0096355658611124821 0 -0.0015832345217229569 -0.0095768548234997728 0 -0.0016345112865597401 -0.0095372667767615951 0 -0.0016429496550156271 -0.0096355658611124821 0 -0.0016948340506344555 -0.0095717791783278376 0 -0.0016429496550156271 -0.0096355658611124821 0 -0.0016948340506344555 -0.0095717791783278376 0 -0.0016419637548211394 -0.0096977165213386913 0 0.0090124326546576344 -0.0034489702304672304 0 0.0092929532890854288 -0.0034100938521768307 0 0.0092655955580420619 -0.0035649916324386765 0 0.0090124326546576344 -0.0034489702304672304 0 0.0092929532890854288 -0.0034100938521768307 0 0.0091674037785585468 -0.0033157945438306744 0 0.0092929532890854288 -0.0034100938521768307 0 0.0093493800256001219 -0.0032938367000176264 0 0.0091674037785585468 -0.0033157945438306744 0 0.0092929532890854288 -0.0034100938521768307 0 0.0093493800256001219 -0.0032938367000176264 0 0.009459548573968057 -0.0033633138002317443 0 0.0092929532890854288 -0.0034100938521768307 0 0.009459548573968057 -0.0033633138002317443 0 0.0095025904841604791 -0.003487136026686378 0 0.0092655955580420619 -0.0035649916324386765 0 0.0095025904841604791 -0.003487136026686378 0 0.0095699310654824496 -0.003688728403198116 0 0.0092929532890854288 -0.0034100938521768307 0 0.0092655955580420619 -0.0035649916324386765 0 0.0095025904841604791 -0.003487136026686378 0 0.0035917756248168308 -0.0066792909996017859 0 0.0039733549695362977 -0.0060254229485571355 0 0.0089901910577442935 -0.0038199135741983042 0 0.0090124326546576344 -0.0034489702304672304 0 0.0092655955580420619 -0.0035649916324386765 0 -0.0052424510256029707 -0.0083295171476224662 0 -0.0051165847786465444 -0.0098247893783023153 0 -0.0041376479061166664 -0.0090509404106494731 0 -0.0052424510256029707 -0.0083295171476224662 0 -0.0041376479061166664 -0.0090509404106494731 0 -0.004509025407114696 -0.0077020218301523669 0 -0.0064385167498292074 -0.008153113481170279 0 -0.0052424510256029707 -0.0083295171476224662 0 -0.0051165847786465444 -0.0098247893783023153 0 -0.012383958518437684 -0.0042548419930496344 0 -0.011415786392553754 -0.003537363166966605 0 -0.011605965961427905 -0.0039472580057392879 0 -0.012383958518437684 -0.0042548419930496344 0 -0.011605965961427905 -0.0039472580057392879 0 -0.011266999632658462 -0.0043856633334478888 0 -0.012383958518437684 -0.0042548419930496344 0 -0.011425652460406364 -0.005174028633073713 0 -0.011266999632658462 -0.0043856633334478888 0 -0.011415786392553754 -0.003537363166966605 0 -0.011605965961427905 -0.0039472580057392879 0 -0.011266999632658462 -0.0043856633334478888 0 -0.011415786392553754 -0.003537363166966605 0 -0.010577932390963119 -0.0045034290607008478 0 -0.011266999632658462 -0.0043856633334478888 0 -0.0051165847786465444 -0.0098247893783023153 0 -0.0037159188078469008 -0.01019015597759291 0 -0.0041376479061166664 -0.0090509404106494731 0 -0.011415786392553754 -0.003537363166966605 0 -0.010577932390963119 -0.0045034290607008478 0 -0.0092916900268106145 -0.0040643292166058602 0 -0.00886151722531444 -0.008091845021683074 0 -0.0065501304236441201 -0.0070370720309171769 0 -0.0037159188078469008 -0.01019015597759291 0 -0.0041376479061166664 -0.0090509404106494731 0 -0.0029862358703610535 -0.0095190259151885885 0 -0.0041376479061166664 -0.0090509404106494731 0 -0.0029870030584809178 -0.0085100527222421 0 -0.004509025407114696 -0.0077020218301523669 0 -0.0041376479061166664 -0.0090509404106494731 0 -0.0029870030584809178 -0.0085100527222421 0 -0.0029862358703610535 -0.0095190259151885885 0 -0.0029870030584809178 -0.0085100527222421 0 -0.001626625067171673 -0.0093219603420302884 0 -0.0020594184030838058 -0.0092159954069271476 0 -0.0021993208302640891 -0.0090242339797268617 0 -0.0016827068364433369 -0.0092932190158540994 0 -0.0029870030584809178 -0.0085100527222421 0 -0.0029862358703610535 -0.0095190259151885885 0 -0.0020594184030838058 -0.0092159954069271476 0 -0.0037159188078469008 -0.01019015597759291 0 -0.0029862358703610535 -0.0095190259151885885 0 -0.0024629244001278684 -0.010299051528224657 0 -0.0023525052158708888 -0.010526309639559146 0 -0.0037159188078469008 -0.01019015597759291 0 -0.0024629244001278684 -0.010299051528224657 0 -0.0042005233525111846 -0.0080897507735455676 0 -0.0065501304236441201 -0.0070370720309171769 0 -0.0020971649929619383 -0.01059335691685627 0 -0.0024629244001278684 -0.010299051528224657 0 -0.0024022776577188308 -0.0098513001696079096 0 -0.0020971649929619383 -0.01059335691685627 0 -0.0023577671990780169 -0.010519955157707952 0 -0.0024629244001278684 -0.010299051528224657 0 -0.0042005233525111846 -0.0080897507735455676 0 -0.003654840936239509 -0.0090572753456330795 0 -0.0029862358703610535 -0.0095190259151885885 0 -0.0024629244001278684 -0.010299051528224657 0 -0.0024022776577188308 -0.0098513001696079096 0 -0.0029862358703610535 -0.0095190259151885885 0 -0.0024022776577188308 -0.0098513001696079096 0 -0.0020594184030838058 -0.0092159954069271476 0 -0.0017783775876553478 -0.0093984289916019589 0 -0.001626625067171673 -0.0093219603420302884 0 -0.0020594184030838058 -0.0092159954069271476 0 -0.0020971649929619383 -0.01059335691685627 0 -0.0024022776577188308 -0.0098513001696079096 0 -0.0020594184030838058 -0.0092159954069271476 0 -0.0017577786060117505 -0.0095516244267674719 0 -0.0017783775876553478 -0.0093984289916019589 0 -0.0020594184030838058 -0.0092159954069271476 0 -0.0025967851926035528 -0.0090227442952659845 0 -0.0019615947699093161 -0.0096507606632834451 0 -0.0017577786060117505 -0.0095516244267674719 0 -0.0017783775876553478 -0.0093984289916019589 0 -0.001712994924180251 -0.0094678479457016192 0 -0.0016226875561267315 -0.0094137643870084477 0 -0.001712994924180251 -0.0094678479457016192 0 -0.0016556166882071869 -0.0094205227124985989 0 -0.001712994924180251 -0.0094678479457016192 0 -0.0016556166882071869 -0.0094205227124985989 0 -0.0016839819591959859 -0.0093894239029977244 0 -0.0017783775876553478 -0.0093984289916019589 0 -0.001712994924180251 -0.0094678479457016192 0 -0.0016839819591959859 -0.0093894239029977244 0 -0.001638717093666323 -0.0093793053711317895 0 -0.0016556166882071869 -0.0094205227124985989 0 -0.0016839819591959859 -0.0093894239029977244 0 -0.0017783775876553478 -0.0093984289916019589 0 -0.0016839819591959859 -0.0093894239029977244 0 -0.001626625067171673 -0.0093219603420302884 0 -0.001638717093666323 -0.0093793053711317895 0 -0.0016839819591959859 -0.0093894239029977244 0 -0.001626625067171673 -0.0093219603420302884 0 -0.0014457145151127214 -0.0095118582294298724 0 -0.001626625067171673 -0.0093219603420302884 0 -0.0015572409839067554 -0.0095037710572079825 0 -0.001638717093666323 -0.0093793053711317895 0 -0.001632954786687668 -0.0093852595940418886 0 -0.001626625067171673 -0.0093219603420302884 0 -0.001632954786687668 -0.0093852595940418886 0 -0.001626625067171673 -0.0093219603420302884 0 -0.0016236510756521241 -0.0094634268949675571 0 -0.001626625067171673 -0.0093219603420302884 0 -0.0016236510756521241 -0.0094634268949675571 0 -0.0015572409839067554 -0.0095037710572079825 0 -0.0016236510756521241 -0.0094634268949675571 0 -0.0015572409839067554 -0.0095037710572079825 0 -0.0015832345217229569 -0.0095768548234997728 0 -0.0015572409839067554 -0.0095037710572079825 0 -0.0015832345217229569 -0.0095768548234997728 0 -0.0014871314117252854 -0.0096155982773403099 0 -0.0015832345217229569 -0.0095768548234997728 0 -0.0015422972562792699 -0.0096893243618174675 0 -0.0014871314117252854 -0.0096155982773403099 0 -0.0016429496550156271 -0.0096355658611124821 0 -0.0015422972562792699 -0.0096893243618174675 0 -0.0016065792444610446 -0.0097789006772424688 0 -0.0016429496550156271 -0.0096355658611124821 0 -0.0015832345217229569 -0.0095768548234997728 0 -0.0015422972562792699 -0.0096893243618174675 0 -0.0015422972562792699 -0.0096893243618174675 0 -0.0014187962601396016 -0.0097465634165328826 0 -0.0014590033700752768 -0.0098243183525694444 0 -0.0015422972562792699 -0.0096893243618174675 0 -0.0014187962601396016 -0.0097465634165328826 0 -0.0014871314117252854 -0.0096155982773403099 0 -0.0014457145151127214 -0.0095118582294298724 0 -0.0015572409839067554 -0.0095037710572079825 0 -0.0014871314117252854 -0.0096155982773403099 0 -0.0014457145151127214 -0.0095118582294298724 0 -0.0014871314117252854 -0.0096155982773403099 0 -0.0013637590936476853 -0.0096816386663696533 0 -0.0021993208302640891 -0.0090242339797268617 0 -0.0030429628437522531 -0.0086670079882970406 0 -0.0014187962601396016 -0.0097465634165328826 0 -0.0014871314117252854 -0.0096155982773403099 0 -0.0013637590936476853 -0.0096816386663696533 0 -0.0014187962601396016 -0.0097465634165328826 0 -0.0013689111805033618 -0.0098164414472812472 0 -0.0013637590936476853 -0.0096816386663696533 0 -0.0014187962601396016 -0.0097465634165328826 0 -0.0013689111805033618 -0.0098164414472812472 0 -0.0013791293619164447 -0.0098460414671014442 0 -0.0013817799313065289 -0.009811807520335121 0 -0.0013689111805033618 -0.0098164414472812472 0 -0.0013844488479632527 -0.0098644547617695484 0 -0.0013817799313065289 -0.009811807520335121 0 -0.0013689111805033618 -0.0098164414472812472 0 -0.0013637590936476853 -0.0096816386663696533 0 -0.0031198741756786872 -0.0083112552172816268 0 -0.0030429628437522531 -0.0086670079882970406 0 -0.0059945267931618062 -0.0069370055209801136 0 -0.0052424510256029707 -0.0083295171476224662 0 -0.004509025407114696 -0.0077020218301523669 0 -0.0013711480709061698 -0.0099066327772387944 0 -0.0013792360512545258 -0.0099120454961360988 0 -0.0014013323439895204 -0.0099101893608617084 0 -0.0013844488479632527 -0.0098644547617695484 0 -0.0013711480709061698 -0.0099066327772387944 0 -0.0014013323439895204 -0.0099101893608617084 0 -0.0013689111805033618 -0.0098164414472812472 0 -0.0013844488479632527 -0.0098644547617695484 0 -0.0013711480709061698 -0.0099066327772387944 0 -0.0013689111805033618 -0.0098164414472812472 0 -0.0013791293619164447 -0.0098460414671014442 0 -0.0013711480709061698 -0.0099066327772387944 0 -0.0013791293619164447 -0.0098460414671014442 0 -0.0013297650498211462 -0.0099613033420571755 0 -0.0013711480709061698 -0.0099066327772387944 0 -0.0013297650498211462 -0.0099613033420571755 0 -0.0013711480709061698 -0.0099066327772387944 0 -0.0013792360512545258 -0.0099120454961360988 0 -0.0013207440902632836 -0.0099795536110214734 0 -0.0012899691504754994 -0.010138703584252541 0 -0.0013297650498211462 -0.0099613033420571755 0 -0.0013936106688012657 -0.010257663516247392 0 -0.0011480156639870522 -0.010302006508804076 0 -0.0013297650498211462 -0.0099613033420571755 0 -0.0015081971540326451 -0.010017175931292316 0 -0.0013936106688012657 -0.010257663516247392 0 -0.0015081971540326451 -0.010017175931292316 0 -0.0015885290066308966 -0.010280013805983082 0 -0.0013936106688012657 -0.010257663516247392 0 -0.0013297650498211462 -0.0099613033420571755 0 -0.0014590033700752768 -0.0098243183525694444 0 -0.0015081971540326451 -0.010017175931292316 0 -0.0013791293619164447 -0.0098460414671014442 0 -0.0013297650498211462 -0.0099613033420571755 0 -0.0014590033700752768 -0.0098243183525694444 0 -0.0014187962601396016 -0.0097465634165328826 0 -0.0013791293619164447 -0.0098460414671014442 0 -0.0014590033700752768 -0.0098243183525694444 0 -0.0016065792444610446 -0.0097789006772424688 0 -0.0015081971540326451 -0.010017175931292316 0 -0.0017289025397257416 -0.010090344310121995 0 -0.0015422972562792699 -0.0096893243618174675 0 -0.0014590033700752768 -0.0098243183525694444 0 -0.0016065792444610446 -0.0097789006772424688 0 -0.0014590033700752768 -0.0098243183525694444 0 -0.0016065792444610446 -0.0097789006772424688 0 -0.0015081971540326451 -0.010017175931292316 0 -0.0015081971540326451 -0.010017175931292316 0 -0.0015885290066308966 -0.010280013805983082 0 -0.0017289025397257416 -0.010090344310121995 0 -0.0015885290066308966 -0.010280013805983082 0 -0.0014704352421248961 -0.010511439312558959 0 -0.0017489332230512832 -0.010597586630741783 0 -0.0015990507208860189 -0.010751090700458607 0 -0.0014704352421248961 -0.010511439312558959 0 -0.0017489332230512832 -0.010597586630741783 0 -0.0015990507208860189 -0.010751090700458607 0 -0.0013236554536964873 -0.010679806893807011 0 -0.0014704352421248961 -0.010511439312558959 0 -0.001789214712450928 -0.010966306260777259 0 -0.00053766157160483816 -0.010923312862115366 0 -0.0013236554536964873 -0.010679806893807011 0 -0.0014704352421248961 -0.010511439312558959 0 -0.0012507441905097523 -0.01049380866571354 0 -0.0014704352421248961 -0.010511439312558959 0 -0.0013936106688012657 -0.010257663516247392 0 -0.0012507441905097523 -0.01049380866571354 0 -0.0015885290066308966 -0.010280013805983082 0 -0.0014704352421248961 -0.010511439312558959 0 -0.0013936106688012657 -0.010257663516247392 0 -0.0013936106688012657 -0.010257663516247392 0 -0.0011480156639870522 -0.010302006508804076 0 -0.0012507441905097523 -0.01049380866571354 0 -0.0011480156639870522 -0.010302006508804076 0 -0.0012507441905097523 -0.01049380866571354 0 -0.001074222907867796 -0.010571135099888607 0 -0.0012899691504754994 -0.010138703584252541 0 -0.0029761643170085708 -0.010785828058885963 0 -0.00053766157160483816 -0.010923312862115366 0 -0.0046919986176044244 -0.011007513178766776 0 -0.0012718567741154976 -0.011234579445844439 0 -0.00059291997267820428 -0.011131982803079553 0 -0.00097524404714990638 -0.011624701633950891 0 -0.0013236554536964873 -0.010679806893807011 0 -0.0012507441905097523 -0.01049380866571354 0 -0.0011029045132698483 -0.010602339232609547 0 -0.0013236554536964873 -0.010679806893807011 0 -0.0011029045132698483 -0.010602339232609547 0 -0.0010535407165737506 -0.010657386427413163 0 -0.0011029045132698483 -0.010602339232609547 0 -0.0010845717617490986 -0.010577496084251705 0 -0.0010535407165737506 -0.010657386427413163 0 -0.0029761643170085708 -0.010785828058885963 0 -0.0046919986176044244 -0.011007513178766776 0 -0.0012507441905097523 -0.01049380866571354 0 -0.0011029045132698483 -0.010602339232609547 0 -0.001074222907867796 -0.010571135099888607 0 -0.0027087049202964789 -0.010600311425422256 0 -0.0029761643170085708 -0.010785828058885963 0 -0.0099496838857358917 -0.010471705408073836 0 -0.0079184703789278287 -0.01036271656464197 0 -0.0088850872231473078 -0.011098332106918973 0 -0.010633152625058163 -0.011471880579978984 0 -0.0091771832467233763 -0.011467461179695786 0 -0.009917322998744333 -0.011048677951223199 0 -0.0077161851996646611 -0.010873367405972122 0 -0.0079184703789278287 -0.01036271656464197 0 -0.0088850872231473078 -0.011098332106918973 0 -0.011107517575053624 -0.010980618339583388 0 -0.0046919986176044244 -0.011007513178766776 0 -0.0029761643170085708 -0.010785828058885963 0 -0.0053425308163544925 -0.011089893696718188 0 -0.0077161851996646611 -0.010873367405972122 0 -0.0088850872231473078 -0.011098332106918973 0 -0.0089268052614102453 -0.012233543943747337 0 -0.0013792360512545258 -0.0099120454961360988 0 -0.0013994459009443827 -0.0099182436655234386 0 -0.0014013323439895204 -0.0099101893608617084 0 0.0054141846468032688 -0.0084513741546876006 0 0.0011910140430199867 -0.0087572736748397322 0 0.00053204505915990102 -0.014180321050412203 0 -0.0016516079700498508 -0.014837359195779391 0 -0.00038931184263298058 -0.012716924526775426 0 0.009203086551491586 -0.0030945737694920779 0 0.009229501281520008 -0.0032108157640933026 0 0.0089332032614947866 -0.0031942875149501672 0 0.009203086551491586 -0.0030945737694920779 0 0.0094521684209669995 -0.0030345303945553642 0 0.0094140926281535801 -0.003177372955794002 0 0.0054141846468032688 -0.0084513741546876006 0 0.0057534491322898326 -0.0093929067345038149 0 0.009203086551491586 -0.0030945737694920779 0 0.009229501281520008 -0.0032108157640933026 0 0.0094140926281535801 -0.003177372955794002 0 0.009229501281520008 -0.0032108157640933026 0 0.0093493800256001219 -0.0032938367000176264 0 0.0094140926281535801 -0.003177372955794002 0 0.009229501281520008 -0.0032108157640933026 0 0.0093493800256001219 -0.0032938367000176264 0 0.0091674037785585468 -0.0033157945438306744 0 0.0090124326546576344 -0.0034489702304672304 0 0.0091674037785585468 -0.0033157945438306744 0 0.0089332032614947866 -0.0031942875149501672 0 0.0039733549695362977 -0.0060254229485571355 0 0.0011910140430199867 -0.0087572736748397322 0 0.009229501281520008 -0.0032108157640933026 0 0.0091674037785585468 -0.0033157945438306744 0 0.0089332032614947866 -0.0031942875149501672 0 -0.0016948340506344555 -0.0095717791783278376 0 -0.0016419637548211394 -0.0096977165213386913 0 -0.0016697311831913022 -0.0096885742111477834 0 -0.0023893332444333329 -0.010025516029151665 0 0.0011910140430199867 -0.0087572736748397322 0 -0.0013985311371996719 -0.0096950431852368454 0 -0.0023893332444333329 -0.010025516029151665 0 -0.0016065792444610446 -0.0097789006772424688 0 -0.0019334939456359551 -0.0099195340873186374 0 -0.0017289025397257416 -0.010090344310121995 0 -0.0016429496550156271 -0.0096355658611124821 0 -0.0016065792444610446 -0.0097789006772424688 0 -0.0016419637548211394 -0.0096977165213386913 0 -0.0015885290066308966 -0.010280013805983082 0 -0.0017289025397257416 -0.010090344310121995 0 -0.0018940635638705508 -0.010311322167145056 0 -0.0019334939456359551 -0.0099195340873186374 0 -0.0017289025397257416 -0.010090344310121995 0 -0.0018940635638705508 -0.010311322167145056 0 -0.0019334939456359551 -0.0099195340873186374 0 -0.0018940635638705508 -0.010311322167145056 0 -0.0022680652616440546 -0.010042868097759802 0 -0.0018940635638705508 -0.010311322167145056 0 -0.0022680652616440546 -0.010042868097759802 0 -0.0021774853065840917 -0.010670632812024855 0 0.0011910140430199867 -0.0087572736748397322 0 -0.0024516113140348331 -0.012067903185699062 0 -0.0018940635638705508 -0.010311322167145056 0 -0.0021774853065840917 -0.010670632812024855 0 -0.0017489332230512832 -0.010597586630741783 0 -0.0015885290066308966 -0.010280013805983082 0 -0.0018940635638705508 -0.010311322167145056 0 -0.0017489332230512832 -0.010597586630741783 0 -0.001789214712450928 -0.010966306260777259 0 -0.0018390273079901247 -0.010945123035123886 0 -0.0015990507208860189 -0.010751090700458607 0 -0.0017489332230512832 -0.010597586630741783 0 -0.001891523107210564 -0.010936282505213005 0 -0.0021774853065840917 -0.010670632812024855 0 -0.0017489332230512832 -0.010597586630741783 0 -0.001891523107210564 -0.010936282505213005 0 -0.0020017388903894422 -0.011751688692511359 0 -0.0016236786358023113 -0.010964571272848689 0 -0.001898873117344467 -0.011122764312501773 0 -0.0021774853065840917 -0.010670632812024855 0 -0.001891523107210564 -0.010936282505213005 0 -0.001898873117344467 -0.011122764312501773 0 -0.0024516113140348331 -0.012067903185699062 0 -0.0018534129859366305 -0.010767757518009183 0 -0.0016236786358023113 -0.010964571272848689 0 0.00036034602232867845 -0.01125173568220442 0 0.0010895847844892669 -0.009859472170445539 0 -0.0009071677314529767 -0.011637260728011372 0 -0.00038931184263298058 -0.012716924526775426 0 0.00036034602232867845 -0.01125173568220442 0 -0.0016236786358023113 -0.010964571272848689 0 -0.0009071677314529767 -0.011637260728011372 0 0.00036034602232867845 -0.01125173568220442 0 -0.0020017388903894422 -0.011751688692511359 0 -0.0016236786358023113 -0.010964571272848689 0 -0.0009071677314529767 -0.011637260728011372 0 -0.0016516079700498508 -0.014837359195779391 0 -0.0020017388903894422 -0.011751688692511359 0 -0.00038931184263298058 -0.012716924526775426 0 -0.0020017388903894422 -0.011751688692511359 0 -0.0009071677314529767 -0.011637260728011372 0 -0.00038931184263298058 -0.012716924526775426 0 0.00053204505915990102 -0.014180321050412203 0 0.0015952301892661134 -0.012725074377238936 0 0.0027818761018674003 -0.013468044714180599 0 -0.00038931184263298058 -0.012716924526775426 0 0.0015952301892661134 -0.012725074377238936 0 0.00036034602232867845 -0.01125173568220442 0 0.00053204505915990102 -0.014180321050412203 0 -0.00038931184263298058 -0.012716924526775426 0 0.0015952301892661134 -0.012725074377238936 0 0.0015952301892661134 -0.012725074377238936 0 0.0017833317994347254 -0.011379900244213245 0 0.00036034602232867845 -0.01125173568220442 0 0.0017833317994347254 -0.011379900244213245 0 0.00036034602232867845 -0.01125173568220442 0 0.0010895847844892669 -0.009859472170445539 0 0.0017833317994347254 -0.011379900244213245 0 0.0025680949749650262 -0.01025247783786346 0 0.0010895847844892669 -0.009859472170445539 0 0.0025680949749650262 -0.01025247783786346 0 0.0033877827187001898 -0.011854015265310928 0 0.0039144363506212875 -0.0096908287441289029 0 0.0017833317994347254 -0.011379900244213245 0 0.0025680949749650262 -0.01025247783786346 0 0.0033877827187001898 -0.011854015265310928 0 0.0059798464598804155 -0.011078006888281783 0 0.0033877827187001898 -0.011854015265310928 0 0.0039144363506212875 -0.0096908287441289029 0 0.0059798464598804155 -0.011078006888281783 0 0.0039144363506212875 -0.0096908287441289029 0 0.0058586850060050695 -0.0090822492022033935 0 0.0059798464598804155 -0.011078006888281783 0 0.0054036371936387355 -0.013019218592152366 0 0.0076311486561691207 -0.012208093130558147 0 0.0059798464598804155 -0.011078006888281783 0 0.0054036371936387355 -0.013019218592152366 0 0.0033877827187001898 -0.011854015265310928 0 0.0076858114345297341 -0.0070898302949058039 0 0.008082674624080818 -0.0069532806382942873 0 0.0077379094077365835 -0.0074982224523455531 0 0.006130127792394564 -0.010192718880135065 0 0.0057534491322898326 -0.0093929067345038149 0 0.0054036371936387355 -0.013019218592152366 0 0.0031521096942150701 -0.013788257960591419 0 0.0033877827187001898 -0.011854015265310928 0 0.0024127024833250944 -0.012051473820888598 0 0.0057534491322898326 -0.0093929067345038149 0 0.0015952301892661134 -0.012725074377238936 0 0.0031521096942150701 -0.013788257960591419 0 0.0033877827187001898 -0.011854015265310928 0 0.0015952301892661134 -0.012725074377238936 0 0.0017833317994347254 -0.011379900244213245 0 0.0033877827187001898 -0.011854015265310928 0 0.0075387751860244278 -0.0073946227567185984 0 0.0071635804697491642 -0.0082427953890217374 0 0.0084508592889434991 -0.0071541352022292037 0 0.0078700676486207714 -0.0085541318407263527 0 0.007301415343346951 -0.0074420402526051838 0 0.0075387751860244278 -0.0073946227567185984 0 0.0067035916268495602 -0.0078094029554918844 0 0.0072437149006562814 -0.0071651704787660175 0 0.0099991946335905614 -0.0059110821656985189 0 0.0078700676486207714 -0.0085541318407263527 0 0.0075387751860244278 -0.0073946227567185984 0 0.0071635804697491642 -0.0082427953890217374 0 0.0067035916268495602 -0.0078094029554918844 0 0.0078700676486207714 -0.0085541318407263527 0 0.0054824094582229593 -0.0083752782636101735 0 0.0059798464598804155 -0.011078006888281783 0 0.0084308442623976486 -0.010886345216640414 0 0.0058586850060050695 -0.0090822492022033935 0 0.0059798464598804155 -0.011078006888281783 0 0.0084308442623976486 -0.010886345216640414 0 0.0076311486561691207 -0.012208093130558147 0 0.0078700676486207714 -0.0085541318407263527 0 0.0088698887502453253 -0.0071852062327497496 0 0.0090059115075320426 -0.0070325021301112711 0 0.0088114659133096337 -0.0069014684392041149 0 0.0086540197552919616 -0.0071571360008694128 0 0.011156853691442528 -0.0034817550694047281 0 0.01122302708829764 -0.0034991022819607217 0 0.011192279591209662 -0.0035474641551090408 0 0.0088698887502453253 -0.0071852062327497496 0 0.0095909277852223689 -0.0038274122529959832 0 0.006130127792394564 -0.010192718880135065 0 0.0088698887502453253 -0.0071852062327497496 0 0.0099991946335905614 -0.0059110821656985189 0 0.01203264895119132 -0.0038801139612859845 0 0.01122302708829764 -0.0034991022819607217 0 0.011247726640178497 -0.003535064322973667 0 0.0113320295267731 -0.003485940646814214 0 0.011224399174062283 -0.0034542228970049645 0 0.01122302708829764 -0.0034991022819607217 0 0.0113320295267731 -0.003485940646814214 0 0.011224399174062283 -0.0034542228970049645 0 0.011156853691442528 -0.0034817550694047281 0 0.01122302708829764 -0.0034991022819607217 0 0.0099991946335905614 -0.0059110821656985189 0 0.0088698887502453253 -0.0071852062327497496 0 0.011244849180752662 -0.0035758513883536367 0 0.011192279591209662 -0.0035474641551090408 0 0.01121211880839763 -0.0036191254130496066 0 0.011247726640178497 -0.003535064322973667 0 0.011244849180752662 -0.0035758513883536367 0 0.011321459986156863 -0.0035580364655671843 0 0.01122302708829764 -0.0034991022819607217 0 0.011247726640178497 -0.003535064322973667 0 0.011192279591209662 -0.0035474641551090408 0 0.011247726640178497 -0.003535064322973667 0 0.011244849180752662 -0.0035758513883536367 0 0.011192279591209662 -0.0035474641551090408 0 0.011156853691442528 -0.0034817550694047281 0 0.011192279591209662 -0.0035474641551090408 0 0.011091988077438121 -0.0035772901467032618 0 0.011192279591209662 -0.0035474641551090408 0 0.01121211880839763 -0.0036191254130496066 0 0.011091988077438121 -0.0035772901467032618 0 0.011070814621784577 -0.0033480238136568423 0 0.0095909277852223689 -0.0038274122529959832 0 0.010650868734339073 -0.0031402663262109459 0 0.010001357626128724 -0.0027488055746911484 0 0.01013063077763781 -0.0031576111429696412 0 0.010650868734339073 -0.0031402663262109459 0 0.01013063077763781 -0.0031576111429696412 0 0.010022668803336097 -0.0035378174352079994 0 0.01121211880839763 -0.0036191254130496066 0 0.011263051211185581 -0.0036201265148725968 0 0.011286682814180892 -0.0035988279631773766 0 0.011244849180752662 -0.0035758513883536367 0 0.01121211880839763 -0.0036191254130496066 0 0.011286682814180892 -0.0035988279631773766 0 0.011244849180752662 -0.0035758513883536367 0 0.011286682814180892 -0.0035988279631773766 0 0.011321459986156863 -0.0035580364655671843 0 0.0094521684209669995 -0.0030345303945553642 0 0.0094140926281535801 -0.003177372955794002 0 0.0096617991379435129 -0.0031399074571624272 0 0.0076858114345297341 -0.0070898302949058039 0 0.0072848206314159118 -0.0072342848255920545 0 0.0077379094077365835 -0.0074982224523455531 0 0.0057534491322898326 -0.0093929067345038149 0 0.0095909277852223689 -0.0038274122529959832 0 0.010001357626128724 -0.0027488055746911484 0 0.01013063077763781 -0.0031576111429696412 0 0.0096203295270799027 -0.0033765130713611872 0 0.0095909277852223689 -0.0038274122529959832 0 0.0097643740538545659 -0.003001564971892997 0 0.0096617991379435129 -0.0031399074571624272 0 0.0094858848874836803 -0.0032849786781405481 0 0.0096203295270799027 -0.0033765130713611872 0 0.0094140926281535801 -0.003177372955794002 0 0.0096617991379435129 -0.0031399074571624272 0 0.0094858848874836803 -0.0032849786781405481 0 0.0093493800256001219 -0.0032938367000176264 0 0.0094140926281535801 -0.003177372955794002 0 0.0094858848874836803 -0.0032849786781405481 0 0.0093493800256001219 -0.0032938367000176264 0 0.0094858848874836803 -0.0032849786781405481 0 0.009459548573968057 -0.0033633138002317443 0 0.009459548573968057 -0.0033633138002317443 0 0.0096203295270799027 -0.0033765130713611872 0 0.010022668803336097 -0.0035378174352079994 0 0.009459548573968057 -0.0033633138002317443 0 0.0097168529137403575 -0.0034223196582749272 0 0.0099504581474639843 -0.0032483105983228348 0 0.0094858848874836803 -0.0032849786781405481 0 0.009459548573968057 -0.0033633138002317443 0 0.0096203295270799027 -0.0033765130713611872 0 0.0095111059665106811 -0.0033651017742529843 0 0.0099907832752160163 -0.0033945563870448384 0 0.009459548573968057 -0.0033633138002317443 0 0.0097168529137403575 -0.0034223196582749272 0 0.0095025904841604791 -0.003487136026686378 0 0.0095025904841604791 -0.003487136026686378 0 0.0097484315590847179 -0.0035370363192945894 0 0.0095699310654824496 -0.003688728403198116 0 0.0097484315590847179 -0.0035370363192945894 0 0.0095699310654824496 -0.003688728403198116 0 0.0099987122731036073 -0.0036531845980326788 0 0.0097168529137403575 -0.0034223196582749272 0 0.0095025904841604791 -0.003487136026686378 0 0.0097484315590847179 -0.0035370363192945894 0 0.0099499591024961986 -0.0034583935112092014 0 0.010106834587604143 -0.0035335494340492744 0 0.0099987122731036073 -0.0036531845980326788 0 0.0097484315590847179 -0.0035370363192945894 0 0.0099499591024961986 -0.0034583935112092014 0 0.0099987122731036073 -0.0036531845980326788 0 0.0097168529137403575 -0.0034223196582749272 0 0.0097484315590847179 -0.0035370363192945894 0 0.0099499591024961986 -0.0034583935112092014 0 0.0099499591024961986 -0.0034583935112092014 0 0.0099504581474639843 -0.0032483105983228348 0 0.010108215907320034 -0.0033721918544903449 0 0.01013063077763781 -0.0031576111429696412 0 0.0096203295270799027 -0.0033765130713611872 0 0.010022668803336097 -0.0035378174352079994 0 0.0097168529137403575 -0.0034223196582749272 0 0.0099499591024961986 -0.0034583935112092014 0 0.0099504581474639843 -0.0032483105983228348 0 0.010650868734339073 -0.0031402663262109459 0 0.010022668803336097 -0.0035378174352079994 0 0.01082962680920466 -0.003656347675196109 0 0.0099907832752160163 -0.0033945563870448384 0 0.010561454380505491 -0.0034270774468811794 0 0.0099504581474639843 -0.0032483105983228348 0 0.010278046015144867 -0.0032060253675934231 0 0.010108215907320034 -0.0033721918544903449 0 0.010650868734339073 -0.0031402663262109459 0 0.01082962680920466 -0.003656347675196109 0 0.011263051211185581 -0.0036201265148725968 0 0.011070814621784577 -0.0033480238136568423 0 0.011194360006227484 -0.003594966709276501 0 0.010278046015144867 -0.0032060253675934231 0 0.010263594281444868 -0.0034131336277443869 0 0.010472621452630764 -0.00332562060299563 0 0.010263594281444868 -0.0034131336277443869 0 0.010435994779252623 -0.003442432181987858 0 0.010472621452630764 -0.00332562060299563 0 0.010278046015144867 -0.0032060253675934231 0 0.010263594281444868 -0.0034131336277443869 0 0.010108215907320034 -0.0033721918544903449 0 0.010263594281444868 -0.0034131336277443869 0 0.010435994779252623 -0.003442432181987858 0 0.010225256104128222 -0.0035526242693789548 0 0.0099499591024961986 -0.0034583935112092014 0 0.010108215907320034 -0.0033721918544903449 0 0.010106834587604143 -0.0035335494340492744 0 0.010263594281444868 -0.0034131336277443869 0 0.010108215907320034 -0.0033721918544903449 0 0.010106834587604143 -0.0035335494340492744 0 0.010263594281444868 -0.0034131336277443869 0 0.010106834587604143 -0.0035335494340492744 0 0.010225256104128222 -0.0035526242693789548 0 0.010106834587604143 -0.0035335494340492744 0 0.010092864131806012 -0.0036657053987354626 0 0.010225256104128222 -0.0035526242693789548 0 0.010106834587604143 -0.0035335494340492744 0 0.010092864131806012 -0.0036657053987354626 0 0.0099987122731036073 -0.0036531845980326788 0 0.010435994779252623 -0.003442432181987858 0 0.010225256104128222 -0.0035526242693789548 0 0.010548192324014237 -0.0035236701163204459 0 0.010225256104128222 -0.0035526242693789548 0 0.010278980900992107 -0.0035899912831938176 0 0.010548192324014237 -0.0035236701163204459 0 0.010092864131806012 -0.0036657053987354626 0 0.010225256104128222 -0.0035526242693789548 0 0.010278980900992107 -0.0035899912831938176 0 0.010066294519366775 -0.0035948298265689026 0 0.010092864131806012 -0.0036657053987354626 0 0.010278980900992107 -0.0035899912831938176 0 0.0099988719097646242 -0.0036148549188200901 0 0.010066294519366775 -0.0035948298265689026 0 0.010092864131806012 -0.0036657053987354626 0 0.0099988719097646242 -0.0036148549188200901 0 0.010092864131806012 -0.0036657053987354626 0 0.010038903973989615 -0.003850507391565098 0 0.01023427446812278 -0.0034613588653274376 0 0.0099988719097646242 -0.0036148549188200901 0 0.010038903973989615 -0.003850507391565098 0 0.010455238517976116 -0.0040223993967119622 0 0.009995979161172246 -0.0038579207665331585 0 0.0096382715114303533 -0.0045925566903165446 0 0.0094164444900247061 -0.0040703441415765622 0 0.010038903973989615 -0.003850507391565098 0 0.0094164444900247061 -0.0040703441415765622 0 0.010038903973989615 -0.003850507391565098 0 0.0095699310654824496 -0.003688728403198116 0 0.010038903973989615 -0.003850507391565098 0 0.0095699310654824496 -0.003688728403198116 0 0.0099987122731036073 -0.0036531845980326788 0 0.010092864131806012 -0.0036657053987354626 0 0.010038903973989615 -0.003850507391565098 0 0.0099987122731036073 -0.0036531845980326788 0 0.01117085995578518 -0.0035756184529708111 0 0.010998553203391364 -0.0035049659534671803 0 0.011418835525915648 -0.003497325614256361 0 0.01117085995578518 -0.0035756184529708111 0 0.011512290374331158 -0.0035686489816262987 0 0.011418835525915648 -0.003497325614256361 0 0.011512290374331158 -0.0035686489816262987 0 0.011418835525915648 -0.003497325614256361 0 0.011628838022014852 -0.0035293539103359397 0 0.01117085995578518 -0.0035756184529708111 0 0.011512290374331158 -0.0035686489816262987 0 0.011352529734004326 -0.0036804242703632351 0 0.011512290374331158 -0.0035686489816262987 0 0.011352529734004326 -0.0036804242703632351 0 0.011657833662407661 -0.0036833095652225403 0 0.011027736186546873 -0.0036981813955754266 0 0.01117085995578518 -0.0035756184529708111 0 0.011352529734004326 -0.0036804242703632351 0 0.011027736186546873 -0.0036981813955754266 0 0.01117085995578518 -0.0035756184529708111 0 0.010635345346344235 -0.0036077242066408929 0 0.010278980900992107 -0.0035899912831938176 0 0.010635345346344235 -0.0036077242066408929 0 0.010548192324014237 -0.0035236701163204459 0 0.010066294519366775 -0.0035948298265689026 0 0.010278980900992107 -0.0035899912831938176 0 0.010635345346344235 -0.0036077242066408929 0 0.01117085995578518 -0.0035756184529708111 0 0.010635345346344235 -0.0036077242066408929 0 0.010998553203391364 -0.0035049659534671803 0 0.010548192324014237 -0.0035236701163204459 0 0.010998553203391364 -0.0035049659534671803 0 0.010728525513495049 -0.0034168884278967695 0 0.010635345346344235 -0.0036077242066408929 0 0.010548192324014237 -0.0035236701163204459 0 0.010998553203391364 -0.0035049659534671803 0 0.010998553203391364 -0.0035049659534671803 0 0.010728525513495049 -0.0034168884278967695 0 0.011390136150117183 -0.0034639868022662852 0 0.010728525513495049 -0.0034168884278967695 0 0.010714725358074228 -0.0031719801342345181 0 0.011390136150117183 -0.0034639868022662852 0 0.010435994779252623 -0.003442432181987858 0 0.010548192324014237 -0.0035236701163204459 0 0.010728525513495049 -0.0034168884278967695 0 0.010435994779252623 -0.003442432181987858 0 0.010728525513495049 -0.0034168884278967695 0 0.010472621452630764 -0.00332562060299563 0 0.010728525513495049 -0.0034168884278967695 0 0.010472621452630764 -0.00332562060299563 0 0.010714725358074228 -0.0031719801342345181 0 0.010561454380505491 -0.0034270774468811794 0 0.011072880237375887 -0.0034342943889032712 0 0.01082962680920466 -0.003656347675196109 0 0.011459888738517067 -0.0036858604919061573 0 0.011263051211185581 -0.0036201265148725968 0 0.010278046015144867 -0.0032060253675934231 0 0.010472621452630764 -0.00332562060299563 0 0.010714725358074228 -0.0031719801342345181 0 0.011459888738517067 -0.0036858604919061573 0 0.011385677620917009 -0.0036117422552834227 0 0.011263051211185581 -0.0036201265148725968 0 0.011072880237375887 -0.0034342943889032712 0 0.011343756843120676 -0.0034566840850475118 0 0.011459888738517067 -0.0036858604919061573 0 0.011456476209860946 -0.0036146021882975791 0 0.011390136150117183 -0.0034639868022662852 0 0.011459888738517067 -0.0036858604919061573 0 0.011385677620917009 -0.0036117422552834227 0 0.011456476209860946 -0.0036146021882975791 0 0.011456476209860946 -0.0036146021882975791 0 0.011390136150117183 -0.0034639868022662852 0 0.011603014744776255 -0.0037530479193734413 0 0.011390136150117183 -0.0034639868022662852 0 0.011607889246667025 -0.0035854815966333072 0 0.011603014744776255 -0.0037530479193734413 0 0.010998553203391364 -0.0035049659534671803 0 0.011390136150117183 -0.0034639868022662852 0 0.011418835525915648 -0.003497325614256361 0 0.011390136150117183 -0.0034639868022662852 0 0.011418835525915648 -0.003497325614256361 0 0.011607889246667025 -0.0035854815966333072 0 0.011418835525915648 -0.003497325614256361 0 0.011628838022014852 -0.0035293539103359397 0 0.011607889246667025 -0.0035854815966333072 0 0.011607889246667025 -0.0035854815966333072 0 0.011603014744776255 -0.0037530479193734413 0 0.011576009407383715 -0.0039769159255960114 0 0.011456476209860946 -0.0036146021882975791 0 0.011603014744776255 -0.0037530479193734413 0 0.011478947276577313 -0.0036437703503671925 0 0.011603014744776255 -0.0037530479193734413 0 0.011478947276577313 -0.0036437703503671925 0 0.011458332899103685 -0.0035412559839847566 0 0.011609679274519533 -0.0037542103902467009 0 0.011669689954827017 -0.0038160361491478534 0 0.011603014744776255 -0.0037530479193734413 0 0.011946620192991904 -0.0040974914271812608 0 0.011598624807689034 -0.004282284357420345 0 0.011603014744776255 -0.0037530479193734413 0 0.011576009407383715 -0.0039769159255960114 0 0.011598624807689034 -0.004282284357420345 0 0.011576009407383715 -0.0039769159255960114 0 0.011598624807689034 -0.004282284357420345 0 0.011496456720639765 -0.004446044682641241 0 0.011385677620917009 -0.0036117422552834227 0 0.011263051211185581 -0.0036201265148725968 0 0.011286682814180892 -0.0035988279631773766 0 0.011385677620917009 -0.0036117422552834227 0 0.011286682814180892 -0.0035988279631773766 0 0.011403161951920872 -0.0036113999689057958 0 0.011286682814180892 -0.0035988279631773766 0 0.011403161951920872 -0.0036113999689057958 0 0.011321459986156863 -0.0035580364655671843 0 0.011385677620917009 -0.0036117422552834227 0 0.011456476209860946 -0.0036146021882975791 0 0.011403161951920872 -0.0036113999689057958 0 0.011456476209860946 -0.0036146021882975791 0 0.011403161951920872 -0.0036113999689057958 0 0.011478947276577313 -0.0036437703503671925 0 0.011403161951920872 -0.0036113999689057958 0 0.011478947276577313 -0.0036437703503671925 0 0.011458332899103685 -0.0035412559839847566 0 0.011403161951920872 -0.0036113999689057958 0 0.011458332899103685 -0.0035412559839847566 0 0.011321459986156863 -0.0035580364655671843 0 0.011669689954827017 -0.0038160361491478534 0 0.01203264895119132 -0.0038801139612859845 0 0.011247726640178497 -0.003535064322973667 0 0.011321459986156863 -0.0035580364655671843 0 0.0113320295267731 -0.003485940646814214 0 0.011458332899103685 -0.0035412559839847566 0 0.011321459986156863 -0.0035580364655671843 0 0.0113320295267731 -0.003485940646814214 0 0.012737803180109497 -0.0047367984089460189 0 0.012341443790997069 -0.0044243161348924125 0 0.012357033329952282 -0.0046852684285948977 0 0.012341443790997069 -0.0044243161348924125 0 0.012357033329952282 -0.0046852684285948977 0 0.012104570680856824 -0.0046203447046189181 0 0.011946620192991904 -0.0040974914271812608 0 0.012104570680856824 -0.0046203447046189181 0 0.011740934540896648 -0.0046276800806740685 0 0.011946620192991904 -0.0040974914271812608 0 0.012341443790997069 -0.0044243161348924125 0 0.012104570680856824 -0.0046203447046189181 0 0.010706396952468635 -0.0061215146199960317 0 0.011324072743264765 -0.0054382732027819809 0 0.012104570680856824 -0.0046203447046189181 0 0.012226628214921053 -0.0049600133318045058 0 0.011740934540896648 -0.0046276800806740685 0 0.012226628214921053 -0.0049600133318045058 0 0.011740934540896648 -0.0046276800806740685 0 0.011381747606982075 -0.0052953626923492748 0 0.0071635804697491642 -0.0082427953890217374 0 0.0093482251818163813 -0.0072419768230727053 0 0.0084508592889434991 -0.0071541352022292037 0 0.0099991946335905614 -0.0059110821656985189 0 0.010706396952468635 -0.0061215146199960317 0 0.012737803180109497 -0.0047367984089460189 0 0.012357033329952282 -0.0046852684285948977 0 0.012226628214921053 -0.0049600133318045058 0 0.012357033329952282 -0.0046852684285948977 0 0.012104570680856824 -0.0046203447046189181 0 0.012226628214921053 -0.0049600133318045058 0 0.0093482251818163813 -0.0072419768230727053 0 0.0084508592889434991 -0.0071541352022292037 0 0.010105383465120521 -0.005744209991280497 0 0.011598624807689034 -0.004282284357420345 0 0.011429828421737537 -0.0047918003757320754 0 0.011496456720639765 -0.004446044682641241 0 0.011598624807689034 -0.004282284357420345 0 0.011740934540896648 -0.0046276800806740685 0 0.011429828421737537 -0.0047918003757320754 0 0.011946620192991904 -0.0040974914271812608 0 0.011598624807689034 -0.004282284357420345 0 0.011740934540896648 -0.0046276800806740685 0 0.011740934540896648 -0.0046276800806740685 0 0.011429828421737537 -0.0047918003757320754 0 0.011381747606982075 -0.0052953626923492748 0 0.011429828421737537 -0.0047918003757320754 0 0.011446905141704735 -0.0047306113064832676 0 0.011496456720639765 -0.004446044682641241 0 0.011429828421737537 -0.0047918003757320754 0 0.011336059825898553 -0.0049097646988989175 0 0.011446905141704735 -0.0047306113064832676 0 0.011429828421737537 -0.0047918003757320754 0 0.011336059825898553 -0.0049097646988989175 0 0.011381747606982075 -0.0052953626923492748 0 0.011336059825898553 -0.0049097646988989175 0 0.011381747606982075 -0.0052953626923492748 0 0.010766618098338239 -0.0048570123537925204 0 0.011336059825898553 -0.0049097646988989175 0 0.010952939631541536 -0.0045852060548490529 0 0.010766618098338239 -0.0048570123537925204 0 0.011336059825898553 -0.0049097646988989175 0 0.011306047031687673 -0.0046377102705785723 0 0.010952939631541536 -0.0045852060548490529 0 0.011336059825898553 -0.0049097646988989175 0 0.011306047031687673 -0.0046377102705785723 0 0.011445905994276523 -0.0047137714443681268 0 0.011306047031687673 -0.0046377102705785723 0 0.010999500422699416 -0.0044449804858165756 0 0.010952939631541536 -0.0045852060548490529 0 0.011306047031687673 -0.0046377102705785723 0 0.010999500422699416 -0.0044449804858165756 0 0.011207722977226579 -0.004430903195629588 0 0.010952939631541536 -0.0045852060548490529 0 0.010775228559086931 -0.0043809939441232359 0 0.010402529252528131 -0.0043334460632791635 0 0.010999500422699416 -0.0044449804858165756 0 0.010952939631541536 -0.0045852060548490529 0 0.010775228559086931 -0.0043809939441232359 0 0.010793555342235271 -0.0043196319421871434 0 0.010885107847280133 -0.0041857320700200863 0 0.010384020667184262 -0.0042279025454651873 0 0.010999500422699416 -0.0044449804858165756 0 0.010775228559086931 -0.0043809939441232359 0 0.010793555342235271 -0.0043196319421871434 0 0.010775228559086931 -0.0043809939441232359 0 0.010793555342235271 -0.0043196319421871434 0 0.010639009618852389 -0.0042857746623806469 0 0.011776099141531774 -0.0053801859520299557 0 0.0022096314593133656 -0.010531468771867772 0 0.010793555342235271 -0.0043196319421871434 0 0.010639009618852389 -0.0042857746623806469 0 0.010590998392498083 -0.0042100761989169221 0 0.010793555342235271 -0.0043196319421871434 0 0.011026383955460991 -0.0043247441516094847 0 0.010885107847280133 -0.0041857320700200863 0 0.011026383955460991 -0.0043247441516094847 0 0.011207722977226579 -0.004430903195629588 0 0.011204211510034531 -0.0042411788248288961 0 0.010999500422699416 -0.0044449804858165756 0 0.011026383955460991 -0.0043247441516094847 0 0.011207722977226579 -0.004430903195629588 0 0.010999500422699416 -0.0044449804858165756 0 0.010793555342235271 -0.0043196319421871434 0 0.011026383955460991 -0.0043247441516094847 0 0.0048519128245775285 -0.0076770190143873899 0 0.0022096314593133656 -0.010531468771867772 0 0.0075751063140463452 -0.004031446636263588 0 0.0086124282391261617 -0.0050061249240835751 0 0.0088750175522468843 -0.0038939850388669435 0 0.010639009618852389 -0.0042857746623806469 0 0.010402529252528131 -0.0043334460632791635 0 0.010590998392498083 -0.0042100761989169221 0 0.010487878019285907 -0.0031046804531802202 0 0.0022096314593133656 -0.010531468771867772 0 0.010775228559086931 -0.0043809939441232359 0 0.010639009618852389 -0.0042857746623806469 0 0.010402529252528131 -0.0043334460632791635 0 0.0075751063140463452 -0.004031446636263588 0 0.0086124282391261617 -0.0050061249240835751 0 0.0075255680311734977 -0.0049765776465552055 0 0.0086124282391261617 -0.0050061249240835751 0 0.0077080372240182007 -0.0058254131249946828 0 0.0075255680311734977 -0.0049765776465552055 0 0.0077080372240182007 -0.0058254131249946828 0 0.0083354621681716781 -0.0062323110168702378 0 0.007799643303148575 -0.0066801163722260562 0 0.0086124282391261617 -0.0050061249240835751 0 0.0077080372240182007 -0.0058254131249946828 0 0.0083354621681716781 -0.0062323110168702378 0 0.010952939631541536 -0.0045852060548490529 0 0.010402529252528131 -0.0043334460632791635 0 0.010766618098338239 -0.0048570123537925204 0 0.010487878019285907 -0.0031046804531802202 0 0.0088497815156639292 -0.0060002761942316539 0 0.010402529252528131 -0.0043334460632791635 0 0.0097035825967036367 -0.0048522671935591656 0 0.010766618098338239 -0.0048570123537925204 0 0.0093482251818163813 -0.0072419768230727053 0 0.011381747606982075 -0.0052953626923492748 0 0.010105383465120521 -0.005744209991280497 0 0.0097035825967036367 -0.0048522671935591656 0 0.010766618098338239 -0.0048570123537925204 0 0.010105383465120521 -0.005744209991280497 0 0.011381747606982075 -0.0052953626923492748 0 0.010766618098338239 -0.0048570123537925204 0 0.010105383465120521 -0.005744209991280497 0 0.0085397953675849427 -0.006930249978174304 0 0.0088497815156639292 -0.0060002761942316539 0 0.0084508592889434991 -0.0071541352022292037 0 0.0083354621681716781 -0.0062323110168702378 0 0.007799643303148575 -0.0066801163722260562 0 0.0084508592889434991 -0.0071541352022292037 0 0.0097035825967036367 -0.0048522671935591656 0 0.010105383465120521 -0.005744209991280497 0 0.0075387751860244278 -0.0073946227567185984 0 0.0084508592889434991 -0.0071541352022292037 0 0.007799643303148575 -0.0066801163722260562 0 0.0075387751860244278 -0.0073946227567185984 0 0.007799643303148575 -0.0066801163722260562 0 0.0072437149006562814 -0.0071651704787660175 0 0.0067017293770861045 -0.0081273717069718643 0 0.0072437149006562814 -0.0071651704787660175 0 0.0063185957084066153 -0.0066549262361423368 0 0.007799643303148575 -0.0066801163722260562 0 0.0072437149006562814 -0.0071651704787660175 0 0.0072078661268046408 -0.0063805529152358752 0 0.0072437149006562814 -0.0071651704787660175 0 0.0063185957084066153 -0.0066549262361423368 0 0.0072078661268046408 -0.0063805529152358752 0 0.0067017293770861045 -0.0081273717069718643 0 0.0063185957084066153 -0.0066549262361423368 0 0.0052562690369840409 -0.0075045385706154566 0 0.0063185957084066153 -0.0066549262361423368 0 0.0049674647861459266 -0.0064010605620446401 0 0.0057921324035513392 -0.0053690316518292709 0 0.0063185957084066153 -0.0066549262361423368 0 0.0068545202076598089 -0.0056170339024222285 0 0.0057921324035513392 -0.0053690316518292709 0 0.0077080372240182007 -0.0058254131249946828 0 0.007799643303148575 -0.0066801163722260562 0 0.0072078661268046408 -0.0063805529152358752 0 0.0077080372240182007 -0.0058254131249946828 0 0.0068545202076598089 -0.0056170339024222285 0 0.0072078661268046408 -0.0063805529152358752 0 0.0063185957084066153 -0.0066549262361423368 0 0.0068545202076598089 -0.0056170339024222285 0 0.0072078661268046408 -0.0063805529152358752 0 0.0024305379779642842 -0.0087681760608571031 0 0.0039144363506212875 -0.0096908287441289029 0 0.0032601289841176851 -0.0070694761474667063 0 0.0024305379779642842 -0.0087681760608571031 0 0.0032601289841176851 -0.0070694761474667063 0 0.0012970493985605084 -0.0073686108252042064 0 0.0025680949749650262 -0.01025247783786346 0 0.0024305379779642842 -0.0087681760608571031 0 0.0039144363506212875 -0.0096908287441289029 0 0.0052562690369840409 -0.0075045385706154566 0 0.0049674647861459266 -0.0064010605620446401 0 0.0032601289841176851 -0.0070694761474667063 0 0.0039144363506212875 -0.0096908287441289029 0 0.0058586850060050695 -0.0090822492022033935 0 0.0032601289841176851 -0.0070694761474667063 0 0.0054824094582229593 -0.0083752782636101735 0 0.0033929963555232555 -0.0070543297727354943 0 0.0063185957084066153 -0.0066549262361423368 0 0.0052562690369840409 -0.0075045385706154566 0 0.0049674647861459266 -0.0064010605620446401 0 0.0049674647861459266 -0.0064010605620446401 0 0.0042091925230722032 -0.0051548706282911715 0 0.0057921324035513392 -0.0053690316518292709 0 0.0049674647861459266 -0.0064010605620446401 0 0.0032601289841176851 -0.0070694761474667063 0 0.0042091925230722032 -0.0051548706282911715 0 0.0032601289841176851 -0.0070694761474667063 0 0.0042091925230722032 -0.0051548706282911715 0 0.0012970493985605084 -0.0073686108252042064 0 -0.0021847689496205542 -0.011403302107192953 0 -0.0021002443192742232 -0.011235468505038813 0 -0.0021077944744472073 -0.011396248513500129 0 0.0016700932717225241 -0.0075475651430729554 0 -0.00054339352840572269 -0.0095248063898709639 0 -0.0021847689496205542 -0.011403302107192953 0 -0.0021824869124009117 -0.011470232261330147 0 -0.0021077944744472073 -0.011396248513500129 0 -0.0021847689496205542 -0.011403302107192953 0 -0.0021824869124009117 -0.011470232261330147 0 -0.0022041930758697802 -0.01146882644690066 0 0.0042091925230722032 -0.0051548706282911715 0 0.0057921324035513392 -0.0053690316518292709 0 0.0059377440740783502 -0.0040901069666373271 0 0.0016700932717225241 -0.0075475651430729554 0 -0.00088054555348702774 -0.011304307914242936 0 -0.0064033436372839233 -0.018556030387465946 0 -0.0073704121482479476 -0.018100691002258331 0 -0.0069889092343421192 -0.019029609365120256 0 -0.0050120789750427632 -0.01520719149233247 0 -0.00088054555348702774 -0.011304307914242936 0 -0.0064033436372839233 -0.018556030387465946 0 -0.0060006188402059605 -0.017973721556267204 0 -0.0073704121482479476 -0.018100691002258331 0 -0.0064033436372839233 -0.018556030387465946 0 -0.0060006188402059605 -0.017973721556267204 0 -0.0056332908383581407 -0.018456303025797819 0 0.0077080372240182007 -0.0058254131249946828 0 0.0068545202076598089 -0.0056170339024222285 0 0.0075255680311734977 -0.0049765776465552055 0 0.0068545202076598089 -0.0056170339024222285 0 0.0067628229420359023 -0.0047837661737323307 0 0.0075255680311734977 -0.0049765776465552055 0 0.0068545202076598089 -0.0056170339024222285 0 0.0067628229420359023 -0.0047837661737323307 0 0.0057921324035513392 -0.0053690316518292709 0 0.0067628229420359023 -0.0047837661737323307 0 0.0057921324035513392 -0.0053690316518292709 0 0.0059377440740783502 -0.0040901069666373271 0 -0.0073704121482479476 -0.018100691002258331 0 -0.0082311268407648085 -0.018790000137740282 0 -0.0069889092343421192 -0.019029609365120256 0 -0.00088054555348702774 -0.011304307914242936 0 -0.0047296704526100467 -0.015951522281764847 0 0.0075751063140463452 -0.004031446636263588 0 0.0067628229420359023 -0.0047837661737323307 0 0.0059377440740783502 -0.0040901069666373271 0 -0.00036465907954271034 -0.0127615061879949 0 -0.0009300792577930406 -0.012823281542306627 0 -0.00066057551272426305 -0.012619724359536864 0 0.0075751063140463452 -0.004031446636263588 0 0.0067628229420359023 -0.0047837661737323307 0 0.0075255680311734977 -0.0049765776465552055 0 0.0048519128245775285 -0.0076770190143873899 0 -0.00088054555348702774 -0.011304307914242936 0 -0.0047296704526100467 -0.015951522281764847 0 -0.0062829912325911771 -0.018646877829194063 0 -0.0082311268407648085 -0.018790000137740282 0 -0.0081982837385035905 -0.020029273846615427 0 -0.0090882196717985281 -0.019533071690235309 0 -0.00036465907954271034 -0.0127615061879949 0 -0.00066057551272426305 -0.012619724359536864 0 -0.00039504798579112163 -0.012390600776568769 0 -0.0082311268407648085 -0.018790000137740282 0 -0.007442421560480369 -0.019745101422931358 0 -0.0069889092343421192 -0.019029609365120256 0 -0.0082311268407648085 -0.018790000137740282 0 -0.007442421560480369 -0.019745101422931358 0 -0.0081982837385035905 -0.020029273846615427 0 -0.007442421560480369 -0.019745101422931358 0 -0.0072096130965355531 -0.020715750924962306 0 -0.0081982837385035905 -0.020029273846615427 0 -0.0072160708757236782 -0.020772074453666304 0 -0.0081335604627042479 -0.020330476447487259 0 -0.0072096130965355531 -0.020715750924962306 0 -0.0078123745255909991 -0.020949134395460024 0 -0.0077607752468640909 -0.021384734270202811 0 -0.0082489498852418748 -0.021193968680442144 0 -0.0078123745255909991 -0.020949134395460024 0 -0.0077607752468640909 -0.021384734270202811 0 -0.0082489498852418748 -0.021193968680442144 0 -0.0083275477793208433 -0.02174012538571661 0 -0.0077607752468640909 -0.021384734270202811 0 -0.0081335604627042479 -0.020330476447487259 0 -0.0062829912325911771 -0.018646877829194063 0 -0.0082489498852418748 -0.021193968680442144 0 -0.0078123745255909991 -0.020949134395460024 0 -0.0083648404262706855 -0.020852908083180532 0 -0.0064033436372839233 -0.018556030387465946 0 -0.0056332908383581407 -0.018456303025797819 0 -0.0060298621666856969 -0.019147379116717152 0 -0.0060298621666856969 -0.019147379116717152 0 -0.0057167424393130524 -0.01957789011248013 0 -0.0054020425933555237 -0.018973089410528332 0 -0.0056332908383581407 -0.018456303025797819 0 -0.0060298621666856969 -0.019147379116717152 0 -0.0054020425933555237 -0.018973089410528332 0 -0.0060298621666856969 -0.019147379116717152 0 -0.0069889092343421192 -0.019029609365120256 0 -0.0064589915590968078 -0.01994563218597107 0 -0.0064033436372839233 -0.018556030387465946 0 -0.0060298621666856969 -0.019147379116717152 0 -0.0069889092343421192 -0.019029609365120256 0 -0.007442421560480369 -0.019745101422931358 0 -0.0069889092343421192 -0.019029609365120256 0 -0.0064589915590968078 -0.01994563218597107 0 -0.0065493293073483035 -0.020644455986338888 0 -0.0064589915590968078 -0.01994563218597107 0 -0.0057433496335643642 -0.020452525456900468 0 -0.007442421560480369 -0.019745101422931358 0 -0.0072096130965355531 -0.020715750924962306 0 -0.0064589915590968078 -0.01994563218597107 0 -0.0072096130965355531 -0.020715750924962306 0 -0.0065493293073483035 -0.020644455986338888 0 -0.0064589915590968078 -0.01994563218597107 0 -0.0064589915590968078 -0.01994563218597107 0 -0.0057167424393130524 -0.01957789011248013 0 -0.0057433496335643642 -0.020452525456900468 0 -0.0060298621666856969 -0.019147379116717152 0 -0.0064589915590968078 -0.01994563218597107 0 -0.0057167424393130524 -0.01957789011248013 0 -0.0069749189290341639 -0.023136969253775751 0 -0.0071716308417812931 -0.023696816055516646 0 -0.006834227420543423 -0.023511993213708657 0 -0.0069749189290341639 -0.023136969253775751 0 -0.0074377270027133971 -0.023122722128062566 0 -0.0071716308417812931 -0.023696816055516646 0 -0.0065493293073483035 -0.020644455986338888 0 -0.0057433496335643642 -0.020452525456900468 0 -0.0068524360358883088 -0.021438270722016737 0 -0.0064618090567245545 -0.021949935066325511 0 -0.0071956341599507838 -0.022267542026939598 0 -0.0072096130965355531 -0.020715750924962306 0 -0.0065493293073483035 -0.020644455986338888 0 -0.0068524360358883088 -0.021438270722016737 0 -0.0074377270027133971 -0.023122722128062566 0 -0.0071716308417812931 -0.023696816055516646 0 -0.007558578243750942 -0.02355914110107361 0 -0.0071716308417812931 -0.023696816055516646 0 -0.006834227420543423 -0.023511993213708657 0 -0.0067164617760495631 -0.023899602848227019 0 -0.0071716308417812931 -0.023696816055516646 0 -0.0067164617760495631 -0.023899602848227019 0 -0.0069201367557796389 -0.024260771375740238 0 -0.0083275477793208433 -0.02174012538571661 0 -0.007973655150359955 -0.022616885048996067 0 -0.0085032373554050616 -0.022562107238689913 0 -0.0083275477793208433 -0.02174012538571661 0 -0.0077607752468640909 -0.021384734270202811 0 -0.007973655150359955 -0.022616885048996067 0 -0.0071956341599507838 -0.022267542026939598 0 -0.0080107662883993191 -0.022612250351504343 0 -0.0068524360358883088 -0.021438270722016737 0 -0.0077607752468640909 -0.021384734270202811 0 -0.007973655150359955 -0.022616885048996067 0 -0.0072096130965355531 -0.020715750924962306 0 -0.0068524360358883088 -0.021438270722016737 0 -0.0077607752468640909 -0.021384734270202811 0 -0.0074377270027133971 -0.023122722128062566 0 -0.007558578243750942 -0.02355914110107361 0 -0.007973655150359955 -0.022616885048996067 0 -0.007558578243750942 -0.02355914110107361 0 -0.007973655150359955 -0.022616885048996067 0 -0.0081794154770963769 -0.023393752513242206 0 -0.007973655150359955 -0.022616885048996067 0 -0.0085032373554050616 -0.022562107238689913 0 -0.0081794154770963769 -0.023393752513242206 0 -0.0088418428149497092 -0.023202748862865916 0 -0.0085032373554050616 -0.022562107238689913 0 -0.0081794154770963769 -0.023393752513242206 0 -0.0088418428149497092 -0.023202748862865916 0 -0.0089165590345058887 -0.02250704590705711 0 -0.0085032373554050616 -0.022562107238689913 0 -0.0083275477793208433 -0.02174012538571661 0 -0.0085032373554050616 -0.022562107238689913 0 -0.0087154991159292972 -0.02181721563886006 0 -0.0089165590345058887 -0.02250704590705711 0 -0.0085032373554050616 -0.022562107238689913 0 -0.0087154991159292972 -0.02181721563886006 0 -0.0083275477793208433 -0.02174012538571661 0 -0.0087154991159292972 -0.02181721563886006 0 -0.0085620896237073394 -0.021348465953127099 0 -0.0091231140719856586 -0.021895459128632652 0 -0.0094411402458670062 -0.02267406861108302 0 -0.0096950167509036022 -0.021516658246081215 0 -0.0092997377628381145 -0.021387232339779974 0 -0.0074747763286632431 -0.021409449703131259 0 -0.0091231140719856586 -0.021895459128632652 0 -0.0093715098213433979 -0.021452092559343324 0 -0.0089630914149517408 -0.021316631013289119 0 -0.0087154991159292972 -0.02181721563886006 0 -0.0091231140719856586 -0.021895459128632652 0 -0.0087883436305005152 -0.021352322821116151 0 -0.0089165590345058887 -0.02250704590705711 0 -0.0091231140719856586 -0.021895459128632652 0 -0.0094411402458670062 -0.02267406861108302 0 -0.0089165590345058887 -0.02250704590705711 0 -0.0087154991159292972 -0.02181721563886006 0 -0.0091231140719856586 -0.021895459128632652 0 -0.0088418428149497092 -0.023202748862865916 0 -0.0094411402458670062 -0.02267406861108302 0 -0.0097045802119600597 -0.023837338980826326 0 -0.0088418428149497092 -0.023202748862865916 0 -0.0089165590345058887 -0.02250704590705711 0 -0.0094411402458670062 -0.02267406861108302 0 -0.0094411402458670062 -0.02267406861108302 0 -0.010396527339475225 -0.022937583053479711 0 -0.0097045802119600597 -0.023837338980826326 0 0.0026791211375735173 -0.025608882344195023 0 0.0028732027646845263 -0.025227717437917088 0 0.0031671579509082496 -0.025599089997248501 0 0.0026791211375735173 -0.025608882344195023 0 0.0030534328885248496 -0.026005567112483786 0 0.0031671579509082496 -0.025599089997248501 0 -0.0012112051412718938 -0.023627658706273105 0 0.0020082310165375644 -0.023557183247245105 0 -0.0004260556128656275 -0.019858690883018549 0 0.00062606730006551747 -0.021115710481570401 0 -0.00030952066939994783 -0.021731713306869266 0 0.00062606730006551747 -0.021115710481570401 0 -0.00030952066939994783 -0.021731713306869266 0 0.0017187388884861291 -0.02237490313331492 0 -0.0004260556128656275 -0.019858690883018549 0 -0.00030952066939994783 -0.021731713306869266 0 -0.0016412061374398521 -0.021976103280645719 0 -0.0094411402458670062 -0.02267406861108302 0 -0.010396527339475225 -0.022937583053479711 0 -0.0096950167509036022 -0.021516658246081215 0 -0.0012112051412718938 -0.023627658706273105 0 -0.0074747763286632431 -0.021409449703131259 0 -0.0074747763286632431 -0.021409449703131259 0 -0.0035076045389375913 -0.02226899215808819 0 -0.00030952066939994783 -0.021731713306869266 0 -0.0016412061374398521 -0.021976103280645719 0 -0.00025378040757532652 -0.02295459793086856 0 -0.0083667856807858459 -0.019821119272146661 0 -0.0080451869744902413 -0.020856261609142102 0 -0.0066383349737793454 -0.020781582739928077 0 -0.0080451869744902413 -0.020856261609142102 0 -0.0066383349737793454 -0.020781582739928077 0 -0.007620580371171172 -0.021322238506230103 0 -0.0080451869744902413 -0.020856261609142102 0 -0.0085901011719059818 -0.021240360198424259 0 -0.0088810712190514566 -0.020929590777799247 0 -0.0083667856807858459 -0.019821119272146661 0 -0.0080451869744902413 -0.020856261609142102 0 -0.0088810712190514566 -0.020929590777799247 0 -0.00025378040757532652 -0.02295459793086856 0 0.0011688267759894654 -0.023932358435811485 0 0.0017187388884861291 -0.02237490313331492 0 -0.00030952066939994783 -0.021731713306869266 0 -0.00025378040757532652 -0.02295459793086856 0 0.0017187388884861291 -0.02237490313331492 0 0.011026383955460991 -0.0043247441516094847 0 0.010885107847280133 -0.0041857320700200863 0 0.011204211510034531 -0.0042411788248288961 0 0.0015488200194818361 -0.013241088707170365 0 0.0040610832032833798 -0.016310138585715752 0 -0.0035076045389375913 -0.02226899215808819 0 0.0040610832032833798 -0.016310138585715752 0 -0.0066383349737793454 -0.020781582739928077 0 -0.0068780146759599373 -0.022288731886616033 0 -0.0047435657152432318 -0.021954655500515011 0 0.0015488200194818361 -0.013241088707170365 0 0.0022096314593133656 -0.010531468771867772 0 -0.0068780146759599373 -0.022288731886616033 0 -0.0079542429358464197 -0.021814140552058683 0 -0.0088806505064619751 -0.022434801251475147 0 -0.0080451869744902413 -0.020856261609142102 0 -0.007620580371171172 -0.021322238506230103 0 -0.0085901011719059818 -0.021240360198424259 0 -0.007620580371171172 -0.021322238506230103 0 -0.0079542429358464197 -0.021814140552058683 0 -0.0085901011719059818 -0.021240360198424259 0 -0.0066383349737793454 -0.020781582739928077 0 -0.007620580371171172 -0.021322238506230103 0 -0.0068780146759599373 -0.022288731886616033 0 -0.007620580371171172 -0.021322238506230103 0 -0.0068780146759599373 -0.022288731886616033 0 -0.0079542429358464197 -0.021814140552058683 0 0.0022096314593133656 -0.010531468771867772 0 -0.0080863901518269162 -0.02472706991232369 0 -0.0079542429358464197 -0.021814140552058683 0 -0.0088806505064619751 -0.022434801251475147 0 -0.0085901011719059818 -0.021240360198424259 0 -0.0087481995391044121 -0.02112854706606633 0 -0.0085901011719059818 -0.021240360198424259 0 -0.0088810712190514566 -0.020929590777799247 0 -0.0087029619632169267 -0.021071370402701375 0 -0.0087481995391044121 -0.02112854706606633 0 -0.0085901011719059818 -0.021240360198424259 0 -0.0087029619632169267 -0.021071370402701375 0 -0.0087481995391044121 -0.02112854706606633 0 -0.0086611194211150006 -0.021070749799612092 0 -0.0087029619632169267 -0.021071370402701375 0 -0.0085142100427886454 -0.020989081629275281 0 -0.0086611194211150006 -0.021070749799612092 0 -0.00036465907954271034 -0.0127615061879949 0 0.00024598887492542106 -0.012647058134090271 0 -0.00039504798579112163 -0.012390600776568769 0 0.0022096314593133656 -0.010531468771867772 0 -0.0062829912325911771 -0.018646877829194063 0 -0.0085142100427886454 -0.020989081629275281 0 -0.0086611194211150006 -0.021070749799612092 0 -0.0085322972081831906 -0.021028379094326363 0 -0.0062829912325911771 -0.018646877829194063 0 -0.007875712490312093 -0.020129148354341257 0 -0.0086752081788091726 -0.021142192108217647 0 -0.0085322972081831906 -0.021028379094326363 0 -0.0085620896237073394 -0.021348465953127099 0 -0.0086611194211150006 -0.021070749799612092 0 -0.0086752081788091726 -0.021142192108217647 0 -0.0085322972081831906 -0.021028379094326363 0 -0.0086611194211150006 -0.021070749799612092 0 -0.0086752081788091726 -0.021142192108217647 0 -0.0087968331979902965 -0.021106362109481559 0 -0.0082489498852418748 -0.021193968680442144 0 -0.0085322972081831906 -0.021028379094326363 0 -0.0085620896237073394 -0.021348465953127099 0 -0.0082489498852418748 -0.021193968680442144 0 -0.0083648404262706855 -0.020852908083180532 0 -0.0085322972081831906 -0.021028379094326363 0 -0.0082489498852418748 -0.021193968680442144 0 -0.0083275477793208433 -0.02174012538571661 0 -0.0085620896237073394 -0.021348465953127099 0 -0.0087154991159292972 -0.02181721563886006 0 -0.0085620896237073394 -0.021348465953127099 0 -0.0087883436305005152 -0.021352322821116151 0 -0.0086752081788091726 -0.021142192108217647 0 -0.0085620896237073394 -0.021348465953127099 0 -0.0087883436305005152 -0.021352322821116151 0 -0.0091231140719856586 -0.021895459128632652 0 -0.0087883436305005152 -0.021352322821116151 0 -0.0089630914149517408 -0.021316631013289119 0 -0.0087883436305005152 -0.021352322821116151 0 -0.0089630914149517408 -0.021316631013289119 0 -0.0087968331979902965 -0.021106362109481559 0 -0.0074747763286632431 -0.021409449703131259 0 -0.008458185467855147 -0.021103854684646168 0 -0.0093715098213433979 -0.021452092559343324 0 -0.0089630914149517408 -0.021316631013289119 0 -0.0088810712190514566 -0.020929590777799247 0 -0.0087481995391044121 -0.02112854706606633 0 -0.0088810712190514566 -0.020929590777799247 0 -0.0087968331979902965 -0.021106362109481559 0 -0.0089630914149517408 -0.021316631013289119 0 -0.0088810712190514566 -0.020929590777799247 0 -0.0087968331979902965 -0.021106362109481559 0 -0.0087481995391044121 -0.02112854706606633 0 -0.0086611194211150006 -0.021070749799612092 0 -0.0087968331979902965 -0.021106362109481559 0 -0.0086752081788091726 -0.021142192108217647 0 -0.0087883436305005152 -0.021352322821116151 0 -0.0087968331979902965 -0.021106362109481559 0 -0.0020681107652363796 -0.016669825572171199 0 -0.0023421002686636718 -0.015664008831571392 0 -0.002746129728890542 -0.017334635200686004 0 -0.0012109809127737138 -0.015982893289185725 0 -0.0023245200274229693 -0.017588753575061917 0 -0.0015256229281863062 -0.017086055774139332 0 -0.0020681107652363796 -0.016669825572171199 0 -0.002746129728890542 -0.017334635200686004 0 -0.0016890121290490832 -0.016046599867645547 0 -0.0020681107652363796 -0.016669825572171199 0 -0.0023421002686636718 -0.015664008831571392 0 -0.0016890121290490832 -0.016046599867645547 0 -0.0020681107652363796 -0.016669825572171199 0 -0.0016037884714975475 -0.016581186993617179 0 -0.0015256229281863062 -0.017086055774139332 0 -0.0020681107652363796 -0.016669825572171199 0 -0.0016037884714975475 -0.016581186993617179 0 -0.0026760265206814552 -0.017104769745992884 0 -0.00074841686539651715 -0.016140743929070975 0 -0.0018586589882293859 -0.017958209696907108 0 -0.0026760265206814552 -0.017104769745992884 0 -0.0032404256477637857 -0.018053872066593073 0 -0.0018586589882293859 -0.017958209696907108 0 -0.0026760265206814552 -0.017104769745992884 0 -0.00074841686539651715 -0.016140743929070975 0 -0.0029037278581120988 -0.015470951078922185 0 -0.00074841686539651715 -0.016140743929070975 0 -0.00013686485415037223 -0.013577698488685662 0 -0.0029037278581120988 -0.015470951078922185 0 -0.0012109809127737138 -0.015982893289185725 0 -0.0054095858549257419 -0.011733640092279557 0 -0.0012817425446147708 -0.01521554397096807 0 -0.0023421002686636718 -0.015664008831571392 0 -0.0018172380487055566 -0.013892441098295308 0 -0.00074841686539651715 -0.016140743929070975 0 -0.00013686485415037223 -0.013577698488685662 0 0.00035216534524626738 -0.012924673803635895 0 -0.0012817425446147708 -0.01521554397096807 0 -0.0016890121290490832 -0.016046599867645547 0 -0.0023421002686636718 -0.015664008831571392 0 -0.00013686485415037223 -0.013577698488685662 0 0.00035216534524626738 -0.012924673803635895 0 -0.00057116874028457316 -0.012470968489896693 0 0.00035216534524626738 -0.012924673803635895 0 -0.00057116874028457316 -0.012470968489896693 0 -0.00024023313241902297 -0.011768253227829829 0 -0.0054095858549257419 -0.011733640092279557 0 -0.0048825873612631755 -0.011192263400421511 0 -0.010302826355313006 -0.010675776981774276 0 -0.0098786516056412303 -0.0096434236562423711 0 -0.0095412414635581977 -0.0105554923864853 0 -0.00057116874028457316 -0.012470968489896693 0 -0.00024023313241902297 -0.011768253227829829 0 -0.00097524404714990638 -0.011624701633950891 0 -0.0046919986176044244 -0.011007513178766776 0 -0.0048825873612631755 -0.011192263400421511 0 -0.0091771832467233763 -0.011467461179695786 0 -0.0095412414635581977 -0.0105554923864853 0 -0.009917322998744333 -0.011048677951223199 0 -0.010302826355313006 -0.010675776981774276 0 -0.0095412414635581977 -0.0105554923864853 0 -0.009917322998744333 -0.011048677951223199 0 -0.00059291997267820428 -0.011131982803079553 0 -0.00024023313241902297 -0.011768253227829829 0 -0.00097524404714990638 -0.011624701633950891 0 -0.00057116874028457316 -0.012470968489896693 0 -0.00097524404714990638 -0.011624701633950891 0 -0.0011044747161785449 -0.012064453374054374 0 -0.00013686485415037223 -0.013577698488685662 0 -0.00057116874028457316 -0.012470968489896693 0 -0.0012905872710087247 -0.012378439214705885 0 -0.00057116874028457316 -0.012470968489896693 0 -0.0011044747161785449 -0.012064453374054374 0 -0.0012905872710087247 -0.012378439214705885 0 -0.00011879730822752276 -0.013575442546341767 0 -0.0019349658061554951 -0.013915972681365879 0 -0.0014515177205628692 -0.011727979280443708 0 -0.0016723185961713633 -0.011861789905324551 0 -0.0012905872710087247 -0.012378439214705885 0 -0.0011044747161785449 -0.012064453374054374 0 -0.0014515177205628692 -0.011727979280443708 0 -0.0012905872710087247 -0.012378439214705885 0 -0.00097524404714990638 -0.011624701633950891 0 -0.0011044747161785449 -0.012064453374054374 0 -0.0014515177205628692 -0.011727979280443708 0 -0.0016312846195460295 -0.01117776298490054 0 -0.0012718567741154976 -0.011234579445844439 0 -0.0014515177205628692 -0.011727979280443708 0 -0.0012718567741154976 -0.011234579445844439 0 -0.00097524404714990638 -0.011624701633950891 0 -0.0014515177205628692 -0.011727979280443708 0 -0.0016312846195460295 -0.01117776298490054 0 -0.0014515177205628692 -0.011727979280443708 0 -0.0017284677835316558 -0.011416682395839924 0 -0.0014515177205628692 -0.011727979280443708 0 -0.0016723185961713633 -0.011861789905324551 0 -0.0017284677835316558 -0.011416682395839924 0 -0.003966739582259798 -0.01665663567571839 0 -0.0029037278581120988 -0.015470951078922185 0 -0.0037301026583915656 -0.017520705798555108 0 -0.0027594334697189065 -0.014240828336077073 0 -0.0019349658061554951 -0.013915972681365879 0 -0.0026760265206814552 -0.017104769745992884 0 -0.0029037278581120988 -0.015470951078922185 0 -0.0037301026583915656 -0.017520705798555108 0 -0.0026760265206814552 -0.017104769745992884 0 -0.0037301026583915656 -0.017520705798555108 0 -0.0032404256477637857 -0.018053872066593073 0 -0.003966739582259798 -0.01665663567571839 0 -0.0037301026583915656 -0.017520705798555108 0 -0.0043584575144026347 -0.018028191187953947 0 -0.0043584575144026347 -0.018028191187953947 0 -0.0045608417559132803 -0.017378321868139368 0 -0.0048075862215629199 -0.018148227850700707 0 -0.0027594334697189065 -0.014240828336077073 0 -0.0032260403220447441 -0.014479049616968087 0 -0.003966739582259798 -0.01665663567571839 0 -0.0043584575144026347 -0.018028191187953947 0 -0.0045608417559132803 -0.017378321868139368 0 -0.0016723185961713633 -0.011861789905324551 0 -0.0018648772716092067 -0.011566678247811898 0 -0.0018166211973150346 -0.011492516362639826 0 -0.0018166211973150346 -0.011492516362639826 0 -0.0017284677835316558 -0.011416682395839924 0 -0.001898873117344467 -0.011122764312501773 0 -0.0016723185961713633 -0.011861789905324551 0 -0.0018166211973150346 -0.011492516362639826 0 -0.0017284677835316558 -0.011416682395839924 0 -0.0016312846195460295 -0.01117776298490054 0 -0.001891523107210564 -0.010936282505213005 0 -0.0017284677835316558 -0.011416682395839924 0 -0.001891523107210564 -0.010936282505213005 0 -0.0017284677835316558 -0.011416682395839924 0 -0.001898873117344467 -0.011122764312501773 0 -0.0018166211973150346 -0.011492516362639826 0 -0.001898873117344467 -0.011122764312501773 0 -0.0019344269759854914 -0.011357727091067128 0 -0.0018648772716092067 -0.011566678247811898 0 -0.0018166211973150346 -0.011492516362639826 0 -0.0019344269759854914 -0.011357727091067128 0 -0.0019344269759854914 -0.011357727091067128 0 -0.0018473632134374681 -0.011170446573375264 0 -0.0021002443192742232 -0.011235468505038813 0 -0.001898873117344467 -0.011122764312501773 0 -0.0019344269759854914 -0.011357727091067128 0 -0.0018473632134374681 -0.011170446573375264 0 -0.0014997887086272046 -0.010736298039987007 0 -0.00054339352840572269 -0.0095248063898709639 0 -0.0016236786358023113 -0.010964571272848689 0 -0.0018473632134374681 -0.011170446573375264 0 -0.0021002443192742232 -0.011235468505038813 0 -0.0016236786358023113 -0.010964571272848689 0 -0.001898873117344467 -0.011122764312501773 0 -0.0018473632134374681 -0.011170446573375264 0 0.0024305379779642842 -0.0087681760608571031 0 0.0010895847844892669 -0.009859472170445539 0 0.0012970493985605084 -0.0073686108252042064 0 -0.0016236786358023113 -0.010964571272848689 0 0.0010895847844892669 -0.009859472170445539 0 0.0012970493985605084 -0.0073686108252042064 0 0.0025680949749650262 -0.01025247783786346 0 0.0024305379779642842 -0.0087681760608571031 0 0.0010895847844892669 -0.009859472170445539 0 -0.0019344269759854914 -0.011357727091067128 0 -0.0021002443192742232 -0.011235468505038813 0 -0.0021077944744472073 -0.011396248513500129 0 -0.0019344269759854914 -0.011357727091067128 0 -0.0020331134804239441 -0.011503223880655732 0 -0.0021077944744472073 -0.011396248513500129 0 -0.0021824869124009117 -0.011470232261330147 0 -0.0020331134804239441 -0.011503223880655732 0 -0.0021077944744472073 -0.011396248513500129 0 -0.0018648772716092067 -0.011566678247811898 0 -0.0019344269759854914 -0.011357727091067128 0 -0.0020331134804239441 -0.011503223880655732 0 -0.0032260403220447441 -0.014479049616968087 0 -0.0033568173653980835 -0.014564079971269676 0 -0.005108342102176873 -0.017797688315730593 0 -0.0048075862215629199 -0.018148227850700707 0 -0.0051762208443719062 -0.018422177245514787 0 -0.0045608417559132803 -0.017378321868139368 0 -0.005108342102176873 -0.017797688315730593 0 -0.0048075862215629199 -0.018148227850700707 0 -0.0056332908383581407 -0.018456303025797819 0 -0.005108342102176873 -0.017797688315730593 0 -0.0051762208443719062 -0.018422177245514787 0 -0.0060006188402059605 -0.017973721556267204 0 -0.0056332908383581407 -0.018456303025797819 0 -0.005108342102176873 -0.017797688315730593 0 -0.0050120789750427632 -0.01520719149233247 0 -0.0033568173653980835 -0.014564079971269676 0 -0.0054020425933555237 -0.018973089410528332 0 -0.0050432085833195389 -0.018816479550694955 0 -0.005070001005474189 -0.019325983196983136 0 -0.0056332908383581407 -0.018456303025797819 0 -0.0051762208443719062 -0.018422177245514787 0 -0.0054020425933555237 -0.018973089410528332 0 -0.0051762208443719062 -0.018422177245514787 0 -0.0054020425933555237 -0.018973089410528332 0 -0.0050432085833195389 -0.018816479550694955 0 -0.0048075862215629199 -0.018148227850700707 0 -0.0048012242768084683 -0.018742557789571471 0 -0.0050432085833195389 -0.018816479550694955 0 -0.0048075862215629199 -0.018148227850700707 0 -0.0051762208443719062 -0.018422177245514787 0 -0.0050432085833195389 -0.018816479550694955 0 -0.0048012242768084683 -0.018742557789571471 0 -0.0050432085833195389 -0.018816479550694955 0 -0.005070001005474189 -0.019325983196983136 0 -0.0048012242768084683 -0.018742557789571471 0 -0.0049772833080728206 -0.019308829322311052 0 -0.005070001005474189 -0.019325983196983136 0 -0.0053091782249098862 -0.018886796766212632 0 -0.0048346807498592824 -0.019371961450229513 0 -0.0045000971906436916 -0.018647360510851693 0 -0.0053496936365003715 -0.020047351560858968 0 -0.0044225818223258958 -0.018624750618987686 0 -0.0048012242768084683 -0.018742557789571471 0 -0.0049772833080728206 -0.019308829322311052 0 -0.0044790320710030142 -0.018824883007901583 0 -0.0064618090567245545 -0.021949935066325511 0 -0.0053496936365003715 -0.020047351560858968 0 -0.0057167424393130524 -0.01957789011248013 0 -0.0054020425933555237 -0.018973089410528332 0 -0.005070001005474189 -0.019325983196983136 0 -0.0057167424393130524 -0.01957789011248013 0 -0.0057433496335643642 -0.020452525456900468 0 -0.005070001005474189 -0.019325983196983136 0 -0.0057433496335643642 -0.020452525456900468 0 -0.0047096857905337876 -0.019700479886792271 0 -0.005070001005474189 -0.019325983196983136 0 -0.0053496936365003715 -0.020047351560858968 0 -0.0052355634969375774 -0.019584301642459761 0 -0.0069749189290341639 -0.023136969253775751 0 -0.0064555216227724626 -0.023429514547360114 0 -0.006834227420543423 -0.023511993213708657 0 -0.0069749189290341639 -0.023136969253775751 0 -0.0063587848451361001 -0.022940050208519712 0 -0.0064555216227724626 -0.023429514547360114 0 -0.0064555216227724626 -0.023429514547360114 0 -0.0067164617760495631 -0.023899602848227019 0 -0.0062254642194534511 -0.023894723196397745 0 -0.0064555216227724626 -0.023429514547360114 0 -0.006834227420543423 -0.023511993213708657 0 -0.0067164617760495631 -0.023899602848227019 0 -0.0064555216227724626 -0.023429514547360114 0 -0.0062254642194534511 -0.023894723196397745 0 -0.0059278926180737143 -0.023362925339514014 0 -0.0062254642194534511 -0.023894723196397745 0 -0.0059278926180737143 -0.023362925339514014 0 -0.0058427321417628486 -0.024122047623927723 0 -0.0067164617760495631 -0.023899602848227019 0 -0.0062254642194534511 -0.023894723196397745 0 -0.0065010754757656658 -0.02430216210107386 0 -0.0063587848451361001 -0.022940050208519712 0 -0.0064555216227724626 -0.023429514547360114 0 -0.0059278926180737143 -0.023362925339514014 0 -0.0053496936365003715 -0.020047351560858968 0 -0.0052977391645583601 -0.02148171220975819 0 -0.0043994839542857494 -0.019227193078279397 0 -0.0048346807498592824 -0.019371961450229513 0 -0.0043549521885100162 -0.019893327936525207 0 -0.0043994839542857494 -0.019227193078279397 0 -0.0048346807498592824 -0.019371961450229513 0 -0.0045000971906436916 -0.018647360510851693 0 -0.0059278926180737143 -0.023362925339514014 0 -0.0054191239983474408 -0.023864153123526285 0 -0.0058427321417628486 -0.024122047623927723 0 -0.0052977391645583601 -0.02148171220975819 0 -0.0056371259754614865 -0.022010688330677007 0 -0.0037473295273309061 -0.019184302097612873 0 -0.0038112088131011532 -0.01920528696770021 0 -0.0036924195353227746 -0.019205413222623195 0 -0.0037473295273309061 -0.019184302097612873 0 -0.0038112088131011532 -0.01920528696770021 0 -0.0038995135497722553 -0.019027539946671997 0 -0.0043994839542857494 -0.019227193078279397 0 -0.0043549521885100162 -0.019893327936525207 0 -0.0038995135497722553 -0.019027539946671997 0 -0.0056371259754614865 -0.022010688330677007 0 -0.0032469698448723923 -0.017981935068293375 0 -0.0043994839542857494 -0.019227193078279397 0 -0.0038995135497722553 -0.019027539946671997 0 -0.0045000971906436916 -0.018647360510851693 0 -0.0038995135497722553 -0.019027539946671997 0 -0.0045000971906436916 -0.018647360510851693 0 -0.0038687580564519238 -0.018451640909841933 0 -0.0044225818223258958 -0.018624750618987686 0 -0.0039443917450395043 -0.018513553951573294 0 -0.0043584575144026347 -0.018028191187953947 0 -0.0048012242768084683 -0.018742557789571471 0 -0.0044790320710030142 -0.018824883007901583 0 -0.0043584575144026347 -0.018028191187953947 0 -0.0048075862215629199 -0.018148227850700707 0 -0.0048012242768084683 -0.018742557789571471 0 -0.0043584575144026347 -0.018028191187953947 0 -0.0044790320710030142 -0.018824883007901583 0 -0.0038687580564519238 -0.018451640909841933 0 -0.0037301026583915656 -0.017520705798555108 0 -0.0038687580564519238 -0.018451640909841933 0 -0.0032404256477637857 -0.018053872066593073 0 -0.0037301026583915656 -0.017520705798555108 0 -0.0043584575144026347 -0.018028191187953947 0 -0.0038687580564519238 -0.018451640909841933 0 -0.0038687580564519238 -0.018451640909841933 0 -0.0032404256477637857 -0.018053872066593073 0 -0.0034197582671585862 -0.018596400490265889 0 -0.0032404256477637857 -0.018053872066593073 0 -0.0034197582671585862 -0.018596400490265889 0 -0.0030327555110609655 -0.018571027324642247 0 -0.0034197582671585862 -0.018596400490265889 0 -0.0030327555110609655 -0.018571027324642247 0 -0.0033118863521083251 -0.018902551389228112 0 -0.0030327555110609655 -0.018571027324642247 0 -0.0033118863521083251 -0.018902551389228112 0 -0.0031314664244791522 -0.018833193206675657 0 -0.0033118863521083251 -0.018902551389228112 0 -0.0033280251544701793 -0.019145157866614831 0 -0.0031881024390708959 -0.019018016434367055 0 -0.0033118863521083251 -0.018902551389228112 0 -0.0031881024390708959 -0.019018016434367055 0 -0.0031314664244791522 -0.018833193206675657 0 -0.0034197582671585862 -0.018596400490265889 0 -0.0033118863521083251 -0.018902551389228112 0 -0.0035857658035660963 -0.018899626336436635 0 -0.0033118863521083251 -0.018902551389228112 0 -0.0035857658035660963 -0.018899626336436635 0 -0.0034545244469404053 -0.019077590184843986 0 -0.0038995135497722553 -0.019027539946671997 0 -0.0038687580564519238 -0.018451640909841933 0 -0.0035857658035660963 -0.018899626336436635 0 -0.0038687580564519238 -0.018451640909841933 0 -0.0034197582671585862 -0.018596400490265889 0 -0.0035857658035660963 -0.018899626336436635 0 -0.0038995135497722553 -0.019027539946671997 0 -0.0035940739278125331 -0.019112784831500706 0 -0.0036725350693684192 -0.019170594355153441 0 -0.0038995135497722553 -0.019027539946671997 0 -0.0035857658035660963 -0.018899626336436635 0 -0.0035940739278125331 -0.019112784831500706 0 -0.0037473295273309061 -0.019184302097612873 0 -0.0038995135497722553 -0.019027539946671997 0 -0.0036725350693684192 -0.019170594355153441 0 -0.0035940739278125331 -0.019112784831500706 0 -0.0036725350693684192 -0.019170594355153441 0 -0.0035676623913364416 -0.019172810407845155 0 -0.0036725350693684192 -0.019170594355153441 0 -0.003619010731038561 -0.019172200676363792 0 -0.0035676623913364416 -0.019172810407845155 0 -0.0036725350693684192 -0.019170594355153441 0 -0.0036746370489987058 -0.019183918953024435 0 -0.003619010731038561 -0.019172200676363792 0 -0.0037473295273309061 -0.019184302097612873 0 -0.0036725350693684192 -0.019170594355153441 0 -0.0036746370489987058 -0.019183918953024435 0 -0.0035914777981638961 -0.019152369742796004 0 -0.003619010731038561 -0.019172200676363792 0 -0.0035676623913364416 -0.019172810407845155 0 -0.0035914777981638961 -0.019152369742796004 0 -0.0035676623913364416 -0.019172810407845155 0 -0.0035344145917147766 -0.019166308023024263 0 -0.0035676623913364416 -0.019172810407845155 0 -0.0034688570180557384 -0.01916924881765962 0 -0.0035344145917147766 -0.019166308023024263 0 -0.0034688570180557384 -0.01916924881765962 0 -0.0033280251544701793 -0.019145157866614831 0 -0.003403743573130091 -0.019196559632398753 0 -0.0035940739278125331 -0.019112784831500706 0 -0.0035676623913364416 -0.019172810407845155 0 -0.0034688570180557384 -0.01916924881765962 0 -0.0035940739278125331 -0.019112784831500706 0 -0.0034688570180557384 -0.01916924881765962 0 -0.0034545244469404053 -0.019077590184843986 0 -0.0035857658035660963 -0.018899626336436635 0 -0.0035940739278125331 -0.019112784831500706 0 -0.0034545244469404053 -0.019077590184843986 0 -0.0033118863521083251 -0.018902551389228112 0 -0.0034545244469404053 -0.019077590184843986 0 -0.0033280251544701793 -0.019145157866614831 0 -0.0034688570180557384 -0.01916924881765962 0 -0.0034545244469404053 -0.019077590184843986 0 -0.0033280251544701793 -0.019145157866614831 0 -0.0033280251544701793 -0.019145157866614831 0 -0.0032165636649997653 -0.019261109353609664 0 -0.0031881024390708959 -0.019018016434367055 0 -0.0033280251544701793 -0.019145157866614831 0 -0.0032165636649997653 -0.019261109353609664 0 -0.003403743573130091 -0.019196559632398753 0 -0.0032165636649997653 -0.019261109353609664 0 -0.003516336258638049 -0.019227044617943227 0 -0.003403743573130091 -0.019196559632398753 0 -0.0032165636649997653 -0.019261109353609664 0 -0.003516336258638049 -0.019227044617943227 0 -0.0036692477691117891 -0.019374853948422536 0 -0.003516336258638049 -0.019227044617943227 0 -0.003403743573130091 -0.019196559632398753 0 -0.0035926483451440418 -0.019166283328679687 0 -0.003516336258638049 -0.019227044617943227 0 -0.0035926483451440418 -0.019166283328679687 0 -0.0037342452490946631 -0.019225321681842236 0 -0.0034688570180557384 -0.01916924881765962 0 -0.003403743573130091 -0.019196559632398753 0 -0.0035344145917147766 -0.019166308023024263 0 -0.0035344145917147766 -0.019166308023024263 0 -0.0035926483451440418 -0.019166283328679687 0 -0.0036327741643365666 -0.019124280888537709 0 -0.003403743573130091 -0.019196559632398753 0 -0.0035344145917147766 -0.019166308023024263 0 -0.0035926483451440418 -0.019166283328679687 0 -0.0035926483451440418 -0.019166283328679687 0 -0.0037473705129801491 -0.019097673665789901 0 -0.0036327741643365666 -0.019124280888537709 0 -0.0035926483451440418 -0.019166283328679687 0 -0.0037473705129801491 -0.019097673665789901 0 -0.0037803744537066521 -0.019152140751402539 0 -0.0035914777981638961 -0.019152369742796004 0 -0.0035344145917147766 -0.019166308023024263 0 -0.0036327741643365666 -0.019124280888537709 0 -0.0041194729681134235 -0.019078197725601893 0 -0.0039121699661734564 -0.019086760560716721 0 -0.0039683346643314089 -0.019187976254479138 0 -0.0039121699661734564 -0.019086760560716721 0 -0.0037803744537066521 -0.019152140751402539 0 -0.0039683346643314089 -0.019187976254479138 0 -0.0037473705129801491 -0.019097673665789901 0 -0.0039121699661734564 -0.019086760560716721 0 -0.0037803744537066521 -0.019152140751402539 0 -0.0035926483451440418 -0.019166283328679687 0 -0.0037803744537066521 -0.019152140751402539 0 -0.0037342452490946631 -0.019225321681842236 0 -0.0037803744537066521 -0.019152140751402539 0 -0.0039683346643314089 -0.019187976254479138 0 -0.0037342452490946631 -0.019225321681842236 0 -0.0039683346643314089 -0.019187976254479138 0 -0.0039387075827247682 -0.01933885101452909 0 -0.0037342452490946631 -0.019225321681842236 0 -0.003516336258638049 -0.019227044617943227 0 -0.0037342452490946631 -0.019225321681842236 0 -0.0036692477691117891 -0.019374853948422536 0 -0.0039387075827247682 -0.01933885101452909 0 -0.0037342452490946631 -0.019225321681842236 0 -0.0036692477691117891 -0.019374853948422536 0 -0.0039387075827247682 -0.01933885101452909 0 -0.0036692477691117891 -0.019374853948422536 0 -0.0039505448557221939 -0.019552889723284537 0 -0.0042926682719226662 -0.017278624352118233 0 -0.0040259439209348706 -0.017250598837238527 0 -0.0042339356480287742 -0.017423054138214943 0 -0.0041386252161745227 -0.018527645694421471 0 -0.0032767038511153511 -0.018487584109112599 0 -0.0040650526410489982 -0.019815339773283393 0 -0.0039505448557221939 -0.019552889723284537 0 -0.003650141856719775 -0.019765509870218967 0 -0.0036692477691117891 -0.019374853948422536 0 -0.0039505448557221939 -0.019552889723284537 0 -0.003650141856719775 -0.019765509870218967 0 -0.0032165636649997653 -0.019261109353609664 0 -0.0022783155025146019 -0.018689643262792467 0 -0.0028702622351301672 -0.018753324258178973 0 -0.00323696453168208 -0.0193055563772449 0 -0.0032767038511153511 -0.018487584109112599 0 -0.0032165636649997653 -0.019261109353609664 0 -0.0036692477691117891 -0.019374853948422536 0 -0.003650141856719775 -0.019765509870218967 0 -0.0029639414881971879 -0.018845286990133967 0 -0.0028702622351301672 -0.018753324258178973 0 -0.002746129728890542 -0.017334635200686004 0 -0.0032165636649997653 -0.019261109353609664 0 -0.0029639414881971879 -0.018845286990133967 0 -0.0028702622351301672 -0.018753324258178973 0 -0.0032165636649997653 -0.019261109353609664 0 -0.0031881024390708959 -0.019018016434367055 0 -0.0029639414881971879 -0.018845286990133967 0 -0.0031881024390708959 -0.019018016434367055 0 -0.0029639414881971879 -0.018845286990133967 0 -0.0031314664244791522 -0.018833193206675657 0 -0.0030327555110609655 -0.018571027324642247 0 -0.0029639414881971879 -0.018845286990133967 0 -0.0031314664244791522 -0.018833193206675657 0 -0.0032767038511153511 -0.018487584109112599 0 -0.0026932004454694059 -0.018576123200877738 0 -0.0032404256477637857 -0.018053872066593073 0 -0.0030327555110609655 -0.018571027324642247 0 -0.0018586589882293859 -0.017958209696907108 0 -0.0028537961534288907 -0.018713405709568628 0 -0.0023245200274229693 -0.017588753575061917 0 -0.0030327555110609655 -0.018571027324642247 0 -0.0029639414881971879 -0.018845286990133967 0 -0.0018586589882293859 -0.017958209696907108 0 -0.0023555625021792971 -0.018625276350540426 0 -0.0028702622351301672 -0.018753324258178973 0 -0.002746129728890542 -0.017334635200686004 0 -0.0023555625021792971 -0.018625276350540426 0 -0.002746129728890542 -0.017334635200686004 0 -0.0015693710577861899 -0.017773782820920202 0 -0.0015256229281863062 -0.017086055774139332 0 -0.002746129728890542 -0.017334635200686004 0 -0.0015693710577861899 -0.017773782820920202 0 -0.0032767038511153511 -0.018487584109112599 0 -0.0027508540743236189 -0.017426059004004828 0 -0.010323988789525118 -0.025963969001912991 0 -0.0098690031568949253 -0.026133824461364065 0 -0.010379252361638117 -0.025946429892882497 0 -0.010321792437277428 -0.025911427090282737 0 -0.010114935952614906 -0.026293311724056641 0 -0.01042996480382139 -0.025892931611744562 0 -0.010379252361638117 -0.025946429892882497 0 -0.010321792437277428 -0.025911427090282737 0 -0.010321792437277428 -0.025911427090282737 0 -0.010114935952614906 -0.026293311724056641 0 -0.010203012218874841 -0.025845649555731053 0 -0.0099365452834573719 -0.02602682043574955 0 -0.010114935952614906 -0.026293311724056641 0 -0.010203012218874841 -0.025845649555731053 0 -0.0099365452834573719 -0.02602682043574955 0 -0.010114935952614906 -0.026293311724056641 0 -0.0097389065448716377 -0.026330361486379163 0 -0.0096589012730797456 -0.025958671763798364 0 -0.010123488231398643 -0.026315497400615812 0 -0.009389603380991627 -0.026435148186630866 0 -0.010379252361638117 -0.025946429892882497 0 -0.0096589012730797456 -0.025958671763798364 0 -0.010123488231398643 -0.026315497400615812 0 -0.004213945397544409 -0.018876521533704699 0 -0.0039845101939640177 -0.018746426421810493 0 -0.0039900500910582766 -0.018917223679360808 0 -0.0039845101939640177 -0.018746426421810493 0 -0.0039900500910582766 -0.018917223679360808 0 -0.0038270853342976807 -0.018945449618608105 0 -0.0039900500910582766 -0.018917223679360808 0 -0.0038677658292519592 -0.019017641052516229 0 -0.0040405966493763275 -0.019001740849431636 0 -0.0039900500910582766 -0.018917223679360808 0 -0.0038677658292519592 -0.019017641052516229 0 -0.0038270853342976807 -0.018945449618608105 0 -0.0037473705129801491 -0.019097673665789901 0 -0.0039121699661734564 -0.019086760560716721 0 -0.0038677658292519592 -0.019017641052516229 0 -0.0041194729681134235 -0.019078197725601893 0 -0.0039121699661734564 -0.019086760560716721 0 -0.0040405966493763275 -0.019001740849431636 0 -0.0039121699661734564 -0.019086760560716721 0 -0.0038677658292519592 -0.019017641052516229 0 -0.0040405966493763275 -0.019001740849431636 0 -0.0036327741643365666 -0.019124280888537709 0 -0.0037359260883917333 -0.019043537833065692 0 -0.0036539054099291451 -0.019091602148841515 0 -0.0035914777981638961 -0.019152369742796004 0 -0.0036327741643365666 -0.019124280888537709 0 -0.0036539054099291451 -0.019091602148841515 0 -0.0037473705129801491 -0.019097673665789901 0 -0.0038677658292519592 -0.019017641052516229 0 -0.0037359260883917333 -0.019043537833065692 0 -0.0037473705129801491 -0.019097673665789901 0 -0.0036327741643365666 -0.019124280888537709 0 -0.0037359260883917333 -0.019043537833065692 0 -0.0038677658292519592 -0.019017641052516229 0 -0.0037359260883917333 -0.019043537833065692 0 -0.0038270853342976807 -0.018945449618608105 0 -0.0037359260883917333 -0.019043537833065692 0 -0.003712856869884961 -0.01900994388361402 0 -0.0036539054099291451 -0.019091602148841515 0 -0.003712856869884961 -0.01900994388361402 0 -0.0038270853342976807 -0.018945449618608105 0 -0.0037095056278578175 -0.01892213689295973 0 -0.0039845101939640177 -0.018746426421810493 0 -0.0038270853342976807 -0.018945449618608105 0 -0.0037095056278578175 -0.01892213689295973 0 -0.0064147606960222236 -0.022532076984714988 0 -0.0065517239948787477 -0.022550804235328244 0 -0.003712856869884961 -0.01900994388361402 0 -0.0037095056278578175 -0.01892213689295973 0 -0.0036575779809372086 -0.019061853526812084 0 -0.0037359260883917333 -0.019043537833065692 0 -0.003712856869884961 -0.01900994388361402 0 -0.0038270853342976807 -0.018945449618608105 0 -0.0065517239948787477 -0.022550804235328244 0 -0.0070606195813677445 -0.024605762524591887 0 -0.0037095056278578175 -0.01892213689295973 0 -0.0036575779809372086 -0.019061853526812084 0 -0.0036289255879132822 -0.019105170633451546 0 -0.009389603380991627 -0.026435148186630866 0 -0.0087825157426882957 -0.026309412878735547 0 -0.008540232203083576 -0.026520557008126052 0 -0.0087825157426882957 -0.026309412878735547 0 -0.0085904027028963943 -0.026416744271269825 0 -0.008743707054537319 -0.026151850083608052 0 -0.0078265164139460063 -0.025496273600081932 0 -0.0070606195813677445 -0.024605762524591887 0 -0.0036575779809372086 -0.019061853526812084 0 -0.0036349811520938551 -0.019124889074619029 0 -0.0036289255879132822 -0.019105170633451546 0 -0.0036575779809372086 -0.019061853526812084 0 -0.0036539054099291451 -0.019091602148841515 0 -0.0036268942370616258 -0.019131495197306635 0 -0.003712856869884961 -0.01900994388361402 0 -0.0036575779809372086 -0.019061853526812084 0 -0.0036539054099291451 -0.019091602148841515 0 -0.0036268942370616258 -0.019131495197306635 0 -0.0036429590930922122 -0.019161215964301773 0 -0.0036349811520938551 -0.019124889074619029 0 -0.0036575779809372086 -0.019061853526812084 0 -0.0036268942370616258 -0.019131495197306635 0 -0.0036349811520938551 -0.019124889074619029 0 -0.0035914777981638961 -0.019152369742796004 0 -0.003619010731038561 -0.019172200676363792 0 -0.0036268942370616258 -0.019131495197306635 0 -0.003619010731038561 -0.019172200676363792 0 -0.0036268942370616258 -0.019131495197306635 0 -0.0036429590930922122 -0.019161215964301773 0 -0.0035914777981638961 -0.019152369742796004 0 -0.0036539054099291451 -0.019091602148841515 0 -0.0036268942370616258 -0.019131495197306635 0 -0.0037473295273309061 -0.019184302097612873 0 -0.0036746370489987058 -0.019183918953024435 0 -0.0036924195353227746 -0.019205413222623195 0 -0.0036429590930922122 -0.019161215964301773 0 -0.0036349811520938551 -0.019124889074619029 0 -0.0036924195353227746 -0.019205413222623195 0 -0.0036746370489987058 -0.019183918953024435 0 -0.0036429590930922122 -0.019161215964301773 0 -0.0036924195353227746 -0.019205413222623195 0 -0.0036746370489987058 -0.019183918953024435 0 -0.003619010731038561 -0.019172200676363792 0 -0.0036429590930922122 -0.019161215964301773 0 -0.0073320357814609738 -0.026219336310288933 0 -0.0077959935726014474 -0.026139946337176926 0 -0.0077335687560695738 -0.025824534130103133 0 -0.0085904027028963943 -0.026416744271269825 0 -0.0083925056603793031 -0.026310023719035285 0 -0.0081356736461764244 -0.026313534296572134 0 -0.0070606195813677445 -0.024605762524591887 0 -0.0080912788922914442 -0.026175055290575275 0 -0.0036349811520938551 -0.019124889074619029 0 -0.0036289255879132822 -0.019105170633451546 0 -0.0036924195353227746 -0.019205413222623195 0 -0.0090797011083088262 -0.026407035648621614 0 -0.0085079262501242016 -0.026685500779883249 0 -0.0083925056603793031 -0.026310023719035285 0 -0.008743707054537319 -0.026151850083608052 0 -0.00811775857279683 -0.026295735986354592 0 -0.0070606195813677445 -0.024605762524591887 0 -0.0056864550461066376 -0.022391633900086187 0 -0.0085904027028963943 -0.026416744271269825 0 -0.0083925056603793031 -0.026310023719035285 0 -0.008743707054537319 -0.026151850083608052 0 -0.0090436327303005607 -0.026697179590509632 0 -0.0088221684315641091 -0.026755232308759688 0 -0.0086629988034944202 -0.026964030587874142 0 -0.0090436327303005607 -0.026697179590509632 0 -0.0088673933492411632 -0.02658266149922852 0 -0.0088221684315641091 -0.026755232308759688 0 -0.0090436327303005607 -0.026697179590509632 0 -0.0094694447431788887 -0.026667909804978074 0 -0.0086629988034944202 -0.026964030587874142 0 -0.0090436327303005607 -0.026697179590509632 0 -0.0091162861750456632 -0.026555752825428384 0 -0.0088673933492411632 -0.02658266149922852 0 -0.0088673933492411632 -0.02658266149922852 0 -0.0090726466463090863 -0.026353802808607406 0 -0.0087844962677230652 -0.026303805335418012 0 -0.0091162861750456632 -0.026555752825428384 0 -0.0088673933492411632 -0.02658266149922852 0 -0.0090726466463090863 -0.026353802808607406 0 -0.0090726466463090863 -0.026353802808607406 0 -0.0093087622766491063 -0.026482128645975454 0 -0.0093533754050307717 -0.026239450715279687 0 -0.0093087622766491063 -0.026482128645975454 0 -0.0094666502350050728 -0.026424353427040088 0 -0.0093533754050307717 -0.026239450715279687 0 -0.0091162861750456632 -0.026555752825428384 0 -0.0090726466463090863 -0.026353802808607406 0 -0.0093087622766491063 -0.026482128645975454 0 -0.0093087622766491063 -0.026482128645975454 0 -0.0092424415585299 -0.02660595358240931 0 -0.0094694447431788887 -0.026667909804978074 0 -0.0090436327303005607 -0.026697179590509632 0 -0.0092424415585299 -0.02660595358240931 0 -0.0094694447431788887 -0.026667909804978074 0 -0.0090436327303005607 -0.026697179590509632 0 -0.0091162861750456632 -0.026555752825428384 0 -0.0092424415585299 -0.02660595358240931 0 -0.0091162861750456632 -0.026555752825428384 0 -0.0093087622766491063 -0.026482128645975454 0 -0.0092424415585299 -0.02660595358240931 0 -0.0096589012730797456 -0.025958671763798364 0 -0.009389603380991627 -0.026435148186630866 0 -0.008743707054537319 -0.026151850083608052 0 -0.010114935952614906 -0.026293311724056641 0 -0.0094694447431788887 -0.026667909804978074 0 -0.0097389065448716377 -0.026330361486379163 0 -0.009389603380991627 -0.026435148186630866 0 -0.0087825157426882957 -0.026309412878735547 0 -0.008743707054537319 -0.026151850083608052 0 -0.0098690031568949253 -0.026133824461364065 0 -0.0090797011083088262 -0.026407035648621614 0 -0.0094694447431788887 -0.026667909804978074 0 -0.0097389065448716377 -0.026330361486379163 0 -0.0094666502350050728 -0.026424353427040088 0 -0.0097389065448716377 -0.026330361486379163 0 -0.0094666502350050728 -0.026424353427040088 0 -0.0093533754050307717 -0.026239450715279687 0 -0.0093087622766491063 -0.026482128645975454 0 -0.0094694447431788887 -0.026667909804978074 0 -0.0094666502350050728 -0.026424353427040088 0 -0.0097389065448716377 -0.026330361486379163 0 -0.0096115062412729536 -0.025995050169672091 0 -0.0093533754050307717 -0.026239450715279687 0 -0.0099365452834573719 -0.02602682043574955 0 -0.0097389065448716377 -0.026330361486379163 0 -0.0096115062412729536 -0.025995050169672091 0 -0.0090096907222337215 -0.026174267797179927 0 -0.0093533754050307717 -0.026239450715279687 0 -0.0091197291070642967 -0.025932387166401578 0 -0.0096115062412729536 -0.025995050169672091 0 -0.0093533754050307717 -0.026239450715279687 0 -0.0091197291070642967 -0.025932387166401578 0 -0.0090096907222337215 -0.026174267797179927 0 -0.0086943472136977468 -0.026053367864277907 0 -0.0091197291070642967 -0.025932387166401578 0 -0.0090726466463090863 -0.026353802808607406 0 -0.0090096907222337215 -0.026174267797179927 0 -0.0087844962677230652 -0.026303805335418012 0 -0.0090726466463090863 -0.026353802808607406 0 -0.0090096907222337215 -0.026174267797179927 0 -0.0093533754050307717 -0.026239450715279687 0 -0.0082671454907039307 -0.026047828336553287 0 -0.0086943472136977468 -0.026053367864277907 0 -0.0083995635241613763 -0.026266266477501406 0 -0.0090096907222337215 -0.026174267797179927 0 -0.0086943472136977468 -0.026053367864277907 0 -0.0087844962677230652 -0.026303805335418012 0 -0.0086943472136977468 -0.026053367864277907 0 -0.0083995635241613763 -0.026266266477501406 0 -0.0087844962677230652 -0.026303805335418012 0 -0.0086943472136977468 -0.026053367864277907 0 -0.0085157676633632485 -0.025837816179014754 0 -0.0091197291070642967 -0.025932387166401578 0 -0.0082671454907039307 -0.026047828336553287 0 -0.0086943472136977468 -0.026053367864277907 0 -0.0085157676633632485 -0.025837816179014754 0 -0.0082671454907039307 -0.026047828336553287 0 -0.0077405078103285332 -0.025843650442137416 0 -0.0085157676633632485 -0.025837816179014754 0 -0.0082671454907039307 -0.026047828336553287 0 -0.0077405078103285332 -0.025843650442137416 0 -0.0079698431121106861 -0.026281509082317887 0 -0.0079698431121106861 -0.026281509082317887 0 -0.0079713391769520286 -0.026802653773685021 0 -0.0068707735057501112 -0.025915272783646724 0 -0.0077405078103285332 -0.025843650442137416 0 -0.0079698431121106861 -0.026281509082317887 0 -0.0068707735057501112 -0.025915272783646724 0 -0.0079698431121106861 -0.026281509082317887 0 -0.0083631665112674902 -0.026693861708567274 0 -0.0079713391769520286 -0.026802653773685021 0 -0.0079698431121106861 -0.026281509082317887 0 -0.0083631665112674902 -0.026693861708567274 0 -0.0083365377502166889 -0.026433687776528294 0 -0.0083631665112674902 -0.026693861708567274 0 -0.0083365377502166889 -0.026433687776528294 0 -0.0085952410969031192 -0.026515694523102349 0 -0.0079698431121106861 -0.026281509082317887 0 -0.0083365377502166889 -0.026433687776528294 0 -0.0083995635241613763 -0.026266266477501406 0 -0.0082671454907039307 -0.026047828336553287 0 -0.0079698431121106861 -0.026281509082317887 0 -0.0083995635241613763 -0.026266266477501406 0 -0.0083365377502166889 -0.026433687776528294 0 -0.0083995635241613763 -0.026266266477501406 0 -0.0085952410969031192 -0.026515694523102349 0 -0.0083995635241613763 -0.026266266477501406 0 -0.0087844962677230652 -0.026303805335418012 0 -0.0085952410969031192 -0.026515694523102349 0 -0.0088673933492411632 -0.02658266149922852 0 -0.0087844962677230652 -0.026303805335418012 0 -0.0085952410969031192 -0.026515694523102349 0 -0.0088673933492411632 -0.02658266149922852 0 -0.0085952410969031192 -0.026515694523102349 0 -0.0086652171058232592 -0.026699990173935612 0 -0.0083631665112674902 -0.026693861708567274 0 -0.0085952410969031192 -0.026515694523102349 0 -0.0086652171058232592 -0.026699990173935612 0 -0.0088673933492411632 -0.02658266149922852 0 -0.0086652171058232592 -0.026699990173935612 0 -0.0088221684315641091 -0.026755232308759688 0 -0.0077959935726014474 -0.026139946337176926 0 -0.0079976922945845536 -0.025917486126488441 0 -0.0082846659443104268 -0.026065906847934462 0 -0.0083925056603793031 -0.026310023719035285 0 -0.00811775857279683 -0.026295735986354592 0 -0.0081356736461764244 -0.026313534296572134 0 -0.0086652171058232592 -0.026699990173935612 0 -0.0088221684315641091 -0.026755232308759688 0 -0.0086629988034944202 -0.026964030587874142 0 -0.0080912788922914442 -0.026175055290575275 0 -0.008232582531355951 -0.026108422865283171 0 -0.00811775857279683 -0.026295735986354592 0 -0.0081356736461764244 -0.026313534296572134 0 -0.0082846659443104268 -0.026065906847934462 0 -0.0083631665112674902 -0.026693861708567274 0 -0.0086652171058232592 -0.026699990173935612 0 -0.0086629988034944202 -0.026964030587874142 0 -0.0083631665112674902 -0.026693861708567274 0 -0.0086629988034944202 -0.026964030587874142 0 -0.0079713391769520286 -0.026802653773685021 0 -0.0081424902130965149 -0.025411068981868998 0 -0.0079976922945845536 -0.025917486126488441 0 -0.0082846659443104268 -0.026065906847934462 0 -0.0081424902130965149 -0.025411068981868998 0 -0.0077335687560695738 -0.025824534130103133 0 -0.0079976922945845536 -0.025917486126488441 0 -0.0077959935726014474 -0.026139946337176926 0 -0.0077335687560695738 -0.025824534130103133 0 -0.0079976922945845536 -0.025917486126488441 0 -0.0056371259754614865 -0.022010688330677007 0 -0.0056864550461066376 -0.022391633900086187 0 -0.0054191239983474408 -0.023864153123526285 0 -0.0058427321417628486 -0.024122047623927723 0 -0.0058484784185038547 -0.024653586951117384 0 -0.0081424902130965149 -0.025411068981868998 0 -0.0082846659443104268 -0.026065906847934462 0 -0.0084125896423772346 -0.026034511850381508 0 -0.0056371259754614865 -0.022010688330677007 0 -0.0072596346389380033 -0.026027616608751154 0 -0.0058427321417628486 -0.024122047623927723 0 -0.0058484784185038547 -0.024653586951117384 0 -0.0060907462062126426 -0.024557895276728189 0 -0.0072596346389380033 -0.026027616608751154 0 -0.0065189812997309094 -0.02561238027682522 0 -0.0086629988034944202 -0.026964030587874142 0 -0.0075494511518060595 -0.027446410607247923 0 -0.0079713391769520286 -0.026802653773685021 0 -0.00811775857279683 -0.026295735986354592 0 -0.0082846659443104268 -0.026065906847934462 0 -0.0084125896423772346 -0.026034511850381508 0 -0.0085079262501242016 -0.026685500779883249 0 -0.0072596346389380033 -0.026027616608751154 0 -0.0075494511518060595 -0.027446410607247923 0 -0.0079713391769520286 -0.026802653773685021 0 -0.0068707735057501112 -0.025915272783646724 0 -0.0057292498286243242 -0.024705349927357706 0 -0.0066080501021755353 -0.025058400636736183 0 -0.0068707735057501112 -0.025915272783646724 0 -0.0066080501021755353 -0.025058400636736183 0 -0.0069220462117366328 -0.025283721912924384 0 -0.0068707735057501112 -0.025915272783646724 0 -0.0072596346389380033 -0.026027616608751154 0 -0.0066570201667334036 -0.025893168568611735 0 -0.0057292498286243242 -0.024705349927357706 0 -0.0066080501021755353 -0.025058400636736183 0 -0.0060907462062126426 -0.024557895276728189 0 -0.0066080501021755353 -0.025058400636736183 0 -0.0060907462062126426 -0.024557895276728189 0 -0.0065010754757656658 -0.02430216210107386 0 -0.0060907462062126426 -0.024557895276728189 0 -0.0065010754757656658 -0.02430216210107386 0 -0.0061650223031675614 -0.024217310250583601 0 -0.0062254642194534511 -0.023894723196397745 0 -0.0065010754757656658 -0.02430216210107386 0 -0.0061650223031675614 -0.024217310250583601 0 -0.0058427321417628486 -0.024122047623927723 0 -0.0060907462062126426 -0.024557895276728189 0 -0.0061650223031675614 -0.024217310250583601 0 -0.0062254642194534511 -0.023894723196397745 0 -0.0058427321417628486 -0.024122047623927723 0 -0.0061650223031675614 -0.024217310250583601 0 -0.0067164617760495631 -0.023899602848227019 0 -0.0065010754757656658 -0.02430216210107386 0 -0.0069201367557796389 -0.024260771375740238 0 -0.0065010754757656658 -0.02430216210107386 0 -0.0067920012039085504 -0.02472203486119998 0 -0.0069201367557796389 -0.024260771375740238 0 -0.0067920012039085504 -0.02472203486119998 0 -0.0069220462117366328 -0.025283721912924384 0 -0.0071058233122294799 -0.024579720371914589 0 -0.0066080501021755353 -0.025058400636736183 0 -0.0065010754757656658 -0.02430216210107386 0 -0.0067920012039085504 -0.02472203486119998 0 -0.0066080501021755353 -0.025058400636736183 0 -0.0067920012039085504 -0.02472203486119998 0 -0.0069220462117366328 -0.025283721912924384 0 -0.0069220462117366328 -0.025283721912924384 0 -0.0069695456144142067 -0.025622915583783181 0 -0.007054708576251287 -0.025257189119188297 0 -0.0069220462117366328 -0.025283721912924384 0 -0.0068707735057501112 -0.025915272783646724 0 -0.0069695456144142067 -0.025622915583783181 0 -0.0077405078103285332 -0.025843650442137416 0 -0.0068707735057501112 -0.025915272783646724 0 -0.0071661778890881531 -0.025733391498804624 0 -0.0068707735057501112 -0.025915272783646724 0 -0.0069695456144142067 -0.025622915583783181 0 -0.0071661778890881531 -0.025733391498804624 0 -0.0069695456144142067 -0.025622915583783181 0 -0.0071661778890881531 -0.025733391498804624 0 -0.0069786664796880563 -0.025642560239252252 0 -0.0071661778890881531 -0.025733391498804624 0 -0.0070903639797969742 -0.025623021882529001 0 -0.0069786664796880563 -0.025642560239252252 0 -0.0071661778890881531 -0.025733391498804624 0 -0.0075718292985158774 -0.025628946269245785 0 -0.0070903639797969742 -0.025623021882529001 0 -0.0077405078103285332 -0.025843650442137416 0 -0.0071661778890881531 -0.025733391498804624 0 -0.0075718292985158774 -0.025628946269245785 0 -0.0075718292985158774 -0.025628946269245785 0 -0.0070903639797969742 -0.025623021882529001 0 -0.0070355690132785269 -0.025508674331572206 0 -0.0075718292985158774 -0.025628946269245785 0 -0.0070355690132785269 -0.025508674331572206 0 -0.0079777538758819145 -0.025386065215162477 0 -0.0070903639797969742 -0.025623021882529001 0 -0.0070355690132785269 -0.025508674331572206 0 -0.0068088395880518118 -0.025566958802127431 0 -0.0070355690132785269 -0.025508674331572206 0 -0.0072775389793739709 -0.024999894642480362 0 -0.0065520497077003487 -0.025414080209412625 0 -0.0072775389793739709 -0.024999894642480362 0 -0.0065520497077003487 -0.025414080209412625 0 -0.0059970490875272805 -0.024999923105049601 0 -0.0070355690132785269 -0.025508674331572206 0 -0.0072775389793739709 -0.024999894642480362 0 -0.00773021704602396 -0.025589435581616287 0 -0.007126770273647243 -0.025487885070161739 0 -0.0078213260312378925 -0.02527280966672699 0 -0.0070355690132785269 -0.025508674331572206 0 -0.0078665137409014048 -0.02493575102259175 0 -0.0079777538758819145 -0.025386065215162477 0 -0.0078665137409014048 -0.02493575102259175 0 -0.0086598529566791396 -0.025169170973696642 0 -0.0079777538758819145 -0.025386065215162477 0 -0.0078665137409014048 -0.02493575102259175 0 -0.0088483412809324362 -0.024771180249658509 0 -0.0086598529566791396 -0.025169170973696642 0 -0.0086598529566791396 -0.025169170973696642 0 -0.008620734616443004 -0.025414896617863402 0 -0.0079777538758819145 -0.025386065215162477 0 -0.0078213260312378925 -0.02527280966672699 0 -0.0088083999058511039 -0.025106938049721608 0 -0.0072775389793739709 -0.024999894642480362 0 -0.00773021704602396 -0.025589435581616287 0 -0.0085615177983420724 -0.024999860932048645 0 -0.00773021704602396 -0.025589435581616287 0 -0.0085615177983420724 -0.024999860932048645 0 -0.0088099116304477913 -0.025409542256507198 0 -0.0088083999058511039 -0.025106938049721608 0 -0.0098446325561155033 -0.024999992691844247 0 -0.0085615177983420724 -0.024999860932048645 0 -0.0088099116304477913 -0.025409542256507198 0 -0.0098449474731823333 -0.025000043230547005 0 -0.0088483412809324362 -0.024771180249658509 0 -0.0086598529566791396 -0.025169170973696642 0 -0.0093349634661447304 -0.025181027973419416 0 -0.0086598529566791396 -0.025169170973696642 0 -0.0090963396638843522 -0.025404806345434829 0 -0.008620734616443004 -0.025414896617863402 0 -0.0086598529566791396 -0.025169170973696642 0 -0.0090963396638843522 -0.025404806345434829 0 -0.0093349634661447304 -0.025181027973419416 0 -0.008620734616443004 -0.025414896617863402 0 -0.0082243678544386689 -0.025624331885016342 0 -0.0090447040214515478 -0.025613625902536807 0 -0.0090963396638843522 -0.025404806345434829 0 -0.008620734616443004 -0.025414896617863402 0 -0.0090447040214515478 -0.025613625902536807 0 -0.0075718292985158774 -0.025628946269245785 0 -0.0079777538758819145 -0.025386065215162477 0 -0.0082243678544386689 -0.025624331885016342 0 -0.008620734616443004 -0.025414896617863402 0 -0.0079777538758819145 -0.025386065215162477 0 -0.0082243678544386689 -0.025624331885016342 0 -0.0077405078103285332 -0.025843650442137416 0 -0.0075718292985158774 -0.025628946269245785 0 -0.0082243678544386689 -0.025624331885016342 0 -0.0077405078103285332 -0.025843650442137416 0 -0.0082243678544386689 -0.025624331885016342 0 -0.0085157676633632485 -0.025837816179014754 0 -0.0082243678544386689 -0.025624331885016342 0 -0.0085157676633632485 -0.025837816179014754 0 -0.0090447040214515478 -0.025613625902536807 0 -0.0085157676633632485 -0.025837816179014754 0 -0.0091197291070642967 -0.025932387166401578 0 -0.0090447040214515478 -0.025613625902536807 0 -0.0094738311535869802 -0.025732542665767515 0 -0.0091197291070642967 -0.025932387166401578 0 -0.0090447040214515478 -0.025613625902536807 0 -0.0096115062412729536 -0.025995050169672091 0 -0.0094738311535869802 -0.025732542665767515 0 -0.0091197291070642967 -0.025932387166401578 0 -0.0099365452834573719 -0.02602682043574955 0 -0.0096115062412729536 -0.025995050169672091 0 -0.009953089923539573 -0.02569838296781406 0 -0.0096115062412729536 -0.025995050169672091 0 -0.0094738311535869802 -0.025732542665767515 0 -0.009953089923539573 -0.02569838296781406 0 -0.0094738311535869802 -0.025732542665767515 0 -0.009953089923539573 -0.02569838296781406 0 -0.0096043112616715932 -0.02545277468910908 0 -0.009953089923539573 -0.02569838296781406 0 -0.0096043112616715932 -0.02545277468910908 0 -0.010150833746139292 -0.025452148362634319 0 -0.0094738311535869802 -0.025732542665767515 0 -0.0096043112616715932 -0.02545277468910908 0 -0.0090447040214515478 -0.025613625902536807 0 -0.0090963396638843522 -0.025404806345434829 0 -0.0096043112616715932 -0.02545277468910908 0 -0.0090447040214515478 -0.025613625902536807 0 -0.0096043112616715932 -0.02545277468910908 0 -0.0093349634661447304 -0.025181027973419416 0 -0.010245002484499841 -0.025272157284778315 0 -0.0090963396638843522 -0.025404806345434829 0 -0.0096043112616715932 -0.02545277468910908 0 -0.0093349634661447304 -0.025181027973419416 0 -0.0093349634661447304 -0.025181027973419416 0 -0.0098456375105621281 -0.024998564743443877 0 -0.010245002484499841 -0.025272157284778315 0 -0.0088483412809324362 -0.024771180249658509 0 -0.0093349634661447304 -0.025181027973419416 0 -0.0098456375105621281 -0.024998564743443877 0 -0.0098456375105621281 -0.024998564743443877 0 -0.010245002484499841 -0.025272157284778315 0 -0.011210810228016774 -0.025000245812547714 0 -0.0096043112616715932 -0.02545277468910908 0 -0.010245002484499841 -0.025272157284778315 0 -0.010150833746139292 -0.025452148362634319 0 -0.010150833746139292 -0.025452148362634319 0 -0.010587196097743418 -0.025358569056836436 0 -0.010311794930650287 -0.025567600654023435 0 -0.010245002484499841 -0.025272157284778315 0 -0.010150833746139292 -0.025452148362634319 0 -0.010587196097743418 -0.025358569056836436 0 -0.01169513750487035 -0.025686816513839777 0 -0.011524486684306504 -0.025092289886330901 0 -0.011213510296120683 -0.025000054707676141 0 -0.010245002484499841 -0.025272157284778315 0 -0.010587196097743418 -0.025358569056836436 0 -0.011210810228016774 -0.025000245812547714 0 -0.011149122284753956 -0.025493539853281965 0 -0.011213192268900114 -0.024999966846138904 0 -0.01169513750487035 -0.025686816513839777 0 -0.011524486684306504 -0.025092289886330901 0 -0.01199258901465647 -0.025689472086598809 0 -0.012503400638343673 -0.024999815882881603 0 -0.011524486684306504 -0.025092289886330901 0 -0.01235925746023638 -0.025386402935857193 0 -0.011524486684306504 -0.025092289886330901 0 -0.01235925746023638 -0.025386402935857193 0 -0.012475309962342439 -0.025934888617458584 0 -0.01158104497948929 -0.025124996454394085 0 -0.01220874756959865 -0.025773886490277956 0 -0.012503400638343673 -0.024999815882881603 0 -0.011524486684306504 -0.025092289886330901 0 -0.011213510296120683 -0.025000054707676141 0 -0.012925255072999709 -0.025521615137053189 0 -0.01235925746023638 -0.025386402935857193 0 -0.012475309962342439 -0.025934888617458584 0 -0.01169513750487035 -0.025686816513839777 0 -0.01199258901465647 -0.025689472086598809 0 -0.011980861472799705 -0.026085524117555915 0 -0.010433030491274939 -0.025665654607408026 0 -0.010311794930650287 -0.025567600654023435 0 -0.010203012218874841 -0.025845649555731053 0 -0.011149122284753956 -0.025493539853281965 0 -0.011164591287268891 -0.025758256247776563 0 -0.012272821549001073 -0.026047655723605141 0 -0.01199258901465647 -0.025689472086598809 0 -0.011980861472799705 -0.026085524117555915 0 -0.010587196097743418 -0.025358569056836436 0 -0.010433030491274939 -0.025665654607408026 0 -0.010311794930650287 -0.025567600654023435 0 -0.009953089923539573 -0.02569838296781406 0 -0.010150833746139292 -0.025452148362634319 0 -0.010311794930650287 -0.025567600654023435 0 -0.009953089923539573 -0.02569838296781406 0 -0.010311794930650287 -0.025567600654023435 0 -0.010203012218874841 -0.025845649555731053 0 -0.0099365452834573719 -0.02602682043574955 0 -0.009953089923539573 -0.02569838296781406 0 -0.010203012218874841 -0.025845649555731053 0 -0.011466285526302874 -0.02666430359897027 0 -0.011164591287268891 -0.025758256247776563 0 -0.01042996480382139 -0.025892931611744562 0 -0.010321792437277428 -0.025911427090282737 0 -0.010433030491274939 -0.025665654607408026 0 -0.010321792437277428 -0.025911427090282737 0 -0.010433030491274939 -0.025665654607408026 0 -0.010203012218874841 -0.025845649555731053 0 0.00026403100402425653 -0.023324432118545513 0 0.0012705796444128362 -0.023796044956761998 0 6.0220177486689628e-05 -0.024637855459911307 0 -0.00080828271455332234 -0.023621598540324255 0 0.00026403100402425653 -0.023324432118545513 0 6.0220177486689628e-05 -0.024637855459911307 0 -0.0046652311069896304 -0.024343706743200213 0 -0.0044580553941239477 -0.02467614222418214 0 -0.0084955805412134065 -0.025331793591402182 0 -0.009083248479252938 -0.024644352895627376 0 -0.0083530670907322746 -0.024706924624200998 0 -0.00080828271455332234 -0.023621598540324255 0 0.00026403100402425653 -0.023324432118545513 0 -0.00028541012291084214 -0.022609923708765124 0 -0.00080828271455332234 -0.023621598540324255 0 -0.0016800792187191067 -0.022592751779863616 0 -0.00028541012291084214 -0.022609923708765124 0 0.00026403100402425653 -0.023324432118545513 0 0.0011105296188138112 -0.022983226912864776 0 0.00044637641407716883 -0.022350479262647133 0 0.0011105296188138112 -0.022983226912864776 0 0.0025064614768733322 -0.023228699763265203 0 0.0012705796444128362 -0.023796044956761998 0 0.0011105296188138112 -0.022983226912864776 0 0.0025064614768733322 -0.023228699763265203 0 0.001066223470125796 -0.0222125728431679 0 0.00026403100402425653 -0.023324432118545513 0 0.0011105296188138112 -0.022983226912864776 0 0.0012705796444128362 -0.023796044956761998 0 0.0025064614768733322 -0.023228699763265203 0 0.0024635375333660102 -0.024163354669480407 0 0.0012705796444128362 -0.023796044956761998 0 0.0024635375333660102 -0.024163354669480407 0 0.0012705796444128362 -0.023796044956761998 0 0.0016389703048028496 -0.024799069609030069 0 0.0012705796444128362 -0.023796044956761998 0 0.0016389703048028496 -0.024799069609030069 0 6.0220177486689628e-05 -0.024637855459911307 0 0.0016389703048028496 -0.024799069609030069 0 0.0023213831926432314 -0.025808719612011817 0 0.00092291818863372453 -0.025662970344369845 0 0.0016389703048028496 -0.024799069609030069 0 0.00092291818863372453 -0.025662970344369845 0 6.0220177486689628e-05 -0.024637855459911307 0 0.0016389703048028496 -0.024799069609030069 0 0.0023213831926432314 -0.025808719612011817 0 0.002913821810761 -0.024819147906852357 0 0.0024635375333660102 -0.024163354669480407 0 0.0016389703048028496 -0.024799069609030069 0 0.002913821810761 -0.024819147906852357 0 0.0025889174965703734 -0.025601524019818717 0 0.0029129534949372047 -0.024858268709439718 0 -0.0012112051412718938 -0.023627658706273105 0 0.0025889174965703734 -0.025601524019818717 0 0.001778650089921036 -0.026707941571810702 0 0.0023213831926432314 -0.025808719612011817 0 0.00092291818863372453 -0.025662970344369845 0 -0.0012112051412718938 -0.023627658706273105 0 -0.0047423419828955113 -0.024755052870075529 0 -0.0088418428149497092 -0.023202748862865916 0 -0.0097045802119600597 -0.023837338980826326 0 -0.0085377042082456604 -0.02407977454113434 0 -0.0047423419828955113 -0.024755052870075529 0 -0.0044580553941239477 -0.02467614222418214 0 -0.0097045802119600597 -0.023837338980826326 0 -0.009083248479252938 -0.024644352895627376 0 -0.0085377042082456604 -0.02407977454113434 0 -0.009083248479252938 -0.024644352895627376 0 -0.0085377042082456604 -0.02407977454113434 0 -0.0083530670907322746 -0.024706924624200998 0 -0.0088418428149497092 -0.023202748862865916 0 -0.0085377042082456604 -0.02407977454113434 0 -0.0081794154770963769 -0.023393752513242206 0 -0.0085377042082456604 -0.02407977454113434 0 -0.0081794154770963769 -0.023393752513242206 0 -0.0078627186483122904 -0.024310355714121417 0 -0.007558578243750942 -0.02355914110107361 0 -0.0081794154770963769 -0.023393752513242206 0 -0.0078627186483122904 -0.024310355714121417 0 -0.007558578243750942 -0.02355914110107361 0 -0.0078627186483122904 -0.024310355714121417 0 -0.0073932377452127435 -0.024233556911796472 0 -0.0078627186483122904 -0.024310355714121417 0 -0.0073932377452127435 -0.024233556911796472 0 -0.0073163652730183337 -0.024969788897618587 0 -0.0085377042082456604 -0.02407977454113434 0 -0.0078627186483122904 -0.024310355714121417 0 -0.0083530670907322746 -0.024706924624200998 0 -0.0078627186483122904 -0.024310355714121417 0 -0.007844756582049351 -0.025121451424351425 0 -0.0083530670907322746 -0.024706924624200998 0 -0.0067920012039085504 -0.02472203486119998 0 -0.0069201367557796389 -0.024260771375740238 0 -0.0071058233122294799 -0.024579720371914589 0 -0.0071716308417812931 -0.023696816055516646 0 -0.0069201367557796389 -0.024260771375740238 0 -0.0071058233122294799 -0.024579720371914589 0 -0.0071716308417812931 -0.023696816055516646 0 -0.007558578243750942 -0.02355914110107361 0 -0.0073932377452127435 -0.024233556911796472 0 -0.0071716308417812931 -0.023696816055516646 0 -0.0073932377452127435 -0.024233556911796472 0 -0.0071058233122294799 -0.024579720371914589 0 -0.0073932377452127435 -0.024233556911796472 0 -0.0071058233122294799 -0.024579720371914589 0 -0.0073163652730183337 -0.024969788897618587 0 -0.0071058233122294799 -0.024579720371914589 0 -0.007054708576251287 -0.025257189119188297 0 -0.0073163652730183337 -0.024969788897618587 0 -0.0069220462117366328 -0.025283721912924384 0 -0.0071058233122294799 -0.024579720371914589 0 -0.007054708576251287 -0.025257189119188297 0 -0.007054708576251287 -0.025257189119188297 0 -0.0073163652730183337 -0.024969788897618587 0 -0.0070497230076581093 -0.025533822277856544 0 -0.0070497230076581093 -0.025533822277856544 0 -0.0072602836363427252 -0.025499429213284242 0 -0.0069984648479530041 -0.025585466156247891 0 -0.0073163652730183337 -0.024969788897618587 0 -0.0070497230076581093 -0.025533822277856544 0 -0.0072602836363427252 -0.025499429213284242 0 -0.0069695456144142067 -0.025622915583783181 0 -0.0070497230076581093 -0.025533822277856544 0 -0.0069786664796880563 -0.025642560239252252 0 -0.0069695456144142067 -0.025622915583783181 0 -0.007054708576251287 -0.025257189119188297 0 -0.0070497230076581093 -0.025533822277856544 0 -0.0084955805412134065 -0.025331793591402182 0 -0.007844756582049351 -0.025121451424351425 0 -0.0083530670907322746 -0.024706924624200998 0 -0.0073163652730183337 -0.024969788897618587 0 -0.007844756582049351 -0.025121451424351425 0 -0.0072602836363427252 -0.025499429213284242 0 -0.0078627186483122904 -0.024310355714121417 0 -0.0073163652730183337 -0.024969788897618587 0 -0.007844756582049351 -0.025121451424351425 0 -0.007844756582049351 -0.025121451424351425 0 -0.0072602836363427252 -0.025499429213284242 0 -0.0079631002282484365 -0.025960563365671152 0 -0.0081181273501341831 -0.02589997719501794 0 -0.005201224165275159 -0.025173144749688826 0 -0.0046652311069896304 -0.024343706743200213 0 -0.005201224165275159 -0.025173144749688826 0 -0.0084955805412134065 -0.025331793591402182 0 -0.007844756582049351 -0.025121451424351425 0 -0.0079631002282484365 -0.025960563365671152 0 -0.0036634798680710624 -0.027791899255291047 0 -0.0035719045912272554 -0.02687455049175828 0 -0.0029569157649889104 -0.027364335358857107 0 -0.005201224165275159 -0.025173144749688826 0 -0.0014105876234406824 -0.024407637140195185 0 -0.0071049731863590208 -0.025555150396895085 0 -0.0070981615336856776 -0.025558506033791114 0 -0.0069814203878854932 -0.025585172373030953 0 -0.0072602836363427252 -0.025499429213284242 0 -0.0071049731863590208 -0.025555150396895085 0 -0.0070981615336856776 -0.025558506033791114 0 -0.005201224165275159 -0.025173144749688826 0 -0.0056460819217408857 -0.026473905773958504 0 -0.0044244748115983747 -0.026883658591530215 0 -0.0035719045912272554 -0.02687455049175828 0 -0.0038109534967168848 -0.025919201425301481 0 -0.0036634798680710624 -0.027791899255291047 0 -0.0044244748115983747 -0.026883658591530215 0 -0.0035719045912272554 -0.02687455049175828 0 -0.0069786664796880563 -0.025642560239252252 0 -0.0069984648479530041 -0.025585466156247891 0 -0.0068088395880518118 -0.025566958802127431 0 -0.0070497230076581093 -0.025533822277856544 0 -0.0069786664796880563 -0.025642560239252252 0 -0.0069984648479530041 -0.025585466156247891 0 -0.0070981615336856776 -0.025558506033791114 0 -0.0069814203878854932 -0.025585172373030953 0 -0.0069984648479530041 -0.025585466156247891 0 -0.0072602836363427252 -0.025499429213284242 0 -0.0070981615336856776 -0.025558506033791114 0 -0.0069984648479530041 -0.025585466156247891 0 -0.0069814203878854932 -0.025585172373030953 0 -0.0068088395880518118 -0.025566958802127431 0 -0.0066506531153574062 -0.025507009810512033 0 -0.0069814203878854932 -0.025585172373030953 0 -0.0069984648479530041 -0.025585466156247891 0 -0.0068088395880518118 -0.025566958802127431 0 -0.0070903639797969742 -0.025623021882529001 0 -0.0069786664796880563 -0.025642560239252252 0 -0.0068088395880518118 -0.025566958802127431 0 -0.0068088395880518118 -0.025566958802127431 0 -0.0065520497077003487 -0.025414080209412625 0 -0.0066506531153574062 -0.025507009810512033 0 -0.0070355690132785269 -0.025508674331572206 0 -0.0068088395880518118 -0.025566958802127431 0 -0.0065520497077003487 -0.025414080209412625 0 -0.0056460819217408857 -0.026473905773958504 0 -0.0059564237775228358 -0.02563572554605743 0 -0.0052061619894819911 -0.025951490319235708 0 -0.0059946712490981033 -0.024999995247595903 0 -0.0045449318594984319 -0.024999981338413895 0 -0.0065520497077003487 -0.025414080209412625 0 -0.0066506531153574062 -0.025507009810512033 0 -0.0059970490875272805 -0.024999923105049601 0 -0.0059564237775228358 -0.02563572554605743 0 -0.0059948058505031607 -0.025000141913277766 0 -0.0035719045912272554 -0.02687455049175828 0 -0.0038109534967168848 -0.025919201425301481 0 -0.0028286952474687829 -0.026542645440783802 0 -0.0038109534967168848 -0.025919201425301481 0 -0.0027569438476837613 -0.025738128573637688 0 -0.0028286952474687829 -0.026542645440783802 0 -0.0044244748115983747 -0.026883658591530215 0 -0.0052061619894819911 -0.025951490319235708 0 -0.0038109534967168848 -0.025919201425301481 0 -0.0052061619894819911 -0.025951490319235708 0 -0.0038109534967168848 -0.025919201425301481 0 -0.0045449318594984319 -0.024999981338413895 0 -0.0038109534967168848 -0.025919201425301481 0 -0.0045449318594984319 -0.024999981338413895 0 -0.0030952057302064784 -0.024999990735562794 0 -0.0038109534967168848 -0.025919201425301481 0 -0.0030952057302064784 -0.024999990735562794 0 -0.0027569438476837613 -0.025738128573637688 0 -0.0030952057302064784 -0.024999990735562794 0 -0.0027569438476837613 -0.025738128573637688 0 -0.0016454649685709276 -0.024999967827022927 0 -0.0027569438476837613 -0.025738128573637688 0 -0.0016454649685709276 -0.024999967827022927 0 -0.0021175385157196974 -0.026167343727765288 0 -0.0021175385157196974 -0.026167343727765288 0 -0.0022255961060413509 -0.026984014745073857 0 -0.0012997441138802822 -0.026418561191611005 0 -0.0016454649685709276 -0.024999967827022927 0 -0.0021175385157196974 -0.026167343727765288 0 -0.0012997441138802822 -0.026418561191611005 0 -0.0027569438476837613 -0.025738128573637688 0 -0.0021175385157196974 -0.026167343727765288 0 -0.0028286952474687829 -0.026542645440783802 0 -0.0035719045912272554 -0.02687455049175828 0 -0.0028286952474687829 -0.026542645440783802 0 -0.0029569157649889104 -0.027364335358857107 0 -0.0021175385157196974 -0.026167343727765288 0 -0.0028286952474687829 -0.026542645440783802 0 -0.0022255961060413509 -0.026984014745073857 0 -0.0028286952474687829 -0.026542645440783802 0 -0.0022672243926059104 -0.026935484525329838 0 -0.0029569157649889104 -0.027364335358857107 0 -0.0016613398074218869 -0.025853981113846385 0 -0.0014105876234406824 -0.024407637140195185 0 -0.0026156665353165819 -0.026515066655044339 0 -0.0016613398074218869 -0.025853981113846385 0 -0.001312146161649977 -0.026857311876782041 0 -0.0018485294504429659 -0.026846835057704587 0 -0.0011342179824743314 -0.027370603552151061 0 -0.0016613398074218869 -0.025853981113846385 0 0.0011732594108052957 -0.024407073728296796 0 -0.0016613398074218869 -0.025853981113846385 0 -0.0013130850609268702 -0.026518691709078435 0 -0.001312146161649977 -0.026857311876782041 0 -0.0018485294504429659 -0.026846835057704587 0 -0.0010920174680565684 -0.026364390741252491 0 3.2013598054137985e-05 -0.021542793743619639 0 0.00044637641407716883 -0.022350479262647133 0 0.0010209208626219461 -0.022246609390726979 0 3.2013598054137985e-05 -0.021542793743619639 0 0.00044637641407716883 -0.022350479262647133 0 -0.00028541012291084214 -0.022609923708765124 0 0.00026403100402425653 -0.023324432118545513 0 0.00044637641407716883 -0.022350479262647133 0 -0.00028541012291084214 -0.022609923708765124 0 0.00080077300439109541 -0.023112098994862447 0 0.0011732594108052957 -0.024407073728296796 0 -0.0016800792187191067 -0.022592751779863616 0 -0.00028541012291084214 -0.022609923708765124 0 -0.00081713429210104427 -0.022056488938468961 0 3.2013598054137985e-05 -0.021542793743619639 0 -0.00028541012291084214 -0.022609923708765124 0 -0.00081713429210104427 -0.022056488938468961 0 0.0044874764987981267 -0.026061360960932912 0 0.0044938812632972997 -0.025896163154769825 0 0.00418883797720345 -0.025906785476162621 0 0.0022759951992793038 -0.026819111223366662 0 0.0011732594108052957 -0.024407073728296796 0 0.0037634446468738721 -0.024645837871428312 0 0.0011732594108052957 -0.024407073728296796 0 0.0011105296188138112 -0.022983226912864776 0 0.00044637641407716883 -0.022350479262647133 0 0.001066223470125796 -0.0222125728431679 0 -0.001312146161649977 -0.026857311876782041 0 -0.0011342179824743314 -0.027370603552151061 0 -0.00065567962666889413 -0.026827708452611239 0 -0.001312146161649977 -0.026857311876782041 0 -0.00065567962666889413 -0.026827708452611239 0 -0.0010920174680565684 -0.026364390741252491 0 -8.0396843595902871e-06 -0.027204817431843345 0 -0.00065567962666889413 -0.026827708452611239 0 0.00022306930605667686 -0.026400998952031192 0 -8.0396843595902871e-06 -0.027204817431843345 0 -0.0011342179824743314 -0.027370603552151061 0 -0.00065567962666889413 -0.026827708452611239 0 -0.00065567962666889413 -0.026827708452611239 0 -0.00034944355853436379 -0.025835042284712798 0 0.00022306930605667686 -0.026400998952031192 0 -0.00065567962666889413 -0.026827708452611239 0 -0.00034944355853436379 -0.025835042284712798 0 -0.0010920174680565684 -0.026364390741252491 0 -0.00035419949739270951 -0.025836036350859806 0 -0.0013130850609268702 -0.026518691709078435 0 -0.0016454649685709276 -0.024999967827022927 0 -0.00034944355853436379 -0.025835042284712798 0 -0.0012997441138802822 -0.026418561191611005 0 -0.0016454649685709276 -0.024999967827022927 0 -0.00034944355853436379 -0.025835042284712798 0 -0.00019560793881354577 -0.024999983582636744 0 -0.00034944355853436379 -0.025835042284712798 0 -0.00019560793881354577 -0.024999983582636744 0 0.0003784344310147131 -0.025640685393545398 0 -0.00019560793881354577 -0.024999983582636744 0 0.0003784344310147131 -0.025640685393545398 0 0.0012540484597883097 -0.024999967359330143 0 0.0012540484597883097 -0.024999967359330143 0 0.00095426747995092868 -0.025959070514420295 0 0.0019707318972180424 -0.025867029758723424 0 0.0003784344310147131 -0.025640685393545398 0 0.0012540484597883097 -0.024999967359330143 0 0.00095426747995092868 -0.025959070514420295 0 0.00095426747995092868 -0.025959070514420295 0 0.0019707318972180424 -0.025867029758723424 0 0.0012439467686178459 -0.027024652810081668 0 0.0003784344310147131 -0.025640685393545398 0 0.00095426747995092868 -0.025959070514420295 0 0.00022306930605667686 -0.026400998952031192 0 -0.00034944355853436379 -0.025835042284712798 0 0.0003784344310147131 -0.025640685393545398 0 0.00022306930605667686 -0.026400998952031192 0 0.00095426747995092868 -0.025959070514420295 0 0.00022306930605667686 -0.026400998952031192 0 0.0012439467686178459 -0.027024652810081668 0 0.0027040843366777302 -0.024999765955960224 0 0.0019707318972180424 -0.025867029758723424 0 0.0032298193850903252 -0.025706057793994909 0 0.0012540484597883097 -0.024999967359330143 0 0.0027040843366777302 -0.024999765955960224 0 0.0019707318972180424 -0.025867029758723424 0 0.0019707318972180424 -0.025867029758723424 0 0.0032298193850903252 -0.025706057793994909 0 0.0026454788650881233 -0.026767682940844587 0 0.0032298193850903252 -0.025706057793994909 0 0.0026454788650881233 -0.026767682940844587 0 0.0044070032057160003 -0.026134665996604151 0 0.004721209576106518 -0.026088402016537757 0 0.0047082161540780649 -0.026055395459891089 0 0.0044070032057160003 -0.026134665996604151 0 0.0019707318972180424 -0.025867029758723424 0 0.0026454788650881233 -0.026767682940844587 0 0.0012439467686178459 -0.027024652810081668 0 0.0036805260646591751 -0.026408194858504999 0 0.0029570359933739957 -0.026462509197009945 0 0.004721209576106518 -0.026088402016537757 0 0.0047305311238650186 -0.026027065411182479 0 0.0046824349617812884 -0.025958205069347321 0 0.0047305311238650186 -0.026027065411182479 0 0.0046991702163717668 -0.026026720894225874 0 0.0047606213523168888 -0.026047165272053238 0 0.004721209576106518 -0.026088402016537757 0 0.0047305311238650186 -0.026027065411182479 0 0.0047082161540780649 -0.026055395459891089 0 0.0047305311238650186 -0.026027065411182479 0 0.0047082161540780649 -0.026055395459891089 0 0.0047606213523168888 -0.026047165272053238 0 0.0022759951992793038 -0.026819111223366662 0 0.0029570359933739957 -0.026462509197009945 0 -8.0396843595902871e-06 -0.027204817431843345 0 0.00022306930605667686 -0.026400998952031192 0 0.0012439467686178459 -0.027024652810081668 0 0.0047305311238650186 -0.026027065411182479 0 0.0046824349617812884 -0.025958205069347321 0 0.0046991702163717668 -0.026026720894225874 0 0.0044938812632972997 -0.025896163154769825 0 0.0046824349617812884 -0.025958205069347321 0 0.0046991702163717668 -0.026026720894225874 0 0.0044874764987981267 -0.026061360960932912 0 0.0044938812632972997 -0.025896163154769825 0 0.0046991702163717668 -0.026026720894225874 0 0.0044874764987981267 -0.026061360960932912 0 0.0047056492960629998 -0.026079459554120967 0 0.0046991702163717668 -0.026026720894225874 0 0.0024635375333660102 -0.024163354669480407 0 0.0036897011087057151 -0.024241546314065034 0 0.002913821810761 -0.024819147906852357 0 0.0025064614768733322 -0.023228699763265203 0 0.0024635375333660102 -0.024163354669480407 0 0.0036897011087057151 -0.024241546314065034 0 0.0037634446468738721 -0.024645837871428312 0 0.0041283779385934373 -0.025134368521889494 0 0.0047056492960629998 -0.026079459554120967 0 0.0046991702163717668 -0.026026720894225874 0 0.0047826952733982459 -0.026033248245296334 0 0.0046991702163717668 -0.026026720894225874 0 0.0047606213523168888 -0.026047165272053238 0 0.0047826952733982459 -0.026033248245296334 0 0.0047082161540780649 -0.026055395459891089 0 0.0047606213523168888 -0.026047165272053238 0 0.0047712688077903723 -0.026094781509950968 0 0.0047606213523168888 -0.026047165272053238 0 0.0047941970068611488 -0.026015080859324989 0 0.0047712688077903723 -0.026094781509950968 0 0.0047606213523168888 -0.026047165272053238 0 0.0047941970068611488 -0.026015080859324989 0 0.0047826952733982459 -0.026033248245296334 0 0.0047941970068611488 -0.026015080859324989 0 0.0047826952733982459 -0.026033248245296334 0 0.0048593286873604823 -0.025947479216947178 0 0.0047056492960629998 -0.026079459554120967 0 0.0047826952733982459 -0.026033248245296334 0 0.0048593286873604823 -0.025947479216947178 0 0.0041283779385934373 -0.025134368521889494 0 0.0046220473673199564 -0.02544766730789897 0 0.0048593286873604823 -0.025947479216947178 0 0.0048511262314728061 -0.025643752771948226 0 0.0047355106032939626 -0.025864688067370509 0 0.0047941970068611488 -0.026015080859324989 0 0.0048593286873604823 -0.025947479216947178 0 0.0047355106032939626 -0.025864688067370509 0 0.0046220473673199564 -0.02544766730789897 0 0.0048195697310230755 -0.025615790332616996 0 0.0043982723722239478 -0.02495488194782022 0 0.0045003864890530449 -0.025485347830630264 0 0.0048511262314728061 -0.025643752771948226 0 0.0045003864890530449 -0.025485347830630264 0 0.0048511262314728061 -0.025643752771948226 0 0.0047209050506735852 -0.025664846244293545 0 0.0043982723722239478 -0.02495488194782022 0 0.0041216067804319967 -0.025464515732563225 0 0.0036911032906996248 -0.025022932804290094 0 0.0043982723722239478 -0.02495488194782022 0 0.0045003864890530449 -0.025485347830630264 0 0.0041216067804319967 -0.025464515732563225 0 0.003254599999582291 -0.025261711272526754 0 0.0036911032906996248 -0.025022932804290094 0 0.0036399353130721398 -0.025555111319670518 0 0.0041216067804319967 -0.025464515732563225 0 0.0036911032906996248 -0.025022932804290094 0 0.0036399353130721398 -0.025555111319670518 0 0.0028732027646845263 -0.025227717437917088 0 0.003254599999582291 -0.025261711272526754 0 0.002913821810761 -0.024819147906852357 0 0.003254599999582291 -0.025261711272526754 0 0.0036399353130721398 -0.025555111319670518 0 0.0031671579509082496 -0.025599089997248501 0 0.0028732027646845263 -0.025227717437917088 0 0.003254599999582291 -0.025261711272526754 0 0.0031671579509082496 -0.025599089997248501 0 0.003254599999582291 -0.025261711272526754 0 0.002913821810761 -0.024819147906852357 0 0.0036911032906996248 -0.025022932804290094 0 0.0036897011087057151 -0.024241546314065034 0 0.002913821810761 -0.024819147906852357 0 0.0036911032906996248 -0.025022932804290094 0 0.0036897011087057151 -0.024241546314065034 0 0.0043982723722239478 -0.02495488194782022 0 0.0036911032906996248 -0.025022932804290094 0 0.0056803638518049043 -0.025938697174042357 0 0.0056147950666389701 -0.026018353698283616 0 0.0056427641952195573 -0.026064793926488333 0 0.0062650633425987675 -0.026092627618403145 0 0.0056427641952195573 -0.026064793926488333 0 0.0058936061513905251 -0.026027330083411623 0 0.0058771918122897185 -0.02579515118931756 0 0.0056803638518049043 -0.025938697174042357 0 0.0056427641952195573 -0.026064793926488333 0 0.006063711106783218 -0.025945920033862205 0 0.0056871941461251255 -0.026028893371721467 0 0.0062650633425987675 -0.026092627618403145 0 0.0058936061513905251 -0.026027330083411623 0 0.0063576994308935869 -0.025887317382715734 0 0.0058771918122897185 -0.02579515118931756 0 0.0057673739906068076 -0.025931370752092932 0 0.0059374414796444404 -0.025996493370010188 0 0.0058771918122897185 -0.02579515118931756 0 0.0057673739906068076 -0.025931370752092932 0 0.0056803638518049043 -0.025938697174042357 0 0.0057673739906068076 -0.025931370752092932 0 0.0056803638518049043 -0.025938697174042357 0 0.0056591580160060551 -0.025966780675927024 0 0.0055452451810832056 -0.025962910925777405 0 0.0055975635264731401 -0.025954663876363745 0 0.0056301525861416042 -0.025989523905784913 0 0.0056591580160060551 -0.025966780675927024 0 0.0055975635264731401 -0.025954663876363745 0 0.0055401285480419808 -0.025994653899010723 0 0.0055452451810832056 -0.025962910925777405 0 0.0055975635264731401 -0.025954663876363745 0 0.0055401285480419808 -0.025994653899010723 0 0.0056803638518049043 -0.025938697174042357 0 0.0056591580160060551 -0.025966780675927024 0 0.0055975635264731401 -0.025954663876363745 0 0.0051776997918126242 -0.025928788126342577 0 0.0051533328043212381 -0.025831985913817815 0 0.0055452451810832056 -0.025962910925777405 0 0.0056301525861416042 -0.025989523905784913 0 0.0054441916042870459 -0.025957179423946285 0 0.0048511262314728061 -0.025643752771948226 0 0.0047355106032939626 -0.025864688067370509 0 0.0048799592464698633 -0.02561201538302171 0 0.0056301525861416042 -0.025989523905784913 0 0.0056147950666389701 -0.026018353698283616 0 0.0054992697904510321 -0.026181075541942558 0 0.0056803638518049043 -0.025938697174042357 0 0.0055975635264731401 -0.025954663876363745 0 0.0056147950666389701 -0.026018353698283616 0 0.0055975635264731401 -0.025954663876363745 0 0.0056301525861416042 -0.025989523905784913 0 0.0056147950666389701 -0.026018353698283616 0 0.0054992697904510321 -0.026181075541942558 0 0.0056622188093428359 -0.026147350370624056 0 0.0056427641952195573 -0.026064793926488333 0 0.0056147950666389701 -0.026018353698283616 0 0.0054992697904510321 -0.026181075541942558 0 0.0056427641952195573 -0.026064793926488333 0 0.0051776997918126242 -0.025928788126342577 0 0.0051138248119251498 -0.026098438891989706 0 0.0047941970068611488 -0.026015080859324989 0 0.0047355106032939626 -0.025864688067370509 0 0.0047495082112187833 -0.026073860588384439 0 0.0047712688077903723 -0.026094781509950968 0 0.0047495082112187833 -0.026073860588384439 0 0.0049632267609619534 -0.026159515754993555 0 0.0047941970068611488 -0.026015080859324989 0 0.0047712688077903723 -0.026094781509950968 0 0.0047495082112187833 -0.026073860588384439 0 0.0054992697904510321 -0.026181075541942558 0 0.005553945560641791 -0.026226430908204607 0 0.0049632267609619534 -0.026159515754993555 0 0.0054992697904510321 -0.026181075541942558 0 0.005553945560641791 -0.026226430908204607 0 0.0056622188093428359 -0.026147350370624056 0 0.0051138248119251498 -0.026098438891989706 0 0.0050027258160643901 -0.026120507363877166 0 0.005553945560641791 -0.026226430908204607 0 0.0056622188093428359 -0.026147350370624056 0 0.0058854161617528248 -0.026242262349691337 0 0.0056622188093428359 -0.026147350370624056 0 0.0058936061513905251 -0.026027330083411623 0 0.0058854161617528248 -0.026242262349691337 0 0.0056622188093428359 -0.026147350370624056 0 0.0056427641952195573 -0.026064793926488333 0 0.0058936061513905251 -0.026027330083411623 0 0.0058936061513905251 -0.026027330083411623 0 0.0058854161617528248 -0.026242262349691337 0 0.0062006881836745046 -0.0264327900490735 0 0.0059676791721663437 -0.026028271970308391 0 0.0064293337270079822 -0.025953757671080459 0 0.0058936061513905251 -0.026027330083411623 0 0.0066369920527057707 -0.025500017622719563 0 0.0063576994308935869 -0.025887317382715734 0 0.0059961172856048597 -0.026212004497364778 0 0.0058854161617528248 -0.026242262349691337 0 0.0062006881836745046 -0.0264327900490735 0 0.005553945560641791 -0.026226430908204607 0 0.0059961172856048597 -0.026212004497364778 0 0.0058854161617528248 -0.026242262349691337 0 0.0059961172856048597 -0.026212004497364778 0 0.0054877776257153043 -0.02612155344647038 0 0.0061266826745362503 -0.026005563903346882 0 0.005553945560641791 -0.026226430908204607 0 0.0059961172856048597 -0.026212004497364778 0 0.0054877776257153043 -0.02612155344647038 0 0.005553945560641791 -0.026226430908204607 0 0.0054877776257153043 -0.02612155344647038 0 0.0049632267609619534 -0.026159515754993555 0 0.0054877776257153043 -0.02612155344647038 0 0.0050280724356606635 -0.026076829663247231 0 0.0053055078644336654 -0.025785108658287353 0 0.0054877776257153043 -0.02612155344647038 0 0.0061266826745362503 -0.026005563903346882 0 0.0053055078644336654 -0.025785108658287353 0 0.0047082161540780649 -0.026055395459891089 0 0.0047712688077903723 -0.026094781509950968 0 0.0049632267609619534 -0.026159515754993555 0 0.0054877776257153043 -0.02612155344647038 0 0.0049632267609619534 -0.026159515754993555 0 0.0050280724356606635 -0.026076829663247231 0 0.0050280724356606635 -0.026076829663247231 0 0.0044070032057160003 -0.026134665996604151 0 0.0053055078644336654 -0.025785108658287353 0 0.0049632267609619534 -0.026159515754993555 0 0.0050280724356606635 -0.026076829663247231 0 0.0044070032057160003 -0.026134665996604151 0 0.0036805260646591751 -0.026408194858504999 0 0.0043573164183779737 -0.026175507502228548 0 0.0047082161540780649 -0.026055395459891089 0 0.0049632267609619534 -0.026159515754993555 0 0.0044070032057160003 -0.026134665996604151 0 0.0032298193850903252 -0.025706057793994909 0 0.0044070032057160003 -0.026134665996604151 0 0.0041541148162978292 -0.024999857657881673 0 0.0044070032057160003 -0.026134665996604151 0 0.0041541148162978292 -0.024999857657881673 0 0.0053055078644336654 -0.025785108658287353 0 0.0027040843366777302 -0.024999765955960224 0 0.0032298193850903252 -0.025706057793994909 0 0.0041541148162978292 -0.024999857657881673 0 0.0061266826745362503 -0.026005563903346882 0 0.0053055078644336654 -0.025785108658287353 0 0.0064952563355489728 -0.025658974317476012 0 0.0041541148162978292 -0.024999857657881673 0 0.0053055078644336654 -0.025785108658287353 0 0.0056034241459268228 -0.02499976153056065 0 0.0053055078644336654 -0.025785108658287353 0 0.0056034241459268228 -0.02499976153056065 0 0.0064952563355489728 -0.025658974317476012 0 0.0056034241459268228 -0.02499976153056065 0 0.0064952563355489728 -0.025658974317476012 0 0.007052585535036497 -0.024999885977119274 0 0.0064952563355489728 -0.025658974317476012 0 0.0074021735077175518 -0.025681111105298547 0 0.0068668738801449629 -0.02589600329610366 0 0.0064952563355489728 -0.025658974317476012 0 0.0074021735077175518 -0.025681111105298547 0 0.007052585535036497 -0.024999885977119274 0 0.0074021735077175518 -0.025681111105298547 0 0.007052585535036497 -0.024999885977119274 0 0.0085023322021433416 -0.024999699034555584 0 0.0074021735077175518 -0.025681111105298547 0 0.0085023322021433416 -0.024999699034555584 0 0.0091438543104250172 -0.026031395829783418 0 0.0085023322021433416 -0.024999699034555584 0 0.0091438543104250172 -0.026031395829783418 0 0.0099526331292774956 -0.025000118874895245 0 0.0074021735077175518 -0.025681111105298547 0 0.007340455123493534 -0.02565244856462259 0 0.0072883074689129215 -0.025690191825127509 0 0.0075455209455725612 -0.025706702337321034 0 0.0080281970442308403 -0.025826252843041683 0 0.0074021735077175518 -0.025681111105298547 0 0.0072883074689129215 -0.025690191825127509 0 0.0068668738801449629 -0.02589600329610366 0 0.007340455123493534 -0.02565244856462259 0 0.0072883074689129215 -0.025690191825127509 0 0.0073820480784661168 -0.025642549712290442 0 0.0072883074689129215 -0.025690191825127509 0 0.0073245296600315925 -0.025695393188454933 0 0.0073820480784661168 -0.025642549712290442 0 0.0072883074689129215 -0.025690191825127509 0 0.0068668738801449629 -0.02589600329610366 0 0.0069244231000330321 -0.026199547357274543 0 0.0072883074689129215 -0.025690191825127509 0 0.0073245296600315925 -0.025695393188454933 0 0.0069244231000330321 -0.026199547357274543 0 0.0064467280638782721 -0.026147197381614584 0 0.0068668738801449629 -0.02589600329610366 0 0.0069244231000330321 -0.026199547357274543 0 0.0059961172856048597 -0.026212004497364778 0 0.0061266826745362503 -0.026005563903346882 0 0.0064467280638782721 -0.026147197381614584 0 0.0061266826745362503 -0.026005563903346882 0 0.0064467280638782721 -0.026147197381614584 0 0.0068668738801449629 -0.02589600329610366 0 0.0061266826745362503 -0.026005563903346882 0 0.0064952563355489728 -0.025658974317476012 0 0.0068668738801449629 -0.02589600329610366 0 0.012333086540338916 -0.025676939760437733 0 0.011476536292143196 -0.024999931355920983 0 0.013528962260353205 -0.024999825274795818 0 0.012333086540338916 -0.025676939760437733 0 0.011787297269961083 -0.026139863977293176 0 0.012338431062876814 -0.026360446465093772 0 0.012333086540338916 -0.025676939760437733 0 0.011476536292143196 -0.024999931355920983 0 0.011787297269961083 -0.026139863977293176 0 0.011476536292143196 -0.024999931355920983 0 0.011787297269961083 -0.026139863977293176 0 0.010634298681997332 -0.026102817043209419 0 0.012156540656336071 -0.026196880686572721 0 0.0098418508197520814 -0.025876063711222485 0 0.0098418508197520814 -0.025876063711222485 0 0.0099532945857102352 -0.025000851566800823 0 0.011476536292143196 -0.024999931355920983 0 0.010634298681997332 -0.026102817043209419 0 0.0099525423003077058 -0.024999987608438447 0 0.0091438543104250172 -0.026031395829783418 0 0.010534963938950514 -0.026153448576749685 0 0.0099526331292774956 -0.025000118874895245 0 0.0080281970442308403 -0.025826252843041683 0 0.0098418508197520814 -0.025876063711222485 0 0.007340455123493534 -0.02565244856462259 0 0.0073996261054393095 -0.025637723428672363 0 0.0073820480784661168 -0.025642549712290442 0 0.0073245296600315925 -0.025695393188454933 0 0.0073820480784661168 -0.025642549712290442 0 0.0074106371993683199 -0.025524519156912576 0 0.0073820480784661168 -0.025642549712290442 0 0.0073877557190120046 -0.025607357371810673 0 0.0074106371993683199 -0.025524519156912576 0 0.0073996261054393095 -0.025637723428672363 0 0.0073820480784661168 -0.025642549712290442 0 0.0073877557190120046 -0.025607357371810673 0 0.0098418508197520814 -0.025876063711222485 0 0.0094190528949694881 -0.026045551779552697 0 0.011787297269961083 -0.026139863977293176 0 0.011657665000363148 -0.026668254463129388 0 0.012148780050585258 -0.026745084613823362 0 0.011787297269961083 -0.026139863977293176 0 0.011285035018999622 -0.026093992586872332 0 0.011657665000363148 -0.026668254463129388 0 0.011657665000363148 -0.026668254463129388 0 0.012098294107733977 -0.026968995419859573 0 0.011954940067408226 -0.027094965160588288 0 0.0094190528949694881 -0.026045551779552697 0 0.0098322195407751483 -0.026597041281862917 0 0.0073877557190120046 -0.025607357371810673 0 0.007393961119605239 -0.025481734205394409 0 0.0074106371993683199 -0.025524519156912576 0 0.011657665000363148 -0.026668254463129388 0 0.012148780050585258 -0.026745084613823362 0 0.012098294107733977 -0.026968995419859573 0 0.012178369725998926 -0.026916396604258819 0 0.012912818529233441 -0.026365820067660667 0 0.012148780050585258 -0.026745084613823362 0 0.012098294107733977 -0.026968995419859573 0 0.01274306558602187 -0.02690996037984009 0 0.012148780050585258 -0.026745084613823362 0 0.012338431062876814 -0.026360446465093772 0 0.01274306558602187 -0.02690996037984009 0 0.011787297269961083 -0.026139863977293176 0 0.012148780050585258 -0.026745084613823362 0 0.012338431062876814 -0.026360446465093772 0 0.007393961119605239 -0.025481734205394409 0 0.0074685185826830576 -0.025205916248053468 0 0.007359321360588849 -0.025222980196788477 0 0.0098322195407751483 -0.026597041281862917 0 0.0093026076774166445 -0.025375804036873777 0 0.012098294107733977 -0.026968995419859573 0 0.011954940067408226 -0.027094965160588288 0 0.012492090398994186 -0.028158892332337777 0 0.007393961119605239 -0.025481734205394409 0 0.0074680209880866972 -0.025331367512060984 0 0.0074106371993683199 -0.025524519156912576 0 0.007393961119605239 -0.025481734205394409 0 0.0074680209880866972 -0.025331367512060984 0 0.0074685185826830576 -0.025205916248053468 0 0.0074439282742469106 -0.025374919336493901 0 0.0074106371993683199 -0.025524519156912576 0 0.0073645259953939541 -0.025480091275099544 0 0.0074680209880866972 -0.025331367512060984 0 0.0074439282742469106 -0.025374919336493901 0 0.0074106371993683199 -0.025524519156912576 0 0.0073245296600315925 -0.025695393188454933 0 0.0074106371993683199 -0.025524519156912576 0 0.0073645259953939541 -0.025480091275099544 0 0.0074439282742469106 -0.025374919336493901 0 0.0073645259953939541 -0.025480091275099544 0 0.0074027771130649829 -0.025408749690300599 0 0.0073645259953939541 -0.025480091275099544 0 0.0074027771130649829 -0.025408749690300599 0 0.0073117179113341129 -0.025500863349177179 0 0.0074027771130649829 -0.025408749690300599 0 0.0073747443909442534 -0.025440645692507168 0 0.0073117179113341129 -0.025500863349177179 0 0.0073747443909442534 -0.025440645692507168 0 0.0072620715163802278 -0.025581996376124311 0 0.0074286767185403032 -0.025391135737752826 0 0.0073747443909442534 -0.025440645692507168 0 0.0074672464685382241 -0.025303563700348978 0 0.0074286767185403032 -0.025391135737752826 0 0.0074027771130649829 -0.025408749690300599 0 0.0073747443909442534 -0.025440645692507168 0 0.0074672464685382241 -0.025303563700348978 0 0.0074672464685382241 -0.025303563700348978 0 0.0074980534346409024 -0.02524429702969095 0 0.0074286767185403032 -0.025391135737752826 0 0.0074672464685382241 -0.025303563700348978 0 0.007504711125888232 -0.025229514206703964 0 0.0075355921299640281 -0.02513890839823724 0 0.0074672464685382241 -0.025303563700348978 0 0.0074980534346409024 -0.02524429702969095 0 0.0075355921299640281 -0.02513890839823724 0 0.0074439282742469106 -0.025374919336493901 0 0.0074027771130649829 -0.025408749690300599 0 0.0074672464685382241 -0.025303563700348978 0 0.0074439282742469106 -0.025374919336493901 0 0.0074672464685382241 -0.025303563700348978 0 0.007504711125888232 -0.025229514206703964 0 0.0074680209880866972 -0.025331367512060984 0 0.0074439282742469106 -0.025374919336493901 0 0.007504711125888232 -0.025229514206703964 0 0.0074680209880866972 -0.025331367512060984 0 0.0075113954042802626 -0.025164554468752955 0 0.007504711125888232 -0.025229514206703964 0 0.0074680209880866972 -0.025331367512060984 0 0.0075113954042802626 -0.025164554468752955 0 0.0074685185826830576 -0.025205916248053468 0 0.0075113954042802626 -0.025164554468752955 0 0.007504711125888232 -0.025229514206703964 0 0.0075533061852904228 -0.025029509896352733 0 0.007504711125888232 -0.025229514206703964 0 0.0075355921299640281 -0.02513890839823724 0 0.0075533061852904228 -0.025029509896352733 0 0.0074980534346409024 -0.02524429702969095 0 0.0075355921299640281 -0.02513890839823724 0 0.0075517438615816659 -0.025098502385345348 0 0.0075355921299640281 -0.02513890839823724 0 0.007581092546239546 -0.024940511938484327 0 0.0075517438615816659 -0.025098502385345348 0 0.0075355921299640281 -0.02513890839823724 0 0.007581092546239546 -0.024940511938484327 0 0.0075533061852904228 -0.025029509896352733 0 0.007581092546239546 -0.024940511938484327 0 0.0075533061852904228 -0.025029509896352733 0 0.0075850465292621946 -0.024832604746975302 0 0.0075533061852904228 -0.025029509896352733 0 0.0075850465292621946 -0.024832604746975302 0 0.0075172668378822435 -0.025035023762267829 0 0.007581092546239546 -0.024940511938484327 0 0.0076024229004209506 -0.024728102684670732 0 0.0075850465292621946 -0.024832604746975302 0 0.0076024229004209506 -0.024728102684670732 0 0.0075850465292621946 -0.024832604746975302 0 0.007633118843390586 -0.024466491815689283 0 0.0075850465292621946 -0.024832604746975302 0 0.0075172668378822435 -0.025035023762267829 0 0.0074632388144934992 -0.024807256889265605 0 0.0075172668378822435 -0.025035023762267829 0 0.0074522887945462756 -0.0251477184197809 0 0.0074632388144934992 -0.024807256889265605 0 0.0075113954042802626 -0.025164554468752955 0 0.0075533061852904228 -0.025029509896352733 0 0.0075172668378822435 -0.025035023762267829 0 0.0075113954042802626 -0.025164554468752955 0 0.0075172668378822435 -0.025035023762267829 0 0.0074685185826830576 -0.025205916248053468 0 0.0075172668378822435 -0.025035023762267829 0 0.0074685185826830576 -0.025205916248053468 0 0.0074522887945462756 -0.0251477184197809 0 0.0071612083640858757 -0.025346666970736401 0 0.0093026076774166445 -0.025375804036873777 0 0.0066369920527057707 -0.025500017622719563 0 0.0071060534590789417 -0.025438035403664735 0 0.0070042681150242559 -0.025690582665102251 0 0.0066369920527057707 -0.025500017622719563 0 0.0066470122555050094 -0.025837606853020407 0 0.0063576994308935869 -0.025887317382715734 0 0.0059961172856048597 -0.026212004497364778 0 0.0064467280638782721 -0.026147197381614584 0 0.0062006881836745046 -0.0264327900490735 0 0.0064293337270079822 -0.025953757671080459 0 0.006991157681517788 -0.025820911260579799 0 0.0064467280638782721 -0.026147197381614584 0 0.0062006881836745046 -0.0264327900490735 0 0.0069244231000330321 -0.026199547357274543 0 0.0072776306176964758 -0.02571550387096997 0 0.006991157681517788 -0.025820911260579799 0 0.0073245296600315925 -0.025695393188454933 0 0.0071060534590789417 -0.025438035403664735 0 0.0072536833070372059 -0.025526476227194915 0 0.0073245296600315925 -0.025695393188454933 0 0.0073645259953939541 -0.025480091275099544 0 0.0072536833070372059 -0.025526476227194915 0 0.0073645259953939541 -0.025480091275099544 0 0.0072536833070372059 -0.025526476227194915 0 0.0073117179113341129 -0.025500863349177179 0 0.0071060534590789417 -0.025438035403664735 0 0.0072536833070372059 -0.025526476227194915 0 0.0070042681150242559 -0.025690582665102251 0 0.0072536833070372059 -0.025526476227194915 0 0.0071652678509526108 -0.025630411311326699 0 0.0070042681150242559 -0.025690582665102251 0 0.0072536833070372059 -0.025526476227194915 0 0.0073117179113341129 -0.025500863349177179 0 0.0071652678509526108 -0.025630411311326699 0 0.0073747443909442534 -0.025440645692507168 0 0.0073117179113341129 -0.025500863349177179 0 0.0072620715163802278 -0.025581996376124311 0 0.0073117179113341129 -0.025500863349177179 0 0.0072620715163802278 -0.025581996376124311 0 0.0071652678509526108 -0.025630411311326699 0 0.0070244605739272102 -0.025788854175307348 0 0.0071652678509526108 -0.025630411311326699 0 0.0070042681150242559 -0.025690582665102251 0 0.0072620715163802278 -0.025581996376124311 0 0.0070244605739272102 -0.025788854175307348 0 0.0071652678509526108 -0.025630411311326699 0 0.0070244605739272102 -0.025788854175307348 0 0.0070042681150242559 -0.025690582665102251 0 0.0068274549080410141 -0.025957053141784783 0 0.0070042681150242559 -0.025690582665102251 0 0.0066470122555050094 -0.025837606853020407 0 0.0068274549080410141 -0.025957053141784783 0 0.0066369920527057707 -0.025500017622719563 0 0.0070042681150242559 -0.025690582665102251 0 0.0066470122555050094 -0.025837606853020407 0 0.0062650633425987675 -0.026092627618403145 0 0.0066470122555050094 -0.025837606853020407 0 0.0063576994308935869 -0.025887317382715734 0 0.006063711106783218 -0.025945920033862205 0 0.0065981294334775172 -0.025873322083953553 0 0.0062650633425987675 -0.026092627618403145 0 0.0066470122555050094 -0.025837606853020407 0 0.0068274549080410141 -0.025957053141784783 0 0.0058771918122897185 -0.02579515118931756 0 0.0063692798425803668 -0.025785594855243409 0 0.0059374414796444404 -0.025996493370010188 0 0.006230226605820813 -0.026036739201620546 0 0.0063692798425803668 -0.025785594855243409 0 0.0059374414796444404 -0.025996493370010188 0 0.006230226605820813 -0.026036739201620546 0 0.0059374414796444404 -0.025996493370010188 0 0.0060390622918864659 -0.026169928855873183 0 0.0089228291676599729 -0.025415071898322608 0 0.0089074255658158508 -0.025523626455852842 0 0.0082922341612817144 -0.025550768518435747 0 0.006230226605820813 -0.026036739201620546 0 0.0062896680313446387 -0.02628446954874156 0 0.0060390622918864659 -0.026169928855873183 0 0.006230226605820813 -0.026036739201620546 0 0.0062896680313446387 -0.02628446954874156 0 0.0065748598345943907 -0.025995797890019972 0 0.0089228291676599729 -0.025415071898322608 0 0.009150527474384074 -0.025260653021145107 0 0.0091495738013345172 -0.025279649840422774 0 0.0076372014099018682 -0.025807359657884752 0 0.0079353478598627979 -0.025926663693190619 0 0.0062896680313446387 -0.02628446954874156 0 0.0065748598345943907 -0.025995797890019972 0 0.006978029024219479 -0.026086718161452201 0 0.0089228291676599729 -0.025415071898322608 0 0.0091495738013345172 -0.025279649840422774 0 0.0089074255658158508 -0.025523626455852842 0 0.006230226605820813 -0.026036739201620546 0 0.0065748598345943907 -0.025995797890019972 0 0.0063692798425803668 -0.025785594855243409 0 0.0065981294334775172 -0.025873322083953553 0 0.0069997791079248776 -0.025881800299739341 0 0.0065748598345943907 -0.025995797890019972 0 0.0063692798425803668 -0.025785594855243409 0 0.0070289002338420536 -0.025853957175855084 0 0.0070244605739272102 -0.025788854175307348 0 0.0068274549080410141 -0.025957053141784783 0 0.0070289002338420536 -0.025853957175855084 0 0.0070244605739272102 -0.025788854175307348 0 0.007132185174672517 -0.025733094962522126 0 0.0070289002338420536 -0.025853957175855084 0 0.0072620715163802278 -0.025581996376124311 0 0.0070244605739272102 -0.025788854175307348 0 0.007132185174672517 -0.025733094962522126 0 0.0072620715163802278 -0.025581996376124311 0 0.0072024971875988449 -0.025728801659924454 0 0.0073509105000834039 -0.02555294439476466 0 0.0072620715163802278 -0.025581996376124311 0 0.007132185174672517 -0.025733094962522126 0 0.0072024971875988449 -0.025728801659924454 0 0.007132185174672517 -0.025733094962522126 0 0.0072024971875988449 -0.025728801659924454 0 0.0070289002338420536 -0.025853957175855084 0 0.0095645774101381122 -0.021618250555811888 0 0.0087323905060196841 -0.02341295298703281 0 0.0096287646774866169 -0.018432600089257619 0 0.0096070575897143351 -0.018363507285135961 0 0.0095959478499833689 -0.018352985123573518 0 0.0079353478598627979 -0.025926663693190619 0 0.0087323905060196841 -0.02341295298703281 0 0.0072024971875988449 -0.025728801659924454 0 0.006978029024219479 -0.026086718161452201 0 0.0073706820553787076 -0.025708384042577911 0 0.009150527474384074 -0.025260653021145107 0 0.0091495738013345172 -0.025279649840422774 0 0.009166073693378329 -0.025095879780885771 0 0.0065748598345943907 -0.025995797890019972 0 0.0070289002338420536 -0.025853957175855084 0 0.006978029024219479 -0.026086718161452201 0 0.0072024971875988449 -0.025728801659924454 0 0.0070289002338420536 -0.025853957175855084 0 0.006978029024219479 -0.026086718161452201 0 0.0096287646774866169 -0.018432600089257619 0 0.0097427995499717902 -0.01834070514860699 0 0.0099167651596371118 -0.018375474968537725 0 0.0096287646774866169 -0.018432600089257619 0 0.0097427995499717902 -0.01834070514860699 0 0.0096425971616725288 -0.018353194120409075 0 0.0096287646774866169 -0.018432600089257619 0 0.0096425971616725288 -0.018353194120409075 0 0.0096070575897143351 -0.018363507285135961 0 0.0096425971616725288 -0.018353194120409075 0 0.0096313807833317659 -0.018261828350187557 0 0.0096070575897143351 -0.018363507285135961 0 0.0097427995499717902 -0.01834070514860699 0 0.0096425971616725288 -0.018353194120409075 0 0.0096313807833317659 -0.018261828350187557 0 0.0097427995499717902 -0.01834070514860699 0 0.0096313807833317659 -0.018261828350187557 0 0.0098671824499094729 -0.018205492796914365 0 0.0096313807833317659 -0.018261828350187557 0 0.0095891611245012658 -0.018332174487462063 0 0.0095702558259400453 -0.018296330756518084 0 0.0096070575897143351 -0.018363507285135961 0 0.0095891611245012658 -0.018332174487462063 0 0.0095959478499833689 -0.018352985123573518 0 0.0096313807833317659 -0.018261828350187557 0 0.0096070575897143351 -0.018363507285135961 0 0.0095891611245012658 -0.018332174487462063 0 0.0088488096198427336 -0.017433758526639167 0 0.0090876205365132308 -0.017579364374460046 0 0.008751203618541736 -0.017284216879509248 0 0.0092319122948576748 -0.017886614808805067 0 0.0094299202144930965 -0.017798367501922943 0 0.0096313807833317659 -0.018261828350187557 0 0.0095702558259400453 -0.018296330756518084 0 0.0096596962195046737 -0.018054936326705375 0 0.0096313807833317659 -0.018261828350187557 0 0.0096596962195046737 -0.018054936326705375 0 0.0098671824499094729 -0.018205492796914365 0 0.0094299202144930965 -0.017798367501922943 0 0.010077431482423285 -0.017669596326142619 0 0.0096596962195046737 -0.018054936326705375 0 0.010108918532116585 -0.017636274383532626 0 0.0098671824499094729 -0.018205492796914365 0 0.010108918532116585 -0.017636274383532626 0 0.010190160443953418 -0.018125937233593761 0 0.0098671824499094729 -0.018205492796914365 0 0.010108918532116585 -0.017636274383532626 0 0.010668247077033354 -0.01720414911515912 0 0.010833443086205232 -0.017841325911895151 0 0.010108918532116585 -0.017636274383532626 0 0.010190160443953418 -0.018125937233593761 0 0.010833443086205232 -0.017841325911895151 0 0.010190160443953418 -0.018125937233593761 0 0.010843183806924825 -0.018232844380804872 0 0.010833443086205232 -0.017841325911895151 0 0.010190160443953418 -0.018125937233593761 0 0.010308971227557123 -0.018572317059277987 0 0.010065915894843479 -0.018333321110520159 0 0.010190160443953418 -0.018125937233593761 0 0.010308971227557123 -0.018572317059277987 0 0.010843183806924825 -0.018232844380804872 0 0.0095645774101381122 -0.021618250555811888 0 0.0095652171726854814 -0.022081583021215347 0 0.010308971227557123 -0.018572317059277987 0 0.0099167651596371118 -0.018375474968537725 0 0.010065915894843479 -0.018333321110520159 0 0.0096287646774866169 -0.018432600089257619 0 0.010308971227557123 -0.018572317059277987 0 0.0099167651596371118 -0.018375474968537725 0 0.0097427995499717902 -0.01834070514860699 0 0.0099167651596371118 -0.018375474968537725 0 0.0098671824499094729 -0.018205492796914365 0 0.0099167651596371118 -0.018375474968537725 0 0.0098671824499094729 -0.018205492796914365 0 0.010065915894843479 -0.018333321110520159 0 0.010190160443953418 -0.018125937233593761 0 0.0098671824499094729 -0.018205492796914365 0 0.010065915894843479 -0.018333321110520159 0 0.0098137288503848379 -0.018529560295839478 0 0.0098187159400651182 -0.018533520539842061 0 0.0098670597257088308 -0.018648061245080255 0 0.0098137288503848379 -0.018529560295839478 0 0.0097826763419013758 -0.018471844264569066 0 0.0098187159400651182 -0.018533520539842061 0 0.007621000246836835 -0.02479580543856472 0 0.0076158374182061679 -0.024597083977895149 0 0.0075491398548945361 -0.024711476416011232 0 0.0076158374182061679 -0.024597083977895149 0 0.0076027605938789027 -0.024759897785874029 0 0.0076359344901475836 -0.024442239680814999 0 0.007621000246836835 -0.02479580543856472 0 0.0076158374182061679 -0.024597083977895149 0 0.0076027605938789027 -0.024759897785874029 0 0.0076024229004209506 -0.024728102684670732 0 0.0076027605938789027 -0.024759897785874029 0 0.0076359344901475836 -0.024442239680814999 0 0.007581092546239546 -0.024940511938484327 0 0.0076024229004209506 -0.024728102684670732 0 0.0076027605938789027 -0.024759897785874029 0 0.007581092546239546 -0.024940511938484327 0 0.0076027605938789027 -0.024759897785874029 0 0.0075856117752345856 -0.024954665596160039 0 0.0075984440181014459 -0.024875771555240182 0 0.0076027605938789027 -0.024759897785874029 0 0.0075856117752345856 -0.024954665596160039 0 0.007621000246836835 -0.02479580543856472 0 0.0075984440181014459 -0.024875771555240182 0 0.0075882912275117877 -0.02496333113625095 0 0.007621000246836835 -0.02479580543856472 0 0.0075984440181014459 -0.024875771555240182 0 0.0076027605938789027 -0.024759897785874029 0 0.007621000246836835 -0.02479580543856472 0 0.0075882912275117877 -0.02496333113625095 0 0.0075707726857362889 -0.02507970615856284 0 0.0075882912275117877 -0.02496333113625095 0 0.0075856117752345856 -0.024954665596160039 0 0.0075593814230276281 -0.025101227236902206 0 0.0075984440181014459 -0.024875771555240182 0 0.0075882912275117877 -0.02496333113625095 0 0.0075856117752345856 -0.024954665596160039 0 0.007581092546239546 -0.024940511938484327 0 0.0075856117752345856 -0.024954665596160039 0 0.0075517438615816659 -0.025098502385345348 0 0.0075856117752345856 -0.024954665596160039 0 0.0075517438615816659 -0.025098502385345348 0 0.0075593814230276281 -0.025101227236902206 0 0.0075517438615816659 -0.025098502385345348 0 0.0075593814230276281 -0.025101227236902206 0 0.0075184660163630165 -0.025227311330452199 0 0.0075882912275117877 -0.02496333113625095 0 0.0075593814230276281 -0.025101227236902206 0 0.0075707726857362889 -0.02507970615856284 0 0.0075593814230276281 -0.025101227236902206 0 0.0075707726857362889 -0.02507970615856284 0 0.0075378571369910238 -0.025219767412577788 0 0.0075707726857362889 -0.02507970615856284 0 0.0075674466731569055 -0.025112488609939577 0 0.0075378571369910238 -0.025219767412577788 0 0.007621000246836835 -0.02479580543856472 0 0.0075674466731569055 -0.025112488609939577 0 0.0075327847327608865 -0.025336234920465855 0 0.0075674466731569055 -0.025112488609939577 0 0.0075327847327608865 -0.025336234920465855 0 0.0075378571369910238 -0.025219767412577788 0 0.0076852896710030063 -0.024808693364115685 0 0.007626975121405425 -0.02512439737329409 0 0.0098137288503848379 -0.018529560295839478 0 0.0097826763419013758 -0.018471844264569066 0 0.0097224975157813101 -0.018375986948253729 0 0.0097826763419013758 -0.018471844264569066 0 0.0097224975157813101 -0.018375986948253729 0 0.0097718519301052582 -0.018446674953014847 0 0.0086552764878173698 -0.021633261789424662 0 0.0090236847913420844 -0.021242760178470921 0 0.007621000246836835 -0.02479580543856472 0 0.0080986174066037687 -0.024545363744174441 0 0.0081535198883134017 -0.024598226620041821 0 0.007621000246836835 -0.02479580543856472 0 0.0075491398548945361 -0.024711476416011232 0 0.0080986174066037687 -0.024545363744174441 0 0.007621000246836835 -0.02479580543856472 0 0.0075707726857362889 -0.02507970615856284 0 0.0075674466731569055 -0.025112488609939577 0 0.0090236847913420844 -0.021242760178470921 0 0.0087323905060196841 -0.02341295298703281 0 0.0075327847327608865 -0.025336234920465855 0 0.0074620393329289849 -0.02540140574707966 0 0.0073706820553787076 -0.025708384042577911 0 0.0080986174066037687 -0.024545363744174441 0 0.0081535198883134017 -0.024598226620041821 0 0.0087584839349375831 -0.024381417991982995 0 0.007626975121405425 -0.02512439737329409 0 0.0087323905060196841 -0.02341295298703281 0 0.0097224975157813101 -0.018375986948253729 0 0.0095959478499833689 -0.018352985123573518 0 0.0096608405461555205 -0.018367619043557801 0 0.0097224975157813101 -0.018375986948253729 0 0.0096608405461555205 -0.018367619043557801 0 0.0097017671125697608 -0.018381197514901068 0 0.0097224975157813101 -0.018375986948253729 0 0.0097017671125697608 -0.018381197514901068 0 0.0097371908759500431 -0.018398345940228596 0 0.0075327847327608865 -0.025336234920465855 0 0.0075378571369910238 -0.025219767412577788 0 0.0074620393329289849 -0.02540140574707966 0 0.0075593814230276281 -0.025101227236902206 0 0.0075378571369910238 -0.025219767412577788 0 0.0075184660163630165 -0.025227311330452199 0 0.0075378571369910238 -0.025219767412577788 0 0.0075184660163630165 -0.025227311330452199 0 0.0074620393329289849 -0.02540140574707966 0 0.0074980534346409024 -0.02524429702969095 0 0.0075517438615816659 -0.025098502385345348 0 0.0075184660163630165 -0.025227311330452199 0 0.0074980534346409024 -0.02524429702969095 0 0.0075184660163630165 -0.025227311330452199 0 0.0074286767185403032 -0.025391135737752826 0 0.0075184660163630165 -0.025227311330452199 0 0.0074620393329289849 -0.02540140574707966 0 0.0074286767185403032 -0.025391135737752826 0 0.0072620715163802278 -0.025581996376124311 0 0.0074286767185403032 -0.025391135737752826 0 0.0073509105000834039 -0.02555294439476466 0 0.0074620393329289849 -0.02540140574707966 0 0.0074286767185403032 -0.025391135737752826 0 0.0073509105000834039 -0.02555294439476466 0 0.0072024971875988449 -0.025728801659924454 0 0.0073509105000834039 -0.02555294439476466 0 0.0073706820553787076 -0.025708384042577911 0 0.0074620393329289849 -0.02540140574707966 0 0.0073509105000834039 -0.02555294439476466 0 0.0073706820553787076 -0.025708384042577911 0 0.0095891611245012658 -0.018332174487462063 0 0.0095959478499833689 -0.018352985123573518 0 0.0096195531144559355 -0.018348179241930065 0 0.0095959478499833689 -0.018352985123573518 0 0.0096195531144559355 -0.018348179241930065 0 0.0096608405461555205 -0.018367619043557801 0 0.0096195531144559355 -0.018348179241930065 0 0.009672886006055606 -0.018371256742700726 0 0.0096608405461555205 -0.018367619043557801 0 0.0095891611245012658 -0.018332174487462063 0 0.0095702558259400453 -0.018296330756518084 0 0.0096195531144559355 -0.018348179241930065 0 0.0095702558259400453 -0.018296330756518084 0 0.0096195531144559355 -0.018348179241930065 0 0.0096867133641249381 -0.018391331458829319 0 0.0088488096198427336 -0.017433758526639167 0 0.0095434667664761209 -0.017745730158789875 0 0.0093155015713752617 -0.017814282556444763 0 0.0092319122948576748 -0.017886614808805067 0 0.0095755771679584181 -0.018074716197124464 0 0.0095434667664761209 -0.017745730158789875 0 0.0097157558357191167 -0.018136503665933962 0 0.0096269356455616073 -0.017971618568434235 0 0.0095434667664761209 -0.017745730158789875 0 0.0096269356455616073 -0.017971618568434235 0 0.0093155015713752617 -0.017814282556444763 0 0.0096867133641249381 -0.018391331458829319 0 0.009713883994129268 -0.018381943273862614 0 0.0097570817223885282 -0.018386727897599008 0 0.009713883994129268 -0.018381943273862614 0 0.009672886006055606 -0.018371256742700726 0 0.0097017671125697608 -0.018381197514901068 0 0.0096195531144559355 -0.018348179241930065 0 0.0096867133641249381 -0.018391331458829319 0 0.009672886006055606 -0.018371256742700726 0 0.0096867133641249381 -0.018391331458829319 0 0.009713883994129268 -0.018381943273862614 0 0.009672886006055606 -0.018371256742700726 0 0.009672886006055606 -0.018371256742700726 0 0.0096608405461555205 -0.018367619043557801 0 0.0097017671125697608 -0.018381197514901068 0 0.009713883994129268 -0.018381943273862614 0 0.0097017671125697608 -0.018381197514901068 0 0.0097371908759500431 -0.018398345940228596 0 0.0097718519301052582 -0.018446674953014847 0 0.0097570817223885282 -0.018386727897599008 0 0.0097546915230943988 -0.018298142487206598 0 0.0097371908759500431 -0.018398345940228596 0 0.0097718519301052582 -0.018446674953014847 0 0.0097570817223885282 -0.018386727897599008 0 0.009713883994129268 -0.018381943273862614 0 0.0097371908759500431 -0.018398345940228596 0 0.0097570817223885282 -0.018386727897599008 0 0.0097224975157813101 -0.018375986948253729 0 0.0097371908759500431 -0.018398345940228596 0 0.0097718519301052582 -0.018446674953014847 0 0.0096867133641249381 -0.018391331458829319 0 0.0097570817223885282 -0.018386727897599008 0 0.0097546915230943988 -0.018298142487206598 0 0.0095755771679584181 -0.018074716197124464 0 0.0097079215505710553 -0.018246875130833493 0 0.0095434667664761209 -0.017745730158789875 0 0.0097546915230943988 -0.018298142487206598 0 0.0097157558357191167 -0.018136503665933962 0 0.0097546915230943988 -0.018298142487206598 0 0.0097332643601335655 -0.018265562727240617 0 0.0097157558357191167 -0.018136503665933962 0 0.0097546915230943988 -0.018298142487206598 0 0.0097332643601335655 -0.018265562727240617 0 0.0098462036963847289 -0.018516360956505579 0 0.0097718519301052582 -0.018446674953014847 0 0.0097546915230943988 -0.018298142487206598 0 0.0098187159400651182 -0.018533520539842061 0 0.0097546915230943988 -0.018298142487206598 0 0.0098187159400651182 -0.018533520539842061 0 0.0098462036963847289 -0.018516360956505579 0 0.0097826763419013758 -0.018471844264569066 0 0.0097718519301052582 -0.018446674953014847 0 0.0098187159400651182 -0.018533520539842061 0 0.0095745463845012674 -0.018013065023616215 0 0.0097332643601335655 -0.018265562727240617 0 0.009630451363624646 -0.01805072175290277 0 0.0095745463845012674 -0.018013065023616215 0 0.009630451363624646 -0.01805072175290277 0 0.0095148522178034843 -0.017808575239921 0 0.0097157558357191167 -0.018136503665933962 0 0.0096581709975992937 -0.018035727264103019 0 0.009630451363624646 -0.01805072175290277 0 0.0097332643601335655 -0.018265562727240617 0 0.0097157558357191167 -0.018136503665933962 0 0.009630451363624646 -0.01805072175290277 0 0.0097157558357191167 -0.018136503665933962 0 0.0096581709975992937 -0.018035727264103019 0 0.0096269356455616073 -0.017971618568434235 0 0.0096581709975992937 -0.018035727264103019 0 0.009630451363624646 -0.01805072175290277 0 0.009603369285561646 -0.017864090653573937 0 0.009630451363624646 -0.01805072175290277 0 0.009603369285561646 -0.017864090653573937 0 0.0095148522178034843 -0.017808575239921 0 0.009603369285561646 -0.017864090653573937 0 0.009881321130273641 -0.017763585226656796 0 0.0097125255118113082 -0.017504891435396557 0 0.0096581709975992937 -0.018035727264103019 0 0.009603369285561646 -0.017864090653573937 0 0.0096957145781724711 -0.017984610400436092 0 0.009603369285561646 -0.017864090653573937 0 0.009881321130273641 -0.017763585226656796 0 0.0096957145781724711 -0.017984610400436092 0 0.0096581709975992937 -0.018035727264103019 0 0.0096269356455616073 -0.017971618568434235 0 0.0096957145781724711 -0.017984610400436092 0 0.0096269356455616073 -0.017971618568434235 0 0.0096957145781724711 -0.017984610400436092 0 0.0093155015713752617 -0.017814282556444763 0 0.0093155015713752617 -0.017814282556444763 0 0.0083758437336905658 -0.016735398146127345 0 0.008751203618541736 -0.017284216879509248 0 0.0093715580462840568 -0.017674373134879216 0 0.0095070244295299439 -0.017254693921928976 0 0.0088488096198427336 -0.017433758526639167 0 0.0093155015713752617 -0.017814282556444763 0 0.008751203618541736 -0.017284216879509248 0 0.0096957145781724711 -0.017984610400436092 0 0.0093155015713752617 -0.017814282556444763 0 0.010513524546127334 -0.01796524028615187 0 0.009881321130273641 -0.017763585226656796 0 0.010513524546127334 -0.01796524028615187 0 0.010256109369242185 -0.017349274080713465 0 0.009881321130273641 -0.017763585226656796 0 0.0096957145781724711 -0.017984610400436092 0 0.010513524546127334 -0.01796524028615187 0 0.010256109369242185 -0.017349274080713465 0 0.010602202706984891 -0.016408443747942526 0 0.01176211945697913 -0.016966173340783468 0 0.010256109369242185 -0.017349274080713465 0 0.010602202706984891 -0.016408443747942526 0 0.0099015067455774063 -0.01682272003645317 0 0.010602202706984891 -0.016408443747942526 0 0.010062375572805073 -0.016073140317551433 0 0.010553333734141891 -0.015503893775859553 0 0.010602202706984891 -0.016408443747942526 0 0.0099015067455774063 -0.01682272003645317 0 0.010062375572805073 -0.016073140317551433 0 0.0099015067455774063 -0.01682272003645317 0 0.010062375572805073 -0.016073140317551433 0 0.0094064301638962303 -0.016208065239253409 0 0.0099015067455774063 -0.01682272003645317 0 0.0094064301638962303 -0.016208065239253409 0 0.0094929367982370567 -0.017087628834896246 0 0.0099015067455774063 -0.01682272003645317 0 0.0097125255118113082 -0.017504891435396557 0 0.0094929367982370567 -0.017087628834896246 0 0.010256109369242185 -0.017349274080713465 0 0.0099015067455774063 -0.01682272003645317 0 0.0097125255118113082 -0.017504891435396557 0 0.009881321130273641 -0.017763585226656796 0 0.010256109369242185 -0.017349274080713465 0 0.0097125255118113082 -0.017504891435396557 0 0.009603369285561646 -0.017864090653573937 0 0.0097125255118113082 -0.017504891435396557 0 0.0094037584113618317 -0.017567503527869111 0 0.009603369285561646 -0.017864090653573937 0 0.0094037584113618317 -0.017567503527869111 0 0.0095148522178034843 -0.017808575239921 0 0.0094037584113618317 -0.017567503527869111 0 0.0095148522178034843 -0.017808575239921 0 0.0094321446345091587 -0.01759885795786181 0 0.009354501889744328 -0.017460218871476026 0 0.0093568874268329365 -0.01738998534071276 0 0.0097125255118113082 -0.017504891435396557 0 0.0094037584113618317 -0.017567503527869111 0 0.0094929367982370567 -0.017087628834896246 0 0.0094037584113618317 -0.017567503527869111 0 0.0089395679027990584 -0.01706414217588639 0 0.0094929367982370567 -0.017087628834896246 0 0.0094154191801988554 -0.016026394386865168 0 0.0093568874268329365 -0.01738998534071276 0 0.0094064301638962303 -0.016208065239253409 0 0.0089395679027990584 -0.01706414217588639 0 0.0094929367982370567 -0.017087628834896246 0 0.0086109877274620789 -0.016784090196262126 0 0.0086370168613018085 -0.015861915164580069 0 0.0076694406695793456 -0.015481710962279698 0 0.0093878007900235795 -0.01589663803017595 0 0.0086109877274620789 -0.016784090196262126 0 0.0086370168613018085 -0.015861915164580069 0 0.0093568874268329365 -0.01738998534071276 0 0.0086550865340705389 -0.017090627483905916 0 0.010482462247307514 -0.018108920746190176 0 0.010278864258670731 -0.018103768472896149 0 0.010357282564407324 -0.017883628593423104 0 0.010259628294041296 -0.018317226244276372 0 0.010482462247307514 -0.018108920746190176 0 0.010278864258670731 -0.018103768472896149 0 0.01000831617723991 -0.018185415135749988 0 0.0093568874268329365 -0.01738998534071276 0 0.0095745463845012674 -0.018013065023616215 0 0.0095148522178034843 -0.017808575239921 0 0.0094321446345091587 -0.01759885795786181 0 0.009970612621931137 -0.016664488728218796 0 0.0089776662434130402 -0.016602247246451145 0 0.0096364994311484396 -0.015731820674160301 0 0.009970612621931137 -0.016664488728218796 0 0.0096364994311484396 -0.015731820674160301 0 0.01056752745172836 -0.015721718385174051 0 0.009970612621931137 -0.016664488728218796 0 0.01056752745172836 -0.015721718385174051 0 0.011027851060429385 -0.01652083031347628 0 0.009970612621931137 -0.016664488728218796 0 0.010668247077033354 -0.01720414911515912 0 0.011027851060429385 -0.01652083031347628 0 0.010108918532116585 -0.017636274383532626 0 0.009970612621931137 -0.016664488728218796 0 0.010668247077033354 -0.01720414911515912 0 0.0090876205365132308 -0.017579364374460046 0 0.010108918532116585 -0.017636274383532626 0 0.009970612621931137 -0.016664488728218796 0 0.0090876205365132308 -0.017579364374460046 0 0.008751203618541736 -0.017284216879509248 0 0.0089776662434130402 -0.016602247246451145 0 0.0090876205365132308 -0.017579364374460046 0 0.009970612621931137 -0.016664488728218796 0 0.0089776662434130402 -0.016602247246451145 0 0.0083758437336905658 -0.016735398146127345 0 0.008751203618541736 -0.017284216879509248 0 0.0089776662434130402 -0.016602247246451145 0 0.0083758437336905658 -0.016735398146127345 0 0.0089776662434130402 -0.016602247246451145 0 0.0082937854684368376 -0.015290581988656437 0 0.0089776662434130402 -0.016602247246451145 0 0.0089861874046629625 -0.015066818583549382 0 0.0096364994311484396 -0.015731820674160301 0 0.0089776662434130402 -0.016602247246451145 0 0.0089861874046629625 -0.015066818583549382 0 0.0082937854684368376 -0.015290581988656437 0 0.010513524546127334 -0.01796524028615187 0 0.010256109369242185 -0.017349274080713465 0 0.01176211945697913 -0.016966173340783468 0 0.0095070244295299439 -0.017254693921928976 0 0.010048483273503297 -0.016074575059540828 0 0.010602202706984891 -0.016408443747942526 0 0.01176211945697913 -0.016966173340783468 0 0.011386882363638676 -0.015313842622848479 0 0.01176211945697913 -0.016966173340783468 0 0.012936861954629461 -0.015519542762551479 0 0.011386882363638676 -0.015313842622848479 0 0.010048483273503297 -0.016074575059540828 0 0.010692437677202427 -0.014513838898687473 0 0.0089861874046629625 -0.015066818583549382 0 0.0082937854684368376 -0.015290581988656437 0 0.0084118620152157288 -0.01361199329136014 0 0.0089861874046629625 -0.015066818583549382 0 0.0098531066970851799 -0.014570257855953488 0 0.0084118620152157288 -0.01361199329136014 0 0.0089861874046629625 -0.015066818583549382 0 0.0096364994311484396 -0.015731820674160301 0 0.0098531066970851799 -0.014570257855953488 0 0.0096364994311484396 -0.015731820674160301 0 0.01056752745172836 -0.015721718385174051 0 0.0098531066970851799 -0.014570257855953488 0 0.01056752745172836 -0.015721718385174051 0 0.0098531066970851799 -0.014570257855953488 0 0.011157269636924557 -0.014805751133623701 0 0.0098531066970851799 -0.014570257855953488 0 0.010500016743443252 -0.0137553385618289 0 0.0096082972209295871 -0.012952884172742755 0 0.0098531066970851799 -0.014570257855953488 0 0.010500016743443252 -0.0137553385618289 0 0.011157269636924557 -0.014805751133623701 0 0.010500016743443252 -0.0137553385618289 0 0.011894001786713388 -0.013927673000499376 0 0.011157269636924557 -0.014805751133623701 0 0.011894001786713388 -0.013927673000499376 0 0.012193342704796571 -0.014929277837336651 0 0.012956279718134359 -0.014568396350018621 0 0.011894001786713388 -0.013927673000499376 0 0.012193342704796571 -0.014929277837336651 0 0.011157269636924557 -0.014805751133623701 0 0.012193342704796571 -0.014929277837336651 0 0.01177761662766947 -0.015856511867836785 0 0.01267726271292567 -0.015664925709268248 0 0.012193342704796571 -0.014929277837336651 0 0.011157269636924557 -0.014805751133623701 0 0.01177761662766947 -0.015856511867836785 0 0.01056752745172836 -0.015721718385174051 0 0.011157269636924557 -0.014805751133623701 0 0.01177761662766947 -0.015856511867836785 0 0.01056752745172836 -0.015721718385174051 0 0.011027851060429385 -0.01652083031347628 0 0.01177761662766947 -0.015856511867836785 0 0.011027851060429385 -0.01652083031347628 0 0.01177761662766947 -0.015856511867836785 0 0.012031791200466019 -0.016862296475419383 0 0.01177761662766947 -0.015856511867836785 0 0.012031791200466019 -0.016862296475419383 0 0.012543164936556991 -0.016401526285808338 0 0.01177761662766947 -0.015856511867836785 0 0.012543164936556991 -0.016401526285808338 0 0.01267726271292567 -0.015664925709268248 0 0.012031791200466019 -0.016862296475419383 0 0.01141078904995379 -0.017294788111883709 0 0.012294770176315674 -0.017509680589619225 0 0.011027851060429385 -0.01652083031347628 0 0.012031791200466019 -0.016862296475419383 0 0.01141078904995379 -0.017294788111883709 0 0.010668247077033354 -0.01720414911515912 0 0.011027851060429385 -0.01652083031347628 0 0.01141078904995379 -0.017294788111883709 0 0.013671378979850204 -0.016577986021283336 0 0.013000910030182873 -0.017146574890260058 0 0.013764176671092788 -0.017501732965403576 0 0.013671378979850204 -0.016577986021283336 0 0.014368063207984078 -0.016777526095886692 0 0.013764176671092788 -0.017501732965403576 0 0.013671378979850204 -0.016577986021283336 0 0.014038549469860872 -0.016071445081597035 0 0.014368063207984078 -0.016777526095886692 0 0.012031791200466019 -0.016862296475419383 0 0.013000910030182873 -0.017146574890260058 0 0.012294770176315674 -0.017509680589619225 0 0.012031791200466019 -0.016862296475419383 0 0.013000910030182873 -0.017146574890260058 0 0.012543164936556991 -0.016401526285808338 0 0.013000910030182873 -0.017146574890260058 0 0.01308196557308576 -0.016482654610080725 0 0.012543164936556991 -0.016401526285808338 0 0.013671378979850204 -0.016577986021283336 0 0.013000910030182873 -0.017146574890260058 0 0.01308196557308576 -0.016482654610080725 0 0.01308196557308576 -0.016482654610080725 0 0.01267726271292567 -0.015664925709268248 0 0.01347028368854826 -0.015581060700749017 0 0.01308196557308576 -0.016482654610080725 0 0.012543164936556991 -0.016401526285808338 0 0.01267726271292567 -0.015664925709268248 0 0.013671378979850204 -0.016577986021283336 0 0.014038549469860872 -0.016071445081597035 0 0.01347028368854826 -0.015581060700749017 0 0.013671378979850204 -0.016577986021283336 0 0.01308196557308576 -0.016482654610080725 0 0.01347028368854826 -0.015581060700749017 0 0.014038549469860872 -0.016071445081597035 0 0.013937939458082502 -0.015572898621576662 0 0.014191585474200638 -0.015700435298480576 0 0.014038549469860872 -0.016071445081597035 0 0.013937939458082502 -0.015572898621576662 0 0.01347028368854826 -0.015581060700749017 0 0.01347028368854826 -0.015581060700749017 0 0.012956279718134359 -0.014568396350018621 0 0.01384370452591188 -0.014504079847799911 0 0.013937939458082502 -0.015572898621576662 0 0.01384370452591188 -0.014504079847799911 0 0.014407648858571336 -0.01559097740042459 0 0.013937939458082502 -0.015572898621576662 0 0.01347028368854826 -0.015581060700749017 0 0.01384370452591188 -0.014504079847799911 0 0.012724340382455061 -0.0093498204925807054 0 0.011745692591922359 -0.011842556144890859 0 0.012193342704796571 -0.014929277837336651 0 0.01267726271292567 -0.015664925709268248 0 0.012956279718134359 -0.014568396350018621 0 0.01267726271292567 -0.015664925709268248 0 0.01347028368854826 -0.015581060700749017 0 0.012956279718134359 -0.014568396350018621 0 0.012956279718134359 -0.014568396350018621 0 0.01384370452591188 -0.014504079847799911 0 0.013231423088295292 -0.013280697143967717 0 0.011894001786713388 -0.013927673000499376 0 0.012956279718134359 -0.014568396350018621 0 0.013231423088295292 -0.013280697143967717 0 0.012724340382455061 -0.0093498204925807054 0 0.012316724864708745 -0.0089207886871307419 0 0.011497089001961818 -0.0046393739854328746 0 0.01155218208640435 -0.0046187384308779555 0 0.011557741960278037 -0.0045110104309777788 0 0.01155218208640435 -0.0046187384308779555 0 0.011527188294587529 -0.0046304819427941957 0 0.011557741960278037 -0.0045110104309777788 0 0.01155218208640435 -0.0046187384308779555 0 0.011543012892147311 -0.0046423997047042942 0 0.011527188294587529 -0.0046304819427941957 0 0.01155218208640435 -0.0046187384308779555 0 0.011543012892147311 -0.0046423997047042942 0 0.0115512980778293 -0.0046782674314873353 0 0.011497089001961818 -0.0046393739854328746 0 0.01155218208640435 -0.0046187384308779555 0 0.0115512980778293 -0.0046782674314873353 0 0.013937939458082502 -0.015572898621576662 0 0.014407648858571336 -0.01559097740042459 0 0.014191585474200638 -0.015700435298480576 0 0.011336059825898553 -0.0049097646988989175 0 0.011446905141704735 -0.0047306113064832676 0 0.011445905994276523 -0.0047137714443681268 0 0.011446905141704735 -0.0047306113064832676 0 0.011527188294587529 -0.0046304819427941957 0 0.011445905994276523 -0.0047137714443681268 0 0.011543012892147311 -0.0046423997047042942 0 0.011527188294587529 -0.0046304819427941957 0 0.011484056864708641 -0.0046451099072972266 0 0.011527188294587529 -0.0046304819427941957 0 0.011484056864708641 -0.0046451099072972266 0 0.011445905994276523 -0.0047137714443681268 0 0.011306047031687673 -0.0046377102705785723 0 0.011484056864708641 -0.0046451099072972266 0 0.011445905994276523 -0.0047137714443681268 0 0.011306047031687673 -0.0046377102705785723 0 0.011207722977226579 -0.004430903195629588 0 0.011368785974790704 -0.0045475503590482816 0 0.011306047031687673 -0.0046377102705785723 0 0.011484056864708641 -0.0046451099072972266 0 0.011368785974790704 -0.0045475503590482816 0 0.011484056864708641 -0.0046451099072972266 0 0.011368785974790704 -0.0045475503590482816 0 0.011455722648277881 -0.0044485402865824643 0 0.011484056864708641 -0.0046451099072972266 0 0.011455722648277881 -0.0044485402865824643 0 0.01155803382533975 -0.0045998832619422135 0 0.010855173986239312 -0.0087464584012869589 0 0.010233373644519742 -0.0090019576812089656 0 0.0092254807117388392 -0.013886070667128545 0 0.0096299680533740422 -0.013940969348879919 0 0.0092436146154980161 -0.013598008622041378 0 0.013039921247476839 -0.015282678670220996 0 0.0079152878745916821 -0.020168267464841683 0 0.010855173986239312 -0.0087464584012869589 0 0.0040610832032833798 -0.016310138585715752 0 0.011207722977226579 -0.004430903195629588 0 0.011455722648277881 -0.0044485402865824643 0 0.011204211510034531 -0.0042411788248288961 0 0.011207722977226579 -0.004430903195629588 0 0.011368785974790704 -0.0045475503590482816 0 0.011455722648277881 -0.0044485402865824643 0 0.011745692591922359 -0.011842556144890859 0 0.013039921247476839 -0.015282678670220996 0 0.014038549469860872 -0.016071445081597035 0 0.014407648858571336 -0.01559097740042459 0 0.014368063207984078 -0.016777526095886692 0 0.011745692591922359 -0.011842556144890859 0 0.010233373644519742 -0.0090019576812089656 0 0.014407648858571336 -0.01559097740042459 0 0.015041989602980458 -0.016711078285140506 0 0.014368063207984078 -0.016777526095886692 0 0.014038549469860872 -0.016071445081597035 0 0.014407648858571336 -0.01559097740042459 0 0.014191585474200638 -0.015700435298480576 0 0.0099766896717805847 -0.014178354156300413 0 0.0096269530656276168 -0.01405201071258484 0 0.0096299680533740422 -0.013940969348879919 0 0.011543012892147311 -0.0046423997047042942 0 0.011484056864708641 -0.0046451099072972266 0 0.01155803382533975 -0.0045998832619422135 0 0.011543012892147311 -0.0046423997047042942 0 0.0115512980778293 -0.0046782674314873353 0 0.01155803382533975 -0.0045998832619422135 0 0.0092254807117388392 -0.013886070667128545 0 0.0096269530656276168 -0.01405201071258484 0 0.0096299680533740422 -0.013940969348879919 0 0.015041989602980458 -0.016711078285140506 0 0.014368063207984078 -0.016777526095886692 0 0.014491607358918196 -0.017910878041963851 0 0.014368063207984078 -0.016777526095886692 0 0.014491607358918196 -0.017910878041963851 0 0.013764176671092788 -0.017501732965403576 0 0.010316845385333073 -0.022619689152832002 0 0.0079152878745916821 -0.020168267464841683 0 0.015041989602980458 -0.016711078285140506 0 0.014491607358918196 -0.017910878041963851 0 0.015651703922356392 -0.017676231315586856 0 0.0053797025345057384 -0.026778235164719052 0 0.0038869210992579007 -0.027029871794830736 0 0.0040088144392020561 -0.02624715223878786 0 0.0051304749594820063 -0.026122375023129193 0 0.0040856275431143136 -0.026230373023812592 0 0.0053797025345057384 -0.026778235164719052 0 0.0055881211782310329 -0.025881850087120448 0 0.0040088144392020561 -0.02624715223878786 0 0.0053797025345057384 -0.026778235164719052 0 0.0055881211782310329 -0.025881850087120448 0 0.007012245999762589 -0.026329607616288803 0 0.0092254807117388392 -0.013886070667128545 0 0.0087920633592018984 -0.013667065993175612 0 0.0092436146154980161 -0.013598008622041378 0 0.0011688267759894654 -0.023932358435811485 0 0.0028353022359370026 -0.023660100665117288 0 0.0017187388884861291 -0.02237490313331492 0 0.0040610832032833798 -0.016310138585715752 0 0.0079152878745916821 -0.020168267464841683 0 0.0079152878745916821 -0.020168267464841683 0 0.0024425149293009125 -0.02476584704545744 0 0.0038869210992579007 -0.027029871794830736 0 0.0040088144392020561 -0.02624715223878786 0 0.0034264991855713759 -0.026393754650785254 0 0.0020082310165375644 -0.023557183247245105 0 0.0024425149293009125 -0.02476584704545744 0 0.0030534328885248496 -0.026005567112483786 0 0.0034264991855713759 -0.026393754650785254 0 0.0035489482148565684 -0.025938627331139417 0 0.0040088144392020561 -0.02624715223878786 0 0.0035489482148565684 -0.025938627331139417 0 0.0039833769692103529 -0.025854882120638554 0 0.0040088144392020561 -0.02624715223878786 0 0.0034264991855713759 -0.026393754650785254 0 0.0035489482148565684 -0.025938627331139417 0 0.0035489482148565684 -0.025938627331139417 0 0.0039833769692103529 -0.025854882120638554 0 0.0036399353130721398 -0.025555111319670518 0 0.0041216067804319967 -0.025464515732563225 0 0.0039833769692103529 -0.025854882120638554 0 0.0036399353130721398 -0.025555111319670518 0 0.0030534328885248496 -0.026005567112483786 0 0.0035489482148565684 -0.025938627331139417 0 0.0031671579509082496 -0.025599089997248501 0 0.0035489482148565684 -0.025938627331139417 0 0.0036399353130721398 -0.025555111319670518 0 0.0031671579509082496 -0.025599089997248501 0 0.0045889524327752534 -0.026039046568744319 0 0.0043373218153221352 -0.026058546825149229 0 0.0044801106477097737 -0.025779076251016546 0 0.0045889524327752534 -0.026039046568744319 0 0.004753123850820779 -0.025849772057053508 0 0.0050389407019558862 -0.026231242367507467 0 0.0046630718753415436 -0.026353467445035014 0 0.0045889524327752534 -0.026039046568744319 0 0.0050389407019558862 -0.026231242367507467 0 0.0046630718753415436 -0.026353467445035014 0 0.0045889524327752534 -0.026039046568744319 0 0.0043373218153221352 -0.026058546825149229 0 0.0040088144392020561 -0.02624715223878786 0 0.0039833769692103529 -0.025854882120638554 0 0.0043373218153221352 -0.026058546825149229 0 0.0046630718753415436 -0.026353467445035014 0 0.0040088144392020561 -0.02624715223878786 0 0.0043373218153221352 -0.026058546825149229 0 0.0039833769692103529 -0.025854882120638554 0 0.0043373218153221352 -0.026058546825149229 0 0.0044801106477097737 -0.025779076251016546 0 0.0041216067804319967 -0.025464515732563225 0 0.0039833769692103529 -0.025854882120638554 0 0.0044801106477097737 -0.025779076251016546 0 0.0045003864890530449 -0.025485347830630264 0 0.0041216067804319967 -0.025464515732563225 0 0.0044801106477097737 -0.025779076251016546 0 0.0045003864890530449 -0.025485347830630264 0 0.0044801106477097737 -0.025779076251016546 0 0.0047209050506735852 -0.025664846244293545 0 0.0045889524327752534 -0.026039046568744319 0 0.0044801106477097737 -0.025779076251016546 0 0.004753123850820779 -0.025849772057053508 0 0.0044801106477097737 -0.025779076251016546 0 0.004753123850820779 -0.025849772057053508 0 0.0047209050506735852 -0.025664846244293545 0 0.0054441916042870459 -0.025957179423946285 0 0.0053957480924440426 -0.02607681537745446 0 0.0050389407019558862 -0.026231242367507467 0 0.0048511262314728061 -0.025643752771948226 0 0.0047209050506735852 -0.025664846244293545 0 0.0048799592464698633 -0.02561201538302171 0 0.0051533328043212381 -0.025831985913817815 0 0.0050483188725977133 -0.026230167804774083 0 0.004753123850820779 -0.025849772057053508 0 0.0047209050506735852 -0.025664846244293545 0 0.0048799592464698633 -0.02561201538302171 0 0.004753123850820779 -0.025849772057053508 0 0.0048799592464698633 -0.02561201538302171 0 0.0050389407019558862 -0.026231242367507467 0 0.0054441916042870459 -0.025957179423946285 0 0.0053957480924440426 -0.02607681537745446 0 0.0055401285480419808 -0.025994653899010723 0 0.0055452451810832056 -0.025962910925777405 0 0.0054441916042870459 -0.025957179423946285 0 0.0055401285480419808 -0.025994653899010723 0 0.0046630718753415436 -0.026353467445035014 0 0.0050389407019558862 -0.026231242367507467 0 0.005491560152950414 -0.026355595521610375 0 0.0053957480924440426 -0.02607681537745446 0 0.0053709571916049463 -0.026173731823650726 0 0.0050389407019558862 -0.026231242367507467 0 0.0053709571916049463 -0.026173731823650726 0 0.0050389407019558862 -0.026231242367507467 0 0.005491560152950414 -0.026355595521610375 0 0.0055239554444067012 -0.026191383228704967 0 0.0056618131727458462 -0.026239816540273232 0 0.005491560152950414 -0.026355595521610375 0 0.0053709571916049463 -0.026173731823650726 0 0.0055239554444067012 -0.026191383228704967 0 0.005491560152950414 -0.026355595521610375 0 0.0053709571916049463 -0.026173731823650726 0 0.0055239554444067012 -0.026191383228704967 0 0.0054726408759927124 -0.026096509559636348 0 0.0055239554444067012 -0.026191383228704967 0 0.0054726408759927124 -0.026096509559636348 0 0.0055835312173423395 -0.0261095680168646 0 0.0053957480924440426 -0.02607681537745446 0 0.0053709571916049463 -0.026173731823650726 0 0.0054726408759927124 -0.026096509559636348 0 0.0055239554444067012 -0.026191383228704967 0 0.0055835312173423395 -0.0261095680168646 0 0.0056618131727458462 -0.026239816540273232 0 0.0055835312173423395 -0.0261095680168646 0 0.0055401285480419808 -0.025994653899010723 0 0.0056431699741778772 -0.026040689386477821 0 0.0053957480924440426 -0.02607681537745446 0 0.0054726408759927124 -0.026096509559636348 0 0.0055401285480419808 -0.025994653899010723 0 0.0054726408759927124 -0.026096509559636348 0 0.0055835312173423395 -0.0261095680168646 0 0.0055401285480419808 -0.025994653899010723 0 0.0056591580160060551 -0.025966780675927024 0 0.0055401285480419808 -0.025994653899010723 0 0.0056431699741778772 -0.026040689386477821 0 0.0056591580160060551 -0.025966780675927024 0 0.0057534484824885504 -0.026016760440594072 0 0.0056431699741778772 -0.026040689386477821 0 0.0057673739906068076 -0.025931370752092932 0 0.0056591580160060551 -0.025966780675927024 0 0.0057534484824885504 -0.026016760440594072 0 0.0057534484824885504 -0.026016760440594072 0 0.0058088443147158129 -0.026108225324188945 0 0.0057055874990846207 -0.026113219198609715 0 0.0055835312173423395 -0.0261095680168646 0 0.0057055874990846207 -0.026113219198609715 0 0.0056431699741778772 -0.026040689386477821 0 0.0057534484824885504 -0.026016760440594072 0 0.0057055874990846207 -0.026113219198609715 0 0.0056431699741778772 -0.026040689386477821 0 0.0057673739906068076 -0.025931370752092932 0 0.0057534484824885504 -0.026016760440594072 0 0.0059374414796444404 -0.025996493370010188 0 0.0057534484824885504 -0.026016760440594072 0 0.0058088443147158129 -0.026108225324188945 0 0.0059374414796444404 -0.025996493370010188 0 0.0058088443147158129 -0.026108225324188945 0 0.0059374414796444404 -0.025996493370010188 0 0.0058908390240526663 -0.026175245955251669 0 0.0076372014099018682 -0.025807359657884752 0 0.0070591432215597267 -0.025931409853287936 0 0.0062896680313446387 -0.02628446954874156 0 0.0060390622918864659 -0.026169928855873183 0 0.005838243246073919 -0.02629865347189083 0 0.0059374414796444404 -0.025996493370010188 0 0.0060390622918864659 -0.026169928855873183 0 0.0058908390240526663 -0.026175245955251669 0 0.0058908390240526663 -0.026175245955251669 0 0.005838243246073919 -0.02629865347189083 0 0.00577706367591721 -0.026191354201028826 0 0.0060390622918864659 -0.026169928855873183 0 0.0058908390240526663 -0.026175245955251669 0 0.005838243246073919 -0.02629865347189083 0 0.005838243246073919 -0.02629865347189083 0 0.0056618131727458462 -0.026239816540273232 0 0.005491560152950414 -0.026355595521610375 0 0.0070591432215597267 -0.025931409853287936 0 0.0063144270920181926 -0.026017162960851804 0 0.0055835312173423395 -0.0261095680168646 0 0.0057055874990846207 -0.026113219198609715 0 0.0056618131727458462 -0.026239816540273232 0 0.0057055874990846207 -0.026113219198609715 0 0.00577706367591721 -0.026191354201028826 0 0.0056618131727458462 -0.026239816540273232 0 0.0058088443147158129 -0.026108225324188945 0 0.0057055874990846207 -0.026113219198609715 0 0.00577706367591721 -0.026191354201028826 0 0.0058088443147158129 -0.026108225324188945 0 0.0058908390240526663 -0.026175245955251669 0 0.00577706367591721 -0.026191354201028826 0 0.005838243246073919 -0.02629865347189083 0 0.00577706367591721 -0.026191354201028826 0 0.0056618131727458462 -0.026239816540273232 0 0.011666529254861979 -0.01851078755427479 0 0.01226183139118547 -0.018027464240109141 0 0.01314958751911109 -0.018240407392518247 0 0.0082922341612817144 -0.025550768518435747 0 0.0082338398151914002 -0.025875954796624568 0 0.0071451031156963734 -0.02568479227276205 0 0.010308971227557123 -0.018572317059277987 0 0.011666529254861979 -0.01851078755427479 0 0.010843183806924825 -0.018232844380804872 0 0.011666529254861979 -0.01851078755427479 0 0.010843183806924825 -0.018232844380804872 0 0.011243298058386501 -0.018098485944301374 0 0.0095652171726854814 -0.022081583021215347 0 0.0099657759038691042 -0.022187300499737616 0 0.0089074255658158508 -0.025523626455852842 0 0.0082922341612817144 -0.025550768518435747 0 0.0082338398151914002 -0.025875954796624568 0 0.011666529254861979 -0.01851078755427479 0 0.011243298058386501 -0.018098485944301374 0 0.011651295110867129 -0.017819888523213537 0 0.01141078904995379 -0.017294788111883709 0 0.010833443086205232 -0.017841325911895151 0 0.011651295110867129 -0.017819888523213537 0 0.010833443086205232 -0.017841325911895151 0 0.011243298058386501 -0.018098485944301374 0 0.011651295110867129 -0.017819888523213537 0 0.010843183806924825 -0.018232844380804872 0 0.010833443086205232 -0.017841325911895151 0 0.011243298058386501 -0.018098485944301374 0 0.010668247077033354 -0.01720414911515912 0 0.01141078904995379 -0.017294788111883709 0 0.010833443086205232 -0.017841325911895151 0 0.01141078904995379 -0.017294788111883709 0 0.011651295110867129 -0.017819888523213537 0 0.012294770176315674 -0.017509680589619225 0 0.01226183139118547 -0.018027464240109141 0 0.011651295110867129 -0.017819888523213537 0 0.012294770176315674 -0.017509680589619225 0 0.011666529254861979 -0.01851078755427479 0 0.01226183139118547 -0.018027464240109141 0 0.011651295110867129 -0.017819888523213537 0 0.01226183139118547 -0.018027464240109141 0 0.012790619529110685 -0.017719461640804648 0 0.01314958751911109 -0.018240407392518247 0 0.013000910030182873 -0.017146574890260058 0 0.012294770176315674 -0.017509680589619225 0 0.012790619529110685 -0.017719461640804648 0 0.01226183139118547 -0.018027464240109141 0 0.012294770176315674 -0.017509680589619225 0 0.012790619529110685 -0.017719461640804648 0 0.012790619529110685 -0.017719461640804648 0 0.013177461563201997 -0.017650291905150727 0 0.01314958751911109 -0.018240407392518247 0 0.013000910030182873 -0.017146574890260058 0 0.012790619529110685 -0.017719461640804648 0 0.013177461563201997 -0.017650291905150727 0 0.013000910030182873 -0.017146574890260058 0 0.013177461563201997 -0.017650291905150727 0 0.013764176671092788 -0.017501732965403576 0 0.014491607358918196 -0.017910878041963851 0 0.013764176671092788 -0.017501732965403576 0 0.01314958751911109 -0.018240407392518247 0 0.013177461563201997 -0.017650291905150727 0 0.013764176671092788 -0.017501732965403576 0 0.01314958751911109 -0.018240407392518247 0 0.010316845385333073 -0.022619689152832002 0 0.0099748622765273905 -0.022251460309625579 0 0.0051304749594820063 -0.026122375023129193 0 0.0063144270920181926 -0.026017162960851804 0 0.0055881211782310329 -0.025881850087120448 0 0.0071451031156963734 -0.02568479227276205 0 0.007012245999762589 -0.026329607616288803 0 0.0082338398151914002 -0.025875954796624568 0 0.0071451031156963734 -0.02568479227276205 0 0.007012245999762589 -0.026329607616288803 0 0.0099657759038691042 -0.022187300499737616 0 0.0099748622765273905 -0.022251460309625579 0 0.025410396810051163 -0.019334325682679142 0 0.025358341482069613 -0.019599146503752617 0 0.025408577222863972 -0.019542880339818929 0 0.025000461976210583 -0.019906731451277929 0 0.025410396810051163 -0.019334325682679142 0 0.025408577222863972 -0.019542880339818929 0 0.025000461976210583 -0.019906731451277929 0 0.025410396810051163 -0.019334325682679142 0 0.024999573720651227 -0.018554642430177584 0 0.025477669091820011 -0.019842838581868926 0 0.025607715425910862 -0.018859210965982556 0 0.025410396810051163 -0.019334325682679142 0 0.025358341482069613 -0.019599146503752617 0 0.025865464960733574 -0.018532791721993708 0 0.024472476683668181 -0.019914131932844543 0 0.025358341482069613 -0.019599146503752617 0 0.024710954452565451 -0.020498693356626043 0 0.025358341482069613 -0.019599146503752617 0 0.024710954452565451 -0.020498693356626043 0 0.025602881692263286 -0.020687227404877686 0 0.024472476683668181 -0.019914131932844543 0 0.023968493974749365 -0.02036480424454962 0 0.024710954452565451 -0.020498693356626043 0 0.024472476683668181 -0.019914131932844543 0 0.02467905551193637 -0.019451775745428775 0 0.023837914060869079 -0.01978825634234321 0 0.024472476683668181 -0.019914131932844543 0 0.02467905551193637 -0.019451775745428775 0 0.025358341482069613 -0.019599146503752617 0 0.02467905551193637 -0.019451775745428775 0 0.025358341482069613 -0.019599146503752617 0 0.025155325982895566 -0.01929538606103039 0 0.02467905551193637 -0.019451775745428775 0 0.024346500791564734 -0.018527574703902268 0 0.023837914060869079 -0.01978825634234321 0 0.02467905551193637 -0.019451775745428775 0 0.025155325982895566 -0.01929538606103039 0 0.024346500791564734 -0.018527574703902268 0 0.022642713454340515 -0.025656924107851767 0 0.024047434014955318 -0.024445278393193725 0 0.022949920822059197 -0.024788634817515181 0 0.023404261293621106 -0.02203885725369973 0 0.024884298325966094 -0.022062959381624555 0 0.022642713454340515 -0.025656924107851767 0 0.024047434014955318 -0.024445278393193725 0 0.024241614623216813 -0.024607440421715927 0 0.025155325982895566 -0.01929538606103039 0 0.024346500791564734 -0.018527574703902268 0 0.025255056174173535 -0.01881981615615979 0 0.025025754449928841 -0.022885697289471769 0 0.024884298325966094 -0.022062959381624555 0 0.024283233223480735 -0.024346646699089838 0 0.024999496809794464 -0.021727153233552513 0 0.024647087598149459 -0.023384714940257866 0 0.024884298325966094 -0.022062959381624555 0 0.025533038810297694 -0.019901050345698074 0 0.026425228308999304 -0.021539045952228261 0 0.025721169546546758 -0.020736880767647885 0 0.025538656940935989 -0.021204508405112163 0 0.024047434014955318 -0.024445278393193725 0 0.024283233223480735 -0.024346646699089838 0 0.024647087598149459 -0.023384714940257866 0 0.025358341482069613 -0.019599146503752617 0 0.025155325982895566 -0.01929538606103039 0 0.025408577222863972 -0.019542880339818929 0 0.025155325982895566 -0.01929538606103039 0 0.025255056174173535 -0.01881981615615979 0 0.025408577222863972 -0.019542880339818929 0 0.025000213056136131 -0.019908865211208184 0 0.025533038810297694 -0.019901050345698074 0 0.025000005578124672 -0.019908755475921702 0 0.025721169546546758 -0.020736880767647885 0 0.024999981456808883 -0.020815253769774951 0 0.025721169546546758 -0.020736880767647885 0 0.024999981456808883 -0.020815253769774951 0 0.025538656940935989 -0.021204508405112163 0 0.024999981456808883 -0.020815253769774951 0 0.024999995823401129 -0.021721674148240618 0 0.025538656940935989 -0.021204508405112163 0 0.024884298325966094 -0.022062959381624555 0 0.025000181467998112 -0.021722741667505149 0 0.026425228308999304 -0.021539045952228261 0 0.024999995823401129 -0.021721674148240618 0 0.025538656940935989 -0.021204508405112163 0 0.024999496809794464 -0.021727153233552513 0 0.024647087598149459 -0.023384714940257866 0 0.024999666264558136 -0.022972963667424739 0 0.024999908247552605 -0.024996261698828841 0 0.022488860278736339 -0.024918848334103436 0 0.020020961294275195 -0.024998872441314851 0 0.024047434014955318 -0.024445278393193725 0 0.024647087598149459 -0.023384714940257866 0 0.023749856305860857 -0.024094091724744755 0 0.024647087598149459 -0.023384714940257866 0 0.024357757606003998 -0.023284945009656294 0 0.023749856305860857 -0.024094091724744755 0 0.024647087598149459 -0.023384714940257866 0 0.024357757606003998 -0.023284945009656294 0 0.024999666264558136 -0.022972963667424739 0 0.024169977453469656 -0.023862738233570043 0 0.024999643058865106 -0.0229759555996326 0 0.024086094447400921 -0.024402341907355941 0 0.024997530421131994 -0.022982313505100223 0 0.024999908247552605 -0.024996261698828841 0 0.024086094447400921 -0.024402341907355941 0 0.024999908247552605 -0.024996261698828841 0 0.022488860278736339 -0.024918848334103436 0 0.024086094447400921 -0.024402341907355941 0 0.022488860278736339 -0.024918848334103436 0 0.022817897359125452 -0.024705716928087255 0 0.022817897359125452 -0.024705716928087255 0 0.022949920822059197 -0.024788634817515181 0 0.022250354457253103 -0.024986627930617466 0 0.022488860278736339 -0.024918848334103436 0 0.022817897359125452 -0.024705716928087255 0 0.022250354457253103 -0.024986627930617466 0 0.024357757606003998 -0.023284945009656294 0 0.022817897359125452 -0.024705716928087255 0 0.023749856305860857 -0.024094091724744755 0 0.024169977453469656 -0.023862738233570043 0 0.022989819972003448 -0.024546546158969968 0 0.024047434014955318 -0.024445278393193725 0 0.023749856305860857 -0.024094091724744755 0 0.022949920822059197 -0.024788634817515181 0 0.022642713454340515 -0.025656924107851767 0 0.022949920822059197 -0.024788634817515181 0 0.021976141767278856 -0.025366752648954487 0 0.022817897359125452 -0.024705716928087255 0 0.023749856305860857 -0.024094091724744755 0 0.022949920822059197 -0.024788634817515181 0 0.022949920822059197 -0.024788634817515181 0 0.021976141767278856 -0.025366752648954487 0 0.022250354457253103 -0.024986627930617466 0 0.021976141767278856 -0.025366752648954487 0 0.021719975541159616 -0.025233524107503021 0 0.022250354457253103 -0.024986627930617466 0 0.021976141767278856 -0.025366752648954487 0 0.021719975541159616 -0.025233524107503021 0 0.021162662483292315 -0.025445648524928602 0 0.021976141767278856 -0.025366752648954487 0 0.021162662483292315 -0.025445648524928602 0 0.021504924642405408 -0.026198846686582098 0 0.021595724958857834 -0.025105888323835829 0 0.021357556627773309 -0.02517722077342445 0 0.02076014080022439 -0.02524665696417917 0 0.021719975541159616 -0.025233524107503021 0 0.021595724958857834 -0.025105888323835829 0 0.021162662483292315 -0.025445648524928602 0 0.022488860278736339 -0.024918848334103436 0 0.021595724958857834 -0.025105888323835829 0 0.022250354457253103 -0.024986627930617466 0 0.021719975541159616 -0.025233524107503021 0 0.021595724958857834 -0.025105888323835829 0 0.022250354457253103 -0.024986627930617466 0 0.022488860278736339 -0.024918848334103436 0 0.021595724958857834 -0.025105888323835829 0 0.021357556627773309 -0.02517722077342445 0 0.022488860278736339 -0.024918848334103436 0 0.021357556627773309 -0.02517722077342445 0 0.020020961294275195 -0.024998872441314851 0 0.021357556627773309 -0.02517722077342445 0 0.020020961294275195 -0.024998872441314851 0 0.019782571989849455 -0.02585645854352836 0 0.02122204285401386 -0.025225556606958421 0 0.02025715776089353 -0.025314889713543277 0 0.021357556627773309 -0.02517722077342445 0 0.020787048161479429 -0.024842991926351615 0 0.02076014080022439 -0.02524665696417917 0 0.020020961294275195 -0.024998872441314851 0 0.019782571989849455 -0.02585645854352836 0 0.018543628819888719 -0.025995810330608486 0 0.02025715776089353 -0.025314889713543277 0 0.019061626688642013 -0.025243955543573011 0 0.020787048161479429 -0.024842991926351615 0 0.02076014080022439 -0.02524665696417917 0 0.019627802033296546 -0.02449941900618751 0 0.020594153781614992 -0.024759509490676703 0 0.019878323531112276 -0.025212780987299208 0 0.01906806987941603 -0.024605744531869384 0 0.020594153781614992 -0.024759509490676703 0 0.019878323531112276 -0.025212780987299208 0 0.020506391920379625 -0.025407194936707022 0 0.020659168288921698 -0.025004472084922447 0 0.019166460230093389 -0.024896149194162442 0 0.021533507830319945 -0.025091319072758897 0 0.020659168288921698 -0.025004472084922447 0 0.021595724958857834 -0.025105888323835829 0 0.020594153781614992 -0.024759509490676703 0 0.021162662483292315 -0.025445648524928602 0 0.020594153781614992 -0.024759509490676703 0 0.021162662483292315 -0.025445648524928602 0 0.020506391920379625 -0.025407194936707022 0 0.021162662483292315 -0.025445648524928602 0 0.020506391920379625 -0.025407194936707022 0 0.02070680119237123 -0.025910878746063508 0 0.019878323531112276 -0.025212780987299208 0 0.020506391920379625 -0.025407194936707022 0 0.019971021061162018 -0.025799648231605059 0 0.020506391920379625 -0.025407194936707022 0 0.019971021061162018 -0.025799648231605059 0 0.02070680119237123 -0.025910878746063508 0 0.019971021061162018 -0.025799648231605059 0 0.020266030168248478 -0.026677340022115911 0 0.02070680119237123 -0.025910878746063508 0 0.019971021061162018 -0.025799648231605059 0 0.020266030168248478 -0.026677340022115911 0 0.019302658953863096 -0.026215932398399366 0 0.021002997858238878 -0.01842294476441951 0 0.020793106087959513 -0.020243592816507443 0 0.019057378577451659 -0.018630405378529148 0 0.021002997858238878 -0.01842294476441951 0 0.022878986773916109 -0.018396311842396748 0 0.022136377144409313 -0.019561061461090195 0 0.021162662483292315 -0.025445648524928602 0 0.02070680119237123 -0.025910878746063508 0 0.021504924642405408 -0.026198846686582098 0 0.020501110933231065 -0.022567297628792636 0 0.022195967515728707 -0.022306745520574465 0 0.020266030168248478 -0.026677340022115911 0 0.02070680119237123 -0.025910878746063508 0 0.021504924642405408 -0.026198846686582098 0 0.024346500791564734 -0.018527574703902268 0 0.022878986773916109 -0.018396311842396748 0 0.023837914060869079 -0.01978825634234321 0 0.022642713454340515 -0.025656924107851767 0 0.021976141767278856 -0.025366752648954487 0 0.021504924642405408 -0.026198846686582098 0 0.023404261293621106 -0.02203885725369973 0 0.022195967515728707 -0.022306745520574465 0 0.022878986773916109 -0.018396311842396748 0 0.023837914060869079 -0.01978825634234321 0 0.022136377144409313 -0.019561061461090195 0 0.023837914060869079 -0.01978825634234321 0 0.022634453555225552 -0.020926756204778223 0 0.022136377144409313 -0.019561061461090195 0 0.023837914060869079 -0.01978825634234321 0 0.023164673211169804 -0.020097422172209549 0 0.023968493974749365 -0.02036480424454962 0 0.024472476683668181 -0.019914131932844543 0 0.023837914060869079 -0.01978825634234321 0 0.023968493974749365 -0.02036480424454962 0 0.02383002916605444 -0.019808966890611544 0 0.022720660177306357 -0.020587177186025173 0 0.022634453555225552 -0.020926756204778223 0 0.020793106087959513 -0.020243592816507443 0 0.021326158767987914 -0.021949056414184705 0 0.020793106087959513 -0.020243592816507443 0 0.02014353642877589 -0.021662728229824305 0 0.021326158767987914 -0.021949056414184705 0 0.021002997858238878 -0.01842294476441951 0 0.020793106087959513 -0.020243592816507443 0 0.022136377144409313 -0.019561061461090195 0 0.022634453555225552 -0.020926756204778223 0 0.020793106087959513 -0.020243592816507443 0 0.022136377144409313 -0.019561061461090195 0 0.019294337137178499 -0.020409463342085318 0 0.018107317296002949 -0.020215417675392915 0 0.019057378577451659 -0.018630405378529148 0 0.020793106087959513 -0.020243592816507443 0 0.019294337137178499 -0.020409463342085318 0 0.019057378577451659 -0.018630405378529148 0 0.020793106087959513 -0.020243592816507443 0 0.019294337137178499 -0.020409463342085318 0 0.02014353642877589 -0.021662728229824305 0 0.019294337137178499 -0.020409463342085318 0 0.019054803091473616 -0.021553258386622656 0 0.02014353642877589 -0.021662728229824305 0 0.013340652584514686 -0.020821421424208519 0 0.013800537378909926 -0.022024095485613151 0 0.019294337137178499 -0.020409463342085318 0 0.018107317296002949 -0.020215417675392915 0 0.019054803091473616 -0.021553258386622656 0 0.0093342442401042457 -0.022287254601585885 0 0.0093442694277958878 -0.022639478730460245 0 0.0086379915056987652 -0.022087231745294412 0 0.0093342442401042457 -0.022287254601585885 0 0.0094379741949101696 -0.022653608750724627 0 0.0093442694277958878 -0.022639478730460245 0 0.0094379741949101696 -0.022653608750724627 0 0.0093869837663707635 -0.022579993301999581 0 0.0093442694277958878 -0.022639478730460245 0 0.0093869837663707635 -0.022579993301999581 0 0.0093442694277958878 -0.022639478730460245 0 0.0094658133752701396 -0.022513304965640218 0 0.013340652584514686 -0.020821421424208519 0 0.014982068817835648 -0.023365478574077579 0 0.014982068817835648 -0.023365478574077579 0 0.019377528865314367 -0.022797702644073756 0 0.018107317296002949 -0.020215417675392915 0 0.017141027428001557 -0.018877354824662969 0 0.019057378577451659 -0.018630405378529148 0 0.017111686603367812 -0.027360339918928483 0 0.017594471805106954 -0.02659585860492206 0 0.018730981402457898 -0.027083982422371176 0 0.017018199475355576 -0.027614893188846149 0 0.016535842470955225 -0.026899216521899531 0 0.01547242860895922 -0.027843233803400935 0 0.014982068817835648 -0.023365478574077579 0 0.011877414308765455 -0.025338622996228237 0 0.0093869837663707635 -0.022579993301999581 0 0.0094658133752701396 -0.022513304965640218 0 0.0091876968542145381 -0.022358985554412548 0 0.014982068817835648 -0.023365478574077579 0 0.016982989839309699 -0.027366792847950551 0 0.016982989839309699 -0.027366792847950551 0 0.016012511606000552 -0.026012246678211799 0 0.017111686603367812 -0.027360339918928483 0 0.016612884805271726 -0.026706355293216282 0 0.017594471805106954 -0.02659585860492206 0 0.016612884805271726 -0.026706355293216282 0 0.017594471805106954 -0.02659585860492206 0 0.0172140050830537 -0.025796486385114628 0 0.017594471805106954 -0.02659585860492206 0 0.018316735885703764 -0.026036038442564826 0 0.0172140050830537 -0.025796486385114628 0 0.017594471805106954 -0.02659585860492206 0 0.018730981402457898 -0.027083982422371176 0 0.018316735885703764 -0.026036038442564826 0 0.018730981402457898 -0.027083982422371176 0 0.019302658953863096 -0.026215932398399366 0 0.018316735885703764 -0.026036038442564826 0 0.020501110933231065 -0.022567297628792636 0 0.019377528865314367 -0.022797702644073756 0 0.020266030168248478 -0.026677340022115911 0 0.018730981402457898 -0.027083982422371176 0 0.019302658953863096 -0.026215932398399366 0 0.019971021061162018 -0.025799648231605059 0 0.019302658953863096 -0.026215932398399366 0 0.019158182373074109 -0.025465129112966972 0 0.020020961294275195 -0.024998872441314851 0 0.018543628819888719 -0.025995810330608486 0 0.016293695212295883 -0.025000151575725642 0 0.019302658953863096 -0.026215932398399366 0 0.019158182373074109 -0.025465129112966972 0 0.018316735885703764 -0.026036038442564826 0 0.019878323531112276 -0.025212780987299208 0 0.019971021061162018 -0.025799648231605059 0 0.019158182373074109 -0.025465129112966972 0 0.019158182373074109 -0.025465129112966972 0 0.018237188253090855 -0.025309986780166188 0 0.018316735885703764 -0.026036038442564826 0 0.019166460230093389 -0.024896149194162442 0 0.017431102416179893 -0.024827001034711985 0 0.018237188253090855 -0.025309986780166188 0 0.01906806987941603 -0.024605744531869384 0 0.017403381312606363 -0.02463589349064332 0 0.019158182373074109 -0.025465129112966972 0 0.018237188253090855 -0.025309986780166188 0 0.01906806987941603 -0.024605744531869384 0 0.019878323531112276 -0.025212780987299208 0 0.019158182373074109 -0.025465129112966972 0 0.01906806987941603 -0.024605744531869384 0 0.02076014080022439 -0.02524665696417917 0 0.019258107897510993 -0.025179991763023494 0 0.019627802033296546 -0.02449941900618751 0 0.018543628819888719 -0.025995810330608486 0 0.017299081037902012 -0.025978959089415148 0 0.016293695212295883 -0.025000151575725642 0 0.019258107897510993 -0.025179991763023494 0 0.019627802033296546 -0.02449941900618751 0 0.018168048952042076 -0.024203327321779714 0 0.019258107897510993 -0.025179991763023494 0 0.018168048952042076 -0.024203327321779714 0 0.017466966136602004 -0.025015045239748596 0 0.019061626688642013 -0.025243955543573011 0 0.017724993865821898 -0.025096269151460186 0 0.016293695212295883 -0.025000151575725642 0 0.01606277306468519 -0.025927446845027808 0 0.014911544866152392 -0.025731029120385749 0 0.017299081037902012 -0.025978959089415148 0 0.016293695212295883 -0.025000151575725642 0 0.01606277306468519 -0.025927446845027808 0 0.017724993865821898 -0.025096269151460186 0 0.016357831286326886 -0.024918133189841301 0 0.018168048952042076 -0.024203327321779714 0 0.016669818919031663 -0.023981972840220456 0 0.017466966136602004 -0.025015045239748596 0 0.016669818919031663 -0.023981972840220456 0 0.017466966136602004 -0.025015045239748596 0 0.015731743132951306 -0.024785181944776542 0 0.017431102416179893 -0.024827001034711985 0 0.015831318199074001 -0.024787348048400396 0 0.016334949612099997 -0.02538904424147536 0 0.017403381312606363 -0.02463589349064332 0 0.0172140050830537 -0.025796486385114628 0 0.016334949612099997 -0.02538904424147536 0 0.017403381312606363 -0.02463589349064332 0 0.015731743132951306 -0.024785181944776542 0 0.018237188253090855 -0.025309986780166188 0 0.017403381312606363 -0.02463589349064332 0 0.0172140050830537 -0.025796486385114628 0 0.018237188253090855 -0.025309986780166188 0 0.018316735885703764 -0.026036038442564826 0 0.0172140050830537 -0.025796486385114628 0 0.016334949612099997 -0.02538904424147536 0 0.0172140050830537 -0.025796486385114628 0 0.016067203340110112 -0.026114443344544391 0 0.016612884805271726 -0.026706355293216282 0 0.0172140050830537 -0.025796486385114628 0 0.016067203340110112 -0.026114443344544391 0 0.016334949612099997 -0.02538904424147536 0 0.016067203340110112 -0.026114443344544391 0 0.015269525580663711 -0.025535973732408852 0 0.016067203340110112 -0.026114443344544391 0 0.015269525580663711 -0.025535973732408852 0 0.015288409004924184 -0.026749938979136342 0 0.015269525580663711 -0.025535973732408852 0 0.014214933818422098 -0.026238483970617597 0 0.015288409004924184 -0.026749938979136342 0 0.015269525580663711 -0.025535973732408852 0 0.015068144756826279 -0.024618967839201762 0 0.014158958313999633 -0.024776544552293663 0 0.015269525580663711 -0.025535973732408852 0 0.014158958313999633 -0.024776544552293663 0 0.014214933818422098 -0.026238483970617597 0 0.016334949612099997 -0.02538904424147536 0 0.015269525580663711 -0.025535973732408852 0 0.015731743132951306 -0.024785181944776542 0 0.015269525580663711 -0.025535973732408852 0 0.015731743132951306 -0.024785181944776542 0 0.015068144756826279 -0.024618967839201762 0 0.016669818919031663 -0.023981972840220456 0 0.015731743132951306 -0.024785181944776542 0 0.015572733877762278 -0.024315409638394653 0 0.016357831286326886 -0.024918133189841301 0 0.015050410197017141 -0.025174152179877205 0 0.01606277306468519 -0.025927446845027808 0 0.014820369041521867 -0.025809365145303794 0 0.014911544866152392 -0.025731029120385749 0 0.016669818919031663 -0.023981972840220456 0 0.015262587627136876 -0.023817567680898301 0 0.015572733877762278 -0.024315409638394653 0 0.016293695212295883 -0.025000151575725642 0 0.014911544866152392 -0.025731029120385749 0 0.013528962260353205 -0.024999825274795818 0 0.015050410197017141 -0.025174152179877205 0 0.014988042993001901 -0.025252033618511013 0 0.015262587627136876 -0.023817567680898301 0 0.015572733877762278 -0.024315409638394653 0 0.015068144756826279 -0.024618967839201762 0 0.015731743132951306 -0.024785181944776542 0 0.015572733877762278 -0.024315409638394653 0 0.015068144756826279 -0.024618967839201762 0 0.015050410197017141 -0.025174152179877205 0 0.013983831015977688 -0.025543984031884223 0 0.014528308474170974 -0.025770786307299967 0 0.013656990722590573 -0.025764139807361065 0 0.013748992513014386 -0.026449589173934279 0 0.015262587627136876 -0.023817567680898301 0 0.015068144756826279 -0.024618967839201762 0 0.014158958313999633 -0.024776544552293663 0 0.014811132599604877 -0.025806533555400177 0 0.014528308474170974 -0.025770786307299967 0 0.013748992513014386 -0.026449589173934279 0 0.014819239892920447 -0.025806279319163055 0 0.014528308474170974 -0.025770786307299967 0 0.014911544866152392 -0.025731029120385749 0 0.015050410197017141 -0.025174152179877205 0 0.014781087614576185 -0.025318639192024567 0 0.014528308474170974 -0.025770786307299967 0 0.014911544866152392 -0.025731029120385749 0 0.013528962260353205 -0.024999825274795818 0 0.012333086540338916 -0.025676939760437733 0 0.013528962260353205 -0.024999825274795818 0 0.012917870223810022 -0.0259812035797903 0 0.014528308474170974 -0.025770786307299967 0 0.013528962260353205 -0.024999825274795818 0 0.013656990722590573 -0.025764139807361065 0 0.013528962260353205 -0.024999825274795818 0 0.013656990722590573 -0.025764139807361065 0 0.012917870223810022 -0.0259812035797903 0 0.013656990722590573 -0.025764139807361065 0 0.012917870223810022 -0.0259812035797903 0 0.013748992513014386 -0.026449589173934279 0 0.012333086540338916 -0.025676939760437733 0 0.012338431062876814 -0.026360446465093772 0 0.012917870223810022 -0.0259812035797903 0 0.012338431062876814 -0.026360446465093772 0 0.012917870223810022 -0.0259812035797903 0 0.01274306558602187 -0.02690996037984009 0 0.012917870223810022 -0.0259812035797903 0 0.013748992513014386 -0.026449589173934279 0 0.01274306558602187 -0.02690996037984009 0 0.013983831015977688 -0.025543984031884223 0 0.012912818529233441 -0.026365820067660667 0 0.014158958313999633 -0.024776544552293663 0 0.014214933818422098 -0.026238483970617597 0 0.013060368596528212 -0.025822865748625433 0 0.014214933818422098 -0.026238483970617597 0 0.013060368596528212 -0.025822865748625433 0 0.013291103901233725 -0.027104792927056726 0 0.012098294107733977 -0.026968995419859573 0 0.013060368596528212 -0.025822865748625433 0 0.013291103901233725 -0.027104792927056726 0 0.012098294107733977 -0.026968995419859573 0 0.012492090398994186 -0.028158892332337777 0 0.013291103901233725 -0.027104792927056726 0 0.0093026076774166445 -0.025375804036873777 0 0.01137175808892436 -0.025127861578845275 0 0.012492090398994186 -0.028158892332337777 0 0.013291103901233725 -0.027104792927056726 0 0.013911082870096018 -0.028037958852834072 0 0.013291103901233725 -0.027104792927056726 0 0.013911082870096018 -0.028037958852834072 0 0.014426091907229549 -0.027194045359363584 0 0.014214933818422098 -0.026238483970617597 0 0.013291103901233725 -0.027104792927056726 0 0.014426091907229549 -0.027194045359363584 0 0.014214933818422098 -0.026238483970617597 0 0.014426091907229549 -0.027194045359363584 0 0.015288409004924184 -0.026749938979136342 0 0.014426091907229549 -0.027194045359363584 0 0.015288409004924184 -0.026749938979136342 0 0.01547242860895922 -0.027843233803400935 0 0.016535842470955225 -0.026899216521899531 0 0.016067203340110112 -0.026114443344544391 0 0.015288409004924184 -0.026749938979136342 0 0.016535842470955225 -0.026899216521899531 0 0.015288409004924184 -0.026749938979136342 0 0.01547242860895922 -0.027843233803400935 0 0.013911082870096018 -0.028037958852834072 0 0.014426091907229549 -0.027194045359363584 0 0.01547242860895922 -0.027843233803400935 0 0.01137175808892436 -0.025127861578845275 0 0.011877414308765455 -0.025338622996228237 0 0.0083946654324298115 -0.022311442404115298 0 0.0091876968542145381 -0.022358985554412548 0 0.0090624936878783771 -0.022806820255504089 0 0.0083946654324298115 -0.022311442404115298 0 0.0090624936878783771 -0.022806820255504089 0 0.0083406309428764227 -0.023023917600610195 0 0.0093869837663707635 -0.022579993301999581 0 0.0091876968542145381 -0.022358985554412548 0 0.0090624936878783771 -0.022806820255504089 0 0.0094379741949101696 -0.022653608750724627 0 0.0090624936878783771 -0.022806820255504089 0 0.0092585572899641349 -0.023011844436395704 0 0.0094379741949101696 -0.022653608750724627 0 0.0093869837663707635 -0.022579993301999581 0 0.0090624936878783771 -0.022806820255504089 0 0.0090624936878783771 -0.022806820255504089 0 0.0083406309428764227 -0.023023917600610195 0 0.00863859974552229 -0.023483760665882456 0 0.0090624936878783771 -0.022806820255504089 0 0.00863859974552229 -0.023483760665882456 0 0.0092585572899641349 -0.023011844436395704 0 0.0083406309428764227 -0.023023917600610195 0 0.0078467864267108712 -0.02396193211215044 0 0.00863859974552229 -0.023483760665882456 0 0.0083406309428764227 -0.023023917600610195 0 0.0075891743007710762 -0.023036837744310708 0 0.0078467864267108712 -0.02396193211215044 0 0.0073449561060883826 -0.023567576172781064 0 0.0078738875912437566 -0.024183284943995565 0 0.007633118843390586 -0.024466491815689283 0 0.0074632388144934992 -0.024807256889265605 0 0.0078467864267108712 -0.02396193211215044 0 0.0075850465292621946 -0.024832604746975302 0 0.007633118843390586 -0.024466491815689283 0 0.0074632388144934992 -0.024807256889265605 0 0.0072966757343815624 -0.022423368570707765 0 0.0083946654324298115 -0.022311442404115298 0 0.0075891743007710762 -0.023036837744310708 0 0.0093026076774166445 -0.025375804036873777 0 0.0073449561060883826 -0.023567576172781064 0 0.0083946654324298115 -0.022311442404115298 0 0.0083406309428764227 -0.023023917600610195 0 0.0075891743007710762 -0.023036837744310708 0 0.0099207971696253904 -0.018831884783998699 0 0.0099632096930503122 -0.019306973183123317 0 0.0099349260016579621 -0.018796582457936053 0 0.0089093598554302027 -0.021614095150241354 0 0.0093893967544876351 -0.021501457538307778 0 0.0076158374182061679 -0.024597083977895149 0 0.0075491398548945361 -0.024711476416011232 0 0.0079622334331446252 -0.024413254096175372 0 0.0098137288503848379 -0.018529560295839478 0 0.0099207971696253904 -0.018831884783998699 0 0.0098670597257088308 -0.018648061245080255 0 0.0086552764878173698 -0.021633261789424662 0 0.0089093598554302027 -0.021614095150241354 0 0.0099207971696253904 -0.018831884783998699 0 0.0099349260016579621 -0.018796582457936053 0 0.0098670597257088308 -0.018648061245080255 0 0.0079622334331446252 -0.024413254096175372 0 0.0076359344901475836 -0.024442239680814999 0 0.0078467864267108712 -0.02396193211215044 0 0.0076158374182061679 -0.024597083977895149 0 0.0079622334331446252 -0.024413254096175372 0 0.0076359344901475836 -0.024442239680814999 0 0.0076024229004209506 -0.024728102684670732 0 0.007633118843390586 -0.024466491815689283 0 0.0076359344901475836 -0.024442239680814999 0 0.007633118843390586 -0.024466491815689283 0 0.0076359344901475836 -0.024442239680814999 0 0.0078467864267108712 -0.02396193211215044 0 0.0079622334331446252 -0.024413254096175372 0 0.0078467864267108712 -0.02396193211215044 0 0.00863859974552229 -0.023483760665882456 0 0.00863859974552229 -0.023483760665882456 0 0.0092585572899641349 -0.023011844436395704 0 0.0089636204600309129 -0.023705469371853839 0 0.0079622334331446252 -0.024413254096175372 0 0.00863859974552229 -0.023483760665882456 0 0.0089636204600309129 -0.023705469371853839 0 0.0092585572899641349 -0.023011844436395704 0 0.0089636204600309129 -0.023705469371853839 0 0.0095296034517828049 -0.022621730352206246 0 0.0093893967544876351 -0.021501457538307778 0 0.0095513058121850253 -0.021333419685236037 0 0.0099632096930503122 -0.019306973183123317 0 0.0099282423875302808 -0.019263701023156721 0 0.0098460197163583452 -0.020008229782253206 0 0.0099632096930503122 -0.019306973183123317 0 0.0099575011474074115 -0.018922598313798729 0 0.0099349260016579621 -0.018796582457936053 0 0.0099632096930503122 -0.019306973183123317 0 0.0099575011474074115 -0.018922598313798729 0 0.0099282423875302808 -0.019263701023156721 0 0.0099282423875302808 -0.019263701023156721 0 0.0098816432801194579 -0.018859561637645149 0 0.0097591532455600788 -0.019422027490809228 0 0.0099575011474074115 -0.018922598313798729 0 0.0099282423875302808 -0.019263701023156721 0 0.0098816432801194579 -0.018859561637645149 0 0.0099575011474074115 -0.018922598313798729 0 0.0098816432801194579 -0.018859561637645149 0 0.0099591558870033205 -0.018623536477894293 0 0.0099575011474074115 -0.018922598313798729 0 0.0099412246887582156 -0.018663096292546037 0 0.0099591558870033205 -0.018623536477894293 0 0.0099575011474074115 -0.018922598313798729 0 0.0099412246887582156 -0.018663096292546037 0 0.0099349260016579621 -0.018796582457936053 0 0.0099349260016579621 -0.018796582457936053 0 0.0098670597257088308 -0.018648061245080255 0 0.0098462036963847289 -0.018516360956505579 0 0.0098187159400651182 -0.018533520539842061 0 0.0098670597257088308 -0.018648061245080255 0 0.0098462036963847289 -0.018516360956505579 0 0.0099412246887582156 -0.018663096292546037 0 0.0098462036963847289 -0.018516360956505579 0 0.0099343411399260353 -0.018445889167571075 0 0.0099412246887582156 -0.018663096292546037 0 0.0099349260016579621 -0.018796582457936053 0 0.0098462036963847289 -0.018516360956505579 0 0.0095745463845012674 -0.018013065023616215 0 0.0097332643601335655 -0.018265562727240617 0 0.0099343411399260353 -0.018445889167571075 0 0.0097332643601335655 -0.018265562727240617 0 0.0098462036963847289 -0.018516360956505579 0 0.0099343411399260353 -0.018445889167571075 0 0.0099412246887582156 -0.018663096292546037 0 0.0099343411399260353 -0.018445889167571075 0 0.0099591558870033205 -0.018623536477894293 0 0.0099343411399260353 -0.018445889167571075 0 0.0099591558870033205 -0.018623536477894293 0 0.01000958086076726 -0.01837132999012471 0 0.01000831617723991 -0.018185415135749988 0 0.0099223544435139369 -0.018374606042198139 0 0.010259628294041296 -0.018317226244276372 0 0.0099343411399260353 -0.018445889167571075 0 0.01000958086076726 -0.01837132999012471 0 0.010259628294041296 -0.018317226244276372 0 0.01000958086076726 -0.01837132999012471 0 0.010102544012081258 -0.01813377245338783 0 0.010259628294041296 -0.018317226244276372 0 0.010278864258670731 -0.018103768472896149 0 0.010102544012081258 -0.01813377245338783 0 0.01000958086076726 -0.01837132999012471 0 0.010102544012081258 -0.01813377245338783 0 0.0099549734044825349 -0.018154335699284183 0 0.010102544012081258 -0.01813377245338783 0 0.0099549734044825349 -0.018154335699284183 0 0.010028997112026341 -0.017832960967260808 0 0.010102544012081258 -0.01813377245338783 0 0.010196294654167482 -0.017918198169366698 0 0.010028997112026341 -0.017832960967260808 0 0.010278864258670731 -0.018103768472896149 0 0.010102544012081258 -0.01813377245338783 0 0.010196294654167482 -0.017918198169366698 0 0.010278864258670731 -0.018103768472896149 0 0.010196294654167482 -0.017918198169366698 0 0.010357282564407324 -0.017883628593423104 0 0.0098361532958411851 -0.018013407418400448 0 0.0099549734044825349 -0.018154335699284183 0 0.010028997112026341 -0.017832960967260808 0 0.01000958086076726 -0.01837132999012471 0 0.0099549734044825349 -0.018154335699284183 0 0.0099066314784060239 -0.018461268101961446 0 0.0099549734044825349 -0.018154335699284183 0 0.009801987176319556 -0.018259813349165835 0 0.0099066314784060239 -0.018461268101961446 0 0.0098361532958411851 -0.018013407418400448 0 0.009801987176319556 -0.018259813349165835 0 0.0095871589607019678 -0.01818045231532656 0 0.0098361532958411851 -0.018013407418400448 0 0.0099549734044825349 -0.018154335699284183 0 0.009801987176319556 -0.018259813349165835 0 0.009801987176319556 -0.018259813349165835 0 0.0099066314784060239 -0.018461268101961446 0 0.0097162338851510127 -0.018519110691896278 0 0.0099591558870033205 -0.018623536477894293 0 0.01000958086076726 -0.01837132999012471 0 0.0099066314784060239 -0.018461268101961446 0 0.0098816432801194579 -0.018859561637645149 0 0.0099591558870033205 -0.018623536477894293 0 0.0099066314784060239 -0.018461268101961446 0 0.0098816432801194579 -0.018859561637645149 0 0.0099066314784060239 -0.018461268101961446 0 0.0097162338851510127 -0.018519110691896278 0 0.0098816432801194579 -0.018859561637645149 0 0.0095540922257953565 -0.018921646363721345 0 0.0097162338851510127 -0.018519110691896278 0 0.0095540922257953565 -0.018921646363721345 0 0.009460786415504607 -0.018532402228187847 0 0.0097162338851510127 -0.018519110691896278 0 0.0095540922257953565 -0.018921646363721345 0 0.009222724448459273 -0.018686161359318176 0 0.009130332863453652 -0.019144370424609151 0 0.0095540922257953565 -0.018921646363721345 0 0.009460786415504607 -0.018532402228187847 0 0.009222724448459273 -0.018686161359318176 0 0.009460786415504607 -0.018532402228187847 0 0.0092410784008653771 -0.018441211447504501 0 0.009222724448459273 -0.018686161359318176 0 0.009460786415504607 -0.018532402228187847 0 0.0095871589607019678 -0.01818045231532656 0 0.0092410784008653771 -0.018441211447504501 0 0.009460786415504607 -0.018532402228187847 0 0.0097162338851510127 -0.018519110691896278 0 0.0095871589607019678 -0.01818045231532656 0 0.009801987176319556 -0.018259813349165835 0 0.0097162338851510127 -0.018519110691896278 0 0.0095871589607019678 -0.01818045231532656 0 0.017915053847464661 -0.008115909317942073 0 0.018816646480708788 -0.0083780214196135534 0 0.018646633798111299 -0.0072108900695207956 0 0.013701503004217234 -0.013210279969889088 0 0.014190844064805414 -0.01237503828495002 0 0.017915053847464661 -0.008115909317942073 0 0.018199888814296988 -0.0086767220450337367 0 0.018816646480708788 -0.0083780214196135534 0 0.013709815213595622 -0.013235742397178825 0 0.013701503004217234 -0.013210279969889088 0 0.017576226673680233 -0.0085345615579373157 0 0.017915053847464661 -0.008115909317942073 0 0.018199888814296988 -0.0086767220450337367 0 0.020283376752075328 -0.0087373190597284309 0 0.018816646480708788 -0.0083780214196135534 0 0.02001648142616181 -0.0078270699039305475 0 0.020283376752075328 -0.0087373190597284309 0 0.018816646480708788 -0.0083780214196135534 0 0.019378588100653668 -0.0093767133953647011 0 0.019248824295315898 -0.0076481553317413811 0 0.019734834817533499 -0.0070876960769020161 0 0.018646633798111299 -0.0072108900695207956 0 0.018816646480708788 -0.0083780214196135534 0 0.019248824295315898 -0.0076481553317413811 0 0.02001648142616181 -0.0078270699039305475 0 0.018816646480708788 -0.0083780214196135534 0 0.019248824295315898 -0.0076481553317413811 0 0.018646633798111299 -0.0072108900695207956 0 0.019248824295315898 -0.0076481553317413811 0 0.02001648142616181 -0.0078270699039305475 0 0.019734834817533499 -0.0070876960769020161 0 0.02001648142616181 -0.0078270699039305475 0 0.019734834817533499 -0.0070876960769020161 0 0.021044071577254558 -0.0070656870391948498 0 0.019734834817533499 -0.0070876960769020161 0 0.018646633798111299 -0.0072108900695207956 0 0.020069568293761855 -0.005914377341419608 0 0.019734834817533499 -0.0070876960769020161 0 0.020069568293761855 -0.005914377341419608 0 0.021044071577254558 -0.0070656870391948498 0 0.014190844064805414 -0.01237503828495002 0 0.014142468512351503 -0.014976369919860894 0 0.0092410784008653771 -0.018441211447504501 0 0.009222724448459273 -0.018686161359318176 0 0.0091378153064762494 -0.0185590272003988 0 0.009222724448459273 -0.018686161359318176 0 0.0087466271234406812 -0.019030174632293347 0 0.0084151342321420897 -0.018733765082115498 0 0.0070188396007869859 -0.019438587540261565 0 0.014142468512351503 -0.014976369919860894 0 0.009222724448459273 -0.018686161359318176 0 0.0087466271234406812 -0.019030174632293347 0 0.009130332863453652 -0.019144370424609151 0 0.0087466271234406812 -0.019030174632293347 0 0.0084151342321420897 -0.018733765082115498 0 0.0084026267727267973 -0.019165102082446928 0 0.0084151342321420897 -0.018733765082115498 0 0.0084026267727267973 -0.019165102082446928 0 0.0080576353476304683 -0.019064731657969132 0 0.0084026267727267973 -0.019165102082446928 0 0.0086024133939745541 -0.019420681964478801 0 0.008179394684516483 -0.019470105055364288 0 0.0087466271234406812 -0.019030174632293347 0 0.0084026267727267973 -0.019165102082446928 0 0.0086024133939745541 -0.019420681964478801 0 0.0086024133939745541 -0.019420681964478801 0 0.0083403616086116343 -0.019932549041594867 0 0.008179394684516483 -0.019470105055364288 0 0.0083403616086116343 -0.019932549041594867 0 0.0082393328667678106 -0.020465937870325395 0 0.0080062592067034061 -0.019882017283240055 0 0.0086024133939745541 -0.019420681964478801 0 0.0083403616086116343 -0.019932549041594867 0 0.0087749391346961993 -0.019801021410209136 0 0.0083403616086116343 -0.019932549041594867 0 0.0087749391346961993 -0.019801021410209136 0 0.0083800840803524793 -0.020338008150698195 0 0.0087749391346961993 -0.019801021410209136 0 0.0083800840803524793 -0.020338008150698195 0 0.0089548027731546839 -0.02028344935640888 0 0.0087749391346961993 -0.019801021410209136 0 0.009299250710748214 -0.019564970237408112 0 0.0089548027731546839 -0.02028344935640888 0 0.0086024133939745541 -0.019420681964478801 0 0.0087749391346961993 -0.019801021410209136 0 0.009130332863453652 -0.019144370424609151 0 0.0087466271234406812 -0.019030174632293347 0 0.0086024133939745541 -0.019420681964478801 0 0.009130332863453652 -0.019144370424609151 0 0.0087749391346961993 -0.019801021410209136 0 0.009130332863453652 -0.019144370424609151 0 0.009299250710748214 -0.019564970237408112 0 0.0095540922257953565 -0.018921646363721345 0 0.0097591532455600788 -0.019422027490809228 0 0.009299250710748214 -0.019564970237408112 0 0.0095540922257953565 -0.018921646363721345 0 0.009130332863453652 -0.019144370424609151 0 0.009299250710748214 -0.019564970237408112 0 0.0098816432801194579 -0.018859561637645149 0 0.0095540922257953565 -0.018921646363721345 0 0.0097591532455600788 -0.019422027490809228 0 0.0099282423875302808 -0.019263701023156721 0 0.0097591532455600788 -0.019422027490809228 0 0.0098460197163583452 -0.020008229782253206 0 0.0097591532455600788 -0.019422027490809228 0 0.009299250710748214 -0.019564970237408112 0 0.0095037612457350151 -0.020093745199117555 0 0.009299250710748214 -0.019564970237408112 0 0.0095037612457350151 -0.020093745199117555 0 0.0089548027731546839 -0.02028344935640888 0 0.0095037612457350151 -0.020093745199117555 0 0.0089548027731546839 -0.02028344935640888 0 0.0091737965250515453 -0.021280932627370602 0 0.0095513058121850253 -0.021333419685236037 0 0.0090783472773038037 -0.021295388921923664 0 0.0095037612457350151 -0.020093745199117555 0 0.0098460197163583452 -0.020008229782253206 0 0.0091737965250515453 -0.021280932627370602 0 0.0097591532455600788 -0.019422027490809228 0 0.0095037612457350151 -0.020093745199117555 0 0.0098460197163583452 -0.020008229782253206 0 0.0094379741949101696 -0.022653608750724627 0 0.0092585572899641349 -0.023011844436395704 0 0.0095296034517828049 -0.022621730352206246 0 0.0093342442401042457 -0.022287254601585885 0 0.0094379741949101696 -0.022653608750724627 0 0.0095296034517828049 -0.022621730352206246 0 0.0093342442401042457 -0.022287254601585885 0 0.0095296034517828049 -0.022621730352206246 0 0.0091737965250515453 -0.021280932627370602 0 0.0093342442401042457 -0.022287254601585885 0 0.0086379915056987652 -0.022087231745294412 0 0.0091737965250515453 -0.021280932627370602 0 0.0086379915056987652 -0.022087231745294412 0 0.0091737965250515453 -0.021280932627370602 0 0.0085831433977607025 -0.021025729369688793 0 0.0086379915056987652 -0.022087231745294412 0 0.00782194033061249 -0.020794819533419589 0 0.0085831433977607025 -0.021025729369688793 0 0.019054803091473616 -0.021553258386622656 0 0.02014353642877589 -0.021662728229824305 0 0.019987644135294871 -0.022923087645365537 0 0.013800537378909926 -0.022024095485613151 0 0.015132208514472984 -0.020961643811394679 0 0.0083403616086116343 -0.019932549041594867 0 0.0082393328667678106 -0.020465937870325395 0 0.0083800840803524793 -0.020338008150698195 0 0.015132208514472984 -0.020961643811394679 0 0.0087819550748909122 -0.022133665475688631 0 0.00782194033061249 -0.020794819533419589 0 0.0083800840803524793 -0.020338008150698195 0 0.0085831433977607025 -0.021025729369688793 0 0.0083800840803524793 -0.020338008150698195 0 0.0089548027731546839 -0.02028344935640888 0 0.0085831433977607025 -0.021025729369688793 0 0.0089548027731546839 -0.02028344935640888 0 0.0091737965250515453 -0.021280932627370602 0 0.0085831433977607025 -0.021025729369688793 0 0.022863039388938067 -0.021096778164101885 0 0.022267023815939875 -0.021133309295549685 0 0.022663043999550294 -0.021567282024676632 0 0.022863039388938067 -0.021096778164101885 0 0.022267023815939875 -0.021133309295549685 0 0.022393196692087402 -0.020526012488203699 0 0.021636473063583132 -0.021009751347022432 0 0.022267023815939875 -0.021133309295549685 0 0.022083726841505273 -0.021599469049323777 0 0.021636473063583132 -0.021009751347022432 0 0.022267023815939875 -0.021133309295549685 0 0.022393196692087402 -0.020526012488203699 0 0.015132208514472984 -0.020961643811394679 0 0.022778403136893367 -0.021065982736355272 0 0.02014353642877589 -0.021662728229824305 0 0.019987644135294871 -0.022923087645365537 0 0.021326158767987914 -0.021949056414184705 0 0.022720660177306357 -0.020587177186025173 0 0.022778403136893367 -0.021065982736355272 0 0.022863039388938067 -0.021096778164101885 0 0.022393196692087402 -0.020526012488203699 0 0.023315815865020986 -0.020682350194440119 0 0.023164673211169804 -0.020097422172209549 0 0.022393196692087402 -0.020526012488203699 0 0.023315815865020986 -0.020682350194440119 0 0.023164673211169804 -0.020097422172209549 0 0.023315815865020986 -0.020682350194440119 0 0.023968493974749365 -0.02036480424454962 0 0.023315815865020986 -0.020682350194440119 0 0.023968493974749365 -0.02036480424454962 0 0.02393913791385828 -0.020851335236306542 0 0.023315815865020986 -0.020682350194440119 0 0.02393913791385828 -0.020851335236306542 0 0.02336958096982716 -0.021072734684000789 0 0.02393913791385828 -0.020851335236306542 0 0.023710030520288014 -0.021281593013404453 0 0.024618861386339511 -0.021209234414435833 0 0.02393913791385828 -0.020851335236306542 0 0.023710030520288014 -0.021281593013404453 0 0.02336958096982716 -0.021072734684000789 0 0.022863039388938067 -0.021096778164101885 0 0.023315815865020986 -0.020682350194440119 0 0.02336958096982716 -0.021072734684000789 0 0.023710030520288014 -0.021281593013404453 0 0.02336958096982716 -0.021072734684000789 0 0.023208051943703203 -0.021456688632639498 0 0.022863039388938067 -0.021096778164101885 0 0.02336958096982716 -0.021072734684000789 0 0.023208051943703203 -0.021456688632639498 0 0.022863039388938067 -0.021096778164101885 0 0.023208051943703203 -0.021456688632639498 0 0.022663043999550294 -0.021567282024676632 0 0.02393075153119225 -0.017677045187704951 0 0.022158184128633525 -0.017851013565331298 0 0.023208051943703203 -0.021456688632639498 0 0.023644922556849676 -0.021628485295973828 0 0.023073850165228785 -0.021916305692473569 0 0.023208051943703203 -0.021456688632639498 0 0.023073850165228785 -0.021916305692473569 0 0.022663043999550294 -0.021567282024676632 0 0.027256608368228481 -0.016104014930136908 0 0.027036954192182081 -0.015778514406782591 0 0.026727626651358079 -0.015985550034787605 0 0.023710030520288014 -0.021281593013404453 0 0.023680279412940323 -0.021677218087550566 0 0.024618861386339511 -0.021209234414435833 0 0.023644698740689179 -0.022015585161637492 0 0.02393075153119225 -0.017677045187704951 0 0.023710030520288014 -0.021281593013404453 0 0.023208051943703203 -0.021456688632639498 0 0.023644922556849676 -0.021628485295973828 0 0.02393075153119225 -0.017677045187704951 0 0.024587989045792052 -0.015448705638875264 0 0.027256608368228481 -0.016104014930136908 0 0.027299126753103427 -0.015512698339034691 0 0.027036954192182081 -0.015778514406782591 0 0.027299126753103427 -0.015512698339034691 0 0.027036954192182081 -0.015778514406782591 0 0.026930605834404233 -0.015268844638920677 0 0.02071782834545037 -0.014131096336879336 0 0.019400953642437102 -0.014856203781237795 0 0.020752438385684004 -0.015520619588127451 0 0.021830670484708947 -0.0149850461653622 0 0.02071782834545037 -0.014131096336879336 0 0.020752438385684004 -0.015520619588127451 0 0.02194405360391271 -0.013414758311824402 0 0.021830670484708947 -0.0149850461653622 0 0.02071782834545037 -0.014131096336879336 0 0.023073850165228785 -0.021916305692473569 0 0.022493198681142117 -0.022172873450226827 0 0.022663043999550294 -0.021567282024676632 0 0.022158184128633525 -0.017851013565331298 0 0.018052129484733902 -0.019064071668705052 0 0.022267023815939875 -0.021133309295549685 0 0.022663043999550294 -0.021567282024676632 0 0.022083726841505273 -0.021599469049323777 0 0.022493198681142117 -0.022172873450226827 0 0.022663043999550294 -0.021567282024676632 0 0.022083726841505273 -0.021599469049323777 0 0.015132208514472984 -0.020961643811394679 0 0.014783395681265162 -0.020801632007835517 0 0.0083403616086116343 -0.019932549041594867 0 0.0080062592067034061 -0.019882017283240055 0 0.008179394684516483 -0.019470105055364288 0 0.0077768769911872792 -0.019357712830830088 0 0.008179394684516483 -0.019470105055364288 0 0.0080576353476304683 -0.019064731657969132 0 0.018052129484733902 -0.019064071668705052 0 0.014783395681265162 -0.020801632007835517 0 0.0077768769911872792 -0.019357712830830088 0 0.0080062592067034061 -0.019882017283240055 0 0.008179394684516483 -0.019470105055364288 0 0.0084026267727267973 -0.019165102082446928 0 0.008179394684516483 -0.019470105055364288 0 0.0080576353476304683 -0.019064731657969132 0 0.016871152201208342 -0.016339722496637173 0 0.018146113928442842 -0.0155681960581983 0 0.019276650870632222 -0.016493311702810397 0 0.014142468512351503 -0.014976369919860894 0 0.021627448661227785 -0.010685439494059128 0 0.018052129484733902 -0.019064071668705052 0 0.012473537469473384 -0.017831027639133506 0 0.014142468512351503 -0.014976369919860894 0 0.012473537469473384 -0.017831027639133506 0 0.019276650870632222 -0.016493311702810397 0 0.020106833626335117 -0.015988646454613769 0 0.02091707412523755 -0.01647773166537651 0 0.019400953642437102 -0.014856203781237795 0 0.019276650870632222 -0.016493311702810397 0 0.020106833626335117 -0.015988646454613769 0 0.019400953642437102 -0.014856203781237795 0 0.018146113928442842 -0.0155681960581983 0 0.019276650870632222 -0.016493311702810397 0 0.019400953642437102 -0.014856203781237795 0 0.020106833626335117 -0.015988646454613769 0 0.020752438385684004 -0.015520619588127451 0 0.022142281788574449 -0.0058580670148749301 0 0.021044071577254558 -0.0070656870391948498 0 0.022832693959691015 -0.0072855318263341396 0 0.020069568293761855 -0.005914377341419608 0 0.022142281788574449 -0.0058580670148749301 0 0.021044071577254558 -0.0070656870391948498 0 0.02001648142616181 -0.0078270699039305475 0 0.021044071577254558 -0.0070656870391948498 0 0.021674894826045617 -0.0084156936039119414 0 0.022832693959691015 -0.0072855318263341396 0 0.021674894826045617 -0.0084156936039119414 0 0.023266307034150165 -0.0087315308959953538 0 0.021044071577254558 -0.0070656870391948498 0 0.022832693959691015 -0.0072855318263341396 0 0.021674894826045617 -0.0084156936039119414 0 0.021674894826045617 -0.0084156936039119414 0 0.023266307034150165 -0.0087315308959953538 0 0.022725663363883271 -0.010069053877704967 0 0.020283376752075328 -0.0087373190597284309 0 0.021674894826045617 -0.0084156936039119414 0 0.021092864587461752 -0.010164107909398364 0 0.020283376752075328 -0.0087373190597284309 0 0.02001648142616181 -0.0078270699039305475 0 0.021674894826045617 -0.0084156936039119414 0 0.025842159771469687 -0.0098857921158579769 0 0.02505323979049914 -0.0088934579990259735 0 0.024714871214147883 -0.010174591484776174 0 0.024872584629090165 -0.0073345819593083183 0 0.02467494550370402 -0.010554116726815782 0 0.023266307034150165 -0.0087315308959953538 0 0.024714871214147883 -0.010174591484776174 0 0.022725663363883271 -0.010069053877704967 0 0.023266307034150165 -0.0087315308959953538 0 0.024515137327065464 -0.007928610925173548 0 0.024714871214147883 -0.010174591484776174 0 0.022832693959691015 -0.0072855318263341396 0 0.023266307034150165 -0.0087315308959953538 0 0.024515137327065464 -0.007928610925173548 0 0.022832693959691015 -0.0072855318263341396 0 0.024515137327065464 -0.007928610925173548 0 0.024272211244044134 -0.0059706845387441218 0 0.025842159771469687 -0.0098857921158579769 0 0.02505323979049914 -0.0088934579990259735 0 0.026147826702562198 -0.0086581957585717493 0 0.02505323979049914 -0.0088934579990259735 0 0.025667927552173092 -0.0082124874549795793 0 0.026147826702562198 -0.0086581957585717493 0 0.025667927552173092 -0.0082124874549795793 0 0.025205301929692701 -0.0075435048494138252 0 0.026203732418075072 -0.0077657832384975672 0 0.024430961482984667 -0.011722425650712296 0 0.026865881862595347 -0.011322525525738409 0 0.02505323979049914 -0.0088934579990259735 0 0.025667927552173092 -0.0082124874549795793 0 0.025205301929692701 -0.0075435048494138252 0 0.024872584629090165 -0.0073345819593083183 0 0.024430961482984667 -0.011722425650712296 0 0.024515137327065464 -0.007928610925173548 0 0.024533483501474534 -0.0059960952776640306 0 0.024272211244044134 -0.0059706845387441218 0 0.024430961482984667 -0.011722425650712296 0 0.022615872928016763 -0.012363410315177488 0 0.019276650870632222 -0.016493311702810397 0 0.021491417662975736 -0.016570399350437411 0 0.02091707412523755 -0.01647773166537651 0 0.022142281788574449 -0.0058580670148749301 0 0.022832693959691015 -0.0072855318263341396 0 0.024272211244044134 -0.0059706845387441218 0 0.021627448661227785 -0.010685439494059128 0 0.022615872928016763 -0.012363410315177488 0 0.022615872928016763 -0.012363410315177488 0 0.021810777155642936 -0.013720582128019118 0 0.021830670484708947 -0.0149850461653622 0 0.021459454354419927 -0.016577185323426804 0 0.020752438385684004 -0.015520619588127451 0 0.020106833626335117 -0.015988646454613769 0 0.02091707412523755 -0.01647773166537651 0 0.020752438385684004 -0.015520619588127451 0 0.021459454354419927 -0.016577185323426804 0 0.02091707412523755 -0.01647773166537651 0 0.020752438385684004 -0.015520619588127451 0 0.021830670484708947 -0.0149850461653622 0 0.021730061450407939 -0.016593446906357171 0 0.021459454354419927 -0.016577185323426804 0 0.027299126753103427 -0.015512698339034691 0 0.027327314844416785 -0.014918915278633139 0 0.026930605834404233 -0.015268844638920677 0 0.027327314844416785 -0.014918915278633139 0 0.026930605834404233 -0.015268844638920677 0 0.026845603150615075 -0.01481360120913423 0 0.024587989045792052 -0.015448705638875264 0 0.024430961482984667 -0.011722425650712296 0 0.026930605834404233 -0.015268844638920677 0 0.026487234106253098 -0.015399065426205141 0 0.026738926828057803 -0.015648917178375413 0 0.026930605834404233 -0.015268844638920677 0 0.026543303075645532 -0.015030476235501947 0 0.026487234106253098 -0.015399065426205141 0 0.026930605834404233 -0.015268844638920677 0 0.026543303075645532 -0.015030476235501947 0 0.026845603150615075 -0.01481360120913423 0 0.026487234106253098 -0.015399065426205141 0 0.026231961795312043 -0.015151809862447532 0 0.026136101062670024 -0.015568716015862424 0 0.026202265417173975 -0.015350810138977961 0 0.026200025881606501 -0.015401335303487312 0 0.026543303075645532 -0.015030476235501947 0 0.026487234106253098 -0.015399065426205141 0 0.026231961795312043 -0.015151809862447532 0 0.026283378666008123 -0.012404644861592639 0 0.025961853113686831 -0.013970233020696379 0 0.02643030064258909 -0.014980479690828734 0 0.026657069145719338 -0.01434986983587005 0 0.026018594676129592 -0.014922650414049143 0 0.026202265417173975 -0.015350810138977961 0 0.026283378666008123 -0.012404644861592639 0 0.026543303075645532 -0.015030476235501947 0 0.026231961795312043 -0.015151809862447532 0 0.0263585147313533 -0.014709788451505805 0 0.026283378666008123 -0.012404644861592639 0 0.026865881862595347 -0.011322525525738409 0 0.027205156515094205 -0.0079878891259986037 0 0.026203732418075072 -0.0077657832384975672 0 0.026147826702562198 -0.0086581957585717493 0 0.026543303075645532 -0.015030476235501947 0 0.0263585147313533 -0.014709788451505805 0 0.026845603150615075 -0.01481360120913423 0 0.025667927552173092 -0.0082124874549795793 0 0.026203732418075072 -0.0077657832384975672 0 0.026147826702562198 -0.0086581957585717493 0 0.027205156515094205 -0.0079878891259986037 0 0.026147826702562198 -0.0086581957585717493 0 0.026828780123871944 -0.0093220323188684517 0 0.026283378666008123 -0.012404644861592639 0 0.026808574753121608 -0.01066857089988836 0 0.026387052436639056 -0.013803042717951264 0 0.026116347752987591 -0.013082896854056602 0 0.025773147808284786 -0.013717151242063633 0 0.026387052436639056 -0.013803042717951264 0 0.026116347752987591 -0.013082896854056602 0 0.026632558855109047 -0.012662580552768553 0 0.026116347752987591 -0.013082896854056602 0 0.026632558855109047 -0.012662580552768553 0 0.026237165305080565 -0.011897638501692185 0 0.026116347752987591 -0.013082896854056602 0 0.025843517947261682 -0.011950779683333884 0 0.026237165305080565 -0.011897638501692185 0 0.025842159771469687 -0.0098857921158579769 0 0.026828780123871944 -0.0093220323188684517 0 0.026403861509525634 -0.011136505773773989 0 0.026808574753121608 -0.01066857089988836 0 0.026400186720295205 -0.011329216642604089 0 0.026632558855109047 -0.012662580552768553 0 0.026403861509525634 -0.011136505773773989 0 0.026237165305080565 -0.011897638501692185 0 0.025842159771469687 -0.0098857921158579769 0 0.026147826702562198 -0.0086581957585717493 0 0.026828780123871944 -0.0093220323188684517 0 0.024999789103103801 -0.01313302549047447 0 0.025577646869996723 -0.013046192038270026 0 0.025381200080984549 -0.012218109300522289 0 0.025577646869996723 -0.013046192038270026 0 0.025843517947261682 -0.011950779683333884 0 0.025381200080984549 -0.012218109300522289 0 0.026116347752987591 -0.013082896854056602 0 0.025577646869996723 -0.013046192038270026 0 0.025843517947261682 -0.011950779683333884 0 0.026116347752987591 -0.013082896854056602 0 0.025577646869996723 -0.013046192038270026 0 0.025773147808284786 -0.013717151242063633 0 0.025577646869996723 -0.013046192038270026 0 0.025292145053055028 -0.013899191296958423 0 0.025773147808284786 -0.013717151242063633 0 0.024999789103103801 -0.01313302549047447 0 0.025577646869996723 -0.013046192038270026 0 0.025292145053055028 -0.013899191296958423 0 0.024999789103103801 -0.01313302549047447 0 0.025292145053055028 -0.013899191296958423 0 0.02499984816904767 -0.014488346388368777 0 0.025292145053055028 -0.013899191296958423 0 0.025626368907072695 -0.014680371069695499 0 0.02499984816904767 -0.014488346388368777 0 0.025626368907072695 -0.014680371069695499 0 0.02499984816904767 -0.014488346388368777 0 0.025222090432781751 -0.015002484719628577 0 0.025626368907072695 -0.014680371069695499 0 0.026007125585385298 -0.014195812153431034 0 0.026018594676129592 -0.014922650414049143 0 0.025292145053055028 -0.013899191296958423 0 0.025626368907072695 -0.014680371069695499 0 0.026007125585385298 -0.014195812153431034 0 0.026657069145719338 -0.01434986983587005 0 0.026007125585385298 -0.014195812153431034 0 0.026018594676129592 -0.014922650414049143 0 0.025300435688087586 -0.013877631508170559 0 0.025961853113686831 -0.013970233020696379 0 0.02643030064258909 -0.014980479690828734 0 0.026018594676129592 -0.014922650414049143 0 0.026136101062670024 -0.015568716015862424 0 0.026018594676129592 -0.014922650414049143 0 0.0257268918021578 -0.015267153558115042 0 0.026136101062670024 -0.015568716015862424 0 0.025626368907072695 -0.014680371069695499 0 0.026018594676129592 -0.014922650414049143 0 0.0257268918021578 -0.015267153558115042 0 0.02499984816904767 -0.014488346388368777 0 0.025222090432781751 -0.015002484719628577 0 0.024999999105893414 -0.015843647010514897 0 0.0257268918021578 -0.015267153558115042 0 0.025222090432781751 -0.015002484719628577 0 0.025488007575374047 -0.015726578618746365 0 0.025244155364718846 -0.015053077384358342 0 0.02552898034147856 -0.01594287003208596 0 0.025626368907072695 -0.014680371069695499 0 0.0257268918021578 -0.015267153558115042 0 0.025222090432781751 -0.015002484719628577 0 0.025222090432781751 -0.015002484719628577 0 0.024999999105893414 -0.015843647010514897 0 0.02557577301932239 -0.016107777379424048 0 0.024999999105893414 -0.015843647010514897 0 0.02557577301932239 -0.016107777379424048 0 0.025387443937585175 -0.016671056195136744 0 0.02552898034147856 -0.01594287003208596 0 0.025745919654888181 -0.016589814565714973 0 0.02557577301932239 -0.016107777379424048 0 0.025387443937585175 -0.016671056195136744 0 0.025838758327825798 -0.017215827754238279 0 0.025387443937585175 -0.016671056195136744 0 0.025838758327825798 -0.017215827754238279 0 0.024999937146940286 -0.017198624182341263 0 0.024999999105893414 -0.015843647010514897 0 0.025387443937585175 -0.016671056195136744 0 0.024999937146940286 -0.017198624182341263 0 0.025488007575374047 -0.015726578618746365 0 0.025698496901088778 -0.016383000391695657 0 0.025903978435487283 -0.015968052802708143 0 0.025698496901088778 -0.016383000391695657 0 0.025903978435487283 -0.015968052802708143 0 0.0260903499483809 -0.016457022556520387 0 0.025903978435487283 -0.015968052802708143 0 0.025808837762846239 -0.015615524587919032 0 0.026136101062670024 -0.015568716015862424 0 0.025488007575374047 -0.015726578618746365 0 0.025903978435487283 -0.015968052802708143 0 0.025808837762846239 -0.015615524587919032 0 0.0257268918021578 -0.015267153558115042 0 0.025488007575374047 -0.015726578618746365 0 0.025808837762846239 -0.015615524587919032 0 0.0257268918021578 -0.015267153558115042 0 0.025808837762846239 -0.015615524587919032 0 0.026136101062670024 -0.015568716015862424 0 0.026136101062670024 -0.015568716015862424 0 0.026441764168460443 -0.015756029618293602 0 0.026291982828496183 -0.016071909667725037 0 0.025903978435487283 -0.015968052802708143 0 0.026136101062670024 -0.015568716015862424 0 0.026291982828496183 -0.016071909667725037 0 0.026487234106253098 -0.015399065426205141 0 0.026136101062670024 -0.015568716015862424 0 0.026441764168460443 -0.015756029618293602 0 0.027036954192182081 -0.015778514406782591 0 0.026930605834404233 -0.015268844638920677 0 0.026738926828057803 -0.015648917178375413 0 0.026487234106253098 -0.015399065426205141 0 0.026441764168460443 -0.015756029618293602 0 0.026738926828057803 -0.015648917178375413 0 0.026441764168460443 -0.015756029618293602 0 0.026738926828057803 -0.015648917178375413 0 0.026727626651358079 -0.015985550034787605 0 0.027036954192182081 -0.015778514406782591 0 0.026738926828057803 -0.015648917178375413 0 0.026727626651358079 -0.015985550034787605 0 0.026727626651358079 -0.015985550034787605 0 0.026291982828496183 -0.016071909667725037 0 0.026596088430342515 -0.016558588850814654 0 0.02393075153119225 -0.017677045187704951 0 0.025888462510632058 -0.019007894080315082 0 0.027256608368228481 -0.016104014930136908 0 0.026727626651358079 -0.015985550034787605 0 0.026596088430342515 -0.016558588850814654 0 0.026441764168460443 -0.015756029618293602 0 0.026727626651358079 -0.015985550034787605 0 0.026291982828496183 -0.016071909667725037 0 0.026291982828496183 -0.016071909667725037 0 0.0260903499483809 -0.016457022556520387 0 0.026596088430342515 -0.016558588850814654 0 0.025903978435487283 -0.015968052802708143 0 0.026291982828496183 -0.016071909667725037 0 0.0260903499483809 -0.016457022556520387 0 0.025888462510632058 -0.019007894080315082 0 0.025607715425910862 -0.018859210965982556 0 0.0260903499483809 -0.016457022556520387 0 0.026596088430342515 -0.016558588850814654 0 0.025895132912963095 -0.017035683982202243 0 0.023968493974749365 -0.02036480424454962 0 0.02393913791385828 -0.020851335236306542 0 0.024710954452565451 -0.020498693356626043 0 0.02393913791385828 -0.020851335236306542 0 0.024618861386339511 -0.021209234414435833 0 0.024710954452565451 -0.020498693356626043 0 0.024618861386339511 -0.021209234414435833 0 0.024710954452565451 -0.020498693356626043 0 0.025602881692263286 -0.020687227404877686 0 0.025358341482069613 -0.019599146503752617 0 0.025865464960733574 -0.018532791721993708 0 0.025919797943676992 -0.018501057759973176 0 0.025410396810051163 -0.019334325682679142 0 0.025865464960733574 -0.018532791721993708 0 0.025404375449831283 -0.018579507980518262 0 0.025648883461784063 -0.018827831792339208 0 0.025607715425910862 -0.018859210965982556 0 0.025865464960733574 -0.018532791721993708 0 0.02568176183342518 -0.018151434755550259 0 0.025404375449831283 -0.018579507980518262 0 0.025865464960733574 -0.018532791721993708 0 0.02597629415374289 -0.018452604567886451 0 0.02568176183342518 -0.018151434755550259 0 0.025410396810051163 -0.019334325682679142 0 0.025404375449831283 -0.018579507980518262 0 0.024999573720651227 -0.018554642430177584 0 0.025404375449831283 -0.018579507980518262 0 0.024999573720651227 -0.018554642430177584 0 0.025365139781552658 -0.017948529902015543 0 0.02568176183342518 -0.018151434755550259 0 0.025404375449831283 -0.018579507980518262 0 0.025365139781552658 -0.017948529902015543 0 0.025838758327825798 -0.017215827754238279 0 0.02568176183342518 -0.018151434755550259 0 0.025365139781552658 -0.017948529902015543 0 0.024999573720651227 -0.018554642430177584 0 0.025365139781552658 -0.017948529902015543 0 0.024999937146940286 -0.017198624182341263 0 0.025838758327825798 -0.017215827754238279 0 0.025365139781552658 -0.017948529902015543 0 0.024999937146940286 -0.017198624182341263 0 0.025838758327825798 -0.017215827754238279 0 0.02597629415374289 -0.018452604567886451 0 0.02568176183342518 -0.018151434755550259 0 0.025698496901088778 -0.016383000391695657 0 0.0260903499483809 -0.016457022556520387 0 0.025895132912963095 -0.017035683982202243 0 0.025745919654888181 -0.016589814565714973 0 0.025607715425910862 -0.018859210965982556 0 0.025713724521282094 -0.0078476040715257933 0 0.025386394099511263 -0.0081448905282834102 0 0.025744975498081375 -0.0084084787815875695 0 0.025713724521282094 -0.0078476040715257933 0 0.02607282976608704 -0.0082241051061256887 0 0.025744975498081375 -0.0084084787815875695 0 0.026083881550188908 -0.0076957275435686964 0 0.025404319584007854 -0.0078585568570978034 0 0.025691547048869993 -0.0069457820443714789 0 0.025875372303127354 -0.0069393348949716542 0 0.025465871858615412 -0.0075580402401648232 0 0.025921965793268928 -0.0075826995146511048 0 0.026083881550188908 -0.0076957275435686964 0 0.025465871858615412 -0.0075580402401648232 0 0.024999778026432124 -0.007123357273122197 0 0.025000062141542184 -0.0081645272350579744 0 0.025465871858615412 -0.0075580402401648232 0 0.024999778026432124 -0.007123357273122197 0 0.025369742582166357 -0.0070481803980690502 0 0.025691547048869993 -0.0069457820443714789 0 0.025465871858615412 -0.0075580402401648232 0 0.025369742582166357 -0.0070481803980690502 0 0.024999778026432124 -0.007123357273122197 0 0.025317575069242669 -0.0065928003692157953 0 0.025000323505006798 -0.0060835985522659846 0 0.025317575069242669 -0.0065928003692157953 0 0.025676573061972536 -0.006195235465485365 0 0.025000323505006798 -0.0060835985522659846 0 0.025691547048869993 -0.0069457820443714789 0 0.025317575069242669 -0.0065928003692157953 0 0.025676573061972536 -0.006195235465485365 0 0.025691547048869993 -0.0069457820443714789 0 0.025369742582166357 -0.0070481803980690502 0 0.025317575069242669 -0.0065928003692157953 0 0.024999778026432124 -0.007123357273122197 0 0.025369742582166357 -0.0070481803980690502 0 0.025317575069242669 -0.0065928003692157953 0 0.025691547048869993 -0.0069457820443714789 0 0.025805061302626948 -0.0069191349826999756 0 0.025676573061972536 -0.006195235465485365 0 0.025805061302626948 -0.0069191349826999756 0 0.026226904120240348 -0.0061346541696477236 0 0.025676573061972536 -0.006195235465485365 0 0.026824304099026749 -0.0083741145681761869 0 0.02661004978776604 -0.0083798201306979868 0 0.026614195053682808 -0.0086154865177857556 0 0.026083881550188908 -0.0076957275435686964 0 0.02647254914748073 -0.0073508790398914879 0 0.026431742142347035 -0.0085655917899062385 0 0.02661004978776604 -0.0083798201306979868 0 0.026614195053682808 -0.0086154865177857556 0 0.026431742142347035 -0.0085655917899062385 0 0.02638266073618948 -0.0083820906254426578 0 0.02661004978776604 -0.0083798201306979868 0 0.026453724064617226 -0.010696792651074483 0 0.026530420266239359 -0.010147563314038372 0 0.026400017890974424 -0.010700325881885629 0 0.026530420266239359 -0.010147563314038372 0 0.026534211727431152 -0.0099083347432164411 0 0.026400017890974424 -0.010700325881885629 0 0.026534211727431152 -0.0099083347432164411 0 0.026322108202256056 -0.010217958431830057 0 0.026402572598585396 -0.010514742778055907 0 0.027279576152675306 -0.007864378356427823 0 0.02683558500988293 -0.0081614016084793593 0 0.027020521980378284 -0.0085890685466228564 0 0.02649128008730468 -0.010222511693235351 0 0.026438611241909011 -0.0099178803436129805 0 0.027279576152675306 -0.007864378356427823 0 0.02683558500988293 -0.0081614016084793593 0 0.026436613927376722 -0.0078569732043829912 0 0.026481421796211643 -0.0092243852555450798 0 0.026772568783054514 -0.0093738828022198687 0 0.026481421796211643 -0.0092243852555450798 0 0.026625877661553925 -0.0080826964246349872 0 0.02683558500988293 -0.0081614016084793593 0 0.026492938411960088 -0.008400594031632392 0 0.027020521980378284 -0.0085890685466228564 0 0.026083881550188908 -0.0076957275435686964 0 0.026625877661553925 -0.0080826964246349872 0 0.025713724521282094 -0.0078476040715257933 0 0.026436613927376722 -0.0078569732043829912 0 0.02607282976608704 -0.0082241051061256887 0 0.02683558500988293 -0.0081614016084793593 0 0.026436613927376722 -0.0078569732043829912 0 0.026492938411960088 -0.008400594031632392 0 0.026436613927376722 -0.0078569732043829912 0 0.026492938411960088 -0.008400594031632392 0 0.02607282976608704 -0.0082241051061256887 0 0.026492938411960088 -0.008400594031632392 0 0.02607282976608704 -0.0082241051061256887 0 0.026146864298103412 -0.0087397202640919439 0 0.026492938411960088 -0.008400594031632392 0 0.026146864298103412 -0.0087397202640919439 0 0.026450173857196346 -0.0089151536007682705 0 0.026146864298103412 -0.0087397202640919439 0 0.026215865967823417 -0.0092154227120109632 0 0.025861263468880943 -0.0090616695915606074 0 0.026146864298103412 -0.0087397202640919439 0 0.026450173857196346 -0.0089151536007682705 0 0.026215865967823417 -0.0092154227120109632 0 0.026772568783054514 -0.0093738828022198687 0 0.026606820959500257 -0.0095628345271736182 0 0.026530420266239359 -0.010147563314038372 0 0.026534211727431152 -0.0099083347432164411 0 0.02656777959135169 -0.0095643860316190817 0 0.026450173857196346 -0.0089151536007682705 0 0.027020521980378284 -0.0085890685466228564 0 0.02656777959135169 -0.0095643860316190817 0 0.026534211727431152 -0.0099083347432164411 0 0.026341109098101424 -0.009980068371770982 0 0.026322108202256056 -0.010217958431830057 0 0.026492938411960088 -0.008400594031632392 0 0.026450173857196346 -0.0089151536007682705 0 0.027020521980378284 -0.0085890685466228564 0 0.026534211727431152 -0.0099083347432164411 0 0.026388738321201016 -0.0098125994558458714 0 0.026341109098101424 -0.009980068371770982 0 0.026388738321201016 -0.0098125994558458714 0 0.02656777959135169 -0.0095643860316190817 0 0.026319144814204703 -0.0098621786636343134 0 0.026534211727431152 -0.0099083347432164411 0 0.026388738321201016 -0.0098125994558458714 0 0.02656777959135169 -0.0095643860316190817 0 0.026215865967823417 -0.0092154227120109632 0 0.026250076648609209 -0.0096109186846548202 0 0.025861263468880943 -0.0090616695915606074 0 0.02656777959135169 -0.0095643860316190817 0 0.026215865967823417 -0.0092154227120109632 0 0.026250076648609209 -0.0096109186846548202 0 0.026450173857196346 -0.0089151536007682705 0 0.02656777959135169 -0.0095643860316190817 0 0.026215865967823417 -0.0092154227120109632 0 0.025861263468880943 -0.0090616695915606074 0 0.025447567628602126 -0.009003823722275232 0 0.025789762423918162 -0.0097904744641346877 0 0.026250076648609209 -0.0096109186846548202 0 0.025861263468880943 -0.0090616695915606074 0 0.025789762423918162 -0.0097904744641346877 0 0.025861263468880943 -0.0090616695915606074 0 0.025493127573201466 -0.0085497969425922613 0 0.025447567628602126 -0.009003823722275232 0 0.025861263468880943 -0.0090616695915606074 0 0.025744975498081375 -0.0084084787815875695 0 0.025493127573201466 -0.0085497969425922613 0 0.026146864298103412 -0.0087397202640919439 0 0.025861263468880943 -0.0090616695915606074 0 0.025744975498081375 -0.0084084787815875695 0 0.02607282976608704 -0.0082241051061256887 0 0.026146864298103412 -0.0087397202640919439 0 0.025744975498081375 -0.0084084787815875695 0 0.025404319584007854 -0.0078585568570978034 0 0.025000106296891828 -0.0081644551968478845 0 0.025386394099511263 -0.0081448905282834102 0 0.025744975498081375 -0.0084084787815875695 0 0.025493127573201466 -0.0085497969425922613 0 0.025386394099511263 -0.0081448905282834102 0 0.025000049049345732 -0.0081656189775692421 0 0.025493127573201466 -0.0085497969425922613 0 0.025000049049345732 -0.0081656189775692421 0 0.025493127573201466 -0.0085497969425922613 0 0.025447567628602126 -0.009003823722275232 0 0.025000049049345732 -0.0081656189775692421 0 0.024999865984777037 -0.0093691247611642214 0 0.025447567628602126 -0.009003823722275232 0 0.024999865984777037 -0.0093691247611642214 0 0.025447567628602126 -0.009003823722275232 0 0.025789762423918162 -0.0097904744641346877 0 0.024999865984777037 -0.0093691247611642214 0 0.025789762423918162 -0.0097904744641346877 0 0.024999944951431305 -0.010573715898453739 0 0.025789762423918162 -0.0097904744641346877 0 0.025911706738043175 -0.010812588923377924 0 0.026520969183560828 -0.0099727459513584051 0 0.025789762423918162 -0.0097904744641346877 0 0.024999944951431305 -0.010573715898453739 0 0.025911706738043175 -0.010812588923377924 0 0.024999944951431305 -0.010573715898453739 0 0.025911706738043175 -0.010812588923377924 0 0.024999973603822934 -0.011778296943491145 0 0.025574383782625887 -0.011018624157240364 0 0.025381200080984549 -0.012218109300522289 0 0.024999639791400737 -0.011778560946419056 0 0.02573659762500111 -0.010918974397468877 0 0.025000123217236478 -0.011778272027079892 0 0.025574383782625887 -0.011018624157240364 0 0.025843517947261682 -0.011950779683333884 0 0.025381200080984549 -0.012218109300522289 0 0.024999789103103801 -0.01313302549047447 0 0.025381200080984549 -0.012218109300522289 0 0.024999639791400737 -0.011778560946419056 0 0.026403861509525634 -0.011136505773773989 0 0.026237165305080565 -0.011897638501692185 0 0.026120975257573852 -0.011089868996890647 0 0.025843517947261682 -0.011950779683333884 0 0.026237165305080565 -0.011897638501692185 0 0.026120975257573852 -0.011089868996890647 0 0.025574383782625887 -0.011018624157240364 0 0.025843517947261682 -0.011950779683333884 0 0.026120975257573852 -0.011089868996890647 0 0.026403861509525634 -0.011136505773773989 0 0.026120975257573852 -0.011089868996890647 0 0.026157873778551971 -0.01098014783707146 0 0.026120975257573852 -0.011089868996890647 0 0.026157873778551971 -0.01098014783707146 0 0.026167508092740009 -0.010587006198717372 0 0.026403861509525634 -0.011136505773773989 0 0.026157873778551971 -0.01098014783707146 0 0.025895092283093002 -0.011009424573933639 0 0.026120975257573852 -0.011089868996890647 0 0.026167508092740009 -0.010587006198717372 0 0.025924216303599163 -0.010479905501543471 0 0.025574383782625887 -0.011018624157240364 0 0.026120975257573852 -0.011089868996890647 0 0.025924216303599163 -0.010479905501543471 0 0.02573659762500111 -0.010918974397468877 0 0.026213291298016549 -0.010230806798728049 0 0.026250076648609209 -0.0096109186846548202 0 0.025789762423918162 -0.0097904744641346877 0 0.026520969183560828 -0.0099727459513584051 0 0.02656777959135169 -0.0095643860316190817 0 0.026250076648609209 -0.0096109186846548202 0 0.026520969183560828 -0.0099727459513584051 0 0.02656777959135169 -0.0095643860316190817 0 0.026520969183560828 -0.0099727459513584051 0 0.026319144814204703 -0.0098621786636343134 0 0.026167508092740009 -0.010587006198717372 0 0.025924216303599163 -0.010479905501543471 0 0.026319144814204703 -0.0098621786636343134 0 0.026213291298016549 -0.010230806798728049 0 0.0263378893062618 -0.0098976995346045527 0 0.026167508092740009 -0.010587006198717372 0 0.026317757532918189 -0.010193787376773462 0 0.026319144814204703 -0.0098621786636343134 0 0.026317757532918189 -0.010193787376773462 0 0.026251239766725935 -0.0098646013718718343 0 0.026319144814204703 -0.0098621786636343134 0 0.026317757532918189 -0.010193787376773462 0 0.026251239766725935 -0.0098646013718718343 0 0.026462378097954719 -0.01024182226122849 0 0.026317757532918189 -0.010193787376773462 0 0.026462378097954719 -0.01024182226122849 0 0.026376599530702722 -0.010733873564433448 0 0.023414072785702185 -0.013726638872188791 0 0.024573855104605684 -0.012326336537663062 0 0.023252933094285336 -0.012475208065943483 0 0.024886388312101416 -0.012207612070154842 0 0.025494540590231155 -0.011466367761847743 0 0.026167508092740009 -0.010587006198717372 0 0.026317757532918189 -0.010193787376773462 0 0.026376599530702722 -0.010733873564433448 0 0.026157873778551971 -0.01098014783707146 0 0.026376599530702722 -0.010733873564433448 0 0.025895092283093002 -0.011009424573933639 0 0.026157873778551971 -0.01098014783707146 0 0.026167508092740009 -0.010587006198717372 0 0.026376599530702722 -0.010733873564433448 0 0.024573855104605684 -0.012326336537663062 0 0.024633839810881818 -0.011214067117323437 0 0.025895092283093002 -0.011009424573933639 0 0.025494540590231155 -0.011466367761847743 0 0.025870820169985341 -0.011033621730323403 0 0.024573855104605684 -0.012326336537663062 0 0.023459182138320569 -0.0113319741156046 0 0.023252933094285336 -0.012475208065943483 0 0.024573855104605684 -0.012326336537663062 0 0.023459182138320569 -0.0113319741156046 0 0.024633839810881818 -0.011214067117323437 0 0.023459182138320569 -0.0113319741156046 0 0.024714871214147883 -0.010174591484776174 0 0.022725663363883271 -0.010069053877704967 0 0.023459182138320569 -0.0113319741156046 0 0.024633839810881818 -0.011214067117323437 0 0.024714871214147883 -0.010174591484776174 0 0.025842159771469687 -0.0098857921158579769 0 0.024714871214147883 -0.010174591484776174 0 0.025895092283093002 -0.011009424573933639 0 0.025842159771469687 -0.0098857921158579769 0 0.026403861509525634 -0.011136505773773989 0 0.025895092283093002 -0.011009424573933639 0 0.024633839810881818 -0.011214067117323437 0 0.024714871214147883 -0.010174591484776174 0 0.025895092283093002 -0.011009424573933639 0 0.021674894826045617 -0.0084156936039119414 0 0.021092864587461752 -0.010164107909398364 0 0.022725663363883271 -0.010069053877704967 0 0.021092864587461752 -0.010164107909398364 0 0.022725663363883271 -0.010069053877704967 0 0.022160388674021966 -0.011642365741711158 0 0.023459182138320569 -0.0113319741156046 0 0.022725663363883271 -0.010069053877704967 0 0.022160388674021966 -0.011642365741711158 0 0.023459182138320569 -0.0113319741156046 0 0.022160388674021966 -0.011642365741711158 0 0.023252933094285336 -0.012475208065943483 0 0.021092864587461752 -0.010164107909398364 0 0.022160388674021966 -0.011642365741711158 0 0.020954404301952601 -0.012367645336831495 0 0.021092864587461752 -0.010164107909398364 0 0.020954404301952601 -0.012367645336831495 0 0.019590558620629289 -0.011716865354761234 0 0.020954404301952601 -0.012367645336831495 0 0.021742470020313667 -0.013524315809332926 0 0.019850285733025236 -0.01362455731429788 0 0.022160388674021966 -0.011642365741711158 0 0.020954404301952601 -0.012367645336831495 0 0.021742470020313667 -0.013524315809332926 0 0.022160388674021966 -0.011642365741711158 0 0.021742470020313667 -0.013524315809332926 0 0.023252933094285336 -0.012475208065943483 0 0.023414072785702185 -0.013726638872188791 0 0.021742470020313667 -0.013524315809332926 0 0.023252933094285336 -0.012475208065943483 0 0.023414072785702185 -0.013726638872188791 0 0.021742470020313667 -0.013524315809332926 0 0.022283497693091615 -0.015198739056514518 0 0.024886388312101416 -0.012207612070154842 0 0.024035336406153174 -0.010952083692572835 0 0.026251239766725935 -0.0098646013718718343 0 0.026462378097954719 -0.01024182226122849 0 0.026653368258769565 -0.0098154023043482159 0 0.021742470020313667 -0.013524315809332926 0 0.021104949107581393 -0.014622174568665859 0 0.022283497693091615 -0.015198739056514518 0 0.021742470020313667 -0.013524315809332926 0 0.021104949107581393 -0.014622174568665859 0 0.019850285733025236 -0.01362455731429788 0 0.021104949107581393 -0.014622174568665859 0 0.020880017117670936 -0.015402800354047154 0 0.022283497693091615 -0.015198739056514518 0 0.022077939558957153 -0.010154071072371663 0 0.022125460136396845 -0.01051797518223823 0 0.022559166072624415 -0.0098306597192659752 0 0.022125460136396845 -0.01051797518223823 0 0.022706262696828503 -0.009751472386490526 0 0.022559166072624415 -0.0098306597192659752 0 0.021104949107581393 -0.014622174568665859 0 0.020880017117670936 -0.015402800354047154 0 0.020049762399278016 -0.015404845090107104 0 0.022137845557293336 -0.0098240483029350314 0 0.022077939558957153 -0.010154071072371663 0 0.022559166072624415 -0.0098306597192659752 0 0.023737194075814465 -0.010175073916523591 0 0.024035336406153174 -0.010952083692572835 0 0.022137845557293336 -0.0098240483029350314 0 0.022077939558957153 -0.010154071072371663 0 0.021799486036257375 -0.0098200161410206648 0 0.021480398549656284 -0.01140365276824085 0 0.024035336406153174 -0.010952083692572835 0 0.021480398549656284 -0.01140365276824085 0 0.022586159365747625 -0.010289844872832703 0 0.022144433932520743 -0.0098491457977063334 0 0.022706262696828503 -0.009751472386490526 0 0.022559166072624415 -0.0098306597192659752 0 0.025111333947965997 -0.010123395614375212 0 0.025613830972307981 -0.010139580247524128 0 0.025143150200915988 -0.010450168000694531 0 0.025111333947965997 -0.010123395614375212 0 0.025613830972307981 -0.010139580247524128 0 0.02566759549223049 -0.0097171511998600212 0 0.022077939558957153 -0.010154071072371663 0 0.022125460136396845 -0.01051797518223823 0 0.021839985458370518 -0.010737151925155534 0 0.025613830972307981 -0.010139580247524128 0 0.025917365849884091 -0.0099209729114030989 0 0.026062653459948806 -0.0099774640715216741 0 0.026927717046580039 -0.0097532173810787309 0 0.024035336406153174 -0.010952083692572835 0 0.026251239766725935 -0.0098646013718718343 0 0.025917365849884091 -0.0099209729114030989 0 0.02566759549223049 -0.0097171511998600212 0 0.025613830972307981 -0.010139580247524128 0 0.025917365849884091 -0.0099209729114030989 0 0.02566759549223049 -0.0097171511998600212 0 0.026251239766725935 -0.0098646013718718343 0 0.025917365849884091 -0.0099209729114030989 0 0.026062653459948806 -0.0099774640715216741 0 0.026251239766725935 -0.0098646013718718343 0 0.026249250875692503 -0.0098956703684929728 0 0.026062653459948806 -0.0099774640715216741 0 0.026251239766725935 -0.0098646013718718343 0 0.026319144814204703 -0.0098621786636343134 0 0.026249250875692503 -0.0098956703684929728 0 0.026388738321201016 -0.0098125994558458714 0 0.026319144814204703 -0.0098621786636343134 0 0.026249250875692503 -0.0098956703684929728 0 0.026388738321201016 -0.0098125994558458714 0 0.026249250875692503 -0.0098956703684929728 0 0.026341109098101424 -0.009980068371770982 0 0.026249250875692503 -0.0098956703684929728 0 0.026341109098101424 -0.009980068371770982 0 0.026182570856205775 -0.010114217411596403 0 0.026341109098101424 -0.009980068371770982 0 0.026182570856205775 -0.010114217411596403 0 0.026322108202256056 -0.010217958431830057 0 0.025613830972307981 -0.010139580247524128 0 0.026062653459948806 -0.0099774640715216741 0 0.025881316874658604 -0.010256044159001927 0 0.026249250875692503 -0.0098956703684929728 0 0.026182570856205775 -0.010114217411596403 0 0.026062653459948806 -0.0099774640715216741 0 0.026182570856205775 -0.010114217411596403 0 0.026062653459948806 -0.0099774640715216741 0 0.025881316874658604 -0.010256044159001927 0 0.025881316874658604 -0.010256044159001927 0 0.025979699259919668 -0.010564799172066595 0 0.025348544811081931 -0.01057015193911178 0 0.026182570856205775 -0.010114217411596403 0 0.025881316874658604 -0.010256044159001927 0 0.025979699259919668 -0.010564799172066595 0 0.025915091363721179 -0.010540015425200019 0 0.026438611241909011 -0.0099178803436129805 0 0.026182570856205775 -0.010114217411596403 0 0.025979699259919668 -0.010564799172066595 0 0.026322108202256056 -0.010217958431830057 0 0.025979699259919668 -0.010564799172066595 0 0.026322108202256056 -0.010217958431830057 0 0.026402572598585396 -0.010514742778055907 0 0.026481421796211643 -0.0092243852555450798 0 0.026438611241909011 -0.0099178803436129805 0 0.026109234793144968 -0.0092274686733552283 0 0.026123544954827511 -0.0092279754285177155 0 0.026175372529238634 -0.0090739948719066685 0 0.026481421796211643 -0.0092243852555450798 0 0.026198716234527134 -0.0087793803436603483 0 0.026438611241909011 -0.0099178803436129805 0 0.026209124449498297 -0.010142301607642991 0 0.025843660029265397 -0.010450595884948576 0 0.026573175823407829 -0.010441456610065628 0 0.026271930148898313 -0.011173439429243794 0 0.026109234793144968 -0.0092274686733552283 0 0.026175372529238634 -0.0090739948719066685 0 0.026163907659143441 -0.0090488029657601696 0 0.026431742142347035 -0.0085655917899062385 0 0.02638266073618948 -0.0083820906254426578 0 0.026268493874595965 -0.008674720751081862 0 0.025843660029265397 -0.010450595884948576 0 0.02555975396108431 -0.010877389455656531 0 0.026271930148898313 -0.011173439429243794 0 0.025843660029265397 -0.010450595884948576 0 0.02555975396108431 -0.010877389455656531 0 0.025348544811081931 -0.01057015193911178 0 0.02555975396108431 -0.010877389455656531 0 0.025348544811081931 -0.01057015193911178 0 0.025057228307655131 -0.010972324609690791 0 0.024571547663396996 -0.010579714479635093 0 0.024969957860029996 -0.01089170533025576 0 0.025001787650951748 -0.010776526814654191 0 0.025348544811081931 -0.01057015193911178 0 0.025057228307655131 -0.010972324609690791 0 0.025001787650951748 -0.010776526814654191 0 0.025143150200915988 -0.010450168000694531 0 0.025348544811081931 -0.01057015193911178 0 0.025613830972307981 -0.010139580247524128 0 0.025881316874658604 -0.010256044159001927 0 0.025348544811081931 -0.01057015193911178 0 0.025613830972307981 -0.010139580247524128 0 0.025143150200915988 -0.010450168000694531 0 0.025348544811081931 -0.01057015193911178 0 0.025915091363721179 -0.010540015425200019 0 0.025404432049239707 -0.010549126284806363 0 0.021236076781455792 -0.010861119843299176 0 0.021444093354912049 -0.011427537842407225 0 0.020459183164086809 -0.010859940665987264 0 0.022649812772559782 -0.010516088311196667 0 0.020774435167231532 -0.0099251998438020274 0 0.022535712649489802 -0.0099390361844451068 0 0.021722646556743747 -0.010174487857286764 0 0.02130821686130779 -0.0090309698074830299 0 0.022725488593697461 -0.0096785217198919662 0 0.022535712649489802 -0.0099390361844451068 0 0.02130821686130779 -0.0090309698074830299 0 0.023737194075814465 -0.010175073916523591 0 0.022649812772559782 -0.010516088311196667 0 0.025001787650951748 -0.010776526814654191 0 0.025143150200915988 -0.010450168000694531 0 0.024691658810666678 -0.010585476140720588 0 0.022125460136396845 -0.01051797518223823 0 0.021444093354912049 -0.011427537842407225 0 0.021839985458370518 -0.010737151925155534 0 0.025111333947965997 -0.010123395614375212 0 0.025143150200915988 -0.010450168000694531 0 0.024691658810666678 -0.010585476140720588 0 0.021236076781455792 -0.010861119843299176 0 0.021444093354912049 -0.011427537842407225 0 0.021839985458370518 -0.010737151925155534 0 0.022775503880641465 -0.009617138306721177 0 0.022535712649489802 -0.0099390361844451068 0 0.023102351543376379 -0.010479558822099812 0 0.023887234645286793 -0.010225047545384431 0 0.023102351543376379 -0.010479558822099812 0 0.023735696969692896 -0.011361820094952013 0 0.022649812772559782 -0.010516088311196667 0 0.022768289602030603 -0.010163979533156326 0 0.024571547663396996 -0.010579714479635093 0 0.022649812772559782 -0.010516088311196667 0 0.023887234645286793 -0.010225047545384431 0 0.022775503880641465 -0.009617138306721177 0 0.023102351543376379 -0.010479558822099812 0 0.022535712649489802 -0.0099390361844451068 0 0.023102351543376379 -0.010479558822099812 0 0.022426247838989728 -0.010367887514589842 0 0.023102351543376379 -0.010479558822099812 0 0.022426247838989728 -0.010367887514589842 0 0.022367085061239699 -0.010883207940089299 0 0.022426247838989728 -0.010367887514589842 0 0.021722646556743747 -0.010174487857286764 0 0.022367085061239699 -0.010883207940089299 0 0.021722646556743747 -0.010174487857286764 0 0.021307750129752077 -0.010918658556960999 0 0.022367085061239699 -0.010883207940089299 0 0.022535712649489802 -0.0099390361844451068 0 0.022426247838989728 -0.010367887514589842 0 0.021722646556743747 -0.010174487857286764 0 0.02051797989859919 -0.0099812326565233631 0 0.020454970996597592 -0.010911694098242688 0 0.021307750129752077 -0.010918658556960999 0 0.021722646556743747 -0.010174487857286764 0 0.02051797989859919 -0.0099812326565233631 0 0.021307750129752077 -0.010918658556960999 0 0.02051797989859919 -0.0099812326565233631 0 0.019320456660917452 -0.010754231815264014 0 0.020454970996597592 -0.010911694098242688 0 0.02051797989859919 -0.0099812326565233631 0 0.019228540809101323 -0.0098307786306955185 0 0.019320456660917452 -0.010754231815264014 0 0.02051797989859919 -0.0099812326565233631 0 0.019979419443583984 -0.0085057749293458232 0 0.019228540809101323 -0.0098307786306955185 0 0.021722646556743747 -0.010174487857286764 0 0.02051797989859919 -0.0099812326565233631 0 0.02130821686130779 -0.0090309698074830299 0 0.02051797989859919 -0.0099812326565233631 0 0.02130821686130779 -0.0090309698074830299 0 0.019979419443583984 -0.0085057749293458232 0 0.020459183164086809 -0.010859940665987264 0 0.020060377341579973 -0.01025220610868717 0 0.020625075568426621 -0.010329125029737742 0 0.020060377341579973 -0.01025220610868717 0 0.0192853388893027 -0.010021829101473055 0 0.020247869029269581 -0.010084309721120463 0 0.020774435167231532 -0.0099251998438020274 0 0.019833451116283898 -0.0093895079782900393 0 0.020459183164086809 -0.010859940665987264 0 0.020060377341579973 -0.01025220610868717 0 0.019442998325071476 -0.010229797965666544 0 0.020247869029269581 -0.010084309721120463 0 0.020619754827995891 -0.01009004171754521 0 0.020625075568426621 -0.010329125029737742 0 0.020060377341579973 -0.01025220610868717 0 0.020247869029269581 -0.010084309721120463 0 0.020625075568426621 -0.010329125029737742 0 0.020060377341579973 -0.01025220610868717 0 0.019442998325071476 -0.010229797965666544 0 0.0192853388893027 -0.010021829101473055 0 0.019491722115266018 -0.009707480402382845 0 0.0192853388893027 -0.010021829101473055 0 0.020148254490551139 -0.0098711075718397254 0 0.019491722115266018 -0.009707480402382845 0 0.0192853388893027 -0.010021829101473055 0 0.018573513473216164 -0.0096569123716571323 0 0.019491722115266018 -0.009707480402382845 0 0.020148254490551139 -0.0098711075718397254 0 0.020235693043343116 -0.0097206445273984362 0 0.019291956465897771 -0.0100513408453282 0 0.02043358671732395 -0.0097009467358946284 0 0.0192853388893027 -0.010021829101473055 0 0.020247869029269581 -0.010084309721120463 0 0.020530451746049682 -0.0098250277646187347 0 0.018851791853729941 -0.0096459971397535923 0 0.01917987467406887 -0.009570928286635751 0 0.020247869029269581 -0.010084309721120463 0 0.020530451746049682 -0.0098250277646187347 0 0.020619754827995891 -0.01009004171754521 0 0.020530451746049682 -0.0098250277646187347 0 0.020942004460773798 -0.010085994021590857 0 0.021747038424230744 -0.0095971971417254092 0 0.020148254490551139 -0.0098711075718397254 0 0.020235693043343116 -0.0097206445273984362 0 0.020927232188417258 -0.0097410799069269083 0 0.02043358671732395 -0.0097009467358946284 0 0.020966990397031565 -0.010741107431635328 0 0.018561643123721504 -0.0096236171106638731 0 0.018900234008758111 -0.0096584754505232902 0 0.018726411178090818 -0.0095123886764164455 0 0.01917987467406887 -0.009570928286635751 0 0.020966990397031565 -0.010741107431635328 0 0.020530451746049682 -0.0098250277646187347 0 0.020942004460773798 -0.010085994021590857 0 0.020619754827995891 -0.01009004171754521 0 0.020942004460773798 -0.010085994021590857 0 0.020625075568426621 -0.010329125029737742 0 0.020996120190687594 -0.010479703145905277 0 0.021236076781455792 -0.010861119843299176 0 0.020459183164086809 -0.010859940665987264 0 0.020996120190687594 -0.010479703145905277 0 0.020942004460773798 -0.010085994021590857 0 0.020619754827995891 -0.01009004171754521 0 0.020625075568426621 -0.010329125029737742 0 0.020942004460773798 -0.010085994021590857 0 0.021237861934577679 -0.010226152909141892 0 0.020996120190687594 -0.010479703145905277 0 0.021237861934577679 -0.010226152909141892 0 0.020996120190687594 -0.010479703145905277 0 0.021461310823725082 -0.010518398279040135 0 0.021236076781455792 -0.010861119843299176 0 0.020996120190687594 -0.010479703145905277 0 0.021461310823725082 -0.010518398279040135 0 0.020459183164086809 -0.010859940665987264 0 0.020625075568426621 -0.010329125029737742 0 0.020996120190687594 -0.010479703145905277 0 0.021991124881463538 -0.010267880886745089 0 0.020966990397031565 -0.010741107431635328 0 0.021839985458370518 -0.010737151925155534 0 0.021461310823725082 -0.010518398279040135 0 0.021747038424230744 -0.0095971971417254092 0 0.021236076781455792 -0.010861119843299176 0 0.021839985458370518 -0.010737151925155534 0 0.021461310823725082 -0.010518398279040135 0 0.020942004460773798 -0.010085994021590857 0 0.021237861934577679 -0.010226152909141892 0 0.021747038424230744 -0.0095971971417254092 0 0.021237861934577679 -0.010226152909141892 0 0.021461310823725082 -0.010518398279040135 0 0.021747038424230744 -0.0095971971417254092 0 0.022077939558957153 -0.010154071072371663 0 0.021839985458370518 -0.010737151925155534 0 0.021799486036257375 -0.0098200161410206648 0 0.021480398549656284 -0.01140365276824085 0 0.020966990397031565 -0.010741107431635328 0 0.021104949107581393 -0.014622174568665859 0 0.020049762399278016 -0.015404845090107104 0 0.019850285733025236 -0.01362455731429788 0 0.020966990397031565 -0.010741107431635328 0 0.019301554065370475 -0.01185137354010546 0 0.018900234008758111 -0.0096584754505232902 0 0.018726411178090818 -0.0095123886764164455 0 0.018869888389131551 -0.0094160664721296798 0 0.018726411178090818 -0.0095123886764164455 0 0.018553289180025408 -0.0093040047707647136 0 0.018869888389131551 -0.0094160664721296798 0 0.018561643123721504 -0.0096236171106638731 0 0.018726411178090818 -0.0095123886764164455 0 0.018553289180025408 -0.0093040047707647136 0 0.018553289180025408 -0.0093040047707647136 0 0.018869888389131551 -0.0094160664721296798 0 0.01892381771319571 -0.009308324356158821 0 0.019301554065370475 -0.01185137354010546 0 0.019286428707151967 -0.010399960902733525 0 0.020954404301952601 -0.012367645336831495 0 0.019850285733025236 -0.01362455731429788 0 0.019590558620629289 -0.011716865354761234 0 0.018553289180025408 -0.0093040047707647136 0 0.018816433540645511 -0.0092553217066194057 0 0.018371819762385767 -0.0090864184605533287 0 0.018553289180025408 -0.0093040047707647136 0 0.01892381771319571 -0.009308324356158821 0 0.018816433540645511 -0.0092553217066194057 0 0.018199888814296988 -0.0086767220450337367 0 0.018816646480708788 -0.0083780214196135534 0 0.018816433540645511 -0.0092553217066194057 0 0.018816646480708788 -0.0083780214196135534 0 0.018816433540645511 -0.0092553217066194057 0 0.019378588100653668 -0.0093767133953647011 0 0.019286428707151967 -0.010399960902733525 0 0.019325739708474617 -0.0094760832494901366 0 0.021092864587461752 -0.010164107909398364 0 0.019590558620629289 -0.011716865354761234 0 0.019378588100653668 -0.0093767133953647011 0 0.01892381771319571 -0.009308324356158821 0 0.018816433540645511 -0.0092553217066194057 0 0.019378588100653668 -0.0093767133953647011 0 0.020283376752075328 -0.0087373190597284309 0 0.021092864587461752 -0.010164107909398364 0 0.019378588100653668 -0.0093767133953647011 0 0.017576226673680233 -0.0085345615579373157 0 0.018199888814296988 -0.0086767220450337367 0 0.017928362376427143 -0.0088716273929770589 0 0.018199888814296988 -0.0086767220450337367 0 0.018816433540645511 -0.0092553217066194057 0 0.018371819762385767 -0.0090864184605533287 0 0.018199888814296988 -0.0086767220450337367 0 0.018371819762385767 -0.0090864184605533287 0 0.017928362376427143 -0.0088716273929770589 0 0.018553289180025408 -0.0093040047707647136 0 0.018371819762385767 -0.0090864184605533287 0 0.018174108128600951 -0.0091035585343437544 0 0.017928362376427143 -0.0088716273929770589 0 0.018174108128600951 -0.0091035585343437544 0 0.017815561685793031 -0.0089691317757770155 0 0.018371819762385767 -0.0090864184605533287 0 0.017928362376427143 -0.0088716273929770589 0 0.018174108128600951 -0.0091035585343437544 0 0.018174108128600951 -0.0091035585343437544 0 0.018164354904193825 -0.0092524001925630376 0 0.017815561685793031 -0.0089691317757770155 0 0.018164354904193825 -0.0092524001925630376 0 0.017780905690484267 -0.0090975491566553136 0 0.017815561685793031 -0.0089691317757770155 0 0.018553289180025408 -0.0093040047707647136 0 0.018174108128600951 -0.0091035585343437544 0 0.018164354904193825 -0.0092524001925630376 0 0.018561643123721504 -0.0096236171106638731 0 0.018553289180025408 -0.0093040047707647136 0 0.018164354904193825 -0.0092524001925630376 0 0.018126790291129551 -0.0095038694174270841 0 0.018561643123721504 -0.0096236171106638731 0 0.018164354904193825 -0.0092524001925630376 0 0.018126790291129551 -0.0095038694174270841 0 0.018164354904193825 -0.0092524001925630376 0 0.017780905690484267 -0.0090975491566553136 0 0.017780905690484267 -0.0090975491566553136 0 0.017476621412591899 -0.008871787306902211 0 0.017691039100764742 -0.0092757064255373847 0 0.018126790291129551 -0.0095038694174270841 0 0.017780905690484267 -0.0090975491566553136 0 0.017691039100764742 -0.0092757064255373847 0 0.017780905690484267 -0.0090975491566553136 0 0.017476621412591899 -0.008871787306902211 0 0.017509907290682879 -0.0087852119441826134 0 0.017476621412591899 -0.008871787306902211 0 0.017509907290682879 -0.0087852119441826134 0 0.017438798691144935 -0.0086721904401746222 0 0.017780905690484267 -0.0090975491566553136 0 0.017509907290682879 -0.0087852119441826134 0 0.017815561685793031 -0.0089691317757770155 0 0.017509907290682879 -0.0087852119441826134 0 0.017815561685793031 -0.0089691317757770155 0 0.017577904682515404 -0.0087934074211511552 0 0.017928362376427143 -0.0088716273929770589 0 0.017815561685793031 -0.0089691317757770155 0 0.017577904682515404 -0.0087934074211511552 0 0.017509907290682879 -0.0087852119441826134 0 0.017577904682515404 -0.0087934074211511552 0 0.017416584571006199 -0.0087105431870916107 0 0.017577904682515404 -0.0087934074211511552 0 0.017400934990130325 -0.0087126454790378786 0 0.017416584571006199 -0.0087105431870916107 0 0.013709815213595622 -0.013235742397178825 0 0.013825538217780773 -0.013404580831675117 0 0.017576226673680233 -0.0085345615579373157 0 0.017577904682515404 -0.0087934074211511552 0 0.017400934990130325 -0.0087126454790378786 0 0.017576226673680233 -0.0085345615579373157 0 0.017928362376427143 -0.0088716273929770589 0 0.017577904682515404 -0.0087934074211511552 0 0.010196294654167482 -0.017918198169366698 0 0.010028997112026341 -0.017832960967260808 0 0.010252549691313785 -0.017636823496093735 0 0.013038784723304202 -0.012053104410499503 0 0.0086550865340705389 -0.017090627483905916 0 0.010196294654167482 -0.017918198169366698 0 0.010252549691313785 -0.017636823496093735 0 0.010357282564407324 -0.017883628593423104 0 0.013825538217780773 -0.013404580831675117 0 0.013038784723304202 -0.012053104410499503 0 0.017400934990130325 -0.0087126454790378786 0 0.017416584571006199 -0.0087105431870916107 0 0.017451052665720883 -0.0087357382753055959 0 0.017416584571006199 -0.0087105431870916107 0 0.017451052665720883 -0.0087357382753055959 0 0.017395189988762331 -0.0085022479645728479 0 0.016907952533600838 -0.0076987403368126402 0 0.016851274616969038 -0.0081293323496796459 0 0.017395189988762331 -0.0085022479645728479 0 0.013038784723304202 -0.012053104410499503 0 0.017997559868104678 -0.0076777998806095019 0 0.016851274616969038 -0.0081293323496796459 0 0.017395189988762331 -0.0085022479645728479 0 0.017112363098958243 -0.008416659137466271 0 0.016851274616969038 -0.0081293323496796459 0 0.017112363098958243 -0.008416659137466271 0 0.016552395880841154 -0.008112192211629364 0 0.017509907290682879 -0.0087852119441826134 0 0.017416584571006199 -0.0087105431870916107 0 0.017395189988762331 -0.0085022479645728479 0 0.017509907290682879 -0.0087852119441826134 0 0.017395189988762331 -0.0085022479645728479 0 0.017438798691144935 -0.0086721904401746222 0 0.017438798691144935 -0.0086721904401746222 0 0.017102307391278382 -0.008588809821055865 0 0.017495450257228103 -0.0086174548554801261 0 0.017395189988762331 -0.0085022479645728479 0 0.017438798691144935 -0.0086721904401746222 0 0.017112363098958243 -0.008416659137466271 0 0.017476621412591899 -0.008871787306902211 0 0.017438798691144935 -0.0086721904401746222 0 0.017495450257228103 -0.0086174548554801261 0 0.017438798691144935 -0.0086721904401746222 0 0.017112363098958243 -0.008416659137466271 0 0.017102307391278382 -0.008588809821055865 0 0.017112363098958243 -0.008416659137466271 0 0.017102307391278382 -0.008588809821055865 0 0.016552395880841154 -0.008112192211629364 0 0.017102307391278382 -0.008588809821055865 0 0.017233435030302922 -0.0088036576955087698 0 0.016680165904755673 -0.0087035346397862211 0 0.017102307391278382 -0.008588809821055865 0 0.017233435030302922 -0.0088036576955087698 0 0.017495450257228103 -0.0086174548554801261 0 0.017152505180693875 -0.0090638318389069349 0 0.017610091535169025 -0.0091000410654982159 0 0.017178324445449304 -0.0093767449070717643 0 0.017233435030302922 -0.0088036576955087698 0 0.017152505180693875 -0.0090638318389069349 0 0.017610091535169025 -0.0091000410654982159 0 0.017610091535169025 -0.0091000410654982159 0 0.017495450257228103 -0.0086174548554801261 0 0.018075300617725488 -0.0087323164464127891 0 0.017233435030302922 -0.0088036576955087698 0 0.017610091535169025 -0.0091000410654982159 0 0.017495450257228103 -0.0086174548554801261 0 0.017476621412591899 -0.008871787306902211 0 0.017495450257228103 -0.0086174548554801261 0 0.017427199321399512 -0.008890747583239331 0 0.017495450257228103 -0.0086174548554801261 0 0.018764564100322238 -0.0080887381127126758 0 0.018075300617725488 -0.0087323164464127891 0 0.017540406425157844 -0.0084559539444817085 0 0.018173667478780159 -0.0090350560347763325 0 0.017388558881210051 -0.0088348336901365367 0 0.018173667478780159 -0.0090350560347763325 0 0.018851791853729941 -0.0096459971397535923 0 0.018173667478780159 -0.0090350560347763325 0 0.019833451116283898 -0.0093895079782900393 0 0.018173667478780159 -0.0090350560347763325 0 0.019442998325071476 -0.010229797965666544 0 0.0192853388893027 -0.010021829101473055 0 0.018573513473216164 -0.0096569123716571323 0 0.019979419443583984 -0.0085057749293458232 0 0.018580933402465319 -0.0090467980253627293 0 0.019228540809101323 -0.0098307786306955185 0 0.019979419443583984 -0.0085057749293458232 0 0.018764564100322238 -0.0080887381127126758 0 0.018580933402465319 -0.0090467980253627293 0 0.018764564100322238 -0.0080887381127126758 0 0.018075300617725488 -0.0087323164464127891 0 0.018580933402465319 -0.0090467980253627293 0 0.017610091535169025 -0.0091000410654982159 0 0.018075300617725488 -0.0087323164464127891 0 0.018580933402465319 -0.0090467980253627293 0 0.017610091535169025 -0.0091000410654982159 0 0.018580933402465319 -0.0090467980253627293 0 0.018114701856409537 -0.0096116299994577943 0 0.018582176962856172 -0.0090531914548181349 0 0.018246878686542067 -0.0098127561193126021 0 0.018580933402465319 -0.0090467980253627293 0 0.018484943593587305 -0.0099608885372925917 0 0.019228540809101323 -0.0098307786306955185 0 0.019228540809101323 -0.0098307786306955185 0 0.018789138169457955 -0.010529746988383798 0 0.019320456660917452 -0.010754231815264014 0 0.018484943593587305 -0.0099608885372925917 0 0.019228540809101323 -0.0098307786306955185 0 0.018789138169457955 -0.010529746988383798 0 0.018246878686542067 -0.0098127561193126021 0 0.018839118467234364 -0.010152566610183151 0 0.018484943593587305 -0.0099608885372925917 0 0.018789138169457955 -0.010529746988383798 0 0.018365130763289515 -0.010734350021210299 0 0.018114701856409537 -0.0096116299994577943 0 0.017607587361862149 -0.0098207835496653319 0 0.017817308510123125 -0.0099451861467898511 0 0.018114701856409537 -0.0096116299994577943 0 0.017505216455928421 -0.0095923663378755068 0 0.017607587361862149 -0.0098207835496653319 0 0.017505216455928421 -0.0095923663378755068 0 0.017368915434325508 -0.0098345988252898815 0 0.017145330963856505 -0.0096573563800339771 0 0.017505216455928421 -0.0095923663378755068 0 0.017178324445449304 -0.0093767449070717643 0 0.017145330963856505 -0.0096573563800339771 0 0.017505216455928421 -0.0095923663378755068 0 0.017607587361862149 -0.0098207835496653319 0 0.017368915434325508 -0.0098345988252898815 0 0.017368915434325508 -0.0098345988252898815 0 0.017145330963856505 -0.0096573563800339771 0 0.017080604877039319 -0.009893492169114726 0 0.017610091535169025 -0.0091000410654982159 0 0.017505216455928421 -0.0095923663378755068 0 0.017178324445449304 -0.0093767449070717643 0 0.017610091535169025 -0.0091000410654982159 0 0.018114701856409537 -0.0096116299994577943 0 0.017505216455928421 -0.0095923663378755068 0 0.017630696747033263 -0.010273919754448031 0 0.017486581297152061 -0.010184386146614184 0 0.017537093069167745 -0.0099984087126171878 0 0.019318585076852399 -0.0062359721192496095 0 0.018839118467234364 -0.010152566610183151 0 0.019318585076852399 -0.0062359721192496095 0 0.018109881487566065 -0.0088085711751088105 0 0.018109881487566065 -0.0088085711751088105 0 0.017076783053938879 -0.010164881864653943 0 0.017331449542371133 -0.010192447034125878 0 0.017351780934305089 -0.010124331355747042 0 0.017040625257385447 -0.010036996873094691 0 0.018710478645675845 -0.0049505360432243991 0 0.019379866634800003 -0.0050523389471656965 0 0.019283052193699315 -0.0053320875314311197 0 0.01890489819032893 -0.0042183634145435047 0 0.018109881487566065 -0.0088085711751088105 0 0.018109881487566065 -0.0088085711751088105 0 0.017381816405552437 -0.010477385162207149 0 0.017407043915205842 -0.010312808448785135 0 0.017276579396330382 -0.010012027336760553 0 0.017040625257385447 -0.010036996873094691 0 0.017407043915205842 -0.010312808448785135 0 0.017537093069167745 -0.0099984087126171878 0 0.017276579396330382 -0.010012027336760553 0 0.017368915434325508 -0.0098345988252898815 0 0.017276579396330382 -0.010012027336760553 0 0.017080604877039319 -0.009893492169114726 0 0.017607587361862149 -0.0098207835496653319 0 0.017368915434325508 -0.0098345988252898815 0 0.017537093069167745 -0.0099984087126171878 0 0.017368915434325508 -0.0098345988252898815 0 0.017537093069167745 -0.0099984087126171878 0 0.017276579396330382 -0.010012027336760553 0 0.017607587361862149 -0.0098207835496653319 0 0.017537093069167745 -0.0099984087126171878 0 0.017672933328840051 -0.0099752441952713818 0 0.017630696747033263 -0.010273919754448031 0 0.017537093069167745 -0.0099984087126171878 0 0.017672933328840051 -0.0099752441952713818 0 0.017630696747033263 -0.010273919754448031 0 0.017672933328840051 -0.0099752441952713818 0 0.017817308510123125 -0.0099451861467898511 0 0.017607587361862149 -0.0098207835496653319 0 0.017672933328840051 -0.0099752441952713818 0 0.017817308510123125 -0.0099451861467898511 0 0.018839118467234364 -0.010152566610183151 0 0.01910436871345143 -0.0099034227868089811 0 0.018789138169457955 -0.010529746988383798 0 0.018365130763289515 -0.010734350021210299 0 0.018976325797586142 -0.011336233897883179 0 0.018789138169457955 -0.010529746988383798 0 0.019320456660917452 -0.010754231815264014 0 0.018976325797586142 -0.011336233897883179 0 0.019415249014992052 -0.011180900958657891 0 0.018976325797586142 -0.011336233897883179 0 0.019552555333567756 -0.011444487205811569 0 0.019320456660917452 -0.010754231815264014 0 0.019415249014992052 -0.011180900958657891 0 0.018976325797586142 -0.011336233897883179 0 0.020777866535169304 -0.0071634071417800687 0 0.020208475462609114 -0.0087132399764309979 0 0.019326989023520497 -0.0074007065968636314 0 0.021097308021478158 -0.00015777395940700086 0 0.021013652761924583 -0.00030530069329981843 0 0.020771749278800274 -0.0001347168757482566 0 0.020777866535169304 -0.0071634071417800687 0 0.019326989023520497 -0.0074007065968636314 0 0.019574415098360373 -0.0063774845970412291 0 0.018976325797586142 -0.011336233897883179 0 0.019406948951151866 -0.011740801891215142 0 0.019552555333567756 -0.011444487205811569 0 0.01910436871345143 -0.0099034227868089811 0 0.020629916187173136 -0.005204334636257333 0 0.020679745297574253 -0.0018696226419693872 0 0.020629916187173136 -0.005204334636257333 0 0.019326989023520497 -0.0074007065968636314 0 0.019574415098360373 -0.0063774845970412291 0 0.018475410180875725 -0.0061029598152036561 0 0.021187823994876037 -0.00024486620676547968 0 0.021570053874565311 -0.00028874447590437972 0 0.021562598804595896 -0.00042816360333537131 0 0.021097308021478158 -0.00015777395940700086 0 0.021562598804595896 -0.00042816360333537131 0 0.021244780447656143 -0.00037687971130430576 0 0.020679745297574253 -0.0018696226419693872 0 0.021494019519818126 -9.6921912624356351e-05 0 0.021353691016813284 -0.00053852153918670074 0 0.021562598804595896 -0.00042816360333537131 0 0.021244780447656143 -0.00037687971130430576 0 0.021353691016813284 -0.00053852153918670074 0 0.021562598804595896 -0.00042816360333537131 0 0.021526645683579735 -0.00066904940529110949 0 0.021097308021478158 -0.00015777395940700086 0 0.021013652761924583 -0.00030530069329981843 0 0.021244780447656143 -0.00037687971130430576 0 0.021013652761924583 -0.00030530069329981843 0 0.021244780447656143 -0.00037687971130430576 0 0.021102790938363151 -0.00049897628578263653 0 0.021353691016813284 -0.00053852153918670074 0 0.021244780447656143 -0.00037687971130430576 0 0.021102790938363151 -0.00049897628578263653 0 0.021013652761924583 -0.00030530069329981843 0 0.021102790938363151 -0.00049897628578263653 0 0.020813475929091822 -0.00041043413197182132 0 0.020813475929091822 -0.00041043413197182132 0 0.020474108306162218 -0.00040382109877328925 0 0.020660861167503271 -0.00016775061090728438 0 0.020813475929091822 -0.00041043413197182132 0 0.020474108306162218 -0.00040382109877328925 0 0.020867114512585404 -0.00064802607635715118 0 0.020474108306162218 -0.00040382109877328925 0 0.020660861167503271 -0.00016775061090728438 0 0.020365213453069943 -0.00015507695555196118 0 0.020660861167503271 -0.00016775061090728438 0 0.020477206212689884 -2.0181509714604883e-05 0 0.020365213453069943 -0.00015507695555196118 0 0.021013652761924583 -0.00030530069329981843 0 0.020813475929091822 -0.00041043413197182132 0 0.020660861167503271 -0.00016775061090728438 0 0.019318585076852399 -0.0062359721192496095 0 0.020679745297574253 -0.0018696226419693872 0 0.020800955544069608 -6.3638444828142219e-05 0 0.021097308021478158 -0.00015777395940700086 0 0.020771749278800274 -0.0001347168757482566 0 0.021092805143698556 -7.2291002634412048e-06 0 0.01989747636008506 -0.001123042979852894 0 0.021013652761924583 -0.00030530069329981843 0 0.020660861167503271 -0.00016775061090728438 0 0.020454440591212302 0.00022646791344249764 0 0.020477206212689884 -2.0181509714604883e-05 0 0.020408058171966319 9.9352343386677037e-05 0 0.020365213453069943 -0.00015507695555196118 0 0.020660861167503271 -0.00016775061090728438 0 0.020477206212689884 -2.0181509714604883e-05 0 0.020454440591212302 0.00022646791344249764 0 0.020477206212689884 -2.0181509714604883e-05 0 0.020408058171966319 9.9352343386677037e-05 0 0.020454440591212302 0.00022646791344249764 0 0.018710478645675845 -0.0049505360432243991 0 0.019379866634800003 -0.0050523389471656965 0 0.018857320336716756 -0.0045503696185813574 0 0.020135127821209207 -0.00050556622792451546 0 0.01989747636008506 -0.001123042979852894 0 0.019318585076852399 -0.0062359721192496095 0 0.01989747636008506 -0.001123042979852894 0 0.017913958240677812 -0.0032128470889532645 0 0.017913747211529774 -0.0030124114156829299 0 0.017985095903057819 -0.0031505282564215412 0 0.0202123081817586 0.00036802940417214174 0 0.020408058171966319 9.9352343386677037e-05 0 0.019977632351187456 -0.00014365789025058438 0 0.01890489819032893 -0.0042183634145435047 0 0.019056749851772092 -0.0009955952242954294 0 0.01890489819032893 -0.0042183634145435047 0 0.01989747636008506 -0.001123042979852894 0 0.0202123081817586 0.00036802940417214174 0 0.020408058171966319 9.9352343386677037e-05 0 0.020436805470443613 0.00018303500376291358 0 0.020408058171966319 9.9352343386677037e-05 0 0.019977632351187456 -0.00014365789025058438 0 0.020365213453069943 -0.00015507695555196118 0 0.020474108306162218 -0.00040382109877328925 0 0.019977632351187456 -0.00014365789025058438 0 0.020253210281032361 -0.000736429999098027 0 0.020474108306162218 -0.00040382109877328925 0 0.019977632351187456 -0.00014365789025058438 0 0.020365213453069943 -0.00015507695555196118 0 0.019977632351187456 -0.00014365789025058438 0 0.020253210281032361 -0.000736429999098027 0 0.019587682689891223 -0.00068795677167823757 0 0.020474108306162218 -0.00040382109877328925 0 0.020253210281032361 -0.000736429999098027 0 0.020867114512585404 -0.00064802607635715118 0 0.020253210281032361 -0.000736429999098027 0 0.020867114512585404 -0.00064802607635715118 0 0.020932631045248222 -0.001034110537230357 0 0.020253210281032361 -0.000736429999098027 0 0.020592476812774107 -0.0012596379525291236 0 0.020932631045248222 -0.001034110537230357 0 0.020592476812774107 -0.0012596379525291236 0 0.021090742866185015 -0.0014111129998400779 0 0.020932631045248222 -0.001034110537230357 0 0.020253210281032361 -0.000736429999098027 0 0.020592476812774107 -0.0012596379525291236 0 0.019997618211984307 -0.0013984531938733594 0 0.020253210281032361 -0.000736429999098027 0 0.019997618211984307 -0.0013984531938733594 0 0.019587682689891223 -0.00068795677167823757 0 0.019997618211984307 -0.0013984531938733594 0 0.020651232497832947 -0.0015520058728091227 0 0.020007112515716022 -0.0020220163262835507 0 0.020592476812774107 -0.0012596379525291236 0 0.019997618211984307 -0.0013984531938733594 0 0.020651232497832947 -0.0015520058728091227 0 0.020651232497832947 -0.0015520058728091227 0 0.021182155464942055 -0.0016880130297406426 0 0.021090742866185015 -0.0014111129998400779 0 0.020592476812774107 -0.0012596379525291236 0 0.020651232497832947 -0.0015520058728091227 0 0.021090742866185015 -0.0014111129998400779 0 0.020651232497832947 -0.0015520058728091227 0 0.021182155464942055 -0.0016880130297406426 0 0.020007112515716022 -0.0020220163262835507 0 0.021182155464942055 -0.0016880130297406426 0 0.020007112515716022 -0.0020220163262835507 0 0.020816526145014957 -0.0020186157549640336 0 0.021604503870062127 -0.0016966807700304599 0 0.021782412550233582 -0.0017949188880627637 0 0.021487798421633734 -0.0018771971037625866 0 0.02139024875867571 -0.0016087256448179342 0 0.021604503870062127 -0.0016966807700304599 0 0.021487798421633734 -0.0018771971037625866 0 0.02139024875867571 -0.0016087256448179342 0 0.021604503870062127 -0.0016966807700304599 0 0.021664750385653166 -0.0014804132186537369 0 0.021182155464942055 -0.0016880130297406426 0 0.02139024875867571 -0.0016087256448179342 0 0.021090742866185015 -0.0014111129998400779 0 0.021182155464942055 -0.0016880130297406426 0 0.02139024875867571 -0.0016087256448179342 0 0.021487798421633734 -0.0018771971037625866 0 0.02139024875867571 -0.0016087256448179342 0 0.021090742866185015 -0.0014111129998400779 0 0.021470263828337825 -0.0013310514435713285 0 0.02139024875867571 -0.0016087256448179342 0 0.021470263828337825 -0.0013310514435713285 0 0.021664750385653166 -0.0014804132186537369 0 0.021470263828337825 -0.0013310514435713285 0 0.021709071093723869 -0.0012425562553530802 0 0.021664750385653166 -0.0014804132186537369 0 0.021470263828337825 -0.0013310514435713285 0 0.021562632255487699 -0.00098848133350227683 0 0.021276702125890549 -0.0010941000153965065 0 0.021470263828337825 -0.0013310514435713285 0 0.021562632255487699 -0.00098848133350227683 0 0.021709071093723869 -0.0012425562553530802 0 0.021090742866185015 -0.0014111129998400779 0 0.021470263828337825 -0.0013310514435713285 0 0.021276702125890549 -0.0010941000153965065 0 0.021090742866185015 -0.0014111129998400779 0 0.021276702125890549 -0.0010941000153965065 0 0.020932631045248222 -0.001034110537230357 0 0.021276702125890549 -0.0010941000153965065 0 0.020932631045248222 -0.001034110537230357 0 0.021273241574123105 -0.0007294348388773383 0 0.020867114512585404 -0.00064802607635715118 0 0.020932631045248222 -0.001034110537230357 0 0.021273241574123105 -0.0007294348388773383 0 0.021102790938363151 -0.00049897628578263653 0 0.020867114512585404 -0.00064802607635715118 0 0.021273241574123105 -0.0007294348388773383 0 0.021353691016813284 -0.00053852153918670074 0 0.021102790938363151 -0.00049897628578263653 0 0.021273241574123105 -0.0007294348388773383 0 0.021102790938363151 -0.00049897628578263653 0 0.020813475929091822 -0.00041043413197182132 0 0.020867114512585404 -0.00064802607635715118 0 0.021562632255487699 -0.00098848133350227683 0 0.021273241574123105 -0.0007294348388773383 0 0.021526645683579735 -0.00066904940529110949 0 0.021562632255487699 -0.00098848133350227683 0 0.021276702125890549 -0.0010941000153965065 0 0.021273241574123105 -0.0007294348388773383 0 0.021353691016813284 -0.00053852153918670074 0 0.021273241574123105 -0.0007294348388773383 0 0.021526645683579735 -0.00066904940529110949 0 0.021562632255487699 -0.00098848133350227683 0 0.021853219339618167 -0.00066378100807488387 0 0.021837176568774427 -0.0010968947569176544 0 0.021853219339618167 -0.00066378100807488387 0 0.02210600702742482 -0.00116950395266379 0 0.021837176568774427 -0.0010968947569176544 0 0.021562632255487699 -0.00098848133350227683 0 0.021526645683579735 -0.00066904940529110949 0 0.021853219339618167 -0.00066378100807488387 0 0.022439687042967914 -0.0015568613809067555 0 0.02217779120734599 -0.0014776363407667714 0 0.02210600702742482 -0.00116950395266379 0 0.02217779120734599 -0.0014776363407667714 0 0.022053647430209961 -0.0012128661971298022 0 0.022094699570167138 -0.0018450495012068367 0 0.023002614095088691 -0.002351758926504671 0 0.021529846145585736 -0.0072993483795972995 0 0.022031235828262396 -0.0005777571525286203 0 0.022206350387340104 -0.001329576691398818 0 0.022439687042967914 -0.0015568613809067555 0 0.02217779120734599 -0.0014776363407667714 0 0.022280339088716943 -0.0016831054615240168 0 0.02217779120734599 -0.0014776363407667714 0 0.02210600702742482 -0.00116950395266379 0 0.022053647430209961 -0.0012128661971298022 0 0.02210600702742482 -0.00116950395266379 0 0.022121735576553992 -0.0012918741953822359 0 0.022053647430209961 -0.0012128661971298022 0 0.02210600702742482 -0.00116950395266379 0 0.022121735576553992 -0.0012918741953822359 0 0.021941999859215681 -0.0013206026367404357 0 0.02210600702742482 -0.00116950395266379 0 0.021837176568774427 -0.0010968947569176544 0 0.021941999859215681 -0.0013206026367404357 0 0.021562632255487699 -0.00098848133350227683 0 0.021837176568774427 -0.0010968947569176544 0 0.021709071093723869 -0.0012425562553530802 0 0.021837176568774427 -0.0010968947569176544 0 0.021709071093723869 -0.0012425562553530802 0 0.021941999859215681 -0.0013206026367404357 0 0.021664750385653166 -0.0014804132186537369 0 0.021941999859215681 -0.0013206026367404357 0 0.021893744624527672 -0.0015820087505731002 0 0.021709071093723869 -0.0012425562553530802 0 0.021664750385653166 -0.0014804132186537369 0 0.021941999859215681 -0.0013206026367404357 0 0.022076299376353244 -0.0014127425266861275 0 0.021893744624527672 -0.0015820087505731002 0 0.022161077452653999 -0.0015801041993930823 0 0.021941999859215681 -0.0013206026367404357 0 0.022076299376353244 -0.0014127425266861275 0 0.021893744624527672 -0.0015820087505731002 0 0.022121735576553992 -0.0012918741953822359 0 0.022076299376353244 -0.0014127425266861275 0 0.022174938413266322 -0.0014314307141751722 0 0.022121735576553992 -0.0012918741953822359 0 0.021941999859215681 -0.0013206026367404357 0 0.022076299376353244 -0.0014127425266861275 0 0.022076299376353244 -0.0014127425266861275 0 0.022161077452653999 -0.0015801041993930823 0 0.022174938413266322 -0.0014314307141751722 0 0.021987949284382115 -0.0017671819541420061 0 0.021893744624527672 -0.0015820087505731002 0 0.022161077452653999 -0.0015801041993930823 0 0.021987949284382115 -0.0017671819541420061 0 0.022179580367194206 -0.001781110888131716 0 0.022161077452653999 -0.0015801041993930823 0 0.021604503870062127 -0.0016966807700304599 0 0.021664750385653166 -0.0014804132186537369 0 0.021893744624527672 -0.0015820087505731002 0 0.021987949284382115 -0.0017671819541420061 0 0.021782412550233582 -0.0017949188880627637 0 0.021893744624527672 -0.0015820087505731002 0 0.021604503870062127 -0.0016966807700304599 0 0.021782412550233582 -0.0017949188880627637 0 0.021893744624527672 -0.0015820087505731002 0 0.022546366039295742 -0.0026668318417881458 0 0.022298707225589846 -0.0020958213888614317 0 0.02246571561526689 -0.0019686679314676928 0 0.022714742361282812 -0.0024327424299057281 0 0.022489750396116909 -0.0019259185848769303 0 0.022298707225589846 -0.0020958213888614317 0 0.022268117323509057 -0.0029595130906890938 0 0.021859876680833282 -0.0029649918995660542 0 0.022546366039295742 -0.0026668318417881458 0 0.022298707225589846 -0.0020958213888614317 0 0.022268117323509057 -0.0029595130906890938 0 0.022546366039295742 -0.0026668318417881458 0 0.023109256787367215 -0.0031047461987446755 0 0.02246571561526689 -0.0019686679314676928 0 0.022296582172607396 -0.0017336701349015945 0 0.022340992365122513 -0.0014581312810890775 0 0.02246571561526689 -0.0019686679314676928 0 0.022296582172607396 -0.0017336701349015945 0 0.022179580367194206 -0.001781110888131716 0 0.022332273874273223 -0.0018806465467239599 0 0.022296582172607396 -0.0017336701349015945 0 0.022179580367194206 -0.001781110888131716 0 0.022161077452653999 -0.0015801041993930823 0 0.022296582172607396 -0.0017336701349015945 0 0.022161077452653999 -0.0015801041993930823 0 0.022340992365122513 -0.0014581312810890775 0 0.023109256787367215 -0.0031047461987446755 0 0.022828402553813409 -0.0038747927177936879 0 0.023098069165140608 -0.004263741433542914 0 0.022161077452653999 -0.0015801041993930823 0 0.022340992365122513 -0.0014581312810890775 0 0.022174938413266322 -0.0014314307141751722 0 0.022121735576553992 -0.0012918741953822359 0 0.022340992365122513 -0.0014581312810890775 0 0.022174938413266322 -0.0014314307141751722 0 0.023109256787367215 -0.0031047461987446755 0 0.022508626946068408 -0.003325306752165357 0 0.022828402553813409 -0.0038747927177936879 0 0.022508626946068408 -0.003325306752165357 0 0.022514604258008324 -0.0038967834238366143 0 0.022828402553813409 -0.0038747927177936879 0 0.022546366039295742 -0.0026668318417881458 0 0.023109256787367215 -0.0031047461987446755 0 0.022508626946068408 -0.003325306752165357 0 0.022268117323509057 -0.0029595130906890938 0 0.02211616770857747 -0.0037418251587214052 0 0.021859876680833282 -0.0029649918995660542 0 0.022546366039295742 -0.0026668318417881458 0 0.022508626946068408 -0.003325306752165357 0 0.022268117323509057 -0.0029595130906890938 0 0.022508626946068408 -0.003325306752165357 0 0.022268117323509057 -0.0029595130906890938 0 0.02211616770857747 -0.0037418251587214052 0 0.022514800888629834 -0.0035820296250458129 0 0.022603839786716359 -0.0041076508926701392 0 0.022508626946068408 -0.003325306752165357 0 0.021965192879647197 -0.0038657519098786682 0 0.022514604258008324 -0.0038967834238366143 0 0.022603839786716359 -0.0041076508926701392 0 0.022479986762801264 -0.0056474572794436156 0 0.021965192879647197 -0.0038657519098786682 0 0.022514604258008324 -0.0038967834238366143 0 0.022759059802507944 -0.0045244888618516423 0 0.021965192879647197 -0.0038657519098786682 0 0.022610215652980152 -0.0047701255440722491 0 0.022617910413426826 -0.0055918595998694989 0 0.022343655450097859 -0.0049708387139464887 0 0.022401383226715445 -0.0053499857993439962 0 0.02231099807964226 -0.0052276480911493161 0 0.022828402553813409 -0.0038747927177936879 0 0.022759059802507944 -0.0045244888618516423 0 0.023098069165140608 -0.004263741433542914 0 0.022514604258008324 -0.0038967834238366143 0 0.022828402553813409 -0.0038747927177936879 0 0.022759059802507944 -0.0045244888618516423 0 0.021965192879647197 -0.0038657519098786682 0 0.022759059802507944 -0.0045244888618516423 0 0.022610215652980152 -0.0047701255440722491 0 0.022121735576553992 -0.0012918741953822359 0 0.022340992365122513 -0.0014581312810890775 0 0.022053647430209961 -0.0012128661971298022 0 0.023109256787367215 -0.0031047461987446755 0 0.023098069165140608 -0.004263741433542914 0 0.023717281002249176 -0.0047227536480007283 0 0.022714742361282812 -0.0024327424299057281 0 0.023002614095088691 -0.002351758926504671 0 0.023098069165140608 -0.004263741433542914 0 0.023717281002249176 -0.0047227536480007283 0 0.023071055834935784 -0.0050904198658206449 0 0.022759059802507944 -0.0045244888618516423 0 0.023098069165140608 -0.004263741433542914 0 0.023071055834935784 -0.0050904198658206449 0 0.023717281002249176 -0.0047227536480007283 0 0.023158758749588795 -0.0059732687962880514 0 0.024226551161482583 -0.0062343394713593207 0 0.023717281002249176 -0.0047227536480007283 0 0.023071055834935784 -0.0050904198658206449 0 0.023158758749588795 -0.0059732687962880514 0 0.023071055834935784 -0.0050904198658206449 0 0.022617910413426826 -0.0055918595998694989 0 0.023158758749588795 -0.0059732687962880514 0 0.022343655450097859 -0.0049708387139464887 0 0.022401383226715445 -0.0053499857993439962 0 0.022617910413426826 -0.0055918595998694989 0 0.022401383226715445 -0.0053499857993439962 0 0.022372775714657928 -0.0055240528977481655 0 0.022289642716301596 -0.005397317117284659 0 0.023071055834935784 -0.0050904198658206449 0 0.022610215652980152 -0.0047701255440722491 0 0.022617910413426826 -0.0055918595998694989 0 0.022759059802507944 -0.0045244888618516423 0 0.023071055834935784 -0.0050904198658206449 0 0.022610215652980152 -0.0047701255440722491 0 0.022401383226715445 -0.0053499857993439962 0 0.022617910413426826 -0.0055918595998694989 0 0.022372775714657928 -0.0055240528977481655 0 0.022617910413426826 -0.0055918595998694989 0 0.022372775714657928 -0.0055240528977481655 0 0.022323843886223264 -0.0057129924979049101 0 0.022531821407898646 -0.011594572601121586 0 0.022251887923870763 -0.011420949260699958 0 0.023659382189507236 -0.014246721450278532 0 0.023541120124351229 -0.014233515781811859 0 0.023688750471975981 -0.014115685568276401 0 0.023639979166402238 -0.013852697740854427 0 0.02365285841168336 -0.013344778266069168 0 0.022168085358430033 -0.013233022568269684 0 0.022251887923870763 -0.011420949260699958 0 0.021813442332632306 -0.0089588305496887365 0 0.023541120124351229 -0.014233515781811859 0 0.023639979166402238 -0.013852697740854427 0 0.023688750471975981 -0.014115685568276401 0 0.023541120124351229 -0.014233515781811859 0 0.023639979166402238 -0.013852697740854427 0 0.022168085358430033 -0.013233022568269684 0 0.022251887923870763 -0.011420949260699958 0 0.021354645250028625 -0.012737878770988311 0 0.022617910413426826 -0.0055918595998694989 0 0.022323843886223264 -0.0057129924979049101 0 0.023158758749588795 -0.0059732687962880514 0 0.023322952892383456 -0.012711042752301477 0 0.022168085358430033 -0.013233022568269684 0 0.022594499835263047 -0.012330519383219711 0 0.02365285841168336 -0.013344778266069168 0 0.023322952892383456 -0.012711042752301477 0 0.022168085358430033 -0.013233022568269684 0 0.022168085358430033 -0.013233022568269684 0 0.022594499835263047 -0.012330519383219711 0 0.021832819654387541 -0.012226145873318071 0 0.021813442332632306 -0.0089588305496887365 0 0.021529846145585736 -0.0072993483795972995 0 0.020384882515654897 -0.011603715624630851 0 0.020498566124529174 -0.012000713403114208 0 0.020158289385716611 -0.011694602698284432 0 0.020498566124529174 -0.012000713403114208 0 0.020017048988261406 -0.011881852697324934 0 0.020158289385716611 -0.011694602698284432 0 0.021013428258682031 -0.012101962662505565 0 0.020384882515654897 -0.011603715624630851 0 0.020498566124529174 -0.012000713403114208 0 0.02217779120734599 -0.0014776363407667714 0 0.022280339088716943 -0.0016831054615240168 0 0.022094699570167138 -0.0018450495012068367 0 0.021529846145585736 -0.0072993483795972995 0 0.021348184971226258 -0.011308968293038952 0 0.020017048988261406 -0.011881852697324934 0 0.020158289385716611 -0.011694602698284432 0 0.019933270028286574 -0.011683929820224445 0 0.021570053874565311 -0.00028874447590437972 0 0.021562598804595896 -0.00042816360333537131 0 0.021853219339618167 -0.00066378100807488387 0 0.020629916187173136 -0.005204334636257333 0 0.021529846145585736 -0.0072993483795972995 0 0.019406948951151866 -0.011740801891215142 0 0.020013343127516171 -0.011852152126486196 0 0.019933270028286574 -0.011683929820224445 0 0.020629916187173136 -0.005204334636257333 0 0.022031235828262396 -0.0005777571525286203 0 0.022740095937155747 -0.0020565869051856617 0 0.022280339088716943 -0.0016831054615240168 0 0.022094699570167138 -0.0018450495012068367 0 0.022740095937155747 -0.0020565869051856617 0 0.022439687042967914 -0.0015568613809067555 0 0.022280339088716943 -0.0016831054615240168 0 0.021562598804595896 -0.00042816360333537131 0 0.021526645683579735 -0.00066904940529110949 0 0.021853219339618167 -0.00066378100807488387 0 0.019552555333567756 -0.011444487205811569 0 0.019933270028286574 -0.011683929820224445 0 0.019822599258509831 -0.011194838873820516 0 0.019406948951151866 -0.011740801891215142 0 0.019552555333567756 -0.011444487205811569 0 0.019933270028286574 -0.011683929820224445 0 0.021354645250028625 -0.012737878770988311 0 0.02021899370331753 -0.011551779215938082 0 0.020384882515654897 -0.011603715624630851 0 0.020158289385716611 -0.011694602698284432 0 0.019822599258509831 -0.011194838873820516 0 0.020158289385716611 -0.011694602698284432 0 0.019933270028286574 -0.011683929820224445 0 0.019822599258509831 -0.011194838873820516 0 0.022168085358430033 -0.013233022568269684 0 0.020683707465993781 -0.012071790206464589 0 0.021832819654387541 -0.012226145873318071 0 0.020683707465993781 -0.012071790206464589 0 0.022024684476054355 -0.011434474856893445 0 0.021832819654387541 -0.012226145873318071 0 0.019415249014992052 -0.011180900958657891 0 0.019552555333567756 -0.011444487205811569 0 0.019822599258509831 -0.011194838873820516 0 0.019320456660917452 -0.010754231815264014 0 0.019415249014992052 -0.011180900958657891 0 0.019822599258509831 -0.011194838873820516 0 0.019320456660917452 -0.010754231815264014 0 0.020683707465993781 -0.012071790206464589 0 0.020454970996597592 -0.010911694098242688 0 0.019379432840344026 -0.010825518011099024 0 0.02021899370331753 -0.011551779215938082 0 0.020683707465993781 -0.012071790206464589 0 0.021307750129752077 -0.010918658556960999 0 0.022024684476054355 -0.011434474856893445 0 0.020683707465993781 -0.012071790206464589 0 0.020454970996597592 -0.010911694098242688 0 0.021307750129752077 -0.010918658556960999 0 0.021307750129752077 -0.010918658556960999 0 0.022024684476054355 -0.011434474856893445 0 0.022367085061239699 -0.010883207940089299 0 0.022024684476054355 -0.011434474856893445 0 0.022367085061239699 -0.010883207940089299 0 0.022784114906340736 -0.011676517186439427 0 0.023102351543376379 -0.010479558822099812 0 0.022367085061239699 -0.010883207940089299 0 0.022995469140547533 -0.011103061071047936 0 0.023102351543376379 -0.010479558822099812 0 0.022995469140547533 -0.011103061071047936 0 0.023735696969692896 -0.011361820094952013 0 0.022995469140547533 -0.011103061071047936 0 0.022784114906340736 -0.011676517186439427 0 0.023735696969692896 -0.011361820094952013 0 0.022367085061239699 -0.010883207940089299 0 0.022995469140547533 -0.011103061071047936 0 0.022784114906340736 -0.011676517186439427 0 0.022784114906340736 -0.011676517186439427 0 0.023312560076453027 -0.01213203773537757 0 0.022594499835263047 -0.012330519383219711 0 0.022784114906340736 -0.011676517186439427 0 0.023312560076453027 -0.01213203773537757 0 0.023735696969692896 -0.011361820094952013 0 0.023322952892383456 -0.012711042752301477 0 0.023312560076453027 -0.01213203773537757 0 0.024045134079897484 -0.012262083286848193 0 0.023322952892383456 -0.012711042752301477 0 0.023312560076453027 -0.01213203773537757 0 0.022594499835263047 -0.012330519383219711 0 0.022024684476054355 -0.011434474856893445 0 0.022594499835263047 -0.012330519383219711 0 0.021832819654387541 -0.012226145873318071 0 0.022024684476054355 -0.011434474856893445 0 0.022784114906340736 -0.011676517186439427 0 0.022594499835263047 -0.012330519383219711 0 0.024923707169347505 -0.012464782715894159 0 0.025458514242331719 -0.011523676473055224 0 0.025938368486732748 -0.012168300244381468 0 0.02469590212293097 -0.011726662520794877 0 0.024923707169347505 -0.012464782715894159 0 0.025458514242331719 -0.011523676473055224 0 0.02469590212293097 -0.011726662520794877 0 0.024045134079897484 -0.012262083286848193 0 0.023735696969692896 -0.011361820094952013 0 0.02469590212293097 -0.011726662520794877 0 0.024923707169347505 -0.012464782715894159 0 0.024045134079897484 -0.012262083286848193 0 0.023312560076453027 -0.01213203773537757 0 0.024045134079897484 -0.012262083286848193 0 0.023735696969692896 -0.011361820094952013 0 0.02469590212293097 -0.011726662520794877 0 0.023735696969692896 -0.011361820094952013 0 0.025057228307655131 -0.010972324609690791 0 0.023887234645286793 -0.010225047545384431 0 0.023735696969692896 -0.011361820094952013 0 0.025057228307655131 -0.010972324609690791 0 0.02555975396108431 -0.010877389455656531 0 0.025057228307655131 -0.010972324609690791 0 0.025458514242331719 -0.011523676473055224 0 0.02469590212293097 -0.011726662520794877 0 0.025057228307655131 -0.010972324609690791 0 0.025458514242331719 -0.011523676473055224 0 0.025458514242331719 -0.011523676473055224 0 0.026271930148898313 -0.011173439429243794 0 0.025938368486732748 -0.012168300244381468 0 0.026209124449498297 -0.010142301607642991 0 0.026087479196219857 -0.010486476644410426 0 0.02555975396108431 -0.010877389455656531 0 0.025458514242331719 -0.011523676473055224 0 0.026271930148898313 -0.011173439429243794 0 0.026175372529238634 -0.0090739948719066685 0 0.026163907659143441 -0.0090488029657601696 0 0.026185027093994021 -0.0089840779714800388 0 0.026431742142347035 -0.0085655917899062385 0 0.026268493874595965 -0.008674720751081862 0 0.026383568568922284 -0.0088752181823338362 0 0.026198716234527134 -0.0087793803436603483 0 0.026181318823135593 -0.0090002099831620764 0 0.026268493874595965 -0.008674720751081862 0 0.026179809127261849 -0.008976362167399889 0 0.026383568568922284 -0.0088752181823338362 0 0.026163907659143441 -0.0090488029657601696 0 0.026185027093994021 -0.0089840779714800388 0 0.026179809127261849 -0.008976362167399889 0 0.026087479196219857 -0.010486476644410426 0 0.025586924701166289 -0.011654027314613976 0 0.024923707169347505 -0.012464782715894159 0 0.025938368486732748 -0.012168300244381468 0 0.025359362541816879 -0.013316389864800819 0 0.026185027093994021 -0.0089840779714800388 0 0.026179809127261849 -0.008976362167399889 0 0.026114488454356696 -0.0090527398682819279 0 0.026179809127261849 -0.008976362167399889 0 0.026114488454356696 -0.0090527398682819279 0 0.026179994761232502 -0.0090604299244575331 0 0.026701947315230765 -0.0067355649509742137 0 0.026394620912950743 -0.0073507578689696283 0 0.026179809127261849 -0.008976362167399889 0 0.026179994761232502 -0.0090604299244575331 0 0.026383568568922284 -0.0088752181823338362 0 0.026793473294156444 -0.0052524043701599431 0 0.026421745815010556 -0.0052646970462791624 0 0.026545544614298439 -0.0056345941924808851 0 0.026793473294156444 -0.0052524043701599431 0 0.026515939860752166 -0.0049770462422118536 0 0.026692789443596363 -0.0049481844744299524 0 0.026793473294156444 -0.0052524043701599431 0 0.026515939860752166 -0.0049770462422118536 0 0.026421745815010556 -0.0052646970462791624 0 0.026701947315230765 -0.0067355649509742137 0 0.025854284729001972 -0.0091752531133075885 0 0.026114488454356696 -0.0090527398682819279 0 0.026179994761232502 -0.0090604299244575331 0 0.026046990524069079 -0.0091699414621917181 0 0.025586924701166289 -0.011654027314613976 0 0.025854284729001972 -0.0091752531133075885 0 0.025359362541816879 -0.013316389864800819 0 0.024637686307994303 -0.013322725920399958 0 0.024890952110514938 -0.014063373889627525 0 0.024923707169347505 -0.012464782715894159 0 0.025359362541816879 -0.013316389864800819 0 0.024637686307994303 -0.013322725920399958 0 0.024923707169347505 -0.012464782715894159 0 0.024637686307994303 -0.013322725920399958 0 0.02413218094590671 -0.012880494229171291 0 0.02365285841168336 -0.013344778266069168 0 0.024637686307994303 -0.013322725920399958 0 0.02413218094590671 -0.012880494229171291 0 0.023322952892383456 -0.012711042752301477 0 0.024045134079897484 -0.012262083286848193 0 0.02413218094590671 -0.012880494229171291 0 0.024923707169347505 -0.012464782715894159 0 0.024045134079897484 -0.012262083286848193 0 0.02413218094590671 -0.012880494229171291 0 0.02365285841168336 -0.013344778266069168 0 0.023322952892383456 -0.012711042752301477 0 0.02413218094590671 -0.012880494229171291 0 0.024637686307994303 -0.013322725920399958 0 0.02403028269773546 -0.013797225403252534 0 0.024133208877381955 -0.014209848205221934 0 0.024589035043992041 -0.015253741550087725 0 0.024480818723620072 -0.010372454470670766 0 0.023639979166402238 -0.013852697740854427 0 0.02365285841168336 -0.013344778266069168 0 0.02403028269773546 -0.013797225403252534 0 0.024637686307994303 -0.013322725920399958 0 0.024133208877381955 -0.014209848205221934 0 0.024397634944830264 -0.014990408878000957 0 0.02365285841168336 -0.013344778266069168 0 0.024637686307994303 -0.013322725920399958 0 0.02403028269773546 -0.013797225403252534 0 0.02403028269773546 -0.013797225403252534 0 0.023896760457758348 -0.014125901854756279 0 0.024133208877381955 -0.014209848205221934 0 0.023639979166402238 -0.013852697740854427 0 0.02403028269773546 -0.013797225403252534 0 0.023896760457758348 -0.014125901854756279 0 0.023639979166402238 -0.013852697740854427 0 0.023896760457758348 -0.014125901854756279 0 0.023688750471975981 -0.014115685568276401 0 0.023659382189507236 -0.014246721450278532 0 0.023896760457758348 -0.014125901854756279 0 0.023688750471975981 -0.014115685568276401 0 0.023659382189507236 -0.014246721450278532 0 0.023896760457758348 -0.014125901854756279 0 0.023854205991977902 -0.014380353867604329 0 0.023854205991977902 -0.014380353867604329 0 0.024133208877381955 -0.014209848205221934 0 0.024032677368061073 -0.014641495438024028 0 0.023659382189507236 -0.014246721450278532 0 0.023555859831154234 -0.014227077791272929 0 0.023854205991977902 -0.014380353867604329 0 0.022251887923870763 -0.011420949260699958 0 0.023699698765799908 -0.010722679888254073 0 0.023555859831154234 -0.014227077791272929 0 0.023854205991977902 -0.014380353867604329 0 0.024023659070881123 -0.014590917494895866 0 0.022372775714657928 -0.0055240528977481655 0 0.022323843886223264 -0.0057129924979049101 0 0.022186517715661627 -0.005485385588249932 0 0.024536126712767697 -0.012900865557608119 0 0.023699698765799908 -0.010722679888254073 0 0.023896760457758348 -0.014125901854756279 0 0.023854205991977902 -0.014380353867604329 0 0.024133208877381955 -0.014209848205221934 0 0.024133208877381955 -0.014209848205221934 0 0.024397634944830264 -0.014990408878000957 0 0.024032677368061073 -0.014641495438024028 0 0.024480818723620072 -0.010372454470670766 0 0.023699698765799908 -0.010722679888254073 0 0.024081892409681265 -0.010168931137202554 0 0.023904268790956657 -0.010019521664331196 0 0.024043632362892454 -0.010207487679703154 0 0.022198010025167528 -0.005333827804439575 0 0.022186517715661627 -0.005485385588249932 0 0.022080554427431145 -0.0053032752998201033 0 0.023699698765799908 -0.010722679888254073 0 0.024483182140316504 -0.0073527622489031304 0 0.024480818723620072 -0.010372454470670766 0 0.024483182140316504 -0.0073527622489031304 0 0.022372775714657928 -0.0055240528977481655 0 0.022289642716301596 -0.005397317117284659 0 0.022186517715661627 -0.005485385588249932 0 0.022401383226715445 -0.0053499857993439962 0 0.022289642716301596 -0.005397317117284659 0 0.02231099807964226 -0.0052276480911493161 0 0.022198010025167528 -0.005333827804439575 0 0.022289642716301596 -0.005397317117284659 0 0.02231099807964226 -0.0052276480911493161 0 0.022198010025167528 -0.005333827804439575 0 0.022289642716301596 -0.005397317117284659 0 0.022186517715661627 -0.005485385588249932 0 0.024637686307994303 -0.013322725920399958 0 0.024634723037658141 -0.014327932691263864 0 0.024890952110514938 -0.014063373889627525 0 0.025484270562544261 -0.0090665599610605489 0 0.025627285351921568 -0.0089304022349593979 0 0.025534756469089162 -0.0091100153199654803 0 0.026978445734595159 -0.0049959635722113451 0 0.026930996346212929 -0.0049084242002118243 0 0.027012368736182797 -0.0048860249812809403 0 0.024480818723620072 -0.010372454470670766 0 0.025854284729001972 -0.0091752531133075885 0 0.025854284729001972 -0.0091752531133075885 0 0.025339076652486969 -0.0062519587751957116 0 0.026978445734595159 -0.0049959635722113451 0 0.026930996346212929 -0.0049084242002118243 0 0.026853348626849748 -0.0049221949316510813 0 0.027128604892773283 -0.0036099988705829054 0 0.026731390190714154 -0.0032170702268963188 0 0.026558676279978672 -0.0035869517421707755 0 0.026930996346212929 -0.0049084242002118243 0 0.026996399729954934 -0.0048697613660109648 0 0.026796833670658823 -0.004847602126128084 0 0.025373308080914592 -0.004423925891385158 0 0.025982414370457684 -0.0022220587667410793 0 0.026021106378546287 -0.0029881107375261209 0 0.026161046923595794 -0.0026797320023266452 0 0.025490647684262093 -0.0021519867170407964 0 0.026933624926766798 -0.0033721193603492481 0 0.027079006164731748 -0.0032971191663343897 0 0.026536200609236869 -0.002427541328364985 0 0.026080988738989983 -0.005065257245782535 0 0.026460243932725416 -0.0028883078528541108 0 0.026080988738989983 -0.005065257245782535 0 0.026897633716733538 -0.004134472235913119 0 0.026933624926766798 -0.0033721193603492481 0 0.026536200609236869 -0.002427541328364985 0 0.026262819627261322 -0.0027090480397229983 0 0.026930996346212929 -0.0049084242002118243 0 0.026996399729954934 -0.0048697613660109648 0 0.027012368736182797 -0.0048860249812809403 0 0.025904432270568718 -0.0051246067738142369 0 0.025182831600188804 -0.0044616081272614815 0 0.024890650292164342 -0.0051043072131886609 0 0.026080988738989983 -0.005065257245782535 0 0.025465480946965848 -0.0051816066628597151 0 0.025339076652486969 -0.0062519587751957116 0 0.025465480946965848 -0.0051816066628597151 0 0.025666783087809734 -0.0064457964080624174 0 0.025377085136910699 -0.0070824377712625283 0 0.024926257698215312 -0.0064154781589784134 0 0.026080988738989983 -0.005065257245782535 0 0.025339076652486969 -0.0062519587751957116 0 0.026933624926766798 -0.0033721193603492481 0 0.027043178755454075 -0.0033754224508670259 0 0.027079006164731748 -0.0032971191663343897 0 0.022198010025167528 -0.005333827804439575 0 0.02231099807964226 -0.0052276480911493161 0 0.022132690196039154 -0.0052435236794654188 0 0.022290032999653833 -0.0054881993843368462 0 0.023695529167807875 -0.0057470126440080458 0 0.022343655450097859 -0.0049708387139464887 0 0.02231099807964226 -0.0052276480911493161 0 0.022131675231676813 -0.0052260393255672381 0 0.022198010025167528 -0.005333827804439575 0 0.022132690196039154 -0.0052435236794654188 0 0.022080554427431145 -0.0053032752998201033 0 0.024689068260576524 -0.0048124047625862339 0 0.024401552623919617 -0.0045854557275589241 0 0.024797518543006273 -0.0037077482990029455 0 0.023398253690600317 -0.0045859699752453381 0 0.023198757095355051 -0.0045822833118967024 0 0.023250446713851656 -0.0040249849172511246 0 0.023695529167807875 -0.0057470126440080458 0 0.024483182140316504 -0.0073527622489031304 0 0.024247060961786429 -0.0058205174070337182 0 0.024800304324433746 -0.005251306188887736 0 0.024954156175260003 -0.0058349286514173346 0 0.023695529167807875 -0.0057470126440080458 0 0.024656369268353951 -0.0052746625129316271 0 0.024480818723620072 -0.010372454470670766 0 0.025339076652486969 -0.0062519587751957116 0 0.024470918074312419 -0.0053496569275975668 0 0.025666783087809734 -0.0064457964080624174 0 0.024926257698215312 -0.0064154781589784134 0 0.024470918074312419 -0.0053496569275975668 0 0.024926257698215312 -0.0064154781589784134 0 0.023850833639115051 -0.0059898274055448985 0 0.024926257698215312 -0.0064154781589784134 0 0.023850833639115051 -0.0059898274055448985 0 0.024132864151811369 -0.0070577068612084582 0 0.024483182140316504 -0.0073527622489031304 0 0.024656369268353951 -0.0052746625129316271 0 0.025377085136910699 -0.0070824377712625283 0 0.024926257698215312 -0.0064154781589784134 0 0.024132864151811369 -0.0070577068612084582 0 0.025465480946965848 -0.0051816066628597151 0 0.024656369268353951 -0.0052746625129316271 0 0.024656369268353951 -0.0052746625129316271 0 0.025373308080914592 -0.004423925891385158 0 0.025584012630726224 -0.0052915411395653604 0 0.024995706960058008 -0.0052798496829440118 0 0.025433383986245266 -0.0056225060946738514 0 0.025465480946965848 -0.0051816066628597151 0 0.025373308080914592 -0.004423925891385158 0 0.024656369268353951 -0.0052746625129316271 0 0.024702688349697285 -0.0034904633513064024 0 0.025373308080914592 -0.004423925891385158 0 0.024702688349697285 -0.0034904633513064024 0 0.022603839786716359 -0.0041076508926701392 0 0.023695529167807875 -0.0057470126440080458 0 0.024027629076663556 -0.0039208309418445192 0 0.023398253690600317 -0.0045859699752453381 0 0.023250446713851656 -0.0040249849172511246 0 0.024702688349697285 -0.0034904633513064024 0 0.023213672214805341 -0.0025040589731071287 0 0.024156682356159774 -0.003192826033092793 0 0.024515188246400865 -0.0023743829879016047 0 0.024221874128151081 -0.0024514949841614128 0 0.022603839786716359 -0.0041076508926701392 0 0.023213672214805341 -0.0025040589731071287 0 0.024027629076663556 -0.0039208309418445192 0 0.023250446713851656 -0.0040249849172511246 0 0.023711819765623993 -0.0029849450565279535 0 0.024702688349697285 -0.0034904633513064024 0 0.025163270346192323 -0.0021139601962688681 0 0.026224730495481997 -0.002026547911820943 0 0.025490647684262093 -0.0021519867170407964 0 0.025623184718461801 -0.0014807213983363213 0 0.026161046923595794 -0.0026797320023266452 0 0.026224730495481997 -0.002026547911820943 0 0.025490647684262093 -0.0021519867170407964 0 0.025623184718461801 -0.0014807213983363213 0 0.026282450098261769 -0.0013900453569174911 0 0.025436707197129226 -0.00078254060143430587 0 0.022487479102596068 -0.0018515843667104037 0 0.023213672214805341 -0.0025040589731071287 0 0.022721725750413608 -0.0015642929005626033 0 0.022885397473254993 -0.001251555167012288 0 0.022974392786480356 -0.0015069407001007818 0 0.026224730495481997 -0.002026547911820943 0 0.025623184718461801 -0.0014807213983363213 0 0.026282450098261769 -0.0013900453569174911 0 0.023213672214805341 -0.0025040589731071287 0 0.024024336164604986 -0.0016445388817620283 0 0.024515188246400865 -0.0023743829879016047 0 0.024221874128151081 -0.0024514949841614128 0 0.024289733527949175 -0.0017138749806227041 0 0.025163270346192323 -0.0021139601962688681 0 0.024024336164604986 -0.0016445388817620283 0 0.026890618686179542 -0.0014808945064806354 0 0.027015069559172104 0.00058007059637822862 0 0.027487120334571659 -0.0011945639069584494 0 0.026739695655291211 -0.0010136694875862537 0 0.026530934196688987 -0.00029562226179778462 0 0.027734564914829642 0.00014854284499436949 0 0.027675135748384389 0.0005175018883024474 0 0.027106604230457902 0.00075575782677849714 0 0.027734564914829642 0.00014854284499436949 0 0.027675135748384389 0.0005175018883024474 0 0.028023501663024458 0.00049647247341387871 0 0.025490647684262093 -0.0021519867170407964 0 0.025623184718461801 -0.0014807213983363213 0 0.024977200643901291 -0.0013409157062270122 0 0.025982414370457684 -0.0022220587667410793 0 0.026742865738561009 -0.00056168293376415701 0 0.026536200609236869 -0.002427541328364985 0 0.025587303935302889 -0.0020581905270465367 0 0.02598775050461518 -0.0015716418333044349 0 0.026890618686179542 -0.0014808945064806354 0 0.026742865738561009 -0.00056168293376415701 0 0.026890618686179542 -0.0014808945064806354 0 0.026460243932725416 -0.0028883078528541108 0 0.026536200609236869 -0.002427541328364985 0 0.025587303935302889 -0.0020581905270465367 0 0.026262819627261322 -0.0027090480397229983 0 0.026327244195883125 -0.0028215693234067193 0 0.026731390190714154 -0.0032170702268963188 0 0.02614955642197048 -0.0030393356468924296 0 0.027487120334571659 -0.0011945639069584494 0 0.027170900730119796 -0.001578249090727298 0 0.026739695655291211 -0.0010136694875862537 0 0.026890618686179542 -0.0014808945064806354 0 0.026891588158982033 -0.0023493320825151869 0 0.026891588158982033 -0.0023493320825151869 0 0.026904134277296023 -0.001189344880521626 0 0.02676779382370037 -0.0031162082657947778 0 0.026760886892332386 -0.0036438540287519181 0 0.02634213624725542 -0.003635475900487543 0 0.02676779382370037 -0.0031162082657947778 0 0.026760886892332386 -0.0036438540287519181 0 0.027179460700596889 -0.0036543231467290878 0 0.026650953389593932 -0.0041993964211111652 0 0.026897633716733538 -0.004134472235913119 0 0.026891588158982033 -0.0023493320825151869 0 0.026897633716733538 -0.004134472235913119 0 0.026731390190714154 -0.0032170702268963188 0 0.02614955642197048 -0.0030393356468924296 0 0.026558676279978672 -0.0035869517421707755 0 0.026793473294156444 -0.0052524043701599431 0 0.026853348626849748 -0.0049221949316510813 0 0.026692789443596363 -0.0049481844744299524 0 0.026793473294156444 -0.0052524043701599431 0 0.026978445734595159 -0.0049959635722113451 0 0.026853348626849748 -0.0049221949316510813 0 0.026930996346212929 -0.0049084242002118243 0 0.026796833670658823 -0.004847602126128084 0 0.026853348626849748 -0.0049221949316510813 0 0.026897633716733538 -0.004134472235913119 0 0.027020620281337913 -0.0048189830957214123 0 0.026778860410706328 -0.0048006730264103436 0 0.026853348626849748 -0.0049221949316510813 0 0.026692789443596363 -0.0049481844744299524 0 0.026573842737105363 -0.0047756898186300922 0 0.026515939860752166 -0.0049770462422118536 0 0.026692789443596363 -0.0049481844744299524 0 0.026573842737105363 -0.0047756898186300922 0 0.026778860410706328 -0.0048006730264103436 0 0.026692789443596363 -0.0049481844744299524 0 0.026573842737105363 -0.0047756898186300922 0 0.026515939860752166 -0.0049770462422118536 0 0.026433354498261761 -0.0048481405814498292 0 0.026495043919505041 -0.0050567110163000041 0 0.026160808320117478 -0.0045160422327293484 0 0.026433354498261761 -0.0048481405814498292 0 0.026163507148694885 -0.0048567620809706474 0 0.02634435485311757 -0.0047829992578360932 0 0.026515939860752166 -0.0049770462422118536 0 0.026074858966266681 -0.0048050118210773238 0 0.026278254483168454 -0.0050417584396788874 0 0.026515939860752166 -0.0049770462422118536 0 0.026433354498261761 -0.0048481405814498292 0 0.026163507148694885 -0.0048567620809706474 0 0.026051228818131558 -0.0045702067047952242 0 0.025847579385218675 -0.0048369961337708699 0 0.026086950188590471 -0.0051349585146592842 0 0.026160808320117478 -0.0045160422327293484 0 0.026075812184076584 -0.00517001948410641 0 0.025828251307083334 -0.0029474996254767924 0 0.02668769340957854 -0.0029653119439348318 0 0.026355658494633158 -0.0021101930290474713 0 0.025959160651327307 -0.0033430762443347316 0 0.026541312111762253 -0.0038146942554242273 0 0.026152220562415063 -0.0047406178550575455 0 0.02634435485311757 -0.0047829992578360932 0 0.02636901640057937 -0.0047527225222982698 0 0.026160808320117478 -0.0045160422327293484 0 0.025959160651327307 -0.0033430762443347316 0 0.026163507148694885 -0.0048567620809706474 0 0.026152220562415063 -0.0047406178550575455 0 0.02634435485311757 -0.0047829992578360932 0 0.026891588158982033 -0.0023493320825151869 0 0.026541312111762253 -0.0038146942554242273 0 0.026573842737105363 -0.0047756898186300922 0 0.026433354498261761 -0.0048481405814498292 0 0.026368643441344892 -0.0047552668497465129 0 0.026650953389593932 -0.0041993964211111652 0 0.026541312111762253 -0.0038146942554242273 0 0.026433354498261761 -0.0048481405814498292 0 0.02634435485311757 -0.0047829992578360932 0 0.026368643441344892 -0.0047552668497465129 0 0.026414396531073067 -0.0040288456348266588 0 0.026541312111762253 -0.0038146942554242273 0 0.027526884279356158 -0.0019471094551434486 0 0.02668769340957854 -0.0029653119439348318 0 0.02685393203801208 -0.0019398535377679361 0 0.02668769340957854 -0.0029653119439348318 0 0.02685393203801208 -0.0019398535377679361 0 0.026355658494633158 -0.0021101930290474713 0 0.027526884279356158 -0.0019471094551434486 0 0.02685393203801208 -0.0019398535377679361 0 0.02705126598020164 -0.0013277178836527061 0 0.02685393203801208 -0.0019398535377679361 0 0.026355658494633158 -0.0021101930290474713 0 0.026403135482704745 -0.001462822411252389 0 0.025828251307083334 -0.0029474996254767924 0 0.026355658494633158 -0.0021101930290474713 0 0.025699033452526686 -0.0014783647475367034 0 0.025959160651327307 -0.0033430762443347316 0 0.026188562545165568 -0.00094131129900274857 0 0.026355658494633158 -0.0021101930290474713 0 0.026403135482704745 -0.001462822411252389 0 0.025699033452526686 -0.0014783647475367034 0 0.026529237829020138 -0.00030433817209628533 0 0.026465041893382613 -0.00034869522572156437 0 0.026405800436916697 0.00033570402421746683 0 0.026278548341460817 -0.00050030596309896889 0 0.02673252060283212 5.2025816884670886e-05 0 0.026299284685443354 -0.00054904261949658523 0 0.026406062562911305 0.00026948540298497408 0 0.026278548341460817 -0.00050030596309896889 0 0.02673418562127303 0.00075203595177802799 0 0.026403135482704745 -0.001462822411252389 0 0.025761121113650313 -0.0012704533967747515 0 0.026574549831325421 -0.00070726320389608336 0 0.026403135482704745 -0.001462822411252389 0 0.025699033452526686 -0.0014783647475367034 0 0.025761121113650313 -0.0012704533967747515 0 0.026188562545165568 -0.00094131129900274857 0 0.026299284685443354 -0.00054904261949658523 0 0.026188562545165568 -0.00094131129900274857 0 0.026278548341460817 -0.00050030596309896889 0 0.026216458203058821 -0.00074027725169343542 0 0.026266944292759928 -0.0005693420508904954 0 0.026204921821683821 -0.00061243821948052195 0 0.026278548341460817 -0.00050030596309896889 0 0.026299284685443354 -0.00054904261949658523 0 0.026403135482704745 -0.001462822411252389 0 0.02705126598020164 -0.0013277178836527061 0 0.026574549831325421 -0.00070726320389608336 0 0.026739695655291211 -0.0010136694875862537 0 0.026530934196688987 -0.00029562226179778462 0 0.026308852415888789 -0.00044904117610032607 0 0.026904134277296023 -0.001189344880521626 0 0.02673252060283212 5.2025816884670886e-05 0 0.02685393203801208 -0.0019398535377679361 0 0.026403135482704745 -0.001462822411252389 0 0.02705126598020164 -0.0013277178836527061 0 0.024999949108399925 -0.00033497060636608172 0 0.025770426271507708 -0.00015977956903582636 0 0.025759989638989161 -0.0010435316884713935 0 0.026437135460938638 -0.00080541403113697132 0 0.026425153372789681 -0.00067285963146226924 0 0.025724432514997651 -0.0011566257009251644 0 0.026519051917070366 -0.00047386204203829594 0 0.025770426271507708 -0.00015977956903582636 0 0.025759989638989161 -0.0010435316884713935 0 0.026519051917070366 -0.00047386204203829594 0 0.026171188650640605 3.4046782989997573e-07 0 0.026405800436916697 0.00033570402421746683 0 0.026519051917070366 -0.00047386204203829594 0 0.025770426271507708 -0.00015977956903582636 0 0.026171188650640605 3.4046782989997573e-07 0 0.026299284685443354 -0.00054904261949658523 0 0.025758850217762683 -0.0010922712721814769 0 0.026437135460938638 -0.00080541403113697132 0 0.025724432514997651 -0.0011566257009251644 0 0.025733503278293053 -0.0016421490378509711 0 0.026437135460938638 -0.00080541403113697132 0 0.025733503278293053 -0.0016421490378509711 0 0.026069658612522553 -0.0020573664878825318 0 0.026188562545165568 -0.00094131129900274857 0 0.02585838869194473 -0.0026414728730510817 0 0.025724432514997651 -0.0011566257009251644 0 0.024999993279942626 -0.0016241735585241189 0 0.025362503474927064 -0.001687105724147714 0 0.025758850217762683 -0.0010922712721814769 0 0.025000158352551032 -0.0016239350311754198 0 0.025724432514997651 -0.0011566257009251644 0 0.025362503474927064 -0.001687105724147714 0 0.025733503278293053 -0.0016421490378509711 0 0.024999949108399925 -0.00033497060636608172 0 0.025759989638989161 -0.0010435316884713935 0 0.024999997204964628 -0.0016240079133354292 0 0.025362503474927064 -0.001687105724147714 0 0.02499999964828235 -0.0019981369281612837 0 0.025329425666599376 -0.0020829700396814105 0 0.024999993279942626 -0.0016241735585241189 0 0.025362503474927064 -0.001687105724147714 0 0.02499999964828235 -0.0019981369281612837 0 0.025377964567799803 -0.0023013530150202788 0 0.02585838869194473 -0.0026414728730510817 0 0.025362503474927064 -0.001687105724147714 0 0.025329425666599376 -0.0020829700396814105 0 0.025733503278293053 -0.0016421490378509711 0 0.025377964567799803 -0.0023013530150202788 0 0.025723852499433056 -0.0032516382531389584 0 0.024999997317325311 -0.0019982679412229639 0 0.025357082975768837 -0.0021113496523966742 0 0.025401192968801702 -0.0026824408883560939 0 0.025000181152454504 -0.0019985060780785529 0 0.025377964567799803 -0.0023013530150202788 0 0.025411734592705848 -0.0026363270731706604 0 0.025698252008642102 -0.0027263676469411104 0 0.02572631729318892 -0.0026322887297404898 0 0.026264553175460524 -0.002859568753110883 0 0.026110555458321055 -0.0011323256864554871 0 0.025601280874063548 -0.0028451802888828058 0 0.025329425666599376 -0.0020829700396814105 0 0.025733503278293053 -0.0016421490378509711 0 0.026069658612522553 -0.0020573664878825318 0 0.025723852499433056 -0.0032516382531389584 0 0.02585838869194473 -0.0026414728730510817 0 0.026059831035143834 -0.0034254998750672932 0 0.025779535886569532 -0.003530282079474928 0 0.025812892384539002 -0.0034181908669592559 0 0.026077809540089279 -0.0036249294432006084 0 0.026059831035143834 -0.0034254998750672932 0 0.025779535886569532 -0.003530282079474928 0 0.025959160651327307 -0.0033430762443347316 0 0.02585838869194473 -0.0026414728730510817 0 0.025731298696093648 -0.0044774517416922071 0 0.025847579385218675 -0.0048369961337708699 0 0.025565247817410184 -0.0050586190654923861 0 0.025723852499433056 -0.0032516382531389584 0 0.025670708735280472 -0.0043502392649674409 0 0.026051228818131558 -0.0045702067047952242 0 0.025731298696093648 -0.0044774517416922071 0 0.025847579385218675 -0.0048369961337708699 0 0.026160808320117478 -0.0045160422327293484 0 0.025723852499433056 -0.0032516382531389584 0 0.026107721745994343 -0.0023466926417967738 0 0.025401192968801702 -0.0026824408883560939 0 0.025740490822739857 -0.0035882617406249231 0 0.024999997317325311 -0.0019982679412229639 0 0.025401192968801702 -0.0026824408883560939 0 0.024999996220936998 -0.0033598024880579676 0 0.025357082975768837 -0.0021113496523966742 0 0.026107721745994343 -0.0023466926417967738 0 0.025401192968801702 -0.0026824408883560939 0 0.025401192968801702 -0.0026824408883560939 0 0.024999996220936998 -0.0033598024880579676 0 0.025740490822739857 -0.0035882617406249231 0 0.024999996220936998 -0.0033598024880579676 0 0.025740490822739857 -0.0035882617406249231 0 0.024999998165310251 -0.0047213479711366614 0 0.025670708735280472 -0.0043502392649674409 0 0.025353876514418179 -0.0051981981988573379 0 0.025740490822739857 -0.0035882617406249231 0 0.024999998165310251 -0.0047213479711366614 0 0.025370973085268578 -0.004834849164305397 0 0.025565247817410184 -0.0050586190654923861 0 0.026016532693310234 -0.0055451452377778716 0 0.025356831507392756 -0.0055565251830237599 0 0.025565247817410184 -0.0050586190654923861 0 0.026086950188590471 -0.0051349585146592842 0 0.026016532693310234 -0.0055451452377778716 0 0.025847579385218675 -0.0048369961337708699 0 0.025565247817410184 -0.0050586190654923861 0 0.026086950188590471 -0.0051349585146592842 0 0.026074858966266681 -0.0048050118210773238 0 0.026086950188590471 -0.0051349585146592842 0 0.026278254483168454 -0.0050417584396788874 0 0.026515939860752166 -0.0049770462422118536 0 0.026278254483168454 -0.0050417584396788874 0 0.026421745815010556 -0.0052646970462791624 0 0.026086950188590471 -0.0051349585146592842 0 0.026278254483168454 -0.0050417584396788874 0 0.026421745815010556 -0.0052646970462791624 0 0.026421745815010556 -0.0052646970462791624 0 0.026016532693310234 -0.0055451452377778716 0 0.026545544614298439 -0.0056345941924808851 0 0.026086950188590471 -0.0051349585146592842 0 0.026421745815010556 -0.0052646970462791624 0 0.026016532693310234 -0.0055451452377778716 0 0.026016532693310234 -0.0055451452377778716 0 0.026545544614298439 -0.0056345941924808851 0 0.026226904120240348 -0.0061346541696477236 0 0.026394620912950743 -0.0073507578689696283 0 0.02647254914748073 -0.0073508790398914879 0 0.026431742142347035 -0.0085655917899062385 0 0.026383568568922284 -0.0088752181823338362 0 0.026614195053682808 -0.0086154865177857556 0 0.026016532693310234 -0.0055451452377778716 0 0.026226904120240348 -0.0061346541696477236 0 0.025676573061972536 -0.006195235465485365 0 0.025676573061972536 -0.006195235465485365 0 0.025000323505006798 -0.0060835985522659846 0 0.025356831507392756 -0.0055565251830237599 0 0.024999998954834731 -0.0060828918508492895 0 0.024999998165310251 -0.0047213479711366614 0 0.025370973085268578 -0.004834849164305397 0 0.025000079904641658 -0.0060827689408206225 0 0.025353876514418179 -0.0051981981988573379 0 0.026016532693310234 -0.0055451452377778716 0 0.025676573061972536 -0.006195235465485365 0 0.025356831507392756 -0.0055565251830237599 0 0.012770689100726856 -0.0039522314925713089 0 0.012605749265946039 -0.0045739757431299596 0 0.012457045626240379 -0.0038244269520751476 0 0.012206978290214448 -0.0037713498608970921 0 0.014363483027306598 -0.0049693552758682345 0 0.012770689100726856 -0.0039522314925713089 0 0.012875754016479512 -0.0038867869004218956 0 0.012910380783630644 -0.003647618587855356 0 0.012770689100726856 -0.0039522314925713089 0 0.012875754016479512 -0.0038867869004218956 0 0.013092167433774714 -0.0043257424487629786 0 0.012875754016479512 -0.0038867869004218956 0 0.013092167433774714 -0.0043257424487629786 0 0.012376202597964332 -0.0035890781827823625 0 0.012875754016479512 -0.0038867869004218956 0 0.012910380783630644 -0.003647618587855356 0 0.012376202597964332 -0.0035890781827823625 0 0.011626305425270463 -0.0037589965453199994 0 0.012376202597964332 -0.0035890781827823625 0 0.011777988685644978 -0.0039438280794401939 0 0.012287911831310862 -0.0041162507369106151 0 0.012358761429873662 -0.0036873314732247023 0 0.012770689100726856 -0.0039522314925713089 0 0.013092167433774714 -0.0043257424487629786 0 0.012605749265946039 -0.0045739757431299596 0 0.013092167433774714 -0.0043257424487629786 0 0.012605749265946039 -0.0045739757431299596 0 0.012779530519679401 -0.0057229281131855377 0 0.012287911831310862 -0.0041162507369106151 0 0.012047185360216489 -0.0046916306281277412 0 0.012605749265946039 -0.0045739757431299596 0 0.012051969504514145 -0.0057467021041397457 0 0.012779530519679401 -0.0057229281131855377 0 0.012605749265946039 -0.0045739757431299596 0 0.011947258557992838 -0.0043162704852963236 0 0.012051969504514145 -0.0057467021041397457 0 0.011185573954512454 -0.0050507004858213207 0 0.011947258557992838 -0.0043162704852963236 0 0.012051969504514145 -0.0057467021041397457 0 0.015168519274223694 -0.0089700029802414795 0 0.014541814354907369 -0.0067202378885186055 0 0.016334234815992926 -0.0097767106559855377 0 0.017160029155744105 -0.0090819386082111268 0 0.017385442528390249 -0.0082087083172713658 0 0.015168519274223694 -0.0089700029802414795 0 0.017639087948749629 -0.008630864682464285 0 0.015998551590173948 -0.0088642343412980214 0 0.017385442528390249 -0.0082087083172713658 0 0.016505838262842871 -0.0081384736523991748 0 0.016303619002494434 -0.01025980794034884 0 0.015998551590173948 -0.0088642343412980214 0 0.017385442528390249 -0.0082087083172713658 0 0.012605749265946039 -0.0045739757431299596 0 0.011947258557992838 -0.0043162704852963236 0 0.012457045626240379 -0.0038244269520751476 0 0.014541814354907369 -0.0067202378885186055 0 0.014363483027306598 -0.0049693552758682345 0 0.017160029155744105 -0.0090819386082111268 0 0.017994150024881455 -0.0083790561462443493 0 0.017385442528390249 -0.0082087083172713658 0 0.014524883871333782 -0.0017349884843163323 0 0.014557012965046178 -0.0023196929647116638 0 0.015153908883297013 -0.0020532320519389634 0 0.014557012965046178 -0.0023196929647116638 0 0.015153908883297013 -0.0020532320519389634 0 0.014821369489623013 -0.0028244628614072921 0 0.017994150024881455 -0.0083790561462443493 0 0.017385442528390249 -0.0082087083172713658 0 0.017017293622490378 -0.0079691737156420434 0 0.014363483027306598 -0.0049693552758682345 0 0.016250442282143732 -0.0050596541819657639 0 0.015153908883297013 -0.0020532320519389634 0 0.014821369489623013 -0.0028244628614072921 0 0.015708179983162998 -0.0022993607338975719 0 0.015998551590173948 -0.0088642343412980214 0 0.016505838262842871 -0.0081384736523991748 0 0.015919736357880028 -0.0074687270214374565 0 0.016505838262842871 -0.0081384736523991748 0 0.017017293622490378 -0.0079691737156420434 0 0.015919736357880028 -0.0074687270214374565 0 0.017385442528390249 -0.0082087083172713658 0 0.016505838262842871 -0.0081384736523991748 0 0.017017293622490378 -0.0079691737156420434 0 0.016250442282143732 -0.0050596541819657639 0 0.016893933570474522 -0.003937056678128251 0 0.014622783268921025 -0.0022999968537943311 0 0.016893933570474522 -0.003937056678128251 0 0.014821369489623013 -0.0028244628614072921 0 0.01604527659387741 -0.0019417719455727725 0 0.016353329186536147 -0.0026314503106113509 0 0.014557012965046178 -0.0023196929647116638 0 0.014821369489623013 -0.0028244628614072921 0 0.014109461949386405 -0.0027498904027740303 0 0.014821369489623013 -0.0028244628614072921 0 0.014109461949386405 -0.0027498904027740303 0 0.013881417640343502 -0.0032076835774857721 0 0.014109461949386405 -0.0027498904027740303 0 0.013150214817396953 -0.0030893701046237052 0 0.013881417640343502 -0.0032076835774857721 0 0.014109461949386405 -0.0027498904027740303 0 0.013934825209298472 -0.0021732580663705535 0 0.013150214817396953 -0.0030893701046237052 0 0.014557012965046178 -0.0023196929647116638 0 0.014109461949386405 -0.0027498904027740303 0 0.013934825209298472 -0.0021732580663705535 0 0.013481264756567397 -0.0028438818649820737 0 0.013154007345548394 -0.0030575535045845826 0 0.012770689100726856 -0.0039522314925713089 0 0.012701944882378698 -0.0034850357677879249 0 0.012910380783630644 -0.003647618587855356 0 0.012770689100726856 -0.0039522314925713089 0 0.01240583774871518 -0.0037981535035062739 0 0.012701944882378698 -0.0034850357677879249 0 0.014363483027306598 -0.0049693552758682345 0 0.013481264756567397 -0.0028438818649820737 0 0.014524883871333782 -0.0017349884843163323 0 0.014557012965046178 -0.0023196929647116638 0 0.013934825209298472 -0.0021732580663705535 0 0.012701944882378698 -0.0034850357677879249 0 0.012910380783630644 -0.003647618587855356 0 0.013150214817396953 -0.0030893701046237052 0 0.012910380783630644 -0.003647618587855356 0 0.013150214817396953 -0.0030893701046237052 0 0.012760122898771925 -0.0034566532407404819 0 0.013150214817396953 -0.0030893701046237052 0 0.012924080859162931 -0.0033751780170592884 0 0.012760122898771925 -0.0034566532407404819 0 0.013150214817396953 -0.0030893701046237052 0 0.013251737017412633 -0.0033503445555620437 0 0.013881417640343502 -0.0032076835774857721 0 0.013150214817396953 -0.0030893701046237052 0 0.012924080859162931 -0.0033751780170592884 0 0.013251737017412633 -0.0033503445555620437 0 0.012924080859162931 -0.0033751780170592884 0 0.012556861294874343 -0.0035245771150237571 0 0.012966501177937427 -0.0035899450901184017 0 0.012924080859162931 -0.0033751780170592884 0 0.012556861294874343 -0.0035245771150237571 0 0.012760122898771925 -0.0034566532407404819 0 0.012556861294874343 -0.0035245771150237571 0 0.012250958209369285 -0.0035726527214816886 0 0.012364459205047081 -0.0035039519823765377 0 0.012556861294874343 -0.0035245771150237571 0 0.012250958209369285 -0.0035726527214816886 0 0.012280147439659182 -0.0036938433414408088 0 0.012364459205047081 -0.0035039519823765377 0 0.012063275316701965 -0.0035360365468961544 0 0.012092956092582227 -0.0035618921847371432 0 0.012250958209369285 -0.0035726527214816886 0 0.012364459205047081 -0.0035039519823765377 0 0.012063275316701965 -0.0035360365468961544 0 0.012556861294874343 -0.0035245771150237571 0 0.012364459205047081 -0.0035039519823765377 0 0.012760122898771925 -0.0034566532407404819 0 0.012910380783630644 -0.003647618587855356 0 0.012760122898771925 -0.0034566532407404819 0 0.012376202597964332 -0.0035890781827823625 0 0.012364459205047081 -0.0035039519823765377 0 0.012760122898771925 -0.0034566532407404819 0 0.012376202597964332 -0.0035890781827823625 0 0.011657833662407661 -0.0036833095652225403 0 0.011964511418388064 -0.0036820492061243773 0 0.011774923453042955 -0.0035611176558704993 0 0.011512290374331158 -0.0035686489816262987 0 0.011657833662407661 -0.0036833095652225403 0 0.011774923453042955 -0.0035611176558704993 0 0.012250958209369285 -0.0035726527214816886 0 0.011964511418388064 -0.0036820492061243773 0 0.012063275316701965 -0.0035360365468961544 0 0.011964511418388064 -0.0036820492061243773 0 0.012063275316701965 -0.0035360365468961544 0 0.011774923453042955 -0.0035611176558704993 0 0.012250958209369285 -0.0035726527214816886 0 0.011964511418388064 -0.0036820492061243773 0 0.012280147439659182 -0.0036938433414408088 0 0.012063275316701965 -0.0035360365468961544 0 0.011774923453042955 -0.0035611176558704993 0 0.011820647445103661 -0.0035470506762270535 0 0.011628838022014852 -0.0035293539103359397 0 0.011774923453042955 -0.0035611176558704993 0 0.011820647445103661 -0.0035470506762270535 0 0.011512290374331158 -0.0035686489816262987 0 0.011628838022014852 -0.0035293539103359397 0 0.011774923453042955 -0.0035611176558704993 0 0.011628838022014852 -0.0035293539103359397 0 0.011607889246667025 -0.0035854815966333072 0 0.011820647445103661 -0.0035470506762270535 0 0.011820647445103661 -0.0035470506762270535 0 0.011843572243764441 -0.0036825051856271078 0 0.012092956092582227 -0.0035618921847371432 0 0.012063275316701965 -0.0035360365468961544 0 0.011820647445103661 -0.0035470506762270535 0 0.012092956092582227 -0.0035618921847371432 0 0.011607889246667025 -0.0035854815966333072 0 0.011820647445103661 -0.0035470506762270535 0 0.011843572243764441 -0.0036825051856271078 0 0.011607889246667025 -0.0035854815966333072 0 0.011843572243764441 -0.0036825051856271078 0 0.011670749921300367 -0.003841976973640263 0 0.012376202597964332 -0.0035890781827823625 0 0.012092956092582227 -0.0035618921847371432 0 0.011935231550591225 -0.0037623140188697401 0 0.012364459205047081 -0.0035039519823765377 0 0.012376202597964332 -0.0035890781827823625 0 0.012092956092582227 -0.0035618921847371432 0 0.011843572243764441 -0.0036825051856271078 0 0.012092956092582227 -0.0035618921847371432 0 0.011935231550591225 -0.0037623140188697401 0 0.012376202597964332 -0.0035890781827823625 0 0.011935231550591225 -0.0037623140188697401 0 0.011777988685644978 -0.0039438280794401939 0 0.011935231550591225 -0.0037623140188697401 0 0.011777988685644978 -0.0039438280794401939 0 0.011717495968691828 -0.0040757828053693155 0 0.011843572243764441 -0.0036825051856271078 0 0.011935231550591225 -0.0037623140188697401 0 0.011733941076587292 -0.0039413540273671287 0 0.011935231550591225 -0.0037623140188697401 0 0.011717495968691828 -0.0040757828053693155 0 0.011733941076587292 -0.0039413540273671287 0 0.011717495968691828 -0.0040757828053693155 0 0.011733941076587292 -0.0039413540273671287 0 0.011631767755833737 -0.0042212237461912256 0 0.011717495968691828 -0.0040757828053693155 0 0.01160599708264747 -0.0043125839697494544 0 0.011631767755833737 -0.0042212237461912256 0 0.011717495968691828 -0.0040757828053693155 0 0.01160599708264747 -0.0043125839697494544 0 0.011603894293642536 -0.0041919781311359865 0 0.011777988685644978 -0.0039438280794401939 0 0.011717495968691828 -0.0040757828053693155 0 0.011603894293642536 -0.0041919781311359865 0 0.011607889246667025 -0.0035854815966333072 0 0.011576009407383715 -0.0039769159255960114 0 0.011670749921300367 -0.003841976973640263 0 0.011843572243764441 -0.0036825051856271078 0 0.011670749921300367 -0.003841976973640263 0 0.011733941076587292 -0.0039413540273671287 0 0.011733941076587292 -0.0039413540273671287 0 0.011586973679917513 -0.0041568267600650055 0 0.011631767755833737 -0.0042212237461912256 0 0.011670749921300367 -0.003841976973640263 0 0.011733941076587292 -0.0039413540273671287 0 0.011586973679917513 -0.0041568267600650055 0 0.011576009407383715 -0.0039769159255960114 0 0.011670749921300367 -0.003841976973640263 0 0.011586973679917513 -0.0041568267600650055 0 0.011576009407383715 -0.0039769159255960114 0 0.011586973679917513 -0.0041568267600650055 0 0.011496456720639765 -0.004446044682641241 0 0.011586973679917513 -0.0041568267600650055 0 0.011496456720639765 -0.004446044682641241 0 0.011535158055585228 -0.0044524352023720534 0 0.011535158055585228 -0.0044524352023720534 0 0.011631767755833737 -0.0042212237461912256 0 0.01157752994338216 -0.0044196467161167589 0 0.011586973679917513 -0.0041568267600650055 0 0.011535158055585228 -0.0044524352023720534 0 0.011631767755833737 -0.0042212237461912256 0 0.011446905141704735 -0.0047306113064832676 0 0.011527188294587529 -0.0046304819427941957 0 0.011535158055585228 -0.0044524352023720534 0 0.011527188294587529 -0.0046304819427941957 0 0.011535158055585228 -0.0044524352023720534 0 0.01157752994338216 -0.0044196467161167589 0 0.011446905141704735 -0.0047306113064832676 0 0.011496456720639765 -0.004446044682641241 0 0.011535158055585228 -0.0044524352023720534 0 0.01160599708264747 -0.0043125839697494544 0 0.011518940240074589 -0.0044263043144651846 0 0.011603894293642536 -0.0041919781311359865 0 0.01160599708264747 -0.0043125839697494544 0 0.011631767755833737 -0.0042212237461912256 0 0.01157752994338216 -0.0044196467161167589 0 0.011527188294587529 -0.0046304819427941957 0 0.01157752994338216 -0.0044196467161167589 0 0.011557741960278037 -0.0045110104309777788 0 0.01160599708264747 -0.0043125839697494544 0 0.01157752994338216 -0.0044196467161167589 0 0.011557741960278037 -0.0045110104309777788 0 0.011497089001961818 -0.0046393739854328746 0 0.011557741960278037 -0.0045110104309777788 0 0.011518940240074589 -0.0044263043144651846 0 0.01160599708264747 -0.0043125839697494544 0 0.011557741960278037 -0.0045110104309777788 0 0.011518940240074589 -0.0044263043144651846 0 0.011497089001961818 -0.0046393739854328746 0 0.011408343423177106 -0.0045274317177594094 0 0.011518940240074589 -0.0044263043144651846 0 0.012316724864708745 -0.0089207886871307419 0 0.011811231896923929 -0.0081005801061680011 0 0.011408343423177106 -0.0045274317177594094 0 0.011436434695323674 -0.0043137302930176197 0 0.011272426216588471 -0.0043794811674801879 0 0.011436434695323674 -0.0043137302930176197 0 0.011280399808004516 -0.0041980307025444273 0 0.011272426216588471 -0.0043794811674801879 0 0.011408343423177106 -0.0045274317177594094 0 0.011436434695323674 -0.0043137302930176197 0 0.011518940240074589 -0.0044263043144651846 0 0.011436434695323674 -0.0043137302930176197 0 0.011518940240074589 -0.0044263043144651846 0 0.011603894293642536 -0.0041919781311359865 0 0.011436434695323674 -0.0043137302930176197 0 0.011603894293642536 -0.0041919781311359865 0 0.011526820074890573 -0.0040330304543334103 0 0.011436434695323674 -0.0043137302930176197 0 0.011526820074890573 -0.0040330304543334103 0 0.011280399808004516 -0.0041980307025444273 0 0.011626305425270463 -0.0037589965453199994 0 0.011526820074890573 -0.0040330304543334103 0 0.011316653189259718 -0.0039909047968603997 0 0.011526820074890573 -0.0040330304543334103 0 0.011316653189259718 -0.0039909047968603997 0 0.011280399808004516 -0.0041980307025444273 0 0.011777988685644978 -0.0039438280794401939 0 0.011603894293642536 -0.0041919781311359865 0 0.011526820074890573 -0.0040330304543334103 0 0.011626305425270463 -0.0037589965453199994 0 0.011777988685644978 -0.0039438280794401939 0 0.011526820074890573 -0.0040330304543334103 0 0.011537623020013453 -0.0070538434213603838 0 0.012051969504514145 -0.0057467021041397457 0 0.011852040085393907 -0.0073494972073470631 0 0.011185573954512454 -0.0050507004858213207 0 0.011537623020013453 -0.0070538434213603838 0 0.012051969504514145 -0.0057467021041397457 0 0.012047185360216489 -0.0046916306281277412 0 0.011661166935582279 -0.0072535978179735306 0 0.012051969504514145 -0.0057467021041397457 0 0.012779530519679401 -0.0057229281131855377 0 0.011852040085393907 -0.0073494972073470631 0 0.011316653189259718 -0.0039909047968603997 0 0.011280399808004516 -0.0041980307025444273 0 0.011101658876632057 -0.0041965578116910712 0 0.011661166935582279 -0.0072535978179735306 0 0.011811231896923929 -0.0081005801061680011 0 0.011280399808004516 -0.0041980307025444273 0 0.011101658876632057 -0.0041965578116910712 0 0.011272426216588471 -0.0043794811674801879 0 0.011536563493821995 -0.010478082503574361 0 0.011188349613260677 -0.011692161005631684 0 0.0098652614311627446 -0.011324625924147028 0 0.011537623020013453 -0.0070538434213603838 0 0.012467276106520604 -0.0081520973983193364 0 0.0097483151386051885 -0.0075716656544489239 0 0.011728543207733486 -0.0072991340392631315 0 0.011661166935582279 -0.0072535978179735306 0 0.011536563493821995 -0.010478082503574361 0 0.011188349613260677 -0.011692161005631684 0 0.012469790275517163 -0.011857310011815989 0 0.011188349613260677 -0.011692161005631684 0 0.011174337586034793 -0.012903890010206618 0 0.010498373264821247 -0.0125567052634193 0 0.011188349613260677 -0.011692161005631684 0 0.012469790275517163 -0.011857310011815989 0 0.012078736825582186 -0.012857994815076048 0 0.013231423088295292 -0.013280697143967717 0 0.012469790275517163 -0.011857310011815989 0 0.012078736825582186 -0.012857994815076048 0 0.011894001786713388 -0.013927673000499376 0 0.013231423088295292 -0.013280697143967717 0 0.012078736825582186 -0.012857994815076048 0 0.010500016743443252 -0.0137553385618289 0 0.011894001786713388 -0.013927673000499376 0 0.011174337586034793 -0.012903890010206618 0 0.011188349613260677 -0.011692161005631684 0 0.012078736825582186 -0.012857994815076048 0 0.011174337586034793 -0.012903890010206618 0 0.011894001786713388 -0.013927673000499376 0 0.012078736825582186 -0.012857994815076048 0 0.011174337586034793 -0.012903890010206618 0 0.010500016743443252 -0.0137553385618289 0 0.011174337586034793 -0.012903890010206618 0 0.010498373264821247 -0.0125567052634193 0 0.010500016743443252 -0.0137553385618289 0 0.0096082972209295871 -0.012952884172742755 0 0.010498373264821247 -0.0125567052634193 0 0.0096082972209295871 -0.012952884172742755 0 0.010498373264821247 -0.0125567052634193 0 0.0098652614311627446 -0.011324625924147028 0 0.011188349613260677 -0.011692161005631684 0 0.010498373264821247 -0.0125567052634193 0 0.0098652614311627446 -0.011324625924147028 0 0.0096082972209295871 -0.012952884172742755 0 0.0098652614311627446 -0.011324625924147028 0 0.0086338804657336964 -0.011464793712830594 0 0.014105269038457232 -0.013886367069407842 0 0.013151792890890994 -0.014179236829190759 0 0.013283914328084555 -0.013323599944020659 0 0.0096082972209295871 -0.012952884172742755 0 0.0086338804657336964 -0.011464793712830594 0 0.0084118620152157288 -0.01361199329136014 0 0.011414798220037796 -0.012616278220575466 0 0.010692437677202427 -0.014513838898687473 0 0.0098531066970851799 -0.014570257855953488 0 0.0096082972209295871 -0.012952884172742755 0 0.0084118620152157288 -0.01361199329136014 0 0.012936861954629461 -0.015519542762551479 0 0.011386882363638676 -0.015313842622848479 0 0.012293773465137037 -0.013960339340907442 0 0.011386882363638676 -0.015313842622848479 0 0.011302601944388703 -0.013910232463718912 0 0.012293773465137037 -0.013960339340907442 0 0.011386882363638676 -0.015313842622848479 0 0.011302601944388703 -0.013910232463718912 0 0.010702287180014321 -0.014528663861513514 0 0.011302601944388703 -0.013910232463718912 0 0.012293773465137037 -0.013960339340907442 0 0.011807736684340278 -0.012806302122640676 0 0.012936861954629461 -0.015519542762551479 0 0.013151792890890994 -0.014179236829190759 0 0.012293773465137037 -0.013960339340907442 0 0.014105269038457232 -0.013886367069407842 0 0.012936861954629461 -0.015519542762551479 0 0.013151792890890994 -0.014179236829190759 0 0.013151792890890994 -0.014179236829190759 0 0.012293773465137037 -0.013960339340907442 0 0.013283914328084555 -0.013323599944020659 0 0.013283914328084555 -0.013323599944020659 0 0.012614774141498478 -0.012945116545882882 0 0.013439067736927261 -0.012573627574886033 0 0.012293773465137037 -0.013960339340907442 0 0.013283914328084555 -0.013323599944020659 0 0.012614774141498478 -0.012945116545882882 0 0.012614774141498478 -0.012945116545882882 0 0.011807736684340278 -0.012806302122640676 0 0.012857383922404706 -0.012114020865136205 0 0.012614774141498478 -0.012945116545882882 0 0.013439067736927261 -0.012573627574886033 0 0.012857383922404706 -0.012114020865136205 0 0.013439067736927261 -0.012573627574886033 0 0.012857383922404706 -0.012114020865136205 0 0.013583939121888414 -0.011969228108841315 0 0.012293773465137037 -0.013960339340907442 0 0.012614774141498478 -0.012945116545882882 0 0.011807736684340278 -0.012806302122640676 0 0.012016707296084025 -0.011674479954923947 0 0.012656888671720721 -0.011183068727882299 0 0.01182432978832504 -0.010122858115544933 0 0.012016707296084025 -0.011674479954923947 0 0.010935864730573073 -0.011851752354348622 0 0.01182432978832504 -0.010122858115544933 0 0.011182481375828885 -0.012097588943397367 0 0.015155791979457328 -0.0082756315536619551 0 0.011807736684340278 -0.012806302122640676 0 0.012016707296084025 -0.011674479954923947 0 0.010935864730573073 -0.011851752354348622 0 0.011807736684340278 -0.012806302122640676 0 0.012016707296084025 -0.011674479954923947 0 0.012857383922404706 -0.012114020865136205 0 0.012857383922404706 -0.012114020865136205 0 0.013320810125403881 -0.011361200566419455 0 0.013583939121888414 -0.011969228108841315 0 0.012016707296084025 -0.011674479954923947 0 0.012857383922404706 -0.012114020865136205 0 0.012656888671720721 -0.011183068727882299 0 0.012857383922404706 -0.012114020865136205 0 0.012656888671720721 -0.011183068727882299 0 0.013320810125403881 -0.011361200566419455 0 0.012656888671720721 -0.011183068727882299 0 0.013320810125403881 -0.011361200566419455 0 0.013019484732094015 -0.010654896810314613 0 0.013320810125403881 -0.011361200566419455 0 0.014113272259338399 -0.011529386043582624 0 0.013654900305978849 -0.01073248528643613 0 0.014113272259338399 -0.011529386043582624 0 0.014438388116415748 -0.01085978745922548 0 0.013654900305978849 -0.01073248528643613 0 0.014113272259338399 -0.011529386043582624 0 0.013583939121888414 -0.011969228108841315 0 0.013961309456023389 -0.0122596444601224 0 0.013320810125403881 -0.011361200566419455 0 0.014113272259338399 -0.011529386043582624 0 0.013583939121888414 -0.011969228108841315 0 0.014113272259338399 -0.011529386043582624 0 0.014463396519323947 -0.012117653730898927 0 0.014963329632839133 -0.011553968601189027 0 0.014113272259338399 -0.011529386043582624 0 0.014463396519323947 -0.012117653730898927 0 0.013961309456023389 -0.0122596444601224 0 0.014113272259338399 -0.011529386043582624 0 0.014963329632839133 -0.011553968601189027 0 0.014438388116415748 -0.01085978745922548 0 0.015168519274223694 -0.0089700029802414795 0 0.012404136139570716 -0.0096678907646537866 0 0.011185573954512454 -0.0050507004858213207 0 0.011537623020013453 -0.0070538434213603838 0 0.0097483151386051885 -0.0075716656544489239 0 0.016320693118775952 -0.01025248491617356 0 0.014963329632839133 -0.011553968601189027 0 0.015247948445567639 -0.012094426506600741 0 0.015168519274223694 -0.0089700029802414795 0 0.01523151330692782 -0.011671067557430477 0 0.014463396519323947 -0.012117653730898927 0 0.014963329632839133 -0.011553968601189027 0 0.015247948445567639 -0.012094426506600741 0 0.012467276106520604 -0.0081520973983193364 0 0.0098652614311627446 -0.011324625924147028 0 0.0097483151386051885 -0.0075716656544489239 0 0.011661166935582279 -0.0072535978179735306 0 0.0098242826771576704 -0.011868844592357512 0 0.0098652614311627446 -0.011324625924147028 0 0.0086338804657336964 -0.011464793712830594 0 0.0097483151386051885 -0.0075716656544489239 0 0.011414798220037796 -0.012616278220575466 0 0.012404136139570716 -0.0096678907646537866 0 0.014105269038457232 -0.013886367069407842 0 0.015247948445567639 -0.012094426506600741 0 0.014087117137168023 -0.012713090489133681 0 0.014105269038457232 -0.013886367069407842 0 0.013283914328084555 -0.013323599944020659 0 0.014087117137168023 -0.012713090489133681 0 0.013283914328084555 -0.013323599944020659 0 0.013439067736927261 -0.012573627574886033 0 0.014087117137168023 -0.012713090489133681 0 0.013439067736927261 -0.012573627574886033 0 0.014087117137168023 -0.012713090489133681 0 0.013961309456023389 -0.0122596444601224 0 0.013439067736927261 -0.012573627574886033 0 0.013583939121888414 -0.011969228108841315 0 0.013961309456023389 -0.0122596444601224 0 0.014463396519323947 -0.012117653730898927 0 0.015247948445567639 -0.012094426506600741 0 0.014087117137168023 -0.012713090489133681 0 0.014463396519323947 -0.012117653730898927 0 0.014087117137168023 -0.012713090489133681 0 0.013961309456023389 -0.0122596444601224 0 0.013038784723304202 -0.012053104410499503 0 0.01210239078293158 -0.010513119014108034 0 0.0067374658309976281 -0.014124607934099804 0 0.007800526834481342 -0.014176161579669947 0 0.0076694406695793456 -0.015481710962279698 0 0.0067374658309976281 -0.014124607934099804 0 0.007800526834481342 -0.014176161579669947 0 0.0080448670187730359 -0.013200799452771297 0 0.007800526834481342 -0.014176161579669947 0 0.0087649678066636511 -0.013748793991006427 0 0.0080448670187730359 -0.013200799452771297 0 0.007800526834481342 -0.014176161579669947 0 0.0076694406695793456 -0.015481710962279698 0 0.008552796415668763 -0.014526878451679496 0 0.0086370168613018085 -0.015861915164580069 0 0.0076694406695793456 -0.015481710962279698 0 0.0090345513075102829 -0.015219121140646113 0 0.0076694406695793456 -0.015481710962279698 0 0.0090345513075102829 -0.015219121140646113 0 0.008552796415668763 -0.014526878451679496 0 0.0093878007900235795 -0.01589663803017595 0 0.0086370168613018085 -0.015861915164580069 0 0.0090345513075102829 -0.015219121140646113 0 0.0090345513075102829 -0.015219121140646113 0 0.0091768106366476171 -0.014523454950334131 0 0.008552796415668763 -0.014526878451679496 0 0.0091768106366476171 -0.014523454950334131 0 0.008552796415668763 -0.014526878451679496 0 0.0087649678066636511 -0.013748793991006427 0 0.007800526834481342 -0.014176161579669947 0 0.008552796415668763 -0.014526878451679496 0 0.0087649678066636511 -0.013748793991006427 0 0.0091768106366476171 -0.014523454950334131 0 0.0087649678066636511 -0.013748793991006427 0 0.0096226380581816082 -0.013790548967741878 0 0.0096226380581816082 -0.013790548967741878 0 0.0097294616383279808 -0.015024359882537336 0 0.010955847659289182 -0.013420538637912373 0 0.0097761061577358224 -0.014927999822687206 0 0.010640659870133991 -0.013387707710432488 0 0.0091768106366476171 -0.014523454950334131 0 0.0096226380581816082 -0.013790548967741878 0 0.0097294616383279808 -0.015024359882537336 0 0.0097294616383279808 -0.015024359882537336 0 0.010028014412470998 -0.01515650142527823 0 0.010178678030014508 -0.013564484842873113 0 0.0090345513075102829 -0.015219121140646113 0 0.0091768106366476171 -0.014523454950334131 0 0.0097294616383279808 -0.015024359882537336 0 0.0094154191801988554 -0.016026394386865168 0 0.0099894452764433886 -0.015267518436515568 0 0.0093878007900235795 -0.01589663803017595 0 0.0097294616383279808 -0.015024359882537336 0 0.010028014412470998 -0.01515650142527823 0 0.0093878007900235795 -0.01589663803017595 0 0.0090345513075102829 -0.015219121140646113 0 0.0097294616383279808 -0.015024359882537336 0 0.010062375572805073 -0.016073140317551433 0 0.0094064301638962303 -0.016208065239253409 0 0.010028014412470998 -0.01515650142527823 0 0.010602202706984891 -0.016408443747942526 0 0.011386882363638676 -0.015313842622848479 0 0.010553333734141891 -0.015503893775859553 0 0.010028014412470998 -0.01515650142527823 0 0.010553333734141891 -0.015503893775859553 0 0.010702287180014321 -0.014528663861513514 0 0.010062375572805073 -0.016073140317551433 0 0.010028014412470998 -0.01515650142527823 0 0.010553333734141891 -0.015503893775859553 0 0.011386882363638676 -0.015313842622848479 0 0.010553333734141891 -0.015503893775859553 0 0.010702287180014321 -0.014528663861513514 0 0.010028014412470998 -0.01515650142527823 0 0.010702287180014321 -0.014528663861513514 0 0.010178678030014508 -0.013564484842873113 0 0.011302601944388703 -0.013910232463718912 0 0.010702287180014321 -0.014528663861513514 0 0.010178678030014508 -0.013564484842873113 0 0.010640659870133991 -0.013387707710432488 0 0.011182481375828885 -0.012097588943397367 0 0.011302601944388703 -0.013910232463718912 0 0.011807736684340278 -0.012806302122640676 0 0.010178678030014508 -0.013564484842873113 0 0.011807736684340278 -0.012806302122640676 0 0.010178678030014508 -0.013564484842873113 0 0.010935864730573073 -0.011851752354348622 0 0.010955847659289182 -0.013420538637912373 0 0.010855881004421187 -0.012122058344011241 0 0.012165916543464954 -0.011569475599026975 0 0.012165916543464954 -0.011569475599026975 0 0.011318705327818339 -0.010774717134696186 0 0.013409927652987501 -0.0094244737273641577 0 0.010855881004421187 -0.012122058344011241 0 0.012165916543464954 -0.011569475599026975 0 0.011318705327818339 -0.010774717134696186 0 0.017539623946148039 -0.0069615842891776495 0 0.016883096907683543 -0.0069746492953256783 0 0.016785484552620897 -0.0076721564586464666 0 0.014575063042591209 -0.0087793585948522466 0 0.013146190370668035 -0.0098857540854544249 0 0.010855881004421187 -0.012122058344011241 0 0.011318705327818339 -0.010774717134696186 0 0.0095100855899501978 -0.012069632696910316 0 0.0096226380581816082 -0.013790548967741878 0 0.010955847659289182 -0.013420538637912373 0 0.0095100855899501978 -0.012069632696910316 0 0.010955847659289182 -0.013420538637912373 0 0.010855881004421187 -0.012122058344011241 0 0.0095100855899501978 -0.012069632696910316 0 0.016785484552620897 -0.0076721564586464666 0 0.016479716831354928 -0.0076287195068481381 0 0.016422487461782286 -0.0080338973931277733 0 0.0087649678066636511 -0.013748793991006427 0 0.0096226380581816082 -0.013790548967741878 0 0.0095100855899501978 -0.012069632696910316 0 0.0087649678066636511 -0.013748793991006427 0 0.0095100855899501978 -0.012069632696910316 0 0.0080448670187730359 -0.013200799452771297 0 0.013146190370668035 -0.0098857540854544249 0 0.01210239078293158 -0.010513119014108034 0 0.016883096907683543 -0.0069746492953256783 0 0.016785484552620897 -0.0076721564586464666 0 0.016479716831354928 -0.0076287195068481381 0 0.016883096907683543 -0.0069746492953256783 0 0.016479716831354928 -0.0076287195068481381 0 0.016071238967920908 -0.0068593426077141664 0 0.017102307391278382 -0.008588809821055865 0 0.016552395880841154 -0.008112192211629364 0 0.016680165904755673 -0.0087035346397862211 0 0.016519085892910838 -0.0080319785947869562 0 0.016439740364246412 -0.0076904510756293076 0 0.016479716831354928 -0.0076287195068481381 0 0.016552395880841154 -0.008112192211629364 0 0.016071238967920908 -0.0068593426077141664 0 0.016851274616969038 -0.0081293323496796459 0 0.016552395880841154 -0.008112192211629364 0 0.016422487461782286 -0.0080338973931277733 0 0.016479716831354928 -0.0076287195068481381 0 0.016552395880841154 -0.008112192211629364 0 0.016422487461782286 -0.0080338973931277733 0 0.016907952533600838 -0.0076987403368126402 0 0.016851274616969038 -0.0081293323496796459 0 0.016422487461782286 -0.0080338973931277733 0 0.017152505180693875 -0.0090638318389069349 0 0.016680165904755673 -0.0087035346397862211 0 0.016885760441678485 -0.0092022557687954261 0 0.017233435030302922 -0.0088036576955087698 0 0.017152505180693875 -0.0090638318389069349 0 0.016680165904755673 -0.0087035346397862211 0 0.016883096907683543 -0.0069746492953256783 0 0.016071238967920908 -0.0068593426077141664 0 0.016836481885840738 -0.0061150432084906775 0 0.016439740364246412 -0.0076904510756293076 0 0.016307097376323031 -0.0075132690935372651 0 0.016680165904755673 -0.0087035346397862211 0 0.01660194979525571 -0.009113085438021043 0 0.016885760441678485 -0.0092022557687954261 0 0.016071238967920908 -0.0068593426077141664 0 0.016248327171757549 -0.0054716286683233152 0 0.016836481885840738 -0.0061150432084906775 0 0.016248327171757549 -0.0054716286683233152 0 0.016961924080867104 -0.0053931958908904343 0 0.016836481885840738 -0.0061150432084906775 0 0.016961924080867104 -0.0053931958908904343 0 0.017332507733175413 -0.0056882699202532019 0 0.017338876274003587 -0.0050466862471682718 0 0.016836481885840738 -0.0061150432084906775 0 0.017268756286928404 -0.0063468883230870026 0 0.017332507733175413 -0.0056882699202532019 0 0.016961924080867104 -0.0053931958908904343 0 0.016836481885840738 -0.0061150432084906775 0 0.017332507733175413 -0.0056882699202532019 0 0.016883096907683543 -0.0069746492953256783 0 0.016836481885840738 -0.0061150432084906775 0 0.017268756286928404 -0.0063468883230870026 0 0.017539623946148039 -0.0069615842891776495 0 0.016883096907683543 -0.0069746492953256783 0 0.017268756286928404 -0.0063468883230870026 0 0.017539623946148039 -0.0069615842891776495 0 0.017747427410012985 -0.0059657541909351013 0 0.018340881674398252 -0.0061986942184736674 0 0.017539623946148039 -0.0069615842891776495 0 0.017268756286928404 -0.0063468883230870026 0 0.017747427410012985 -0.0059657541909351013 0 0.014575063042591209 -0.0087793585948522466 0 0.015155791979457328 -0.0082756315536619551 0 0.017747427410012985 -0.0059657541909351013 0 0.017332507733175413 -0.0056882699202532019 0 0.017668412841911594 -0.0052291454624931802 0 0.017268756286928404 -0.0063468883230870026 0 0.017747427410012985 -0.0059657541909351013 0 0.017332507733175413 -0.0056882699202532019 0 0.017332507733175413 -0.0056882699202532019 0 0.017668412841911594 -0.0052291454624931802 0 0.017338876274003587 -0.0050466862471682718 0 0.017747427410012985 -0.0059657541909351013 0 0.017668412841911594 -0.0052291454624931802 0 0.018104883158561534 -0.0053563628723217929 0 0.017668412841911594 -0.0052291454624931802 0 0.017338876274003587 -0.0050466862471682718 0 0.017710842428923179 -0.0046660303517343264 0 0.017668412841911594 -0.0052291454624931802 0 0.017710842428923179 -0.0046660303517343264 0 0.017924443207067219 -0.0049651274310926153 0 0.017338876274003587 -0.0050466862471682718 0 0.017373812917563347 -0.0045512054972782282 0 0.017710842428923179 -0.0046660303517343264 0 0.017710842428923179 -0.0046660303517343264 0 0.017721358367355198 -0.0039858055210890888 0 0.018048701080521392 -0.0045390247596334187 0 0.017373812917563347 -0.0045512054972782282 0 0.017710842428923179 -0.0046660303517343264 0 0.017721358367355198 -0.0039858055210890888 0 0.017721358367355198 -0.0039858055210890888 0 0.017208080183999389 -0.0039155127250125035 0 0.017608007040376333 -0.0036411053487226479 0 0.017721358367355198 -0.0039858055210890888 0 0.017261560215638194 -0.0042387160158668521 0 0.017208080183999389 -0.0039155127250125035 0 0.017373812917563347 -0.0045512054972782282 0 0.017721358367355198 -0.0039858055210890888 0 0.017261560215638194 -0.0042387160158668521 0 0.017261560215638194 -0.0042387160158668521 0 0.016848539950230869 -0.0042953277963441979 0 0.017122302215617193 -0.0044886359339588715 0 0.018021940606053208 -0.0032649516155434056 0 0.018026487406077169 -0.0032446953766849607 0 0.018012898224833519 -0.0032209155778302597 0 0.017208080183999389 -0.0039155127250125035 0 0.016762969424764507 -0.0041926286443823698 0 0.017321482813335287 -0.0035365200322055291 0 0.017261560215638194 -0.0042387160158668521 0 0.017208080183999389 -0.0039155127250125035 0 0.016848539950230869 -0.0042953277963441979 0 0.017314354387203402 -0.005888321967204649 0 0.01779226198773351 -0.0030470173345391173 0 0.017208080183999389 -0.0039155127250125035 0 0.016762969424764507 -0.0041926286443823698 0 0.016848539950230869 -0.0042953277963441979 0 0.017314354387203402 -0.005888321967204649 0 0.017044076675607821 -0.0055377835459867767 0 0.016248327171757549 -0.0054716286683233152 0 0.016724329563578621 -0.0041834916446798227 0 0.016848539950230869 -0.0042953277963441979 0 0.016248327171757549 -0.0054716286683233152 0 0.016848539950230869 -0.0042953277963441979 0 0.016981964114459659 -0.0048620362728065787 0 0.016848539950230869 -0.0042953277963441979 0 0.017122302215617193 -0.0044886359339588715 0 0.016981964114459659 -0.0048620362728065787 0 0.017373812917563347 -0.0045512054972782282 0 0.017122302215617193 -0.0044886359339588715 0 0.016981964114459659 -0.0048620362728065787 0 0.017373812917563347 -0.0045512054972782282 0 0.017261560215638194 -0.0042387160158668521 0 0.017122302215617193 -0.0044886359339588715 0 0.016961924080867104 -0.0053931958908904343 0 0.017338876274003587 -0.0050466862471682718 0 0.016981964114459659 -0.0048620362728065787 0 0.017338876274003587 -0.0050466862471682718 0 0.017373812917563347 -0.0045512054972782282 0 0.016981964114459659 -0.0048620362728065787 0 0.016248327171757549 -0.0054716286683233152 0 0.016961924080867104 -0.0053931958908904343 0 0.016981964114459659 -0.0048620362728065787 0 0.01660194979525571 -0.009113085438021043 0 0.016727187420018309 -0.0095716359430725612 0 0.016890079680921044 -0.0094662384830583642 0 0.01660194979525571 -0.009113085438021043 0 0.016422488442316641 -0.0095504451565563333 0 0.016727187420018309 -0.0095716359430725612 0 0.016307097376323031 -0.0075132690935372651 0 0.017314354387203402 -0.005888321967204649 0 0.016422488442316641 -0.0095504451565563333 0 0.016727187420018309 -0.0095716359430725612 0 0.016901786451433351 -0.0099868464085727873 0 0.017314354387203402 -0.005888321967204649 0 0.017328839524282179 -0.0070861220605391625 0 0.016727187420018309 -0.0095716359430725612 0 0.016933453039715055 -0.0097224142462400756 0 0.016901786451433351 -0.0099868464085727873 0 0.016727187420018309 -0.0095716359430725612 0 0.016933453039715055 -0.0097224142462400756 0 0.016890079680921044 -0.0094662384830583642 0 0.016933453039715055 -0.0097224142462400756 0 0.017145330963856505 -0.0096573563800339771 0 0.017080604877039319 -0.009893492169114726 0 0.016933453039715055 -0.0097224142462400756 0 0.017145330963856505 -0.0096573563800339771 0 0.016890079680921044 -0.0094662384830583642 0 0.017178324445449304 -0.0093767449070717643 0 0.017145330963856505 -0.0096573563800339771 0 0.016890079680921044 -0.0094662384830583642 0 0.01660194979525571 -0.009113085438021043 0 0.016890079680921044 -0.0094662384830583642 0 0.016885760441678485 -0.0092022557687954261 0 0.017178324445449304 -0.0093767449070717643 0 0.016890079680921044 -0.0094662384830583642 0 0.016885760441678485 -0.0092022557687954261 0 0.017152505180693875 -0.0090638318389069349 0 0.017178324445449304 -0.0093767449070717643 0 0.016885760441678485 -0.0092022557687954261 0 0.014751001664626014 -0.0092176288599755303 0 0.01401709569695348 -0.0097731801500285237 0 0.013211750457210224 -0.009208891345623537 0 0.014751001664626014 -0.0092176288599755303 0 0.013211750457210224 -0.009208891345623537 0 0.014587510597848652 -0.0083201759309615691 0 0.018623281694156463 -0.0060876458045660354 0 0.018887037898310192 -0.0052057527276383976 0 0.019785582970693608 -0.0052284365197092161 0 0.015780930078962155 -0.0077154296047809573 0 0.017293675493431252 -0.0068642036959135301 0 0.015998551590173948 -0.0088642343412980214 0 0.014751001664626014 -0.0092176288599755303 0 0.014976108878179895 -0.010121684873592147 0 0.015998551590173948 -0.0088642343412980214 0 0.014751001664626014 -0.0092176288599755303 0 0.014587510597848652 -0.0083201759309615691 0 0.016303619002494434 -0.01025980794034884 0 0.015998551590173948 -0.0088642343412980214 0 0.014976108878179895 -0.010121684873592147 0 0.014963329632839133 -0.011553968601189027 0 0.014976108878179895 -0.010121684873592147 0 0.014438388116415748 -0.01085978745922548 0 0.016303619002494434 -0.01025980794034884 0 0.014963329632839133 -0.011553968601189027 0 0.014976108878179895 -0.010121684873592147 0 0.014976108878179895 -0.010121684873592147 0 0.014438388116415748 -0.01085978745922548 0 0.014185140935037716 -0.010381474078566405 0 0.014751001664626014 -0.0092176288599755303 0 0.014976108878179895 -0.010121684873592147 0 0.01401709569695348 -0.0097731801500285237 0 0.014976108878179895 -0.010121684873592147 0 0.014185140935037716 -0.010381474078566405 0 0.01401709569695348 -0.0097731801500285237 0 0.014185140935037716 -0.010381474078566405 0 0.01401709569695348 -0.0097731801500285237 0 0.013254885142228497 -0.01003203216043193 0 0.014185140935037716 -0.010381474078566405 0 0.013654900305978849 -0.01073248528643613 0 0.013254885142228497 -0.01003203216043193 0 0.014438388116415748 -0.01085978745922548 0 0.014185140935037716 -0.010381474078566405 0 0.013654900305978849 -0.01073248528643613 0 0.015155791979457328 -0.0082756315536619551 0 0.015780930078962155 -0.0077154296047809573 0 0.013320810125403881 -0.011361200566419455 0 0.013654900305978849 -0.01073248528643613 0 0.013019484732094015 -0.010654896810314613 0 0.013254885142228497 -0.01003203216043193 0 0.01182432978832504 -0.010122858115544933 0 0.013211750457210224 -0.009208891345623537 0 0.013654900305978849 -0.01073248528643613 0 0.013019484732094015 -0.010654896810314613 0 0.013254885142228497 -0.01003203216043193 0 0.013019484732094015 -0.010654896810314613 0 0.013254885142228497 -0.01003203216043193 0 0.01182432978832504 -0.010122858115544933 0 0.012656888671720721 -0.011183068727882299 0 0.013019484732094015 -0.010654896810314613 0 0.01182432978832504 -0.010122858115544933 0 0.01401709569695348 -0.0097731801500285237 0 0.013254885142228497 -0.01003203216043193 0 0.013211750457210224 -0.009208891345623537 0 0.017747427410012985 -0.0059657541909351013 0 0.018340881674398252 -0.0061986942184736674 0 0.018104883158561534 -0.0053563628723217929 0 0.015155791979457328 -0.0082756315536619551 0 0.018660595049591121 -0.0049765960622993018 0 0.018340881674398252 -0.0061986942184736674 0 0.018104883158561534 -0.0053563628723217929 0 0.018643798737887539 -0.0052409361699027037 0 0.018104883158561534 -0.0053563628723217929 0 0.018643798737887539 -0.0052409361699027037 0 0.01826809727566546 -0.0049614053770171834 0 0.018104883158561534 -0.0053563628723217929 0 0.017924443207067219 -0.0049651274310926153 0 0.01826809727566546 -0.0049614053770171834 0 0.017668412841911594 -0.0052291454624931802 0 0.018104883158561534 -0.0053563628723217929 0 0.017924443207067219 -0.0049651274310926153 0 0.017181508618699926 -0.0070264109048857474 0 0.018623281694156463 -0.0060876458045660354 0 0.018033449988025037 -0.0055719936281541189 0 0.018623281694156463 -0.0060876458045660354 0 0.018033449988025037 -0.0055719936281541189 0 0.018887037898310192 -0.0052057527276383976 0 0.018033449988025037 -0.0055719936281541189 0 0.018887037898310192 -0.0052057527276383976 0 0.018872217538612922 -0.0043701092981446362 0 0.018660595049591121 -0.0049765960622993018 0 0.018715478858712647 -0.0046602476272579315 0 0.018643798737887539 -0.0052409361699027037 0 0.018407542049650446 -0.004641412161112907 0 0.018872217538612922 -0.0043701092981446362 0 0.018643798737887539 -0.0052409361699027037 0 0.018407542049650446 -0.004641412161112907 0 0.01826809727566546 -0.0049614053770171834 0 0.018407542049650446 -0.004641412161112907 0 0.018872217538612922 -0.0043701092981446362 0 0.018171688788201606 -0.0040954296695348774 0 0.017710842428923179 -0.0046660303517343264 0 0.017924443207067219 -0.0049651274310926153 0 0.018048701080521392 -0.0045390247596334187 0 0.017924443207067219 -0.0049651274310926153 0 0.01826809727566546 -0.0049614053770171834 0 0.018048701080521392 -0.0045390247596334187 0 0.018407542049650446 -0.004641412161112907 0 0.01826809727566546 -0.0049614053770171834 0 0.018048701080521392 -0.0045390247596334187 0 0.018407542049650446 -0.004641412161112907 0 0.018048701080521392 -0.0045390247596334187 0 0.018171688788201606 -0.0040954296695348774 0 0.017721358367355198 -0.0039858055210890888 0 0.018171688788201606 -0.0040954296695348774 0 0.018096210562157777 -0.0033330333985787425 0 0.017721358367355198 -0.0039858055210890888 0 0.018096210562157777 -0.0033330333985787425 0 0.01789572169465432 -0.0033793790851535462 0 0.017721358367355198 -0.0039858055210890888 0 0.018048701080521392 -0.0045390247596334187 0 0.018171688788201606 -0.0040954296695348774 0 0.018872217538612922 -0.0043701092981446362 0 0.018096210562157777 -0.0033330333985787425 0 0.019509518383261287 -0.003934481310750782 0 0.018000708731124103 -0.0032593739492371623 0 0.018544235080679896 -0.0031963060785748371 0 0.018872217538612922 -0.0043701092981446362 0 0.018171688788201606 -0.0040954296695348774 0 0.018096210562157777 -0.0033330333985787425 0 0.017080973757356559 -0.0024347495197701106 0 0.016353329186536147 -0.0026314503106113509 0 0.017215995180480389 -0.003141611457778228 0 0.018096210562157777 -0.0033330333985787425 0 0.017080973757356559 -0.0024347495197701106 0 0.017215995180480389 -0.003141611457778228 0 0.018887037898310192 -0.0052057527276383976 0 0.018872217538612922 -0.0043701092981446362 0 0.019537370515436518 -0.0046246878674279573 0 0.018872217538612922 -0.0043701092981446362 0 0.019509518383261287 -0.003934481310750782 0 0.019537370515436518 -0.0046246878674279573 0 0.018887037898310192 -0.0052057527276383976 0 0.019537370515436518 -0.0046246878674279573 0 0.019785582970693608 -0.0052284365197092161 0 0.015998551590173948 -0.0088642343412980214 0 0.014587510597848652 -0.0083201759309615691 0 0.015919736357880028 -0.0074687270214374565 0 0.019509518383261287 -0.003934481310750782 0 0.019537370515436518 -0.0046246878674279573 0 0.020791121395677799 -0.0045329152204250578 0 0.017293675493431252 -0.0068642036959135301 0 0.016893933570474522 -0.003937056678128251 0 0.019537370515436518 -0.0046246878674279573 0 0.019785582970693608 -0.0052284365197092161 0 0.020791121395677799 -0.0045329152204250578 0 0.018544235080679896 -0.0031963060785748371 0 0.016893933570474522 -0.003937056678128251 0 0.017080973757356559 -0.0024347495197701106 0 0.01604527659387741 -0.0019417719455727725 0 0.016353329186536147 -0.0026314503106113509 0 0.016353329186536147 -0.0026314503106113509 0 0.016246598810779889 -0.003246636017718556 0 0.017215995180480389 -0.003141611457778228 0 0.016246598810779889 -0.003246636017718556 0 0.017277386869684323 -0.0034978221547084863 0 0.016268745756009739 -0.0036939007947161036 0 0.016246598810779889 -0.003246636017718556 0 0.017277386869684323 -0.0034978221547084863 0 0.017215995180480389 -0.003141611457778228 0 0.017277386869684323 -0.0034978221547084863 0 0.017215995180480389 -0.003141611457778228 0 0.017842074152013328 -0.0033474663402766193 0 0.018096210562157777 -0.0033330333985787425 0 0.017215995180480389 -0.003141611457778228 0 0.017842074152013328 -0.0033474663402766193 0 0.018096210562157777 -0.0033330333985787425 0 0.01789572169465432 -0.0033793790851535462 0 0.017842074152013328 -0.0033474663402766193 0 0.01789572169465432 -0.0033793790851535462 0 0.017952686450632541 -0.0032943976535291281 0 0.017842074152013328 -0.0033474663402766193 0 0.017952686450632541 -0.0032943976535291281 0 0.017842074152013328 -0.0033474663402766193 0 0.017953953316330165 -0.003393855807220748 0 0.017277386869684323 -0.0034978221547084863 0 0.017842074152013328 -0.0033474663402766193 0 0.017953953316330165 -0.003393855807220748 0 0.017314283354911524 -0.0034549051550250677 0 0.017694216460991671 -0.0034564250860571037 0 0.017481018174048648 -0.0035477900071792827 0 0.017278066958696083 -0.0037169401390950946 0 0.016798084993323737 -0.0038854484479656751 0 0.017277386869684323 -0.0034978221547084863 0 0.017481018174048648 -0.0035477900071792827 0 0.016798084993323737 -0.0038854484479656751 0 0.017952686450632541 -0.0032943976535291281 0 0.017953953316330165 -0.003393855807220748 0 0.018066315296596289 -0.0032183330446499429 0 0.017694216460991671 -0.0034564250860571037 0 0.01795178221184475 -0.0031742897400787247 0 0.017481018174048648 -0.0035477900071792827 0 0.017656193881987057 -0.0032834967044176933 0 0.017491519233351172 -0.0034895742558372282 0 0.017481018174048648 -0.0035477900071792827 0 0.017278066958696083 -0.0037169401390950946 0 0.017491519233351172 -0.0034895742558372282 0 0.016798084993323737 -0.0038854484479656751 0 0.016258231033921634 -0.0044251088440935855 0 0.015520132191269315 -0.0041939543243776729 0 0.016798084993323737 -0.0038854484479656751 0 0.016268745756009739 -0.0036939007947161036 0 0.015520132191269315 -0.0041939543243776729 0 0.017277386869684323 -0.0034978221547084863 0 0.016798084993323737 -0.0038854484479656751 0 0.016268745756009739 -0.0036939007947161036 0 0.017997224970109936 -0.0032132911186519958 0 0.018021881692836833 -0.003262981859033235 0 0.018033278000248603 -0.0032259941244347974 0 0.017913958240677812 -0.0032128470889532645 0 0.017997224970109936 -0.0032132911186519958 0 0.017985095903057819 -0.0031505282564215412 0 0.017913958240677812 -0.0032128470889532645 0 0.017997224970109936 -0.0032132911186519958 0 0.018021881692836833 -0.003262981859033235 0 0.017331449542371133 -0.010192447034125878 0 0.017040625257385447 -0.010036996873094691 0 0.016901786451433351 -0.0099868464085727873 0 0.01890489819032893 -0.0042183634145435047 0 0.017328839524282179 -0.0070861220605391625 0 0.017997224970109936 -0.0032132911186519958 0 0.018049371938872301 -0.0031802300928718253 0 0.017985095903057819 -0.0031505282564215412 0 0.017997224970109936 -0.0032132911186519958 0 0.018033278000248603 -0.0032259941244347974 0 0.018049371938872301 -0.0031802300928718253 0 0.017276579396330382 -0.010012027336760553 0 0.017040625257385447 -0.010036996873094691 0 0.017080604877039319 -0.009893492169114726 0 0.017040625257385447 -0.010036996873094691 0 0.017080604877039319 -0.009893492169114726 0 0.016901786451433351 -0.0099868464085727873 0 0.016933453039715055 -0.0097224142462400756 0 0.017080604877039319 -0.009893492169114726 0 0.016901786451433351 -0.0099868464085727873 0 0.018021881692836833 -0.003262981859033235 0 0.018035634298288826 -0.0032351207414836316 0 0.018033278000248603 -0.0032259941244347974 0 0.018021940606053208 -0.0032649516155434056 0 0.018021881692836833 -0.003262981859033235 0 0.018026487406077169 -0.0032446953766849607 0 0.018021881692836833 -0.003262981859033235 0 0.018026487406077169 -0.0032446953766849607 0 0.018035634298288826 -0.0032351207414836316 0 0.018026487406077169 -0.0032446953766849607 0 0.018035634298288826 -0.0032351207414836316 0 0.018027136786221493 -0.0032189744535316344 0 0.018035634298288826 -0.0032351207414836316 0 0.018057714411086563 -0.0032168936697556895 0 0.018027136786221493 -0.0032189744535316344 0 0.018057714411086563 -0.0032168936697556895 0 0.018102029182088926 -0.0031827003800647302 0 0.018049371938872301 -0.0031802300928718253 0 0.018035634298288826 -0.0032351207414836316 0 0.018057714411086563 -0.0032168936697556895 0 0.018033278000248603 -0.0032259941244347974 0 0.018057714411086563 -0.0032168936697556895 0 0.018033278000248603 -0.0032259941244347974 0 0.018049371938872301 -0.0031802300928718253 0 0.018057714411086563 -0.0032168936697556895 0 0.017910443178520953 -0.0032206694634607431 0 0.018102029182088926 -0.0031827003800647302 0 0.018057714411086563 -0.0032168936697556895 0 0.018027136786221493 -0.0032189744535316344 0 0.017910443178520953 -0.0032206694634607431 0 0.018027136786221493 -0.0032189744535316344 0 0.018012898224833519 -0.0032209155778302597 0 0.017910443178520953 -0.0032206694634607431 0 0.01779226198773351 -0.0030470173345391173 0 0.017791021933668827 -0.0033820378063620835 0 0.018026487406077169 -0.0032446953766849607 0 0.018027136786221493 -0.0032189744535316344 0 0.018012898224833519 -0.0032209155778302597 0 0.017208080183999389 -0.0039155127250125035 0 0.017321482813335287 -0.0035365200322055291 0 0.017608007040376333 -0.0036411053487226479 0 0.017321482813335287 -0.0035365200322055291 0 0.017608007040376333 -0.0036411053487226479 0 0.017910443178520953 -0.0032206694634607431 0 0.017721358367355198 -0.0039858055210890888 0 0.01789572169465432 -0.0033793790851535462 0 0.017608007040376333 -0.0036411053487226479 0 0.01789572169465432 -0.0033793790851535462 0 0.017608007040376333 -0.0036411053487226479 0 0.017910443178520953 -0.0032206694634607431 0 0.01789572169465432 -0.0033793790851535462 0 0.017952686450632541 -0.0032943976535291281 0 0.017910443178520953 -0.0032206694634607431 0 0.017952686450632541 -0.0032943976535291281 0 0.017910443178520953 -0.0032206694634607431 0 0.018066315296596289 -0.0032183330446499429 0 0.018066315296596289 -0.0032183330446499429 0 0.018216110158587401 -0.0030796742412611457 0 0.018204946046824152 -0.0030758463988876886 0 0.017953953316330165 -0.003393855807220748 0 0.018066315296596289 -0.0032183330446499429 0 0.018216110158587401 -0.0030796742412611457 0 0.018204946046824152 -0.0030758463988876886 0 0.018102029182088926 -0.0031827003800647302 0 0.018183562579800402 -0.0029806255679956191 0 0.018066315296596289 -0.0032183330446499429 0 0.018204946046824152 -0.0030758463988876886 0 0.018102029182088926 -0.0031827003800647302 0 0.017910443178520953 -0.0032206694634607431 0 0.018066315296596289 -0.0032183330446499429 0 0.018102029182088926 -0.0031827003800647302 0 0.018049371938872301 -0.0031802300928718253 0 0.018183562579800402 -0.0029806255679956191 0 0.018028305500446172 -0.0030855002600548363 0 0.018102029182088926 -0.0031827003800647302 0 0.018049371938872301 -0.0031802300928718253 0 0.018183562579800402 -0.0029806255679956191 0 0.017913747211529774 -0.0030124114156829299 0 0.018183562579800402 -0.0029806255679956191 0 0.018028305500446172 -0.0030855002600548363 0 0.017913747211529774 -0.0030124114156829299 0 0.018183562579800402 -0.0029806255679956191 0 0.018028383393718497 -0.0026141236429596607 0 0.017913747211529774 -0.0030124114156829299 0 0.018028305500446172 -0.0030855002600548363 0 0.017985095903057819 -0.0031505282564215412 0 0.018049371938872301 -0.0031802300928718253 0 0.018028305500446172 -0.0030855002600548363 0 0.017985095903057819 -0.0031505282564215412 0 0.018778947354327676 -0.0018098385172882856 0 0.018803707081801437 -0.0017472253990298851 0 0.019997618211984307 -0.0013984531938733594 0 0.019587682689891223 -0.00068795677167823757 0 0.018812043479766723 -0.0017627877339670361 0 0.018028383393718497 -0.0026141236429596607 0 0.018469335603166818 -0.002382814849905815 0 0.018812043479766723 -0.0017627877339670361 0 0.019056749851772092 -0.0009955952242954294 0 0.018778947354327676 -0.0018098385172882856 0 0.018183562579800402 -0.0029806255679956191 0 0.018028383393718497 -0.0026141236429596607 0 0.018469335603166818 -0.002382814849905815 0 0.018183562579800402 -0.0029806255679956191 0 0.018469335603166818 -0.002382814849905815 0 0.018480903105544601 -0.0026256913619663287 0 0.018269515074488315 -0.0026966762797685818 0 0.018803561625645157 -0.002067028273267657 0 0.018044241923557948 -0.0028018877231656622 0 0.018459175725214542 -0.002533204214820809 0 0.018760223710865675 -0.0023121663186455063 0 0.018469335603166818 -0.002382814849905815 0 0.018480903105544601 -0.0026256913619663287 0 0.018745774983395413 -0.0017876565779827525 0 0.018469335603166818 -0.002382814849905815 0 0.018745774983395413 -0.0017876565779827525 0 0.018812043479766723 -0.0017627877339670361 0 0.018044241923557948 -0.0028018877231656622 0 0.018224165972695348 -0.0026950572300493726 0 0.018459175725214542 -0.002533204214820809 0 0.018044241923557948 -0.0028018877231656622 0 0.017926296401111472 -0.0029178997359850401 0 0.018224165972695348 -0.0026950572300493726 0 0.01795178221184475 -0.0031742897400787247 0 0.018269515074488315 -0.0026966762797685818 0 0.018216110158587401 -0.0030796742412611457 0 0.018204946046824152 -0.0030758463988876886 0 0.018480903105544601 -0.0026256913619663287 0 0.018204946046824152 -0.0030758463988876886 0 0.018183562579800402 -0.0029806255679956191 0 0.018480903105544601 -0.0026256913619663287 0 0.017656193881987057 -0.0032834967044176933 0 0.018044241923557948 -0.0028018877231656622 0 0.017698534322101316 -0.0031570686279273224 0 0.017926296401111472 -0.0029178997359850401 0 0.017698534322101316 -0.0031570686279273224 0 0.017668117137786932 -0.0031145227220864781 0 0.018044241923557948 -0.0028018877231656622 0 0.017926296401111472 -0.0029178997359850401 0 0.017698534322101316 -0.0031570686279273224 0 0.017926296401111472 -0.0029178997359850401 0 0.017878003681148967 -0.0029683556537538746 0 0.017668117137786932 -0.0031145227220864781 0 0.017926296401111472 -0.0029178997359850401 0 0.018076791546991631 -0.002830414558140891 0 0.017878003681148967 -0.0029683556537538746 0 0.018076791546991631 -0.002830414558140891 0 0.017878003681148967 -0.0029683556537538746 0 0.017983946265118494 -0.0029268305211111651 0 0.017878003681148967 -0.0029683556537538746 0 0.017983946265118494 -0.0029268305211111651 0 0.017791170340537087 -0.0030473119700463623 0 0.017954792221774388 -0.002985955832147925 0 0.017983946265118494 -0.0029268305211111651 0 0.017791170340537087 -0.0030473119700463623 0 0.017954792221774388 -0.002985955832147925 0 0.017856112288866213 -0.0030475349779964449 0 0.017791170340537087 -0.0030473119700463623 0 0.017954792221774388 -0.002985955832147925 0 0.018085300979576644 -0.0029650823074742444 0 0.017940334437420515 -0.0030435776632127842 0 0.017954792221774388 -0.002985955832147925 0 0.017856112288866213 -0.0030475349779964449 0 0.017940334437420515 -0.0030435776632127842 0 0.018085300979576644 -0.0029650823074742444 0 0.018083537197903295 -0.0029071191148490596 0 0.018244401187312523 -0.0028451202775959064 0 0.017954792221774388 -0.002985955832147925 0 0.018085300979576644 -0.0029650823074742444 0 0.018083537197903295 -0.0029071191148490596 0 0.017954792221774388 -0.002985955832147925 0 0.018083537197903295 -0.0029071191148490596 0 0.017983946265118494 -0.0029268305211111651 0 0.018076791546991631 -0.002830414558140891 0 0.017983946265118494 -0.0029268305211111651 0 0.018163985412622173 -0.002824046524032022 0 0.018083537197903295 -0.0029071191148490596 0 0.017983946265118494 -0.0029268305211111651 0 0.018163985412622173 -0.002824046524032022 0 0.018076791546991631 -0.002830414558140891 0 0.018163985412622173 -0.002824046524032022 0 0.018294435962131299 -0.0027115675793037606 0 0.018304370134380323 -0.0027588234036518802 0 0.018163985412622173 -0.002824046524032022 0 0.018294435962131299 -0.0027115675793037606 0 0.018304370134380323 -0.0027588234036518802 0 0.018163985412622173 -0.002824046524032022 0 0.018244401187312523 -0.0028451202775959064 0 0.018244401187312523 -0.0028451202775959064 0 0.018474794269223604 -0.0028038892580623982 0 0.018248808582608616 -0.0029289829498266736 0 0.018083537197903295 -0.0029071191148490596 0 0.018163985412622173 -0.002824046524032022 0 0.018244401187312523 -0.0028451202775959064 0 0.018304370134380323 -0.0027588234036518802 0 0.018244401187312523 -0.0028451202775959064 0 0.018419850103974039 -0.0027403426186579554 0 0.018085300979576644 -0.0029650823074742444 0 0.018244401187312523 -0.0028451202775959064 0 0.018248808582608616 -0.0029289829498266736 0 0.01859830540473352 -0.0026608066076017779 0 0.01873680511470532 -0.002684220250015302 0 0.018474794269223604 -0.0028038892580623982 0 0.018419850103974039 -0.0027403426186579554 0 0.01859830540473352 -0.0026608066076017779 0 0.018474794269223604 -0.0028038892580623982 0 0.018244401187312523 -0.0028451202775959064 0 0.018419850103974039 -0.0027403426186579554 0 0.018474794269223604 -0.0028038892580623982 0 0.018419850103974039 -0.0027403426186579554 0 0.018472262572022263 -0.0026575491620351921 0 0.01859830540473352 -0.0026608066076017779 0 0.018472262572022263 -0.0026575491620351921 0 0.018294435962131299 -0.0027115675793037606 0 0.018571311787430895 -0.0025313835801143731 0 0.018304370134380323 -0.0027588234036518802 0 0.018419850103974039 -0.0027403426186579554 0 0.018472262572022263 -0.0026575491620351921 0 0.018304370134380323 -0.0027588234036518802 0 0.018472262572022263 -0.0026575491620351921 0 0.018294435962131299 -0.0027115675793037606 0 0.018294435962131299 -0.0027115675793037606 0 0.018224165972695348 -0.0026950572300493726 0 0.018571311787430895 -0.0025313835801143731 0 0.018076791546991631 -0.002830414558140891 0 0.018294435962131299 -0.0027115675793037606 0 0.018224165972695348 -0.0026950572300493726 0 0.017926296401111472 -0.0029178997359850401 0 0.018076791546991631 -0.002830414558140891 0 0.018224165972695348 -0.0026950572300493726 0 0.018224165972695348 -0.0026950572300493726 0 0.018459175725214542 -0.002533204214820809 0 0.018571311787430895 -0.0025313835801143731 0 0.018459175725214542 -0.002533204214820809 0 0.018760223710865675 -0.0023121663186455063 0 0.018652087688136088 -0.0024406715132346602 0 0.018760223710865675 -0.0023121663186455063 0 0.018818524720882662 -0.0024021129143921901 0 0.019225060242341878 -0.0022890120319994101 0 0.018760223710865675 -0.0023121663186455063 0 0.018818524720882662 -0.0024021129143921901 0 0.018652087688136088 -0.0024406715132346602 0 0.018818524720882662 -0.0024021129143921901 0 0.018571311787430895 -0.0025313835801143731 0 0.018759401873342605 -0.0024814652570899196 0 0.018818524720882662 -0.0024021129143921901 0 0.018652087688136088 -0.0024406715132346602 0 0.018571311787430895 -0.0025313835801143731 0 0.018459175725214542 -0.002533204214820809 0 0.018652087688136088 -0.0024406715132346602 0 0.018571311787430895 -0.0025313835801143731 0 0.018472262572022263 -0.0026575491620351921 0 0.018571311787430895 -0.0025313835801143731 0 0.018680855811841091 -0.0025612782982824748 0 0.018571311787430895 -0.0025313835801143731 0 0.018759401873342605 -0.0024814652570899196 0 0.018680855811841091 -0.0025612782982824748 0 0.018472262572022263 -0.0026575491620351921 0 0.018680855811841091 -0.0025612782982824748 0 0.01859830540473352 -0.0026608066076017779 0 0.018680855811841091 -0.0025612782982824748 0 0.01859830540473352 -0.0026608066076017779 0 0.018850328730681196 -0.0025644080566814514 0 0.01859830540473352 -0.0026608066076017779 0 0.018850328730681196 -0.0025644080566814514 0 0.01873680511470532 -0.002684220250015302 0 0.018850328730681196 -0.0025644080566814514 0 0.019126248972694489 -0.0025461104701217751 0 0.01873680511470532 -0.002684220250015302 0 0.018850328730681196 -0.0025644080566814514 0 0.018976288162592982 -0.0024416836222344441 0 0.019126248972694489 -0.0025461104701217751 0 0.018818524720882662 -0.0024021129143921901 0 0.018976288162592982 -0.0024416836222344441 0 0.019225060242341878 -0.0022890120319994101 0 0.018680855811841091 -0.0025612782982824748 0 0.018850328730681196 -0.0025644080566814514 0 0.018976288162592982 -0.0024416836222344441 0 0.018818524720882662 -0.0024021129143921901 0 0.018759401873342605 -0.0024814652570899196 0 0.018976288162592982 -0.0024416836222344441 0 0.018759401873342605 -0.0024814652570899196 0 0.018680855811841091 -0.0025612782982824748 0 0.018976288162592982 -0.0024416836222344441 0 0.018976288162592982 -0.0024416836222344441 0 0.019518202404870438 -0.0023375446813590885 0 0.019126248972694489 -0.0025461104701217751 0 0.018976288162592982 -0.0024416836222344441 0 0.019225060242341878 -0.0022890120319994101 0 0.019518202404870438 -0.0023375446813590885 0 0.020007112515716022 -0.0020220163262835507 0 0.019225060242341878 -0.0022890120319994101 0 0.019518202404870438 -0.0023375446813590885 0 0.020007112515716022 -0.0020220163262835507 0 0.018760223710865675 -0.0023121663186455063 0 0.019225060242341878 -0.0022890120319994101 0 0.019997618211984307 -0.0013984531938733594 0 0.020007112515716022 -0.0020220163262835507 0 0.018812043479766723 -0.0017627877339670361 0 0.020007112515716022 -0.0020220163262835507 0 0.018745774983395413 -0.0017876565779827525 0 0.018812043479766723 -0.0017627877339670361 0 0.019870484538865921 -0.0021083133094619653 0 0.018803561625645157 -0.002067028273267657 0 0.017229525284399749 -0.0039732060474557225 0 0.017393990999909119 -0.0033899746190254824 0 0.017287108499854705 -0.0034512112826942539 0 0.017369624715399365 -0.0035024421049934884 0 0.017229525284399749 -0.0039732060474557225 0 0.017287108499854705 -0.0034512112826942539 0 0.016822797958546985 -0.0044601219982482931 0 0.017168342245570768 -0.0040372386291158274 0 0.016331951946805184 -0.0052519207714032175 0 0.016258231033921634 -0.0044251088440935855 0 0.017229525284399749 -0.0039732060474557225 0 0.016331951946805184 -0.0052519207714032175 0 0.016258231033921634 -0.0044251088440935855 0 0.015701783936330559 -0.0051863577530208305 0 0.016798084993323737 -0.0038854484479656751 0 0.016258231033921634 -0.0044251088440935855 0 0.017229525284399749 -0.0039732060474557225 0 0.017278066958696083 -0.0037169401390950946 0 0.016798084993323737 -0.0038854484479656751 0 0.017229525284399749 -0.0039732060474557225 0 0.017278066958696083 -0.0037169401390950946 0 0.017229525284399749 -0.0039732060474557225 0 0.017491519233351172 -0.0034895742558372282 0 0.017656193881987057 -0.0032834967044176933 0 0.017491519233351172 -0.0034895742558372282 0 0.017698534322101316 -0.0031570686279273224 0 0.017698534322101316 -0.0031570686279273224 0 0.017393990999909119 -0.0033899746190254824 0 0.017668117137786932 -0.0031145227220864781 0 0.017491519233351172 -0.0034895742558372282 0 0.017698534322101316 -0.0031570686279273224 0 0.017393990999909119 -0.0033899746190254824 0 0.017229525284399749 -0.0039732060474557225 0 0.017491519233351172 -0.0034895742558372282 0 0.017393990999909119 -0.0033899746190254824 0 0.017393990999909119 -0.0033899746190254824 0 0.017478775683781828 -0.0032362616338621353 0 0.017668117137786932 -0.0031145227220864781 0 0.017393990999909119 -0.0033899746190254824 0 0.017478775683781828 -0.0032362616338621353 0 0.017350338196834056 -0.0032572854421698359 0 0.017393990999909119 -0.0033899746190254824 0 0.017350338196834056 -0.0032572854421698359 0 0.017287108499854705 -0.0034512112826942539 0 0.017478775683781828 -0.0032362616338621353 0 0.017668117137786932 -0.0031145227220864781 0 0.017628179264437535 -0.0031471916683109575 0 0.017878003681148967 -0.0029683556537538746 0 0.017668117137786932 -0.0031145227220864781 0 0.017791170340537087 -0.0030473119700463623 0 0.017668117137786932 -0.0031145227220864781 0 0.017791170340537087 -0.0030473119700463623 0 0.017628179264437535 -0.0031471916683109575 0 0.017791170340537087 -0.0030473119700463623 0 0.017628179264437535 -0.0031471916683109575 0 0.017681485886015768 -0.0031274731574721841 0 0.017628179264437535 -0.0031471916683109575 0 0.017681485886015768 -0.0031274731574721841 0 0.017580714075904374 -0.0031782026484423959 0 0.017681485886015768 -0.0031274731574721841 0 0.017580714075904374 -0.0031782026484423959 0 0.017690462321978587 -0.0031527968980865676 0 0.017681485886015768 -0.0031274731574721841 0 0.017769853844716483 -0.0031077075478058202 0 0.017690462321978587 -0.0031527968980865676 0 0.017791170340537087 -0.0030473119700463623 0 0.017681485886015768 -0.0031274731574721841 0 0.017769853844716483 -0.0031077075478058202 0 0.017856112288866213 -0.0030475349779964449 0 0.017791170340537087 -0.0030473119700463623 0 0.017769853844716483 -0.0031077075478058202 0 0.017478775683781828 -0.0032362616338621353 0 0.017350338196834056 -0.0032572854421698359 0 0.017580714075904374 -0.0031782026484423959 0 0.017478775683781828 -0.0032362616338621353 0 0.017628179264437535 -0.0031471916683109575 0 0.017580714075904374 -0.0031782026484423959 0 0.017350338196834056 -0.0032572854421698359 0 0.017354052850262109 -0.0033284152069802423 0 0.017297307113819892 -0.0033522783968237399 0 0.017354439929688915 -0.0031931718497429568 0 0.017505399760634383 -0.0033514135350290173 0 0.01704196302578986 -0.0031609320759152949 0 0.016647134114204293 -0.0029965093874143259 0 0.017350338196834056 -0.0032572854421698359 0 0.017048216932853778 -0.003154747582180414 0 0.017297307113819892 -0.0033522783968237399 0 0.017350338196834056 -0.0032572854421698359 0 0.017287108499854705 -0.0034512112826942539 0 0.017231826378708074 -0.0033291810385093724 0 0.017350338196834056 -0.0032572854421698359 0 0.017231826378708074 -0.0033291810385093724 0 0.017048216932853778 -0.003154747582180414 0 0.017369624715399365 -0.0035024421049934884 0 0.017287108499854705 -0.0034512112826942539 0 0.017231826378708074 -0.0033291810385093724 0 0.017369624715399365 -0.0035024421049934884 0 0.017231826378708074 -0.0033291810385093724 0 0.017403945092598815 -0.0033362564175683589 0 0.017231826378708074 -0.0033291810385093724 0 0.017369841291305806 -0.0031900213350717914 0 0.017403945092598815 -0.0033362564175683589 0 0.017231826378708074 -0.0033291810385093724 0 0.017048216932853778 -0.003154747582180414 0 0.017369841291305806 -0.0031900213350717914 0 0.017048216932853778 -0.003154747582180414 0 0.017369841291305806 -0.0031900213350717914 0 0.017150348560552357 -0.0027600295333650477 0 0.017369841291305806 -0.0031900213350717914 0 0.017539720151962535 -0.0030190065164617291 0 0.017150348560552357 -0.0027600295333650477 0 0.017539720151962535 -0.0030190065164617291 0 0.017652223631302109 -0.0028061722703109394 0 0.017150348560552357 -0.0027600295333650477 0 0.017369841291305806 -0.0031900213350717914 0 0.017580870995909208 -0.0031446374780818268 0 0.017511865511394969 -0.0032633557997453623 0 0.017369841291305806 -0.0031900213350717914 0 0.017580870995909208 -0.0031446374780818268 0 0.017539720151962535 -0.0030190065164617291 0 0.017580870995909208 -0.0031446374780818268 0 0.017539720151962535 -0.0030190065164617291 0 0.017674140248157996 -0.0030400013560997522 0 0.017539720151962535 -0.0030190065164617291 0 0.017674140248157996 -0.0030400013560997522 0 0.017652223631302109 -0.0028061722703109394 0 0.015521495946530978 -0.0008882045498006505 0 0.016538559689997352 -0.0015336379484129335 0 0.016563033898522934 -0.0013437151052540061 0 0.015844451928417196 -0.00070703969733059606 0 0.015521495946530978 -0.0008882045498006505 0 0.016563033898522934 -0.0013437151052540061 0 0.012034670880459793 -0.00037624573322190012 0 0.017941980379381644 -0.0019564738621268107 0 0.014786278433923217 -0.0022470863842354071 0 0.017375663837627359 -0.0021685732496632606 0 0.017674140248157996 -0.0030400013560997522 0 0.017918605478731271 -0.0032268799475434875 0 0.017652223631302109 -0.0028061722703109394 0 0.015895424138524086 -0.00093283854392977239 0 0.016151538329376561 -0.0013547758165530688 0 0.016538559689997352 -0.0015336379484129335 0 0.017674140248157996 -0.0030400013560997522 0 0.017705480336263887 -0.0031579924254984144 0 0.017918605478731271 -0.0032268799475434875 0 0.017580870995909208 -0.0031446374780818268 0 0.017674140248157996 -0.0030400013560997522 0 0.017705480336263887 -0.0031579924254984144 0 0.017580870995909208 -0.0031446374780818268 0 0.017705480336263887 -0.0031579924254984144 0 0.017645021098538174 -0.0032621364703991477 0 0.017645021098538174 -0.0032621364703991477 0 0.017918605478731271 -0.0032268799475434875 0 0.017604592751491985 -0.0033843752138608364 0 0.017705480336263887 -0.0031579924254984144 0 0.017645021098538174 -0.0032621364703991477 0 0.017918605478731271 -0.0032268799475434875 0 0.016261722432432527 -0.0038434944107633259 0 0.014264245062349896 -0.0041551792147000244 0 0.01416875056428984 -0.0040377540610076496 0 0.015801280373674242 -0.0031346560839827899 0 0.013581206503989593 -0.002236670494331051 0 0.014786278433923217 -0.0022470863842354071 0 0.016261722432432527 -0.0038434944107633259 0 0.017369624715399365 -0.0035024421049934884 0 0.017570024138581022 -0.003370856041742097 0 0.017550640177192565 -0.0033627251668138674 0 0.017369624715399365 -0.0035024421049934884 0 0.017403945092598815 -0.0033362564175683589 0 0.017550640177192565 -0.0033627251668138674 0 0.016822797958546985 -0.0044601219982482931 0 0.016261722432432527 -0.0038434944107633259 0 0.016261722432432527 -0.0038434944107633259 0 0.016436081652081366 -0.003868740448645738 0 0.017369841291305806 -0.0031900213350717914 0 0.017403945092598815 -0.0033362564175683589 0 0.017511865511394969 -0.0032633557997453623 0 0.017403945092598815 -0.0033362564175683589 0 0.017511865511394969 -0.0032633557997453623 0 0.017550640177192565 -0.0033627251668138674 0 0.017580870995909208 -0.0031446374780818268 0 0.017645021098538174 -0.0032621364703991477 0 0.017511865511394969 -0.0032633557997453623 0 0.017645021098538174 -0.0032621364703991477 0 0.017604592751491985 -0.0033843752138608364 0 0.017550640177192565 -0.0033627251668138674 0 0.017645021098538174 -0.0032621364703991477 0 0.017511865511394969 -0.0032633557997453623 0 0.017550640177192565 -0.0033627251668138674 0 0.0055939039526980271 0.001582544846519368 0 0.0057797201219824141 0.0016273622982348396 0 0.0058693867400867331 0.0018942644997177521 0 0.0056354423007373561 0.0015116067619284882 0 0.0056518872436057757 0.0014318827407189952 0 0.0055162215945845968 0.0014951559159994993 0 0.00572437614733339 0.0015285965204117433 0 0.0057500031177041373 0.0014119375004331247 0 0.0058453688095417532 0.0014324027174654414 0 0.00572437614733339 0.0015285965204117433 0 0.0056518872436057757 0.0014318827407189952 0 0.0057500031177041373 0.0014119375004331247 0 0.00572437614733339 0.0015285965204117433 0 0.0056354423007373561 0.0015116067619284882 0 0.0056518872436057757 0.0014318827407189952 0 0.00572437614733339 0.0015285965204117433 0 0.0055939039526980271 0.001582544846519368 0 0.0057797201219824141 0.0016273622982348396 0 0.007521321785086325 0.00094417182105973664 0 0.006820036673304504 0.0015809013489724679 0 0.00572437614733339 0.0015285965204117433 0 0.0055939039526980271 0.001582544846519368 0 0.0056354423007373561 0.0015116067619284882 0 0.007521321785086325 0.00094417182105973664 0 0.012034670880459793 -0.00037624573322190012 0 0.0056214782786713048 0.001550725065243224 0 0.0056354423007373561 0.0015116067619284882 0 0.0055162215945845968 0.0014951559159994993 0 0.015483855314666506 -0.001133419501306293 0 0.015895424138524086 -0.00093283854392977239 0 0.015872558693544057 -0.0013002505938700501 0 0.015895424138524086 -0.00093283854392977239 0 0.015872558693544057 -0.0013002505938700501 0 0.016151538329376561 -0.0013547758165530688 0 0.014786278433923217 -0.0022470863842354071 0 0.012034670880459793 -0.00037624573322190012 0 0.0095689023573114814 -0.0018854149370221035 0 0.009140667866947708 -0.00054568200967856158 0 0.0078283133046117177 -0.00059941631161241151 0 0.010217971937213613 -0.0015362865608571012 0 0.0095689023573114814 -0.0018854149370221035 0 0.009140667866947708 -0.00054568200967856158 0 0.01416875056428984 -0.0040377540610076496 0 0.01276337888399794 -0.0026899252393563808 0 0.013581206503989593 -0.002236670494331051 0 0.014786278433923217 -0.0022470863842354071 0 0.010498913034741224 -0.001206828031337004 0 0.0056518872436057757 0.0014318827407189952 0 0.0055162215945845968 0.0014951559159994993 0 0.0056765917996133147 0.0012111265789956156 0 0.012034670880459793 -0.00037624573322190012 0 0.0058978528986779024 0.00056894175236033722 0 0.0056765917996133147 0.0012111265789956156 0 0.0057500031177041373 0.0014119375004331247 0 0.0058117533492403305 0.001342803425968483 0 0.0056518872436057757 0.0014318827407189952 0 0.0056765917996133147 0.0012111265789956156 0 0.0057500031177041373 0.0014119375004331247 0 0.0078283133046117177 -0.00059941631161241151 0 0.0081204767350703602 0.00028915718114654553 0 0.0068772157554179347 0.00068742839874901397 0 0.009140667866947708 -0.00054568200967856158 0 0.0078283133046117177 -0.00059941631161241151 0 0.0081204767350703602 0.00028915718114654553 0 0.013735112533818306 -0.005468307439223879 0 0.013804040006012227 -0.00513488592469853 0 0.013492617225574485 -0.0052231300950642129 0 0.010498913034741224 -0.001206828031337004 0 0.011212353267809486 -0.0021427768726339129 0 0.011212353267809486 -0.0021427768726339129 0 0.014264245062349896 -0.0041551792147000244 0 0.01276337888399794 -0.0026899252393563808 0 0.011360461804821906 -0.0013564395368928855 0 0.013581206503989593 -0.002236670494331051 0 0.01454666182667424 -0.0056714236642307035 0 0.014174295538011783 -0.0050261846659404941 0 0.014800400847939958 -0.0048290457103725513 0 0.013735112533818306 -0.005468307439223879 0 0.01454666182667424 -0.0056714236642307035 0 0.014174295538011783 -0.0050261846659404941 0 0.014174295538011783 -0.0050261846659404941 0 0.014800400847939958 -0.0048290457103725513 0 0.014397995138880773 -0.0044577088056646941 0 0.014174295538011783 -0.0050261846659404941 0 0.014397995138880773 -0.0044577088056646941 0 0.013652495400364527 -0.0047921185224973264 0 0.013735112533818306 -0.005468307439223879 0 0.014174295538011783 -0.0050261846659404941 0 0.013804040006012227 -0.00513488592469853 0 0.014174295538011783 -0.0050261846659404941 0 0.013804040006012227 -0.00513488592469853 0 0.013652495400364527 -0.0047921185224973264 0 0.013804040006012227 -0.00513488592469853 0 0.013458474369641166 -0.0050708065411531056 0 0.013652495400364527 -0.0047921185224973264 0 0.013458474369641166 -0.0050708065411531056 0 0.013652495400364527 -0.0047921185224973264 0 0.013280393544044205 -0.0049534424481710096 0 0.013804040006012227 -0.00513488592469853 0 0.013458474369641166 -0.0050708065411531056 0 0.013492617225574485 -0.0052231300950642129 0 0.01541025142650353 -0.0059407305119376155 0 0.015701783936330559 -0.0051863577530208305 0 0.015162366286665483 -0.0052609150459622762 0 0.016331951946805184 -0.0052519207714032175 0 0.01541025142650353 -0.0059407305119376155 0 0.015701783936330559 -0.0051863577530208305 0 0.015701783936330559 -0.0051863577530208305 0 0.015162366286665483 -0.0052609150459622762 0 0.015462249692286847 -0.0047895851834986935 0 0.01454666182667424 -0.0056714236642307035 0 0.015162366286665483 -0.0052609150459622762 0 0.014800400847939958 -0.0048290457103725513 0 0.01541025142650353 -0.0059407305119376155 0 0.01454666182667424 -0.0056714236642307035 0 0.015162366286665483 -0.0052609150459622762 0 0.014800400847939958 -0.0048290457103725513 0 0.015462249692286847 -0.0047895851834986935 0 0.015520132191269315 -0.0041939543243776729 0 0.015162366286665483 -0.0052609150459622762 0 0.014800400847939958 -0.0048290457103725513 0 0.015462249692286847 -0.0047895851834986935 0 0.016258231033921634 -0.0044251088440935855 0 0.015701783936330559 -0.0051863577530208305 0 0.015462249692286847 -0.0047895851834986935 0 0.016258231033921634 -0.0044251088440935855 0 0.015462249692286847 -0.0047895851834986935 0 0.015520132191269315 -0.0041939543243776729 0 0.016268745756009739 -0.0036939007947161036 0 0.015520132191269315 -0.0041939543243776729 0 0.015325780448357074 -0.003630817651652146 0 0.015520132191269315 -0.0041939543243776729 0 0.014822724418026637 -0.0040231619838939367 0 0.015325780448357074 -0.003630817651652146 0 0.015520132191269315 -0.0041939543243776729 0 0.014822724418026637 -0.0040231619838939367 0 0.014397995138880773 -0.0044577088056646941 0 0.014800400847939958 -0.0048290457103725513 0 0.015520132191269315 -0.0041939543243776729 0 0.014397995138880773 -0.0044577088056646941 0 0.014397995138880773 -0.0044577088056646941 0 0.013652495400364527 -0.0047921185224973264 0 0.013695295947496721 -0.0043921525717987471 0 0.013652495400364527 -0.0047921185224973264 0 0.013695295947496721 -0.0043921525717987471 0 0.013236508753333787 -0.0046544849747777901 0 0.013695295947496721 -0.0043921525717987471 0 0.013287456736972268 -0.0043300356497139184 0 0.013236508753333787 -0.0046544849747777901 0 0.013695295947496721 -0.0043921525717987471 0 0.013500216787730284 -0.0040943878657543932 0 0.013287456736972268 -0.0043300356497139184 0 0.013695295947496721 -0.0043921525717987471 0 0.013500216787730284 -0.0040943878657543932 0 0.014096963701699479 -0.0040113820384302 0 0.014397995138880773 -0.0044577088056646941 0 0.013695295947496721 -0.0043921525717987471 0 0.014096963701699479 -0.0040113820384302 0 0.014822724418026637 -0.0040231619838939367 0 0.014397995138880773 -0.0044577088056646941 0 0.014096963701699479 -0.0040113820384302 0 0.014822724418026637 -0.0040231619838939367 0 0.014096963701699479 -0.0040113820384302 0 0.014241246944265946 -0.0036022863731571082 0 0.014096963701699479 -0.0040113820384302 0 0.014241246944265946 -0.0036022863731571082 0 0.013699787808092966 -0.0038258596886614166 0 0.014241246944265946 -0.0036022863731571082 0 0.013699787808092966 -0.0038258596886614166 0 0.013474877293498392 -0.0035713027634820759 0 0.013500216787730284 -0.0040943878657543932 0 0.013699787808092966 -0.0038258596886614166 0 0.013242828845219998 -0.0038449931952287087 0 0.013500216787730284 -0.0040943878657543932 0 0.014096963701699479 -0.0040113820384302 0 0.013699787808092966 -0.0038258596886614166 0 0.013699787808092966 -0.0038258596886614166 0 0.013474877293498392 -0.0035713027634820759 0 0.013242828845219998 -0.0038449931952287087 0 0.013474877293498392 -0.0035713027634820759 0 0.012966501177937427 -0.0035899450901184017 0 0.013242828845219998 -0.0038449931952287087 0 0.013474877293498392 -0.0035713027634820759 0 0.013251737017412633 -0.0033503445555620437 0 0.013881417640343502 -0.0032076835774857721 0 0.013474877293498392 -0.0035713027634820759 0 0.013251737017412633 -0.0033503445555620437 0 0.012966501177937427 -0.0035899450901184017 0 0.014241246944265946 -0.0036022863731571082 0 0.013474877293498392 -0.0035713027634820759 0 0.013881417640343502 -0.0032076835774857721 0 0.014821369489623013 -0.0028244628614072921 0 0.014241246944265946 -0.0036022863731571082 0 0.013881417640343502 -0.0032076835774857721 0 0.014821369489623013 -0.0028244628614072921 0 0.014241246944265946 -0.0036022863731571082 0 0.015325780448357074 -0.003630817651652146 0 0.014821369489623013 -0.0028244628614072921 0 0.016246598810779889 -0.003246636017718556 0 0.015325780448357074 -0.003630817651652146 0 0.014821369489623013 -0.0028244628614072921 0 0.016353329186536147 -0.0026314503106113509 0 0.016246598810779889 -0.003246636017718556 0 0.016246598810779889 -0.003246636017718556 0 0.016268745756009739 -0.0036939007947161036 0 0.015325780448357074 -0.003630817651652146 0 0.014822724418026637 -0.0040231619838939367 0 0.014241246944265946 -0.0036022863731571082 0 0.015325780448357074 -0.003630817651652146 0 0.012273190774089031 -0.0039192543769506569 0 0.012018476860516516 -0.0041676932863271322 0 0.011853775380512336 -0.0039063301863528493 0 0.012273190774089031 -0.0039192543769506569 0 0.012327590695702153 -0.0041304430340744786 0 0.012018476860516516 -0.0041676932863271322 0 0.012018476860516516 -0.0041676932863271322 0 0.011683228491866862 -0.0041295826221449559 0 0.011853775380512336 -0.0039063301863528493 0 0.011683228491866862 -0.0041295826221449559 0 0.011609964279787518 -0.00398112088832252 0 0.011853775380512336 -0.0039063301863528493 0 0.011502857600100622 -0.0038363061150972128 0 0.011657833662407661 -0.0036833095652225403 0 0.011853775380512336 -0.0039063301863528493 0 0.011502857600100622 -0.0038363061150972128 0 0.011609964279787518 -0.00398112088832252 0 0.011853775380512336 -0.0039063301863528493 0 0.011657833662407661 -0.0036833095652225403 0 0.011964511418388064 -0.0036820492061243773 0 0.011853775380512336 -0.0039063301863528493 0 0.011964511418388064 -0.0036820492061243773 0 0.011853775380512336 -0.0039063301863528493 0 0.012091787405644001 -0.0037975571286292384 0 0.011964511418388064 -0.0036820492061243773 0 0.012091787405644001 -0.0037975571286292384 0 0.012280147439659182 -0.0036938433414408088 0 0.012273190774089031 -0.0039192543769506569 0 0.011853775380512336 -0.0039063301863528493 0 0.012091787405644001 -0.0037975571286292384 0 0.012273190774089031 -0.0039192543769506569 0 0.012091787405644001 -0.0037975571286292384 0 0.012280147439659182 -0.0036938433414408088 0 0.012556861294874343 -0.0035245771150237571 0 0.012280147439659182 -0.0036938433414408088 0 0.01258053156834496 -0.0037601545780907484 0 0.012273190774089031 -0.0039192543769506569 0 0.012280147439659182 -0.0036938433414408088 0 0.01258053156834496 -0.0037601545780907484 0 0.012556861294874343 -0.0035245771150237571 0 0.01258053156834496 -0.0037601545780907484 0 0.012966501177937427 -0.0035899450901184017 0 0.012924080859162931 -0.0033751780170592884 0 0.013251737017412633 -0.0033503445555620437 0 0.012966501177937427 -0.0035899450901184017 0 0.01258053156834496 -0.0037601545780907484 0 0.012966501177937427 -0.0035899450901184017 0 0.012855353040918888 -0.0039102540919481836 0 0.012966501177937427 -0.0035899450901184017 0 0.013242828845219998 -0.0038449931952287087 0 0.012855353040918888 -0.0039102540919481836 0 0.012855353040918888 -0.0039102540919481836 0 0.01263154711309831 -0.0041769019859311312 0 0.013074390263794282 -0.0041281391446798396 0 0.013242828845219998 -0.0038449931952287087 0 0.012855353040918888 -0.0039102540919481836 0 0.013074390263794282 -0.0041281391446798396 0 0.013500216787730284 -0.0040943878657543932 0 0.013242828845219998 -0.0038449931952287087 0 0.013074390263794282 -0.0041281391446798396 0 0.012273190774089031 -0.0039192543769506569 0 0.01258053156834496 -0.0037601545780907484 0 0.012554021893510119 -0.0039662073641456184 0 0.01258053156834496 -0.0037601545780907484 0 0.012855353040918888 -0.0039102540919481836 0 0.012554021893510119 -0.0039662073641456184 0 0.012855353040918888 -0.0039102540919481836 0 0.012554021893510119 -0.0039662073641456184 0 0.01263154711309831 -0.0041769019859311312 0 0.012273190774089031 -0.0039192543769506569 0 0.012327590695702153 -0.0041304430340744786 0 0.012554021893510119 -0.0039662073641456184 0 0.012327590695702153 -0.0041304430340744786 0 0.012554021893510119 -0.0039662073641456184 0 0.01263154711309831 -0.0041769019859311312 0 0.012327590695702153 -0.0041304430340744786 0 0.01263154711309831 -0.0041769019859311312 0 0.012282020254781315 -0.0043856330457638995 0 0.01263154711309831 -0.0041769019859311312 0 0.012582499070860006 -0.0044445884911555461 0 0.012942720033459245 -0.004408973822125138 0 0.01263154711309831 -0.0041769019859311312 0 0.012582499070860006 -0.0044445884911555461 0 0.012282020254781315 -0.0043856330457638995 0 0.012582499070860006 -0.0044445884911555461 0 0.01240499909374585 -0.0045863946488348198 0 0.012282020254781315 -0.0043856330457638995 0 0.013500216787730284 -0.0040943878657543932 0 0.013074390263794282 -0.0041281391446798396 0 0.013287456736972268 -0.0043300356497139184 0 0.01263154711309831 -0.0041769019859311312 0 0.013074390263794282 -0.0041281391446798396 0 0.012942720033459245 -0.004408973822125138 0 0.013074390263794282 -0.0041281391446798396 0 0.012942720033459245 -0.004408973822125138 0 0.013287456736972268 -0.0043300356497139184 0 0.012942720033459245 -0.004408973822125138 0 0.013236508753333787 -0.0046544849747777901 0 0.012616228127717457 -0.0047374256015912481 0 0.013236508753333787 -0.0046544849747777901 0 0.012616228127717457 -0.0047374256015912481 0 0.012990055335823781 -0.0050360476404830348 0 0.013652495400364527 -0.0047921185224973264 0 0.013236508753333787 -0.0046544849747777901 0 0.012990055335823781 -0.0050360476404830348 0 0.012942720033459245 -0.004408973822125138 0 0.013287456736972268 -0.0043300356497139184 0 0.013236508753333787 -0.0046544849747777901 0 0.012616228127717457 -0.0047374256015912481 0 0.012146552023955363 -0.0047786752348320761 0 0.01241751804024822 -0.005127514262514077 0 0.01240499909374585 -0.0045863946488348198 0 0.012616228127717457 -0.0047374256015912481 0 0.012146552023955363 -0.0047786752348320761 0 0.012582499070860006 -0.0044445884911555461 0 0.01240499909374585 -0.0045863946488348198 0 0.012616228127717457 -0.0047374256015912481 0 0.012582499070860006 -0.0044445884911555461 0 0.012942720033459245 -0.004408973822125138 0 0.012616228127717457 -0.0047374256015912481 0 0.012146552023955363 -0.0047786752348320761 0 0.011719075151038569 -0.004814843108537306 0 0.01241751804024822 -0.005127514262514077 0 0.012146552023955363 -0.0047786752348320761 0 0.012282020254781315 -0.0043856330457638995 0 0.01195354830248082 -0.004487028431954216 0 0.012146552023955363 -0.0047786752348320761 0 0.01195354830248082 -0.004487028431954216 0 0.011894946714582522 -0.0046617070941066012 0 0.01240499909374585 -0.0045863946488348198 0 0.012146552023955363 -0.0047786752348320761 0 0.012282020254781315 -0.0043856330457638995 0 0.012018476860516516 -0.0041676932863271322 0 0.012282020254781315 -0.0043856330457638995 0 0.01195354830248082 -0.004487028431954216 0 0.012327590695702153 -0.0041304430340744786 0 0.012018476860516516 -0.0041676932863271322 0 0.012282020254781315 -0.0043856330457638995 0 0.011490457525780109 -0.0043018160060487439 0 0.011683228491866862 -0.0041295826221449559 0 0.011720074036339422 -0.0043626506665679597 0 0.012018476860516516 -0.0041676932863271322 0 0.01195354830248082 -0.004487028431954216 0 0.011720074036339422 -0.0043626506665679597 0 0.012018476860516516 -0.0041676932863271322 0 0.011683228491866862 -0.0041295826221449559 0 0.011720074036339422 -0.0043626506665679597 0 0.01195354830248082 -0.004487028431954216 0 0.011720074036339422 -0.0043626506665679597 0 0.011766124093888511 -0.0045687381435814897 0 0.011546698637190251 -0.0045062587660998372 0 0.011720074036339422 -0.0043626506665679597 0 0.011766124093888511 -0.0045687381435814897 0 0.011546698637190251 -0.0045062587660998372 0 0.011490457525780109 -0.0043018160060487439 0 0.011720074036339422 -0.0043626506665679597 0 0.011546698637190251 -0.0045062587660998372 0 0.011766124093888511 -0.0045687381435814897 0 0.011719075151038569 -0.004814843108537306 0 0.012146552023955363 -0.0047786752348320761 0 0.011894946714582522 -0.0046617070941066012 0 0.011719075151038569 -0.004814843108537306 0 0.011766124093888511 -0.0045687381435814897 0 0.011894946714582522 -0.0046617070941066012 0 0.011719075151038569 -0.004814843108537306 0 0.01195354830248082 -0.004487028431954216 0 0.011766124093888511 -0.0045687381435814897 0 0.011894946714582522 -0.0046617070941066012 0 0.0055655045995765418 0.00030199143128022604 0 0.005597736032665097 -0.00042961909385833073 0 0.004671009843268176 0.00010828609471437713 0 0.0066481668559377951 -0.0011185894166859276 0 0.0068333444038752933 -0.0010224093929434739 0 0.006972107552791487 -0.0013932214013713312 0 0.0061482162026771283 -0.00080931557600594196 0 0.0061364398350632378 9.5406813966222916e-05 0 0.0059860832391141318 0.00050723779354984715 0 0.0061364398350632378 9.5406813966222916e-05 0 0.0068695256657325459 0.00050397995669531183 0 0.0067343473611548889 0.00051845788418046208 0 0.0067235471907492513 0.00053632164842603333 0 0.0093661668283107676 -0.0030062170760861828 0 0.0096859999401673561 -0.0027587830603466724 0 0.0068333444038752933 -0.0010224093929434739 0 0.006972107552791487 -0.0013932214013713312 0 0.0075972019686026664 -0.0012882571879836442 0 0.0061364398350632378 9.5406813966222916e-05 0 0.0096859999401673561 -0.0027587830603466724 0 0.0063528963923712789 0.00083408383565391521 0 0.0062884189931995153 0.0010936648210436624 0 0.0060901401532924204 0.0011060574966931275 0 0.0062884189931995153 0.0010936648210436624 0 0.0060901401532924204 0.0011060574966931275 0 0.00620127672364115 0.0013067033076200499 0 0.0061364398350632378 9.5406813966222916e-05 0 0.0065039756620216011 0.00094879839492771959 0 0.0068695256657325459 0.00050397995669531183 0 0.0067235471907492513 0.00053632164842603333 0 0.0068042642152510721 0.00064119319375090158 0 0.0063528963923712789 0.00083408383565391521 0 0.0062884189931995153 0.0010936648210436624 0 0.0064446362189421093 0.00098363635560297456 0 0.0062884189931995153 0.0010936648210436624 0 0.0064446362189421093 0.00098363635560297456 0 0.0063911213290788506 0.0012739965771928136 0 0.0065052866617342428 0.00080298050351313051 0 0.0063528963923712789 0.00083408383565391521 0 0.0064446362189421093 0.00098363635560297456 0 0.013430655341716294 -0.0048292964503754473 0 0.013352042935634766 -0.0048510541691509593 0 0.013652495400364527 -0.0047921185224973264 0 0.013280393544044205 -0.0049534424481710096 0 0.012969831970045462 -0.0047747268204144612 0 0.013458474369641166 -0.0050708065411531056 0 0.013492617225574485 -0.0052231300950642129 0 0.012998064317827593 -0.0052550033367725494 0 0.013458474369641166 -0.0050708065411531056 0 0.013280393544044205 -0.0049534424481710096 0 0.012998064317827593 -0.0052550033367725494 0 0.013280393544044205 -0.0049534424481710096 0 0.012969831970045462 -0.0047747268204144612 0 0.012998064317827593 -0.0052550033367725494 0 0.012616228127717457 -0.0047374256015912481 0 0.012990055335823781 -0.0050360476404830348 0 0.01241751804024822 -0.005127514262514077 0 0.0068772157554179347 0.00068742839874901397 0 0.0067343473611548889 0.00051845788418046208 0 0.0067235471907492513 0.00053632164842603333 0 0.012969831970045462 -0.0047747268204144612 0 0.012998064317827593 -0.0052550033367725494 0 0.0121120065010463 -0.0049104862799309841 0 0.0098713476923232481 -0.0022645081435739827 0 0.0096859999401673561 -0.0027587830603466724 0 0.013352042935634766 -0.0048510541691509593 0 0.0096859999401673561 -0.0027587830603466724 0 0.0065039756620216011 0.00094879839492771959 0 0.0059457025077181373 0.0012306613636386501 0 0.0068772157554179347 0.00068742839874901397 0 0.0067235471907492513 0.00053632164842603333 0 0.0066113581723381155 0.00051419676757665184 0 0.0068042642152510721 0.00064119319375090158 0 0.0066113581723381155 0.00051419676757665184 0 0.0059462592287074503 0.0012775313228364231 0 0.0067235471907492513 0.00053632164842603333 0 0.0068042642152510721 0.00064119319375090158 0 0.0066113581723381155 0.00051419676757665184 0 0.0078283133046117177 -0.00059941631161241151 0 0.0068772157554179347 0.00068742839874901397 0 0.0066113581723381155 0.00051419676757665184 0 0.013735112533818306 -0.005468307439223879 0 0.013492617225574485 -0.0052231300950642129 0 0.012998064317827593 -0.0052550033367725494 0 0.011212353267809486 -0.0021427768726339129 0 0.0098713476923232481 -0.0022645081435739827 0 0.0058978528986779024 0.00056894175236033722 0 0.0069536526486882301 0.00033179861222406995 0 0.0056765917996133147 0.0012111265789956156 0 0.0066113581723381155 0.00051419676757665184 0 0.0059462592287074503 0.0012775313228364231 0 0.0058453688095417532 0.0014324027174654414 0 0.0059462592287074503 0.0012775313228364231 0 0.0059506883646482309 0.0013686990195100803 0 0.0058453688095417532 0.0014324027174654414 0 0.0058117533492403305 0.001342803425968483 0 0.0059462592287074503 0.0012775313228364231 0 0.0057500031177041373 0.0014119375004331247 0 0.0058453688095417532 0.0014324027174654414 0 0.0058117533492403305 0.001342803425968483 0 0.0056765917996133147 0.0012111265789956156 0 0.0058117533492403305 0.001342803425968483 0 0.0059462592287074503 0.0012775313228364231 0 0.0059462592287074503 0.0012775313228364231 0 0.0059506883646482309 0.0013686990195100803 0 0.0060351429276306453 0.0012745342312284822 0 0.0059506883646482309 0.0013686990195100803 0 0.0060351429276306453 0.0012745342312284822 0 0.0059570882986220691 0.0015175780967142322 0 0.0060901401532924204 0.0011060574966931275 0 0.0059462592287074503 0.0012775313228364231 0 0.0060351429276306453 0.0012745342312284822 0 0.0060901401532924204 0.0011060574966931275 0 0.0060351429276306453 0.0012745342312284822 0 0.00620127672364115 0.0013067033076200499 0 0.0060351429276306453 0.0012745342312284822 0 0.006115096560894543 0.0015043136861931873 0 0.00620127672364115 0.0013067033076200499 0 0.0060351429276306453 0.0012745342312284822 0 0.006115096560894543 0.0015043136861931873 0 0.0059570882986220691 0.0015175780967142322 0 0.006115096560894543 0.0015043136861931873 0 0.0059570882986220691 0.0015175780967142322 0 0.0061087731017119224 0.0018352656275682814 0 0.0059570882986220691 0.0015175780967142322 0 0.0057797201219824141 0.0016273622982348396 0 0.0058693867400867331 0.0018942644997177521 0 0.0058453688095417532 0.0014324027174654414 0 0.0059506883646482309 0.0013686990195100803 0 0.0059570882986220691 0.0015175780967142322 0 0.0058453688095417532 0.0014324027174654414 0 0.0059570882986220691 0.0015175780967142322 0 0.0057797201219824141 0.0016273622982348396 0 0.00572437614733339 0.0015285965204117433 0 0.0058453688095417532 0.0014324027174654414 0 0.0057797201219824141 0.0016273622982348396 0 0.0065707944908708522 0.001164235098697177 0 0.0064446362189421093 0.00098363635560297456 0 0.0063911213290788506 0.0012739965771928136 0 0.0065707944908708522 0.001164235098697177 0 0.0063911213290788506 0.0012739965771928136 0 0.0065375916813384376 0.001536979857549311 0 0.0063911213290788506 0.0012739965771928136 0 0.00620127672364115 0.0013067033076200499 0 0.0063533588311964016 0.0016859605243962428 0 0.0062884189931995153 0.0010936648210436624 0 0.0063911213290788506 0.0012739965771928136 0 0.00620127672364115 0.0013067033076200499 0 0.006115096560894543 0.0015043136861931873 0 0.00620127672364115 0.0013067033076200499 0 0.0063533588311964016 0.0016859605243962428 0 0.006115096560894543 0.0015043136861931873 0 0.0063533588311964016 0.0016859605243962428 0 0.0061087731017119224 0.0018352656275682814 0 0.0063911213290788506 0.0012739965771928136 0 0.0063533588311964016 0.0016859605243962428 0 0.0065375916813384376 0.001536979857549311 0 0.0063533588311964016 0.0016859605243962428 0 0.0065375916813384376 0.001536979857549311 0 0.0066473471330010855 0.001881282331684957 0 0.0063533588311964016 0.0016859605243962428 0 0.0065815617233505102 0.0022183380510064485 0 0.0066473471330010855 0.001881282331684957 0 0.0063533588311964016 0.0016859605243962428 0 0.006323376663902854 0.0021817985054424951 0 0.0065815617233505102 0.0022183380510064485 0 0.0063533588311964016 0.0016859605243962428 0 0.006323376663902854 0.0021817985054424951 0 0.0061087731017119224 0.0018352656275682814 0 0.006323376663902854 0.0021817985054424951 0 0.0065815617233505102 0.0022183380510064485 0 0.0064997290570596644 0.0026499985912250982 0 0.006323376663902854 0.0021817985054424951 0 0.0059180160290119074 0.0022441951800772396 0 0.0064997290570596644 0.0026499985912250982 0 0.0058693867400867331 0.0018942644997177521 0 0.0059180160290119074 0.0022441951800772396 0 0.0056332578533262092 0.0019658292060729531 0 0.0059570882986220691 0.0015175780967142322 0 0.0058693867400867331 0.0018942644997177521 0 0.0061087731017119224 0.0018352656275682814 0 0.0058693867400867331 0.0018942644997177521 0 0.0061087731017119224 0.0018352656275682814 0 0.0059180160290119074 0.0022441951800772396 0 0.006323376663902854 0.0021817985054424951 0 0.0061087731017119224 0.0018352656275682814 0 0.0059180160290119074 0.0022441951800772396 0 0.0059180160290119074 0.0022441951800772396 0 0.0059754062305060994 0.0028133268858656236 0 0.0055964233319139691 0.0024896983994693533 0 0.0068076971489126146 0.0033391812195884083 0 0.0061725083174111392 0.0035437694704028139 0 0.0059180160290119074 0.0022441951800772396 0 0.0059754062305060994 0.0028133268858656236 0 0.0064997290570596644 0.0026499985912250982 0 0.0073297864001360133 0.0038805802744299144 0 0.0066180283412346028 0.0032569193830487707 0 0.0071689957071713181 0.0033606079377436035 0 0.0068076971489126146 0.0033391812195884083 0 0.0065833668868101828 0.0032727095377633837 0 0.0073297864001360133 0.0038805802744299144 0 0.0071689957071713181 0.0033606079377436035 0 0.0078055318650919079 0.0035340302493890958 0 0.0073297864001360133 0.0038805802744299144 0 0.0078055318650919079 0.0035340302493890958 0 0.0080776793554486054 0.0041916315267948685 0 0.0065815617233505102 0.0022183380510064485 0 0.0064997290570596644 0.0026499985912250982 0 0.006817919462192696 0.0026719548382124815 0 0.0064997290570596644 0.0026499985912250982 0 0.0067459993296767589 0.0029826810771939245 0 0.006817919462192696 0.0026719548382124815 0 0.0059754062305060994 0.0028133268858656236 0 0.0064997290570596644 0.0026499985912250982 0 0.0066180283412346028 0.0032569193830487707 0 0.0064997290570596644 0.0026499985912250982 0 0.0066180283412346028 0.0032569193830487707 0 0.0067459993296767589 0.0029826810771939245 0 0.0066180283412346028 0.0032569193830487707 0 0.0067459993296767589 0.0029826810771939245 0 0.0067934363341091916 0.0031847260471206977 0 0.0066180283412346028 0.0032569193830487707 0 0.0067934363341091916 0.0031847260471206977 0 0.0067883335725860703 0.0033367423709018693 0 0.0067934363341091916 0.0031847260471206977 0 0.0067883335725860703 0.0033367423709018693 0 0.0068916267367111509 0.003236708326599769 0 0.0067883335725860703 0.0033367423709018693 0 0.0068962577182268489 0.0033498257083581159 0 0.0068545469726499844 0.0033692199005803097 0 0.0067883335725860703 0.0033367423709018693 0 0.0068962577182268489 0.0033498257083581159 0 0.0071449470233107106 0.0033939454772709552 0 0.0068405462858959288 0.0033407889405216344 0 0.0071483684449305312 0.0033399900083200987 0 0.0067883335725860703 0.0033367423709018693 0 0.0072782569167876166 0.0036515774433398206 0 0.0071449470233107106 0.0033939454772709552 0 0.0066180283412346028 0.0032569193830487707 0 0.0067883335725860703 0.0033367423709018693 0 0.006947483454167039 0.0030416345741647089 0 0.0066180283412346028 0.0032569193830487707 0 0.0071689957071713181 0.0033606079377436035 0 0.006947483454167039 0.0030416345741647089 0 0.0071689957071713181 0.0033606079377436035 0 0.007465338783916497 0.0031954584376794946 0 0.006947483454167039 0.0030416345741647089 0 0.0071689957071713181 0.0033606079377436035 0 0.0078055318650919079 0.0035340302493890958 0 0.007465338783916497 0.0031954584376794946 0 0.0078055318650919079 0.0035340302493890958 0 0.007465338783916497 0.0031954584376794946 0 0.0079217301152154779 0.003183629370687844 0 0.007465338783916497 0.0031954584376794946 0 0.0077253160410511541 0.0028376537489043633 0 0.0079217301152154779 0.003183629370687844 0 0.0079005024994689421 0.0032903151650993706 0 0.0071483684449305312 0.0033399900083200987 0 0.007465338783916497 0.0031954584376794946 0 0.0077253160410511541 0.0028376537489043633 0 0.006947483454167039 0.0030416345741647089 0 0.0080697645173759304 0.0037378929628252306 0 0.0072782569167876166 0.0036515774433398206 0 0.0076035302089179314 0.0034824739664462857 0 0.0072782569167876166 0.0036515774433398206 0 0.0076035302089179314 0.0034824739664462857 0 0.0071449470233107106 0.0033939454772709552 0 0.0076035302089179314 0.0034824739664462857 0 0.0075373833166034509 0.0032693370683388834 0 0.0071449470233107106 0.0033939454772709552 0 0.0076035302089179314 0.0034824739664462857 0 0.0075373833166034509 0.0032693370683388834 0 0.0079069844762130158 0.0033428547105977219 0 0.0075373833166034509 0.0032693370683388834 0 0.00730373517583526 0.0031381827455842001 0 0.0071449470233107106 0.0033939454772709552 0 0.0079069844762130158 0.0033428547105977219 0 0.0080262739424755807 0.0029852537910383115 0 0.008419871818067054 0.0035663585213908887 0 0.0080697645173759304 0.0037378929628252306 0 0.0079069844762130158 0.0033428547105977219 0 0.008419871818067054 0.0035663585213908887 0 0.0080697645173759304 0.0037378929628252306 0 0.0076035302089179314 0.0034824739664462857 0 0.0079069844762130158 0.0033428547105977219 0 0.0075373833166034509 0.0032693370683388834 0 0.0079069844762130158 0.0033428547105977219 0 0.0077691594786945192 0.0031152722459724686 0 0.0077691594786945192 0.0031152722459724686 0 0.0080262739424755807 0.0029852537910383115 0 0.0076236093264682812 0.0029238946147743406 0 0.0079069844762130158 0.0033428547105977219 0 0.0077691594786945192 0.0031152722459724686 0 0.0080262739424755807 0.0029852537910383115 0 0.0075373833166034509 0.0032693370683388834 0 0.0076236093264682812 0.0029238946147743406 0 0.00730373517583526 0.0031381827455842001 0 0.0076236093264682812 0.0029238946147743406 0 0.00730373517583526 0.0031381827455842001 0 0.0072460091824475426 0.0028324978633786041 0 0.0075373833166034509 0.0032693370683388834 0 0.0077691594786945192 0.0031152722459724686 0 0.0076236093264682812 0.0029238946147743406 0 0.00730373517583526 0.0031381827455842001 0 0.0070150711458798415 0.0032316774064756761 0 0.0072460091824475426 0.0028324978633786041 0 0.0044928486952183965 0.0077935292231036393 0 0.0062912564779840641 0.0066209221360981558 0 0.0070150711458798415 0.0032316774064756761 0 0.0068198040543664944 0.0032045046575271824 0 0.0072460091824475426 0.0028324978633786041 0 0.0048641824603341032 0.010489363388835838 0 0.0048855755077446298 0.010539962393374019 0 0.0048608944586746557 0.010489526134703933 0 0.0044928486952183965 0.0077935292231036393 0 0.0022654913855521615 0.010063128205326337 0 0.0068198040543664944 0.0032045046575271824 0 0.0068501794356092601 0.0032639300828924632 0 0.0068456616366599889 0.0033067684330347949 0 0.0068198040543664944 0.0032045046575271824 0 0.0068501794356092601 0.0032639300828924632 0 0.0068972320155148365 0.0032726941853026877 0 0.0068501794356092601 0.0032639300828924632 0 0.0068658701020537956 0.003313375921357256 0 0.0068456616366599889 0.0033067684330347949 0 0.0068501794356092601 0.0032639300828924632 0 0.0068972320155148365 0.0032726941853026877 0 0.0068658701020537956 0.003313375921357256 0 0.0070150711458798415 0.0032316774064756761 0 0.0068198040543664944 0.0032045046575271824 0 0.0068972320155148365 0.0032726941853026877 0 0.0070150711458798415 0.0032316774064756761 0 0.0068972320155148365 0.0032726941853026877 0 0.0068962577182268489 0.0033498257083581159 0 0.0068658701020537956 0.003313375921357256 0 0.0068962577182268489 0.0033498257083581159 0 0.0068515241466792802 0.0033527183835519161 0 0.0068972320155148365 0.0032726941853026877 0 0.0068658701020537956 0.003313375921357256 0 0.0068962577182268489 0.0033498257083581159 0 0.0068962577182268489 0.0033498257083581159 0 0.0068515241466792802 0.0033527183835519161 0 0.0068545469726499844 0.0033692199005803097 0 0.0070150711458798415 0.0032316774064756761 0 0.0068962577182268489 0.0033498257083581159 0 0.0071449470233107106 0.0033939454772709552 0 0.00730373517583526 0.0031381827455842001 0 0.0070150711458798415 0.0032316774064756761 0 0.0071449470233107106 0.0033939454772709552 0 0.008990471683939804 0.0033080709140770911 0 0.0089621719001565757 0.003288601830668801 0 0.0090359526668053348 0.0033103656118010092 0 0.008990471683939804 0.0033080709140770911 0 0.0090158013410142814 0.0034593998168129174 0 0.0090359526668053348 0.0033103656118010092 0 0.008990471683939804 0.0033080709140770911 0 0.0090158013410142814 0.0034593998168129174 0 0.0089936025235352653 0.0034627243520322648 0 0.0090158013410142814 0.0034593998168129174 0 0.0089936025235352653 0.0034627243520322648 0 0.0090014670138533568 0.0035700134070138227 0 0.008990471683939804 0.0033080709140770911 0 0.0089936025235352653 0.0034627243520322648 0 0.0089438467523434931 0.0034352151097811947 0 0.0089936025235352653 0.0034627243520322648 0 0.0089643427227230534 0.0034643618629635465 0 0.0089438467523434931 0.0034352151097811947 0 0.0089643427227230534 0.0034643618629635465 0 0.0089218722344693302 0.003450176222771949 0 0.0089438467523434931 0.0034352151097811947 0 0.0089218722344693302 0.003450176222771949 0 0.0089438467523434931 0.0034352151097811947 0 0.0087311888142262602 0.0034531908969922028 0 0.0086490618257147704 0.0036434319911334881 0 0.0086740048441898508 0.0035085225222885297 0 0.0085166835791543362 0.0037686891349100349 0 0.0086740048441898508 0.0035085225222885297 0 0.0087311888142262602 0.0034531908969922028 0 0.0085166835791543362 0.0037686891349100349 0 0.0087440709647409777 0.0035099612462006873 0 0.0086740048441898508 0.0035085225222885297 0 0.008419871818067054 0.0035663585213908887 0 0.0089218722344693302 0.003450176222771949 0 0.0087311888142262602 0.0034531908969922028 0 0.0090135799942925223 0.0034852372032363171 0 0.008753473245031047 0.0035848260802526467 0 0.0087243088013463557 0.0034265194613286943 0 0.0087440709647409777 0.0035099612462006873 0 0.0086490618257147704 0.0036434319911334881 0 0.0086740048441898508 0.0035085225222885297 0 0.0080697645173759304 0.0037378929628252306 0 0.008419871818067054 0.0035663585213908887 0 0.0088593661389405921 0.0035936526202092881 0 0.0084663933996504178 0.0027958941612586997 0 0.0084478608314045404 0.0037530551622987391 0 0.0086740048441898508 0.0035085225222885297 0 0.0087311888142262602 0.0034531908969922028 0 0.008419871818067054 0.0035663585213908887 0 0.0087311888142262602 0.0034531908969922028 0 0.008419871818067054 0.0035663585213908887 0 0.0088593661389405921 0.0035936526202092881 0 0.0089352411033270119 0.0032982390954391025 0 0.0086521190506290667 0.0032671628024517605 0 0.008990471683939804 0.0033080709140770911 0 0.0085187750544318142 0.0029267393532808272 0 0.0086535829097563414 0.0031457809549483829 0 0.008990471683939804 0.0033080709140770911 0 0.0089438467523434931 0.0034352151097811947 0 0.0088593661389405921 0.0035936526202092881 0 0.0089438467523434931 0.0034352151097811947 0 0.0087311888142262602 0.0034531908969922028 0 0.0088593661389405921 0.0035936526202092881 0 0.0085187750544318142 0.0029267393532808272 0 0.0086535829097563414 0.0031457809549483829 0 0.0082477379003832695 0.0030756856479714646 0 0.0086535829097563414 0.0031457809549483829 0 0.0082477379003832695 0.0030756856479714646 0 0.0084108242922824976 0.0032835359351942412 0 0.0086535829097563414 0.0031457809549483829 0 0.0088176761851783275 0.0035237592682431204 0 0.008873854739341323 0.0032546754740339174 0 0.0082477379003832695 0.0030756856479714646 0 0.0079217301152154779 0.003183629370687844 0 0.0084108242922824976 0.0032835359351942412 0 0.0079005024994689421 0.0032903151650993706 0 0.0086521190506290667 0.0032671628024517605 0 0.0077253160410511541 0.0028376537489043633 0 0.0085187750544318142 0.0029267393532808272 0 0.0082477379003832695 0.0030756856479714646 0 0.0077253160410511541 0.0028376537489043633 0 0.0082477379003832695 0.0030756856479714646 0 0.0079217301152154779 0.003183629370687844 0 0.0078055318650919079 0.0035340302493890958 0 0.0084108242922824976 0.0032835359351942412 0 0.0084200521115254442 0.0036863507913168772 0 0.0078055318650919079 0.0035340302493890958 0 0.0079217301152154779 0.003183629370687844 0 0.0084108242922824976 0.0032835359351942412 0 0.0084108242922824976 0.0032835359351942412 0 0.0088059846826432347 0.0033855518213437765 0 0.0084200521115254442 0.0036863507913168772 0 0.0086535829097563414 0.0031457809549483829 0 0.0084108242922824976 0.0032835359351942412 0 0.0088176761851783275 0.0035237592682431204 0 0.0085970885613954173 0.0033630087004621373 0 0.0084301524983408978 0.0032569450466720471 0 0.0088059846826432347 0.0033855518213437765 0 0.0092561376273222282 0.0035311012987670914 0 0.0087703107031065989 0.0037209664196987966 0 0.0088176761851783275 0.0035237592682431204 0 0.0091189932622250808 0.0034417634868858489 0 0.009269979154296927 0.0037289566193145903 0 0.0084301524983408978 0.0032569450466720471 0 0.013130495508713097 0.00097302985545787753 0 0.0088176761851783275 0.0035237592682431204 0 0.0091189932622250808 0.0034417634868858489 0 0.008873854739341323 0.0032546754740339174 0 0.008990471683939804 0.0033080709140770911 0 0.0089621719001565757 0.003288601830668801 0 0.008873854739341323 0.0032546754740339174 0 0.008990471683939804 0.0033080709140770911 0 0.0086535829097563414 0.0031457809549483829 0 0.008873854739341323 0.0032546754740339174 0 0.0091189932622250808 0.0034417634868858489 0 0.008873854739341323 0.0032546754740339174 0 0.0095400615976008029 0.0032112323581206179 0 0.0080868590110579081 0.0034219992033762674 0 0.011422667712367406 0.0019735295981429613 0 0.0089621719001565757 0.003288601830668801 0 0.008873854739341323 0.0032546754740339174 0 0.0090145780840511971 0.0033270455321680278 0 0.011422667712367406 0.0019735295981429613 0 0.0085963583535422407 0.0039516256360162157 0 0.0089621719001565757 0.003288601830668801 0 0.0090145780840511971 0.0033270455321680278 0 0.0090359526668053348 0.0033103656118010092 0 0.016504287634622958 -0.00086718540350028692 0 0.016631090443827948 -0.0011175169142327349 0 0.016408599610121265 -0.0010646870115648226 0 0.011422667712367406 0.0019735295981429613 0 0.013130495508713097 0.00097302985545787753 0 0.0091189932622250808 0.0034417634868858489 0 0.0095400615976008029 0.0032112323581206179 0 0.009269979154296927 0.0037289566193145903 0 0.016520224747790045 -0.0017278688100824686 0 0.016532173665418027 -0.0017867087916898703 0 0.016496463820537235 -0.0018220938636232138 0 0.016520224747790045 -0.0017278688100824686 0 0.016532173665418027 -0.0017867087916898703 0 0.016495581611127727 -0.0016647332214837789 0 0.016631090443827948 -0.0011175169142327349 0 0.01640758569857604 -0.0012959893960402806 0 0.016408599610121265 -0.0010646870115648226 0 0.013130495508713097 0.00097302985545787753 0 0.016946918244884774 -0.0015255864619958019 0 0.0092561376273222282 0.0035311012987670914 0 0.009013810153065089 0.0039841103004122046 0 0.0087703107031065989 0.0037209664196987966 0 0.013130495508713097 0.00097302985545787753 0 0.012816228715619979 0.0010533707670213391 0 0.009013810153065089 0.0039841103004122046 0 0.0087703107031065989 0.0037209664196987966 0 0.0086091872332989712 0.0040239971785874535 0 0.016496463820537235 -0.0018220938636232138 0 0.016328193797730969 -0.0018843394279427492 0 0.016328150190972401 -0.0018935619600050882 0 0.012816228715619979 0.0010533707670213391 0 0.01075114339704622 0.00080626312418927777 0 0.009013810153065089 0.0039841103004122046 0 0.0086091872332989712 0.0040239971785874535 0 0.0087764680898054451 0.0044367071849537977 0 0.016496463820537235 -0.0018220938636232138 0 0.016503087086644004 -0.0018672397165277192 0 0.016328150190972401 -0.0018935619600050882 0 0.016532173665418027 -0.0017867087916898703 0 0.016496463820537235 -0.0018220938636232138 0 0.016503087086644004 -0.0018672397165277192 0 0.016503087086644004 -0.0018672397165277192 0 0.016587969057050636 -0.001886007401464073 0 0.016594864261185473 -0.0018307716952653697 0 0.016532173665418027 -0.0017867087916898703 0 0.016495581611127727 -0.0016647332214837789 0 0.016594864261185473 -0.0018307716952653697 0 0.016532173665418027 -0.0017867087916898703 0 0.016503087086644004 -0.0018672397165277192 0 0.016594864261185473 -0.0018307716952653697 0 0.0078055318650919079 0.0035340302493890958 0 0.0084200521115254442 0.0036863507913168772 0 0.0080776793554486054 0.0041916315267948685 0 0.0084200521115254442 0.0036863507913168772 0 0.0086091872332989712 0.0040239971785874535 0 0.0080776793554486054 0.0041916315267948685 0 0.0088059846826432347 0.0033855518213437765 0 0.0084200521115254442 0.0036863507913168772 0 0.0087703107031065989 0.0037209664196987966 0 0.0084200521115254442 0.0036863507913168772 0 0.0087703107031065989 0.0037209664196987966 0 0.0086091872332989712 0.0040239971785874535 0 0.0055964233319139691 0.0024896983994693533 0 0.0055294623433133966 0.0022214671126374254 0 0.0053031450339725795 0.0022603682054127272 0 0.0086091872332989712 0.0040239971785874535 0 0.0080776793554486054 0.0041916315267948685 0 0.0087764680898054451 0.0044367071849537977 0 0.0061725083174111392 0.0035437694704028139 0 0.01075114339704622 0.00080626312418927777 0 0.0059180160290119074 0.0022441951800772396 0 0.0055964233319139691 0.0024896983994693533 0 0.0055294623433133966 0.0022214671126374254 0 0.0055294623433133966 0.0022214671126374254 0 0.0054098133532986719 0.0019962168693205555 0 0.0056332578533262092 0.0019658292060729531 0 0.0059180160290119074 0.0022441951800772396 0 0.0055294623433133966 0.0022214671126374254 0 0.0056332578533262092 0.0019658292060729531 0 0.01075114339704622 0.00080626312418927777 0 0.010892807977867406 -0.00017418781023709811 0 0.016192938551818505 -0.0019513094653509345 0 0.015838694360497944 -0.0016250515322548135 0 0.016222964682857589 -0.0017686954179569339 0 0.0055294623433133966 0.0022214671126374254 0 0.0053031450339725795 0.0022603682054127272 0 0.0054098133532986719 0.0019962168693205555 0 0.007521321785086325 0.00094417182105973664 0 0.010892807977867406 -0.00017418781023709811 0 0.015483855314666506 -0.001133419501306293 0 0.015872558693544057 -0.0013002505938700501 0 0.015838694360497944 -0.0016250515322548135 0 0.015838694360497944 -0.0016250515322548135 0 0.016222964682857589 -0.0017686954179569339 0 0.016134960013197499 -0.0015635233964967003 0 0.015872558693544057 -0.0013002505938700501 0 0.016134960013197499 -0.0015635233964967003 0 0.016151538329376561 -0.0013547758165530688 0 0.015872558693544057 -0.0013002505938700501 0 0.015838694360497944 -0.0016250515322548135 0 0.016134960013197499 -0.0015635233964967003 0 0.007521321785086325 0.00094417182105973664 0 0.005193539325809648 0.0019113200240444244 0 0.0055369047289741897 0.0017273668918458061 0 0.0054098133532986719 0.0019962168693205555 0 0.0056332578533262092 0.0019658292060729531 0 0.0055369047289741897 0.0017273668918458061 0 0.0058693867400867331 0.0018942644997177521 0 0.0056332578533262092 0.0019658292060729531 0 0.016587969057050636 -0.001886007401464073 0 0.016841030710718758 -0.0020276124098463867 0 0.016594864261185473 -0.0018307716952653697 0 0.016587969057050636 -0.001886007401464073 0 0.016433027863662176 -0.0018498872968870795 0 0.016498552421255974 -0.0017854899216740796 0 0.016587969057050636 -0.001886007401464073 0 0.016498552421255974 -0.0017854899216740796 0 0.01663716161430346 -0.00179849963443914 0 0.016587969057050636 -0.001886007401464073 0 0.01663716161430346 -0.00179849963443914 0 0.016841030710718758 -0.0020276124098463867 0 0.016503087086644004 -0.0018672397165277192 0 0.016328150190972401 -0.0018935619600050882 0 0.016433027863662176 -0.0018498872968870795 0 0.016503087086644004 -0.0018672397165277192 0 0.016587969057050636 -0.001886007401464073 0 0.016433027863662176 -0.0018498872968870795 0 0.016192938551818505 -0.0019513094653509345 0 0.016328150190972401 -0.0018935619600050882 0 0.016222964682857589 -0.0017686954179569339 0 0.016328150190972401 -0.0018935619600050882 0 0.016222964682857589 -0.0017686954179569339 0 0.016433027863662176 -0.0018498872968870795 0 0.01075114339704622 0.00080626312418927777 0 0.013084257255746468 0.00087278096868841071 0 0.016222964682857589 -0.0017686954179569339 0 0.016433027863662176 -0.0018498872968870795 0 0.016350686385807708 -0.0017083675068034594 0 0.016433027863662176 -0.0018498872968870795 0 0.016498552421255974 -0.0017854899216740796 0 0.016350686385807708 -0.0017083675068034594 0 0.016321911152027885 -0.0015695647888525547 0 0.016455076093396477 -0.0016633932805957263 0 0.016538559689997352 -0.0015336379484129335 0 0.016498552421255974 -0.0017854899216740796 0 0.016350686385807708 -0.0017083675068034594 0 0.016455076093396477 -0.0016633932805957263 0 0.016350686385807708 -0.0017083675068034594 0 0.016321911152027885 -0.0015695647888525547 0 0.016455076093396477 -0.0016633932805957263 0 0.016222964682857589 -0.0017686954179569339 0 0.016350686385807708 -0.0017083675068034594 0 0.016134960013197499 -0.0015635233964967003 0 0.016350686385807708 -0.0017083675068034594 0 0.016321911152027885 -0.0015695647888525547 0 0.016134960013197499 -0.0015635233964967003 0 0.016321911152027885 -0.0015695647888525547 0 0.016134960013197499 -0.0015635233964967003 0 0.016151538329376561 -0.0013547758165530688 0 0.016321911152027885 -0.0015695647888525547 0 0.016151538329376561 -0.0013547758165530688 0 0.016538559689997352 -0.0015336379484129335 0 0.016538559689997352 -0.0015336379484129335 0 0.016563033898522934 -0.0013437151052540061 0 0.01663716161430346 -0.00179849963443914 0 0.017375663837627359 -0.0021685732496632606 0 0.016769512622635655 -0.001941635997239071 0 0.016563033898522934 -0.0013437151052540061 0 0.01663716161430346 -0.00179849963443914 0 0.016841030710718758 -0.0020276124098463867 0 0.017652223631302109 -0.0028061722703109394 0 0.017150348560552357 -0.0027600295333650477 0 0.016841030710718758 -0.0020276124098463867 0 0.016455076093396477 -0.0016633932805957263 0 0.016538559689997352 -0.0015336379484129335 0 0.01663716161430346 -0.00179849963443914 0 0.016498552421255974 -0.0017854899216740796 0 0.016455076093396477 -0.0016633932805957263 0 0.01663716161430346 -0.00179849963443914 0 0.017048216932853778 -0.003154747582180414 0 0.017150348560552357 -0.0027600295333650477 0 0.016439267177113696 -0.0022507462768413724 0 0.017150348560552357 -0.0027600295333650477 0 0.016841030710718758 -0.0020276124098463867 0 0.016439267177113696 -0.0022507462768413724 0 0.016841030710718758 -0.0020276124098463867 0 0.016383952509450021 -0.0018731110231844277 0 0.016594864261185473 -0.0018307716952653697 0 0.016841030710718758 -0.0020276124098463867 0 0.016383952509450021 -0.0018731110231844277 0 0.016439267177113696 -0.0022507462768413724 0 0.016383952509450021 -0.0018731110231844277 0 0.016439267177113696 -0.0022507462768413724 0 0.016050679577561597 -0.0019600278891022979 0 0.016439267177113696 -0.0022507462768413724 0 0.015999175823239051 -0.0022358631826364631 0 0.016050679577561597 -0.0019600278891022979 0 0.016439267177113696 -0.0022507462768413724 0 0.016085518234238445 -0.0026838125174164524 0 0.015999175823239051 -0.0022358631826364631 0 0.017048216932853778 -0.003154747582180414 0 0.016439267177113696 -0.0022507462768413724 0 0.016085518234238445 -0.0026838125174164524 0 0.016647134114204293 -0.0029965093874143259 0 0.016831021167890352 -0.0028682989412651154 0 0.016085518234238445 -0.0026838125174164524 0 0.015854135263086072 -0.0023366447419763113 0 0.01560229755185126 -0.0023506815619211666 0 0.017354052850262109 -0.0033284152069802423 0 0.017297307113819892 -0.0033522783968237399 0 0.017383484984378639 -0.0033798127830368925 0 0.017505399760634383 -0.0033514135350290173 0 0.016831021167890352 -0.0028682989412651154 0 0.015854135263086072 -0.0023366447419763113 0 0.01560229755185126 -0.0023506815619211666 0 0.015740531373559095 -0.0021115655087626684 0 0.016085518234238445 -0.0026838125174164524 0 0.015854135263086072 -0.0023366447419763113 0 0.015999175823239051 -0.0022358631826364631 0 0.0178203527091109 -0.0031364510064984872 0 0.017859855391148451 -0.0030892274397889791 0 0.017917240576192373 -0.0031140953476142515 0 0.0178203527091109 -0.0031364510064984872 0 0.017859855391148451 -0.0030892274397889791 0 0.017769853844716483 -0.0031077075478058202 0 0.017856112288866213 -0.0030475349779964449 0 0.017859855391148451 -0.0030892274397889791 0 0.017769853844716483 -0.0031077075478058202 0 0.0178203527091109 -0.0031364510064984872 0 0.017769853844716483 -0.0031077075478058202 0 0.017743142263660052 -0.0031652478902836328 0 0.017580714075904374 -0.0031782026484423959 0 0.017690462321978587 -0.0031527968980865676 0 0.017700660782178225 -0.0031915085538000297 0 0.017690462321978587 -0.0031527968980865676 0 0.017700660782178225 -0.0031915085538000297 0 0.017743142263660052 -0.0031652478902836328 0 0.017769853844716483 -0.0031077075478058202 0 0.017690462321978587 -0.0031527968980865676 0 0.017743142263660052 -0.0031652478902836328 0 0.016930431666302988 -0.0029267590549948599 0 0.016715078384946465 -0.0028238755687870947 0 0.016654591091075099 -0.0024616955122182256 0 0.016831021167890352 -0.0028682989412651154 0 0.017129799821711339 -0.0028793837389932348 0 0.017700660782178225 -0.0031915085538000297 0 0.017744944336633491 -0.0032126255403974089 0 0.017743142263660052 -0.0031652478902836328 0 0.017744944336633491 -0.0032126255403974089 0 0.017850073486382446 -0.0031705269521132041 0 0.017999964113971673 -0.0032138218708532987 0 0.0178203527091109 -0.0031364510064984872 0 0.017743142263660052 -0.0031652478902836328 0 0.017850073486382446 -0.0031705269521132041 0 0.017744944336633491 -0.0032126255403974089 0 0.017743142263660052 -0.0031652478902836328 0 0.017850073486382446 -0.0031705269521132041 0 0.0178203527091109 -0.0031364510064984872 0 0.017850073486382446 -0.0031705269521132041 0 0.017917240576192373 -0.0031140953476142515 0 0.016495494469509427 -0.0023538970773753893 0 0.01591689430428753 -0.0018954170661782475 0 0.017087204168217223 -0.0026621149128032272 0 0.017093392913673601 -0.0026989434920598721 0 0.017173477039983395 -0.0027047816733801289 0 0.017129799821711339 -0.0028793837389932348 0 0.016495494469509427 -0.0023538970773753893 0 0.016831021167890352 -0.0028682989412651154 0 0.016495494469509427 -0.0023538970773753893 0 0.01560229755185126 -0.0023506815619211666 0 0.015477674143424758 -0.0021056748071314139 0 0.015740531373559095 -0.0021115655087626684 0 0.015477674143424758 -0.0021056748071314139 0 0.015740531373559095 -0.0021115655087626684 0 0.015717242870416523 -0.0018019974780758264 0 0.016495494469509427 -0.0023538970773753893 0 0.016796240360121839 -0.0025157314002897968 0 0.015854135263086072 -0.0023366447419763113 0 0.015999175823239051 -0.0022358631826364631 0 0.015740531373559095 -0.0021115655087626684 0 0.015999175823239051 -0.0022358631826364631 0 0.015740531373559095 -0.0021115655087626684 0 0.016050679577561597 -0.0019600278891022979 0 0.015740531373559095 -0.0021115655087626684 0 0.016050679577561597 -0.0019600278891022979 0 0.015717242870416523 -0.0018019974780758264 0 0.016050679577561597 -0.0019600278891022979 0 0.015717242870416523 -0.0018019974780758264 0 0.016173886285696989 -0.0015677935234313205 0 0.015717242870416523 -0.0018019974780758264 0 0.015724328770734462 -0.0014705084476609506 0 0.016173886285696989 -0.0015677935234313205 0 0.016466329125742533 -0.0022837266137977663 0 0.016449067566979152 -0.0021736765154371559 0 0.016413746192292019 -0.0021901603450811625 0 0.015477674143424758 -0.0021056748071314139 0 0.015717242870416523 -0.0018019974780758264 0 0.015419293318691492 -0.0016922828161254821 0 0.015717242870416523 -0.0018019974780758264 0 0.015419293318691492 -0.0016922828161254821 0 0.015724328770734462 -0.0014705084476609506 0 0.015419293318691492 -0.0016922828161254821 0 0.0153568437754427 -0.0013117488962977963 0 0.015724328770734462 -0.0014705084476609506 0 0.015947615215997999 -0.0016746866553469107 0 0.015508380394206971 -0.0011239187183869734 0 0.01591689430428753 -0.0018954170661782475 0 0.015947615215997999 -0.0016746866553469107 0 0.016449067566979152 -0.0021736765154371559 0 0.016430582009397263 -0.0020688569584778591 0 0.016412343233224248 -0.0021325828320792003 0 0.0153568437754427 -0.0013117488962977963 0 0.015724328770734462 -0.0014705084476609506 0 0.015765148493134422 -0.0011124122121565706 0 0.015947666264497864 -0.0013223865994995672 0 0.015724328770734462 -0.0014705084476609506 0 0.015765148493134422 -0.0011124122121565706 0 0.015947666264497864 -0.0013223865994995672 0 0.015724328770734462 -0.0014705084476609506 0 0.016173886285696989 -0.0015677935234313205 0 0.015947666264497864 -0.0013223865994995672 0 0.016173886285696989 -0.0015677935234313205 0 0.016130015767669256 -0.0011558106928276166 0 0.01640758569857604 -0.0012959893960402806 0 0.016173886285696989 -0.0015677935234313205 0 0.016130015767669256 -0.0011558106928276166 0 0.016946918244884774 -0.0015255864619958019 0 0.016000825435369705 -0.0016159314853790617 0 0.016495581611127727 -0.0016647332214837789 0 0.016594864261185473 -0.0018307716952653697 0 0.016173886285696989 -0.0015677935234313205 0 0.016383952509450021 -0.0018731110231844277 0 0.016594864261185473 -0.0018307716952653697 0 0.016173886285696989 -0.0015677935234313205 0 0.016383952509450021 -0.0018731110231844277 0 0.016050679577561597 -0.0019600278891022979 0 0.016173886285696989 -0.0015677935234313205 0 0.019540928351722442 -0.0028777947048839914 0 0.02016938177502911 -0.0023759459589820374 0 0.020193784042397748 -0.0030035176850667115 0 0.019540928351722442 -0.0028777947048839914 0 0.019588879920117944 -0.0033005577319653433 0 0.020193784042397748 -0.0030035176850667115 0 0.019540928351722442 -0.0028777947048839914 0 0.019142096642204412 -0.0032624898868042979 0 0.019588879920117944 -0.0033005577319653433 0 0.020007112515716022 -0.0020220163262835507 0 0.019518202404870438 -0.0023375446813590885 0 0.02016938177502911 -0.0023759459589820374 0 0.019540928351722442 -0.0028777947048839914 0 0.01949080182217218 -0.0025571312439758016 0 0.02016938177502911 -0.0023759459589820374 0 0.019518202404870438 -0.0023375446813590885 0 0.01949080182217218 -0.0025571312439758016 0 0.02016938177502911 -0.0023759459589820374 0 0.019518202404870438 -0.0023375446813590885 0 0.01949080182217218 -0.0025571312439758016 0 0.019126248972694489 -0.0025461104701217751 0 0.019540928351722442 -0.0028777947048839914 0 0.01949080182217218 -0.0025571312439758016 0 0.019106349764030438 -0.0027556155486669646 0 0.01949080182217218 -0.0025571312439758016 0 0.019106349764030438 -0.0027556155486669646 0 0.019126248972694489 -0.0025461104701217751 0 0.019106349764030438 -0.0027556155486669646 0 0.019126248972694489 -0.0025461104701217751 0 0.018719392469199871 -0.0028514296571225195 0 0.019126248972694489 -0.0025461104701217751 0 0.01873680511470532 -0.002684220250015302 0 0.018719392469199871 -0.0028514296571225195 0 0.019106349764030438 -0.0027556155486669646 0 0.018719392469199871 -0.0028514296571225195 0 0.01886864032204362 -0.0029602506831644024 0 0.018719392469199871 -0.0028514296571225195 0 0.01886864032204362 -0.0029602506831644024 0 0.018583550022227231 -0.0030366132471071395 0 0.01886864032204362 -0.0029602506831644024 0 0.019147256769492221 -0.0030031002397808287 0 0.018818639686028385 -0.003174092287879697 0 0.01886864032204362 -0.0029602506831644024 0 0.018818639686028385 -0.003174092287879697 0 0.018583550022227231 -0.0030366132471071395 0 0.019106349764030438 -0.0027556155486669646 0 0.01886864032204362 -0.0029602506831644024 0 0.019147256769492221 -0.0030031002397808287 0 0.019540928351722442 -0.0028777947048839914 0 0.019106349764030438 -0.0027556155486669646 0 0.019147256769492221 -0.0030031002397808287 0 0.019147256769492221 -0.0030031002397808287 0 0.019142096642204412 -0.0032624898868042979 0 0.018818639686028385 -0.003174092287879697 0 0.019540928351722442 -0.0028777947048839914 0 0.019147256769492221 -0.0030031002397808287 0 0.019142096642204412 -0.0032624898868042979 0 0.018818639686028385 -0.003174092287879697 0 0.01859560358996137 -0.0033084238577092283 0 0.018786815539610053 -0.0034504465466319639 0 0.019142096642204412 -0.0032624898868042979 0 0.018818639686028385 -0.003174092287879697 0 0.018786815539610053 -0.0034504465466319639 0 0.01859560358996137 -0.0033084238577092283 0 0.018151312585612589 -0.0032959954226781836 0 0.018786815539610053 -0.0034504465466319639 0 0.018003276896378664 -0.0031394138057705186 0 0.01874212484251599 -0.0034459529688998548 0 0.01859560358996137 -0.0033084238577092283 0 0.018354107864582993 -0.0032640147239517501 0 0.01856962804985441 -0.0031916538409564599 0 0.018818639686028385 -0.003174092287879697 0 0.01859560358996137 -0.0033084238577092283 0 0.01856962804985441 -0.0031916538409564599 0 0.01859560358996137 -0.0033084238577092283 0 0.018354107864582993 -0.0032640147239517501 0 0.018151312585612589 -0.0032959954226781836 0 0.018425722970662004 -0.0031417994177321009 0 0.018583550022227231 -0.0030366132471071395 0 0.018340841008706865 -0.0030549570381066845 0 0.018354107864582993 -0.0032640147239517501 0 0.018425722970662004 -0.0031417994177321009 0 0.01856962804985441 -0.0031916538409564599 0 0.018354107864582993 -0.0032640147239517501 0 0.018239778483750538 -0.0032387383166097364 0 0.018151312585612589 -0.0032959954226781836 0 0.018354107864582993 -0.0032640147239517501 0 0.018271182420192086 -0.0031718518557408335 0 0.018239778483750538 -0.0032387383166097364 0 0.018354107864582993 -0.0032640147239517501 0 0.018271182420192086 -0.0031718518557408335 0 0.018425722970662004 -0.0031417994177321009 0 0.018271182420192086 -0.0031718518557408335 0 0.018425722970662004 -0.0031417994177321009 0 0.018340841008706865 -0.0030549570381066845 0 0.018818639686028385 -0.003174092287879697 0 0.01856962804985441 -0.0031916538409564599 0 0.018583550022227231 -0.0030366132471071395 0 0.018425722970662004 -0.0031417994177321009 0 0.01856962804985441 -0.0031916538409564599 0 0.018583550022227231 -0.0030366132471071395 0 0.018583550022227231 -0.0030366132471071395 0 0.018426839467907134 -0.0029439924913479865 0 0.018340841008706865 -0.0030549570381066845 0 0.018719392469199871 -0.0028514296571225195 0 0.018583550022227231 -0.0030366132471071395 0 0.018426839467907134 -0.0029439924913479865 0 0.01873680511470532 -0.002684220250015302 0 0.018719392469199871 -0.0028514296571225195 0 0.018474794269223604 -0.0028038892580623982 0 0.018719392469199871 -0.0028514296571225195 0 0.018426839467907134 -0.0029439924913479865 0 0.018474794269223604 -0.0028038892580623982 0 0.018426839467907134 -0.0029439924913479865 0 0.018474794269223604 -0.0028038892580623982 0 0.018248808582608616 -0.0029289829498266736 0 0.018426839467907134 -0.0029439924913479865 0 0.018248808582608616 -0.0029289829498266736 0 0.018235415481256727 -0.0030169805088887253 0 0.018248808582608616 -0.0029289829498266736 0 0.018235415481256727 -0.0030169805088887253 0 0.018143278399322053 -0.0030067042381237887 0 0.018426839467907134 -0.0029439924913479865 0 0.018235415481256727 -0.0030169805088887253 0 0.018340841008706865 -0.0030549570381066845 0 0.018235415481256727 -0.0030169805088887253 0 0.018340841008706865 -0.0030549570381066845 0 0.018221003475062239 -0.0031030336823117712 0 0.018271182420192086 -0.0031718518557408335 0 0.018340841008706865 -0.0030549570381066845 0 0.018221003475062239 -0.0031030336823117712 0 0.018221003475062239 -0.0031030336823117712 0 0.018125148486964841 -0.0030759191109015764 0 0.018125914509435345 -0.0031678477313131616 0 0.018125148486964841 -0.0030759191109015764 0 0.018020643491053801 -0.0031313665092032104 0 0.018125914509435345 -0.0031678477313131616 0 0.018125148486964841 -0.0030759191109015764 0 0.018032030087243949 -0.003055167540498142 0 0.018020643491053801 -0.0031313665092032104 0 0.018235415481256727 -0.0030169805088887253 0 0.018125148486964841 -0.0030759191109015764 0 0.018143278399322053 -0.0030067042381237887 0 0.018235415481256727 -0.0030169805088887253 0 0.018221003475062239 -0.0031030336823117712 0 0.018125148486964841 -0.0030759191109015764 0 0.018125148486964841 -0.0030759191109015764 0 0.018143278399322053 -0.0030067042381237887 0 0.018032030087243949 -0.003055167540498142 0 0.018085300979576644 -0.0029650823074742444 0 0.018143278399322053 -0.0030067042381237887 0 0.018032030087243949 -0.003055167540498142 0 0.018085300979576644 -0.0029650823074742444 0 0.018248808582608616 -0.0029289829498266736 0 0.018143278399322053 -0.0030067042381237887 0 0.017856112288866213 -0.0030475349779964449 0 0.017859855391148451 -0.0030892274397889791 0 0.017940334437420515 -0.0030435776632127842 0 0.018085300979576644 -0.0029650823074742444 0 0.018032030087243949 -0.003055167540498142 0 0.017940334437420515 -0.0030435776632127842 0 0.018032030087243949 -0.003055167540498142 0 0.017940334437420515 -0.0030435776632127842 0 0.017917240576192373 -0.0031140953476142515 0 0.017859855391148451 -0.0030892274397889791 0 0.017940334437420515 -0.0030435776632127842 0 0.017917240576192373 -0.0031140953476142515 0 0.017917240576192373 -0.0031140953476142515 0 0.018020643491053801 -0.0031313665092032104 0 0.017944041647492266 -0.0031618606530081218 0 0.017850073486382446 -0.0031705269521132041 0 0.017917240576192373 -0.0031140953476142515 0 0.017944041647492266 -0.0031618606530081218 0 0.018032030087243949 -0.003055167540498142 0 0.017917240576192373 -0.0031140953476142515 0 0.018020643491053801 -0.0031313665092032104 0 0.018020643491053801 -0.0031313665092032104 0 0.017944041647492266 -0.0031618606530081218 0 0.017999964113971673 -0.0032138218708532987 0 0.018020643491053801 -0.0031313665092032104 0 0.017999964113971673 -0.0032138218708532987 0 0.018125914509435345 -0.0031678477313131616 0 0.017850073486382446 -0.0031705269521132041 0 0.017944041647492266 -0.0031618606530081218 0 0.017999964113971673 -0.0032138218708532987 0 0.017093392913673601 -0.0026989434920598721 0 0.017173477039983395 -0.0027047816733801289 0 0.017138299318550168 -0.002770955567949158 0 0.017129799821711339 -0.0028793837389932348 0 0.017709953125429671 -0.0030062308754954747 0 0.017744944336633491 -0.0032126255403974089 0 0.017999964113971673 -0.0032138218708532987 0 0.018080885342507198 -0.0032820797086498682 0 0.017999964113971673 -0.0032138218708532987 0 0.018114754763374763 -0.0032260111794921763 0 0.018125914509435345 -0.0031678477313131616 0 0.018114754763374763 -0.0032260111794921763 0 0.018125914509435345 -0.0031678477313131616 0 0.018184241250441185 -0.0032258978755889773 0 0.018271182420192086 -0.0031718518557408335 0 0.018125914509435345 -0.0031678477313131616 0 0.018184241250441185 -0.0032258978755889773 0 0.018271182420192086 -0.0031718518557408335 0 0.018221003475062239 -0.0031030336823117712 0 0.018125914509435345 -0.0031678477313131616 0 0.018114754763374763 -0.0032260111794921763 0 0.018184241250441185 -0.0032258978755889773 0 0.018151312585612589 -0.0032959954226781836 0 0.018271182420192086 -0.0031718518557408335 0 0.018184241250441185 -0.0032258978755889773 0 0.018239778483750538 -0.0032387383166097364 0 0.018184241250441185 -0.0032258978755889773 0 0.018239778483750538 -0.0032387383166097364 0 0.018151312585612589 -0.0032959954226781836 0 0.017999964113971673 -0.0032138218708532987 0 0.018080885342507198 -0.0032820797086498682 0 0.018151312585612589 -0.0032959954226781836 0 0.017999964113971673 -0.0032138218708532987 0 0.018114754763374763 -0.0032260111794921763 0 0.018151312585612589 -0.0032959954226781836 0 0.017709953125429671 -0.0030062308754954747 0 0.018003276896378664 -0.0031394138057705186 0 0.01780959143156103 -0.002965192531865465 0 0.017941815501277797 -0.0030310499109540969 0 0.018206619981886347 -0.0035146130651947678 0 0.01780959143156103 -0.002965192531865465 0 0.018009522974810805 -0.0041106265853781496 0 0.018206619981886347 -0.0035146130651947678 0 0.017173477039983395 -0.0027047816733801289 0 0.017138299318550168 -0.002770955567949158 0 0.017195523591654202 -0.0028369353783942188 0 0.017709953125429671 -0.0030062308754954747 0 0.017599320756172602 -0.0031052094043338297 0 0.017138299318550168 -0.002770955567949158 0 0.017195523591654202 -0.0028369353783942188 0 0.017181726810507586 -0.0028422767952229009 0 0.016796240360121839 -0.0025157314002897968 0 0.016982219718846447 -0.0023804372348932516 0 0.016413746192292019 -0.0021901603450811625 0 0.016412343233224248 -0.0021325828320792003 0 0.01636424097361663 -0.0021014208327647288 0 0.016449067566979152 -0.0021736765154371559 0 0.016413746192292019 -0.0021901603450811625 0 0.016412343233224248 -0.0021325828320792003 0 0.016430582009397263 -0.0020688569584778591 0 0.016412343233224248 -0.0021325828320792003 0 0.01636424097361663 -0.0021014208327647288 0 0.015947615215997999 -0.0016746866553469107 0 0.016982219718846447 -0.0023804372348932516 0 0.016346014910278626 -0.0010283063495402066 0 0.016030122914872335 -0.0010413400012434231 0 0.015984716780337211 -0.0011894149483322927 0 0.016346014910278626 -0.0010283063495402066 0 0.016137035876409724 -0.00093066128696900341 0 0.016030122914872335 -0.0010413400012434231 0 0.016137035876409724 -0.00093066128696900341 0 0.016030122914872335 -0.0010413400012434231 0 0.015885406975001282 -0.0010175222808098967 0 0.016175314835561238 -0.0015592682561792989 0 0.017623096077148081 -0.0018909538229022315 0 0.016137035876409724 -0.00093066128696900341 0 0.015867768757969983 -0.0010116201404839825 0 0.015836915892834365 -0.00096040174973805999 0 0.017623096077148081 -0.0018909538229022315 0 0.017717448233971554 -0.0014672805952196495 0 0.016030122914872335 -0.0010413400012434231 0 0.015885406975001282 -0.0010175222808098967 0 0.015984716780337211 -0.0011894149483322927 0 0.017623096077148081 -0.0018909538229022315 0 0.016982219718846447 -0.0023804372348932516 0 0.017551097932509401 -0.0021061653166366948 0 0.017598363116790184 -0.0026659441826125149 0 0.017823375166950223 -0.0025671306819136622 0 0.017623096077148081 -0.0018909538229022315 0 0.017599320756172602 -0.0031052094043338297 0 0.017599320756172602 -0.0031052094043338297 0 0.016982219718846447 -0.0023804372348932516 0 0.018186757086198081 -0.0038935552365796785 0 0.018860449796541522 -0.0036206873525435504 0 0.018803892082333799 -0.0039839745661033868 0 0.018208069827458869 -0.0041366627700948734 0 0.018186757086198081 -0.0038935552365796785 0 0.018803892082333799 -0.0039839745661033868 0 0.017623096077148081 -0.0018909538229022315 0 0.019241287370911346 -0.0027326158388618106 0 0.019317178234663668 -0.0015631544752680848 0 0.01953334112539834 -0.0016381970588919667 0 0.01967175746129983 -0.0014657080071900875 0 0.019317178234663668 -0.0015631544752680848 0 0.019338417407331256 -0.0015966607903140123 0 0.01953334112539834 -0.0016381970588919667 0 0.01953334112539834 -0.0016381970588919667 0 0.01967175746129983 -0.0014657080071900875 0 0.019776295922174298 -0.0016468960583056096 0 0.017599320756172602 -0.0031052094043338297 0 0.018872398723085038 -0.0037342862846209534 0 0.017941815501277797 -0.0030310499109540969 0 0.018206619981886347 -0.0035146130651947678 0 0.018786815539610053 -0.0034504465466319639 0 0.018009522974810805 -0.0041106265853781496 0 0.018516047503008649 -0.0036140972380258539 0 0.018782689566749302 -0.0037855658131608337 0 0.018009522974810805 -0.0041106265853781496 0 0.018206619981886347 -0.0035146130651947678 0 0.018516047503008649 -0.0036140972380258539 0 0.018516047503008649 -0.0036140972380258539 0 0.018786815539610053 -0.0034504465466319639 0 0.018782689566749302 -0.0037855658131608337 0 0.018206619981886347 -0.0035146130651947678 0 0.018516047503008649 -0.0036140972380258539 0 0.018786815539610053 -0.0034504465466319639 0 0.018872398723085038 -0.0037342862846209534 0 0.019509250422776583 -0.0033464332388355562 0 0.018860449796541522 -0.0036206873525435504 0 0.019409138645418763 -0.0038426288898624175 0 0.01950732625157121 -0.0037334380489411744 0 0.019142096642204412 -0.0032624898868042979 0 0.018782689566749302 -0.0037855658131608337 0 0.019588879920117944 -0.0033005577319653433 0 0.018860449796541522 -0.0036206873525435504 0 0.01950732625157121 -0.0037334380489411744 0 0.019588879920117944 -0.0033005577319653433 0 0.019142096642204412 -0.0032624898868042979 0 0.018786815539610053 -0.0034504465466319639 0 0.018782689566749302 -0.0037855658131608337 0 0.019241287370911346 -0.0027326158388618106 0 0.020534680874325278 -0.0022851919758781172 0 0.01967175746129983 -0.0014657080071900875 0 0.019776295922174298 -0.0016468960583056096 0 0.020010133199281452 -0.0013779598732061187 0 0.02249156722612343 -0.0012643477127945173 0 0.022572495638953468 -0.0011905770028723375 0 0.022616383551089216 -0.0012632492913235097 0 0.018860449796541522 -0.0036206873525435504 0 0.018803892082333799 -0.0039839745661033868 0 0.019409138645418763 -0.0038426288898624175 0 0.021270143619955214 -0.0013052272555438189 0 0.020534680874325278 -0.0022851919758781172 0 0.022572495638953468 -0.0011905770028723375 0 0.022700201060248879 -0.0012431588480564808 0 0.022835124464359216 -0.001246251760494795 0 0.022572495638953468 -0.0011905770028723375 0 0.022616383551089216 -0.0012632492913235097 0 0.022700201060248879 -0.0012431588480564808 0 0.022616383551089216 -0.0012632492913235097 0 0.022654952914757182 -0.0013003594345279417 0 0.022689345323278876 -0.0012706199697987235 0 0.022616383551089216 -0.0012632492913235097 0 0.022700201060248879 -0.0012431588480564808 0 0.022689345323278876 -0.0012706199697987235 0 0.020534680874325278 -0.0022851919758781172 0 0.021800271564202604 -0.0023239196087955407 0 0.019374180301116976 -0.0039121391448682114 0 0.01950732625157121 -0.0037334380489411744 0 0.020665271970811909 -0.0034266152412583892 0 0.020534680874325278 -0.0022851919758781172 0 0.020004889788897189 -0.0029688958221171604 0 0.01950732625157121 -0.0037334380489411744 0 0.019588879920117944 -0.0033005577319653433 0 0.020193784042397748 -0.0030035176850667115 0 0.022610513564521914 -0.001385866540052829 0 0.022597013859258271 -0.0014211726133471615 0 0.022715507850556732 -0.0013725349884383374 0 0.022597013859258271 -0.0014211726133471615 0 0.022562673148326447 -0.0014908236642315197 0 0.022715507850556732 -0.0013725349884383374 0 0.022610513564521914 -0.001385866540052829 0 0.022597013859258271 -0.0014211726133471615 0 0.022515869604198106 -0.0014059151856086699 0 0.022610513564521914 -0.001385866540052829 0 0.022622216214753008 -0.00133247078289655 0 0.022521765917755381 -0.0013273383902539417 0 0.022610513564521914 -0.001385866540052829 0 0.022521765917755381 -0.0013273383902539417 0 0.022515869604198106 -0.0014059151856086699 0 0.022610513564521914 -0.001385866540052829 0 0.022622216214753008 -0.00133247078289655 0 0.022669420218987813 -0.0013586082379092525 0 0.022622216214753008 -0.00133247078289655 0 0.022684953048529303 -0.0013368168060735991 0 0.022669420218987813 -0.0013586082379092525 0 0.022622216214753008 -0.00133247078289655 0 0.022654952914757182 -0.0013003594345279417 0 0.022572198185164226 -0.0012989967812988578 0 0.022622216214753008 -0.00133247078289655 0 0.022654952914757182 -0.0013003594345279417 0 0.022684953048529303 -0.0013368168060735991 0 0.022616383551089216 -0.0012632492913235097 0 0.022654952914757182 -0.0013003594345279417 0 0.022572198185164226 -0.0012989967812988578 0 0.022622216214753008 -0.00133247078289655 0 0.022572198185164226 -0.0012989967812988578 0 0.022521765917755381 -0.0013273383902539417 0 0.02249156722612343 -0.0012643477127945173 0 0.022616383551089216 -0.0012632492913235097 0 0.022572198185164226 -0.0012989967812988578 0 0.02249156722612343 -0.0012643477127945173 0 0.022521765917755381 -0.0013273383902539417 0 0.022426416031945066 -0.0013340153358108128 0 0.022928851214450142 -0.0012993387382385091 0 0.02105056740093943 -0.0010810775036846243 0 0.02249156722612343 -0.0012643477127945173 0 0.022572198185164226 -0.0012989967812988578 0 0.022521765917755381 -0.0013273383902539417 0 0.022521765917755381 -0.0013273383902539417 0 0.022402742123714774 -0.001368178374092334 0 0.022357254934864391 -0.0012985581507702179 0 0.022521765917755381 -0.0013273383902539417 0 0.022515869604198106 -0.0014059151856086699 0 0.022402742123714774 -0.001368178374092334 0 0.022515869604198106 -0.0014059151856086699 0 0.022402742123714774 -0.001368178374092334 0 0.022423498763730506 -0.0014704274574103308 0 0.017520317412198495 0.00015048005634580387 0 0.018995063475838736 -0.00028091705076207872 0 0.022255157698397834 -0.0013146760701336433 0 0.022319561528472896 -0.0013209433441369143 0 0.022304649862162587 -0.0014753712198293072 0 0.022402742123714774 -0.001368178374092334 0 0.022319561528472896 -0.0013209433441369143 0 0.022304649862162587 -0.0014753712198293072 0 0.017520317412198495 0.00015048005634580387 0 0.016878466662503006 -2.5321881562605216e-05 0 0.018096718965782292 -0.00039364481278331061 0 0.017978610793101459 -0.00054714891575659372 0 0.018123740686072688 -0.00054099476781592406 0 0.022255157698397834 -0.0013146760701336433 0 0.022319561528472896 -0.0013209433441369143 0 0.022297779534199268 -0.0012573527804986208 0 0.017520317412198495 0.00015048005634580387 0 0.019644801106034764 -0.0006001606970476534 0 0.022121458364858234 -0.0016196680572909687 0 0.02105056740093943 -0.0010810775036846243 0 0.022402742123714774 -0.001368178374092334 0 0.022319561528472896 -0.0013209433441369143 0 0.022328178241979579 -0.0012554109637595439 0 0.022319561528472896 -0.0013209433441369143 0 0.022297779534199268 -0.0012573527804986208 0 0.022328178241979579 -0.0012554109637595439 0 0.017717448233971554 -0.0014672805952196495 0 0.016878466662503006 -2.5321881562605216e-05 0 0.02249156722612343 -0.0012643477127945173 0 0.022426416031945066 -0.0013340153358108128 0 0.022420480765933681 -0.0013255648681752938 0 0.017717448233971554 -0.0014672805952196495 0 0.020166627315605413 -0.00087421739627794183 0 0.019338417407331256 -0.0015966607903140123 0 0.01953334112539834 -0.0016381970588919667 0 0.019547228698189024 -0.001920277332567627 0 0.018306953177195176 -0.0011685277067011608 0 0.017931883247168399 -0.00051345139140760506 0 0.018182794924329969 -0.00043425578450569666 0 0.020571383858270037 -0.00015988040640945925 0 0.019538597192632089 -0.00019730078091592524 0 0.019964527247624056 -0.00091329954514577174 0 0.019644801106034764 -0.0006001606970476534 0 0.02105056740093943 -0.0010810775036846243 0 0.019644801106034764 -0.0006001606970476534 0 0.020166627315605413 -0.00087421739627794183 0 0.02105056740093943 -0.0010810775036846243 0 0.020166627315605413 -0.00087421739627794183 0 0.021270143619955214 -0.0013052272555438189 0 0.020166627315605413 -0.00087421739627794183 0 0.01953334112539834 -0.0016381970588919667 0 0.019776295922174298 -0.0016468960583056096 0 0.019547228698189024 -0.001920277332567627 0 0.017988895200843832 -0.00044145006448148891 0 0.017931883247168399 -0.00051345139140760506 0 0.018182794924329969 -0.00043425578450569666 0 0.019644801106034764 -0.0006001606970476534 0 0.016878466662503006 -2.5321881562605216e-05 0 0.016137035876409724 -0.00093066128696900341 0 0.015973843997105355 -0.00065659828234560576 0 0.016226846370136407 -0.00036958189149839075 0 0.015836915892834365 -0.00096040174973805999 0 0.015730052165143692 -0.00038975690337471011 0 0.015973843997105355 -0.00065659828234560576 0 0.016346014910278626 -0.0010283063495402066 0 0.016137035876409724 -0.00093066128696900341 0 0.016226846370136407 -0.00036958189149839075 0 0.015730052165143692 -0.00038975690337471011 0 0.015973843997105355 -0.00065659828234560576 0 0.016226846370136407 -0.00036958189149839075 0 0.015947615215997999 -0.0016746866553469107 0 0.013009605716563051 0.00099631265790592794 0 0.016137035876409724 -0.00093066128696900341 0 0.015836915892834365 -0.00096040174973805999 0 0.015973843997105355 -0.00065659828234560576 0 0.016878466662503006 -2.5321881562605216e-05 0 0.013009605716563051 0.00099631265790592794 0 0.014387479413310037 0.0012610525612134441 0 0.013829542362144905 0.0013973974426306375 0 0.013930042322715334 0.00073800556639632266 0 0.014387479413310037 0.0012610525612134441 0 0.014361900827219803 0.0014121129838463435 0 0.013829542362144905 0.0013973974426306375 0 0.017520317412198495 0.00015048005634580387 0 0.011391742302889649 0.0023300230055152485 0 0.013009605716563051 0.00099631265790592794 0 0.011391742302889649 0.0023300230055152485 0 0.011391742302889649 0.0023300230055152485 0 0.0083974260836190955 0.0029021470803748265 0 0.0084446425834109069 0.0033700335809627507 0 0.0080934625945098208 0.0036678435624611849 0 0.0082818348208120347 0.0036293325934309592 0 0.011391742302889649 0.0023300230055152485 0 0.012390054651239553 0.0024534521287872262 0 0.015493169424599071 0.0012617496306259204 0 0.015648187507450555 0.0011444566837575439 0 0.015516457182733891 0.0010825320505457 0 0.0082745835172256046 0.0031181788456760432 0 0.0084446425834109069 0.0033700335809627507 0 0.0080934625945098208 0.0036678435624611849 0 0.020159801887406761 0.00063650995629412565 0 0.012390054651239553 0.0024534521287872262 0 0.020159801887406761 0.00063650995629412565 0 0.022014184988832574 0.0019674721102837561 0 0.020159801887406761 0.00063650995629412565 0 0.018995063475838736 -0.00028091705076207872 0 0.015493169424599071 0.0012617496306259204 0 0.015648187507450555 0.0011444566837575439 0 0.01562599526071835 0.0012522158436087509 0 0.015610420323715332 0.0013577150667267164 0 0.015493169424599071 0.0012617496306259204 0 0.01562599526071835 0.0012522158436087509 0 0.022327122921760877 -0.0016130475076734157 0 0.022304649862162587 -0.0014753712198293072 0 0.022423498763730506 -0.0014704274574103308 0 0.022402742123714774 -0.001368178374092334 0 0.022304649862162587 -0.0014753712198293072 0 0.022423498763730506 -0.0014704274574103308 0 0.022327122921760877 -0.0016130475076734157 0 0.022423498763730506 -0.0014704274574103308 0 0.022562673148326447 -0.0014908236642315197 0 0.022515869604198106 -0.0014059151856086699 0 0.022423498763730506 -0.0014704274574103308 0 0.022562673148326447 -0.0014908236642315197 0 0.026811829749804054 0.0016705525584691876 0 0.026826669492580807 0.0020811266294557379 0 0.027548805144962545 0.0023458676815209614 0 0.023903753310118864 -0.00011460045470963092 0 0.024408022169559927 -4.0592026015905881e-05 0 0.024394309114595007 0.00012506595502909072 0 0.023903753310118864 -0.00011460045470963092 0 0.024408022169559927 -4.0592026015905881e-05 0 0.023943884113978846 -0.00035931798840504168 0 0.026275401548464375 0.00081274507629331685 0 0.022014184988832574 0.0019674721102837561 0 0.020159801887406761 0.00063650995629412565 0 0.023982650903717193 -0.00079476780763666982 0 0.026811829749804054 0.0016705525584691876 0 0.026826669492580807 0.0020811266294557379 0 0.026498458663601128 0.0017878616862661118 0 0.026826669492580807 0.0020811266294557379 0 0.026498458663601128 0.0017878616862661118 0 0.026459274267380463 0.0021456772132903571 0 0.026811829749804054 0.0016705525584691876 0 0.026498458663601128 0.0017878616862661118 0 0.026329295731119171 0.0014549745000895849 0 0.024408022169559927 -4.0592026015905881e-05 0 0.024394309114595007 0.00012506595502909072 0 0.024808800252875633 0.00019234023057724132 0 0.023982650903717193 -0.00079476780763666982 0 0.023674906902491688 -0.00058244768176185144 0 0.026275401548464375 0.00081274507629331685 0 0.025290109727936536 0.00052802840202717961 0 0.026811829749804054 0.0016705525584691876 0 0.026037191378820053 0.00093570801914074101 0 0.026329295731119171 0.0014549745000895849 0 0.022597013859258271 -0.0014211726133471615 0 0.022515869604198106 -0.0014059151856086699 0 0.022562673148326447 -0.0014908236642315197 0 0.0089557648573291241 0.0030971211397663127 0 0.0087778032378854967 0.0032010180009601065 0 0.0089205823608443889 0.003274536413484774 0 0.012913345677539908 0.0010506083302835943 0 0.011894032710916226 0.001131728021891166 0 0.0089557648573291241 0.0030971211397663127 0 0.0089205823608443889 0.003274536413484774 0 0.0090359526668053348 0.0033103656118010092 0 0.011422667712367406 0.0019735295981429613 0 0.012913345677539908 0.0010506083302835943 0 0.0091799861506474088 0.0031080853881783458 0 0.0089557648573291241 0.0030971211397663127 0 0.0090359526668053348 0.0033103656118010092 0 0.01640758569857604 -0.0012959893960402806 0 0.016408599610121265 -0.0010646870115648226 0 0.016130015767669256 -0.0011558106928276166 0 0.016504287634622958 -0.00086718540350028692 0 0.016186929625317668 -0.00085607573759957309 0 0.016408599610121265 -0.0010646870115648226 0 0.016186929625317668 -0.00085607573759957309 0 0.016408599610121265 -0.0010646870115648226 0 0.016130015767669256 -0.0011558106928276166 0 0.016186929625317668 -0.00085607573759957309 0 0.016130015767669256 -0.0011558106928276166 0 0.015717794854726502 -0.00080296459568358555 0 0.016130015767669256 -0.0011558106928276166 0 0.015765148493134422 -0.0011124122121565706 0 0.015717794854726502 -0.00080296459568358555 0 0.015947666264497864 -0.0013223865994995672 0 0.016130015767669256 -0.0011558106928276166 0 0.015765148493134422 -0.0011124122121565706 0 0.015765148493134422 -0.0011124122121565706 0 0.015411110966439911 -0.00099622452521111937 0 0.015717794854726502 -0.00080296459568358555 0 0.015040652427989423 -0.0007688147907205428 0 0.015411110966439911 -0.00099622452521111937 0 0.015717794854726502 -0.00080296459568358555 0 0.015153543331755948 -0.001396321371266296 0 0.015040652427989423 -0.0007688147907205428 0 0.015411110966439911 -0.00099622452521111937 0 0.015153543331755948 -0.001396321371266296 0 0.015765148493134422 -0.0011124122121565706 0 0.015411110966439911 -0.00099622452521111937 0 0.013009605716563051 0.00099631265790592794 0 0.011894032710916226 0.001131728021891166 0 0.0084904128867610597 0.0030130357715065807 0 0.0087308165178429237 0.0030439098582589127 0 0.0085867086750517924 0.0031963874156195628 0 0.0084904128867610597 0.0030130357715065807 0 0.0084139927405800022 0.0032453292594601924 0 0.0085867086750517924 0.0031963874156195628 0 0.0087308165178429237 0.0030439098582589127 0 0.0087778032378854967 0.0032010180009601065 0 0.0085867086750517924 0.0031963874156195628 0 0.0089557648573291241 0.0030971211397663127 0 0.0087308165178429237 0.0030439098582589127 0 0.0087778032378854967 0.0032010180009601065 0 0.0087778032378854967 0.0032010180009601065 0 0.0086739279148711681 0.00331894278031728 0 0.0085867086750517924 0.0031963874156195628 0 0.0087778032378854967 0.0032010180009601065 0 0.0086739279148711681 0.00331894278031728 0 0.0088228526618459382 0.0033607101841142844 0 0.0086739279148711681 0.00331894278031728 0 0.0085867086750517924 0.0031963874156195628 0 0.0084446425834109069 0.0033700335809627507 0 0.0084139927405800022 0.0032453292594601924 0 0.0085867086750517924 0.0031963874156195628 0 0.0084446425834109069 0.0033700335809627507 0 0.0086739279148711681 0.00331894278031728 0 0.0084446425834109069 0.0033700335809627507 0 0.0086500687638813457 0.003475097298903385 0 0.0084446425834109069 0.0033700335809627507 0 0.0086500687638813457 0.003475097298903385 0 0.0084557279200243255 0.0035994854340549655 0 0.0084446425834109069 0.0033700335809627507 0 0.0084557279200243255 0.0035994854340549655 0 0.0082818348208120347 0.0036293325934309592 0 0.0088228526618459382 0.0033607101841142844 0 0.0086500687638813457 0.003475097298903385 0 0.0089047319088883716 0.0035935396610390856 0 0.0086739279148711681 0.00331894278031728 0 0.0088228526618459382 0.0033607101841142844 0 0.0086500687638813457 0.003475097298903385 0 0.0088228526618459382 0.0033607101841142844 0 0.0089703356317435579 0.0034012188593516772 0 0.0089047319088883716 0.0035935396610390856 0 0.0089703356317435579 0.0034012188593516772 0 0.0090024560209093964 0.0035548178791741918 0 0.0089047319088883716 0.0035935396610390856 0 0.0088228526618459382 0.0033607101841142844 0 0.0089205823608443889 0.003274536413484774 0 0.0089703356317435579 0.0034012188593516772 0 0.0087778032378854967 0.0032010180009601065 0 0.0088228526618459382 0.0033607101841142844 0 0.0089205823608443889 0.003274536413484774 0 0.0089205823608443889 0.003274536413484774 0 0.0089703356317435579 0.0034012188593516772 0 0.0090359526668053348 0.0033103656118010092 0 0.0090158013410142814 0.0034593998168129174 0 0.0089703356317435579 0.0034012188593516772 0 0.0090359526668053348 0.0033103656118010092 0 0.0090158013410142814 0.0034593998168129174 0 0.0089703356317435579 0.0034012188593516772 0 0.0090024560209093964 0.0035548178791741918 0 0.0090158013410142814 0.0034593998168129174 0 0.0090024560209093964 0.0035548178791741918 0 0.0090107167778048832 0.0036572390526694344 0 0.0090024560209093964 0.0035548178791741918 0 0.0090107167778048832 0.0036572390526694344 0 0.009087054232153783 0.0038566435717830921 0 0.0090107167778048832 0.0036572390526694344 0 0.009087054232153783 0.0038566435717830921 0 0.0090107008525425868 0.0036793185889038601 0 0.0092964182162430624 0.0041349875993371386 0 0.0091794423800047615 0.0033840800113283751 0 0.0090024560209093964 0.0035548178791741918 0 0.009087054232153783 0.0038566435717830921 0 0.0089047319088883716 0.0035935396610390856 0 0.009087054232153783 0.0038566435717830921 0 0.0089047319088883716 0.0035935396610390856 0 0.0086104936158255801 0.0037551378143791852 0 0.0086500687638813457 0.003475097298903385 0 0.0089047319088883716 0.0035935396610390856 0 0.0086104936158255801 0.0037551378143791852 0 0.0086500687638813457 0.003475097298903385 0 0.0086104936158255801 0.0037551378143791852 0 0.0084557279200243255 0.0035994854340549655 0 0.0084557279200243255 0.0035994854340549655 0 0.0083098351149978704 0.0037647785479893755 0 0.0082818348208120347 0.0036293325934309592 0 0.0086104936158255801 0.0037551378143791852 0 0.0084557279200243255 0.0035994854340549655 0 0.0083098351149978704 0.0037647785479893755 0 0.0086104936158255801 0.0037551378143791852 0 0.0083098351149978704 0.0037647785479893755 0 0.0082871445002092384 0.0039903213442657971 0 0.0086104936158255801 0.0037551378143791852 0 0.0082871445002092384 0.0039903213442657971 0 0.0086373595636057739 0.0041506061587649624 0 0.0082871445002092384 0.0039903213442657971 0 0.0086373595636057739 0.0041506061587649624 0 0.0082780566199188721 0.0046589076040289097 0 0.009087054232153783 0.0038566435717830921 0 0.0086373595636057739 0.0041506061587649624 0 0.009061566934536934 0.0049830947989506482 0 0.009087054232153783 0.0038566435717830921 0 0.0086104936158255801 0.0037551378143791852 0 0.0086373595636057739 0.0041506061587649624 0 0.0086373595636057739 0.0041506061587649624 0 0.009061566934536934 0.0049830947989506482 0 0.0082780566199188721 0.0046589076040289097 0 0.009061566934536934 0.0049830947989506482 0 0.0082780566199188721 0.0046589076040289097 0 0.0080245588716221367 0.0055888760886353885 0 0.009061566934536934 0.0049830947989506482 0 0.0080245588716221367 0.0055888760886353885 0 0.00874176505026753 0.0062438173587775004 0 0.009061566934536934 0.0049830947989506482 0 0.0096650408055467922 0.0058238326212605171 0 0.00874176505026753 0.0062438173587775004 0 0.009061566934536934 0.0049830947989506482 0 0.0099574995553736983 0.0046464891913078196 0 0.0096650408055467922 0.0058238326212605171 0 0.0097437138510266755 0.013573510258400442 0 0.0096212246864947927 0.0095980553783419163 0 0.0099574995553736983 0.0046464891913078196 0 0.0096650408055467922 0.0058238326212605171 0 0.010666329224868796 0.0054335425948321345 0 0.010227999163293413 0.020805903058513049 0 0.0096445977359787723 0.020594151983169644 0 0.010748156253816959 0.020058963199763764 0 0.0091794423800047615 0.0033840800113283751 0 0.0096212246864947927 0.0095980553783419163 0 0.009087054232153783 0.0038566435717830921 0 0.009061566934536934 0.0049830947989506482 0 0.0099574995553736983 0.0046464891913078196 0 0.026675902069269772 0.0031007533996764806 0 0.026803734201479523 0.0024987489711625968 0 0.02710750710079254 0.0028366758535681492 0 0.026675902069269772 0.0031007533996764806 0 0.026803734201479523 0.0024987489711625968 0 0.026146611221181157 0.002627013639427014 0 0.026459274267380463 0.0021456772132903571 0 0.026803734201479523 0.0024987489711625968 0 0.026146611221181157 0.002627013639427014 0 0.026826669492580807 0.0020811266294557379 0 0.026459274267380463 0.0021456772132903571 0 0.026803734201479523 0.0024987489711625968 0 0.026826669492580807 0.0020811266294557379 0 0.026803734201479523 0.0024987489711625968 0 0.027548805144962545 0.0023458676815209614 0 0.026803734201479523 0.0024987489711625968 0 0.02710750710079254 0.0028366758535681492 0 0.027548805144962545 0.0023458676815209614 0 0.02710750710079254 0.0028366758535681492 0 0.027548805144962545 0.0023458676815209614 0 0.027409398909049889 0.0034149821665953022 0 0.026675902069269772 0.0031007533996764806 0 0.02710750710079254 0.0028366758535681492 0 0.027409398909049889 0.0034149821665953022 0 0.022014184988832574 0.0019674721102837561 0 0.022112618942885798 0.0040447059385511361 0 0.017279386295704875 0.0017035231173578305 0 0.018806995984273545 0.0030629312278602811 0 0.016722909416002796 0.0045506385132134727 0 0.017260607265033538 0.0021396298106636019 0 0.015596395648106437 0.0023918688392025522 0 0.015828300237099687 0.00094155621896820649 0 0.017045614650339103 0.0033518725498724697 0 0.017260607265033538 0.0021396298106636019 0 0.015596395648106437 0.0023918688392025522 0 0.022014184988832574 0.0019674721102837561 0 0.011895425344415953 0.0030830464425361742 0 0.012390054651239553 0.0024534521287872262 0 0.011895425344415953 0.0030830464425361742 0 0.0080767967958835368 0.0036598174458198425 0 0.0081286121479252765 0.0038676956618932399 0 0.0079455876064621379 0.0039970575837916158 0 0.0080767967958835368 0.0036598174458198425 0 0.0081357125478074659 0.0037059528931571994 0 0.0081286121479252765 0.0038676956618932399 0 0.012390054651239553 0.0024534521287872262 0 0.011189158346233345 0.0021646178940063995 0 0.0080934625945098208 0.0036678435624611849 0 0.0082818348208120347 0.0036293325934309592 0 0.0081357125478074659 0.0037059528931571994 0 0.0083098351149978704 0.0037647785479893755 0 0.0082818348208120347 0.0036293325934309592 0 0.0081357125478074659 0.0037059528931571994 0 0.0083098351149978704 0.0037647785479893755 0 0.0082871445002092384 0.0039903213442657971 0 0.0081286121479252765 0.0038676956618932399 0 0.0083098351149978704 0.0037647785479893755 0 0.0081357125478074659 0.0037059528931571994 0 0.0081286121479252765 0.0038676956618932399 0 0.0082871445002092384 0.0039903213442657971 0 0.0081286121479252765 0.0038676956618932399 0 0.0079455876064621379 0.0039970575837916158 0 0.011895425344415953 0.0030830464425361742 0 0.012828291313097982 0.0055708739983970443 0 0.0082871445002092384 0.0039903213442657971 0 0.0082780566199188721 0.0046589076040289097 0 0.0079455876064621379 0.0039970575837916158 0 0.0067717955058428517 0.0045802359843153439 0 0.011895425344415953 0.0030830464425361742 0 0.0082780566199188721 0.0046589076040289097 0 0.0080245588716221367 0.0055888760886353885 0 0.0071315250416752532 0.0049031668543071715 0 0.0082780566199188721 0.0046589076040289097 0 0.0073536047510635062 0.0038271713286779281 0 0.0071315250416752532 0.0049031668543071715 0 0.0080245588716221367 0.0055888760886353885 0 0.0071315250416752532 0.0049031668543071715 0 0.0069087171016622611 0.0060535167152773808 0 0.012828291313097982 0.0055708739983970443 0 0.012863687649356619 0.0060311679690458943 0 0.017437799725667461 0.0067623564106870761 0 0.018409419764304744 0.0056266840822038425 0 0.018027252501122561 0.0083276720530909565 0 0.017437799725667461 0.0067623564106870761 0 0.016089682004465162 0.0075938517252421159 0 0.018027252501122561 0.0083276720530909565 0 0.018806995984273545 0.0030629312278602811 0 0.018409419764304744 0.0056266840822038425 0 0.016722909416002796 0.0045506385132134727 0 0.017437799725667461 0.0067623564106870761 0 0.018409419764304744 0.0056266840822038425 0 0.016722909416002796 0.0045506385132134727 0 0.026675902069269772 0.0031007533996764806 0 0.027409398909049889 0.0034149821665953022 0 0.026836289529502177 0.0038748468410130851 0 0.027409398909049889 0.0034149821665953022 0 0.027180644113443744 0.0045817496546197711 0 0.026836289529502177 0.0038748468410130851 0 0.017437799725667461 0.0067623564106870761 0 0.016722909416002796 0.0045506385132134727 0 0.016089682004465162 0.0075938517252421159 0 0.022112618942885798 0.0040447059385511361 0 0.021609349640963078 0.0058603153626167375 0 0.027180644113443744 0.0045817496546197711 0 0.02653139394820983 0.0049829133216100019 0 0.026194264692378823 0.0042149398621940653 0 0.027180644113443744 0.0045817496546197711 0 0.026836289529502177 0.0038748468410130851 0 0.026194264692378823 0.0042149398621940653 0 0.026660507245746218 0.0031548641647949744 0 0.026312940352536011 0.0040262636351281102 0 0.026675902069269772 0.0031007533996764806 0 0.026836289529502177 0.0038748468410130851 0 0.026194264692378823 0.0042149398621940653 0 0.02653139394820983 0.0049829133216100019 0 0.026926221301877738 0.00554116877281429 0 0.026251929740820142 0.0058633717385033028 0 0.016089682004465162 0.0075938517252421159 0 0.016854320153621198 0.0091145655965163067 0 0.0163215338581887 0.010357111348199414 0 0.027180644113443744 0.0045817496546197711 0 0.02653139394820983 0.0049829133216100019 0 0.026926221301877738 0.00554116877281429 0 0.021609349640963078 0.0058603153626167375 0 0.021545758268825741 0.0091629749331301729 0 0.016089682004465162 0.0075938517252421159 0 0.0163215338581887 0.010357111348199414 0 0.015573074308748118 0.010754394617939598 0 0.016854320153621198 0.0091145655965163067 0 0.0163215338581887 0.010357111348199414 0 0.015950745580196636 0.011828412130391153 0 0.016854320153621198 0.0091145655965163067 0 0.017549159949951598 0.011474533704811624 0 0.015527352735291385 0.012311922923898721 0 0.017318702324780846 0.0079005667151325742 0 0.01450074725460666 0.015377465935990989 0 0.016834624606750274 0.01096508619017242 0 0.021545758268825741 0.0091629749331301729 0 0.0163215338581887 0.010357111348199414 0 0.015615807558561894 0.010760954436045805 0 0.015950745580196636 0.011828412130391153 0 0.006707366615723835 0.0072968136520151885 0 0.0069087171016622611 0.0060535167152773808 0 0.0077919037007134857 0.0067536135354343404 0 0.0091796936592966373 0.014591634425705447 0 0.012863687649356619 0.0060311679690458943 0 0.016854320153621198 0.0091145655965163067 0 0.017549159949951598 0.011474533704811624 0 0.018027252501122561 0.0083276720530909565 0 0.016089682004465162 0.0075938517252421159 0 0.016854320153621198 0.0091145655965163067 0 0.018027252501122561 0.0083276720530909565 0 0.0080245588716221367 0.0055888760886353885 0 0.0069087171016622611 0.0060535167152773808 0 0.0077919037007134857 0.0067536135354343404 0 0.0091796936592966373 0.014591634425705447 0 0.0071792703536166435 0.014308606576215056 0 0.0066204240228647628 0.022087883769108363 0 0.0076123125080454603 0.021644600431708339 0 0.0076756384627097354 0.022397592838963195 0 0.0066204240228647628 0.022087883769108363 0 0.0076756384627097354 0.022397592838963195 0 0.0072730945363216198 0.022950806116470206 0 0.0076756384627097354 0.022397592838963195 0 0.0072730945363216198 0.022950806116470206 0 0.0079897038162342632 0.023094472227144301 0 0.0072730945363216198 0.022950806116470206 0 0.0071260846759978267 0.023604006363414955 0 0.0076022718414372843 0.023736818532225968 0 0.0072730945363216198 0.022950806116470206 0 0.0079897038162342632 0.023094472227144301 0 0.0076022718414372843 0.023736818532225968 0 0.0072730945363216198 0.022950806116470206 0 0.0071260846759978267 0.023604006363414955 0 0.0064852799207371203 0.023371608235863751 0 0.0066204240228647628 0.022087883769108363 0 0.0072730945363216198 0.022950806116470206 0 0.0064852799207371203 0.023371608235863751 0 0.0091796936592966373 0.014591634425705447 0 0.007604284911053534 0.023164852878827084 0 0.016651876702010494 0.015753247740789039 0 0.017949468234715535 0.015224229442449815 0 0.015697558057969154 0.02119481479677256 0 0.0096500453987886318 0.01795163571238691 0 0.0091509071269911084 0.020567236703571974 0 0.0081626435605272416 0.018574387035958227 0 0.0091796936592966373 0.014591634425705447 0 0.01450074725460666 0.015377465935990989 0 0.015615807558561894 0.010760954436045805 0 0.015411408180413696 0.01205942663081027 0 0.015950745580196636 0.011828412130391153 0 0.021545758268825741 0.0091629749331301729 0 0.019918722775984311 0.015454124431094505 0 0.019918722775984311 0.015454124431094505 0 0.01450074725460666 0.015377465935990989 0 0.01450074725460666 0.015377465935990989 0 0.016371571049605512 0.021781962450916847 0 0.0091509071269911084 0.020567236703571974 0 0.0081626435605272416 0.018574387035958227 0 0.0073329474019711675 0.020831507176980329 0 0.019918722775984311 0.015454124431094505 0 0.016371571049605512 0.021781962450916847 0 0.021924122512573172 0.020489146172990521 0 0.021968057539065881 0.020324018098222724 0 0.022193057917189282 0.020441363806694483 0 0.019918722775984311 0.015454124431094505 0 0.023177489462945358 0.016675764140905262 0 0.021545758268825741 0.0091629749331301729 0 0.025442332487436232 0.0092207670210502374 0 0.022986680585034214 0.012941652555884956 0 0.023014104550762624 0.01285160699025969 0 0.023250450802530929 0.012866274692957886 0 0.023014104550762624 0.01285160699025969 0 0.023250450802530929 0.012866274692957886 0 0.02326593879408027 0.012817245514508458 0 0.0091760452178353148 0.021572684569556893 0 0.0098578517401316859 0.021556126963830319 0 0.0094155460947183706 0.022229781230405699 0 0.0098578517401316859 0.021556126963830319 0 0.010103341753561697 0.022482067995940463 0 0.010704303030076624 0.021747455984609469 0 0.0098578517401316859 0.021556126963830319 0 0.010227999163293413 0.020805903058513049 0 0.010704303030076624 0.021747455984609469 0 0.0098578517401316859 0.021556126963830319 0 0.010227999163293413 0.020805903058513049 0 0.0096445977359787723 0.020594151983169644 0 0.0097437138510266755 0.013573510258400442 0 0.0087739861055102335 0.013618275666031203 0 0.0091760452178353148 0.021572684569556893 0 0.0098578517401316859 0.021556126963830319 0 0.0096445977359787723 0.020594151983169644 0 0.0091760452178353148 0.021572684569556893 0 0.0096445977359787723 0.020594151983169644 0 0.0085980674707386365 0.021135380755850919 0 0.0071792703536166435 0.014308606576215056 0 0.0087739861055102335 0.013618275666031203 0 0.0080245588716221367 0.0055888760886353885 0 0.0077919037007134857 0.0067536135354343404 0 0.00874176505026753 0.0062438173587775004 0 0.0076123125080454603 0.021644600431708339 0 0.0085980674707386365 0.021135380755850919 0 0.0084523453937120109 0.022299198657809362 0 0.0076123125080454603 0.021644600431708339 0 0.0076756384627097354 0.022397592838963195 0 0.0084523453937120109 0.022299198657809362 0 0.0091760452178353148 0.021572684569556893 0 0.0085980674707386365 0.021135380755850919 0 0.0084523453937120109 0.022299198657809362 0 0.0091760452178353148 0.021572684569556893 0 0.0084523453937120109 0.022299198657809362 0 0.0094155460947183706 0.022229781230405699 0 0.0076756384627097354 0.022397592838963195 0 0.0084523453937120109 0.022299198657809362 0 0.0079897038162342632 0.023094472227144301 0 0.0079897038162342632 0.023094472227144301 0 0.0086548465417524405 0.02333532730828233 0 0.0081981470259367886 0.023870080553374775 0 0.0079897038162342632 0.023094472227144301 0 0.0081981470259367886 0.023870080553374775 0 0.0076022718414372843 0.023736818532225968 0 0.0084523453937120109 0.022299198657809362 0 0.0079897038162342632 0.023094472227144301 0 0.0086548465417524405 0.02333532730828233 0 0.0084523453937120109 0.022299198657809362 0 0.0086548465417524405 0.02333532730828233 0 0.0093483783100345424 0.023052444435062599 0 0.0093483783100345424 0.023052444435062599 0 0.0099997628975171289 0.02346066575908326 0 0.0092611803263655465 0.023736256183462805 0 0.0086548465417524405 0.02333532730828233 0 0.0093483783100345424 0.023052444435062599 0 0.0092611803263655465 0.023736256183462805 0 0.0093483783100345424 0.023052444435062599 0 0.0094155460947183706 0.022229781230405699 0 0.010103341753561697 0.022482067995940463 0 0.0084523453937120109 0.022299198657809362 0 0.0093483783100345424 0.023052444435062599 0 0.0094155460947183706 0.022229781230405699 0 0.0098578517401316859 0.021556126963830319 0 0.0094155460947183706 0.022229781230405699 0 0.010103341753561697 0.022482067995940463 0 0.010103341753561697 0.022482067995940463 0 0.0099997628975171289 0.02346066575908326 0 0.011006169964763089 0.022840962791381116 0 0.0093483783100345424 0.023052444435062599 0 0.010103341753561697 0.022482067995940463 0 0.0099997628975171289 0.02346066575908326 0 0.0099997628975171289 0.02346066575908326 0 0.01083643147501169 0.023572856819562553 0 0.011006169964763089 0.022840962791381116 0 0.011006169964763089 0.022840962791381116 0 0.011675478845037673 0.022709647876834518 0 0.011947832342669291 0.023618706132545329 0 0.01083643147501169 0.023572856819562553 0 0.011006169964763089 0.022840962791381116 0 0.011947832342669291 0.023618706132545329 0 0.011675478845037673 0.022709647876834518 0 0.01147340499156844 0.022079997449870999 0 0.012274656419011928 0.022294692146587948 0 0.011006169964763089 0.022840962791381116 0 0.011675478845037673 0.022709647876834518 0 0.01147340499156844 0.022079997449870999 0 0.011006169964763089 0.022840962791381116 0 0.01147340499156844 0.022079997449870999 0 0.010704303030076624 0.021747455984609469 0 0.010103341753561697 0.022482067995940463 0 0.011006169964763089 0.022840962791381116 0 0.010704303030076624 0.021747455984609469 0 0.01147340499156844 0.022079997449870999 0 0.010704303030076624 0.021747455984609469 0 0.011323404348136713 0.021459075309838305 0 0.010704303030076624 0.021747455984609469 0 0.011323404348136713 0.021459075309838305 0 0.010894482564218386 0.021157486365117283 0 0.01147340499156844 0.022079997449870999 0 0.011932751472193933 0.021663472184876655 0 0.012274656419011928 0.022294692146587948 0 0.01147340499156844 0.022079997449870999 0 0.011323404348136713 0.021459075309838305 0 0.011932751472193933 0.021663472184876655 0 0.011691281993884707 0.021103830076580895 0 0.01202931399613527 0.021097863853485901 0 0.011932751472193933 0.021663472184876655 0 0.011323404348136713 0.021459075309838305 0 0.011691281993884707 0.021103830076580895 0 0.011932751472193933 0.021663472184876655 0 0.011256815180849341 0.02101659676336462 0 0.011691281993884707 0.021103830076580895 0 0.011181751054683577 0.020562603957231401 0 0.011323404348136713 0.021459075309838305 0 0.011256815180849341 0.02101659676336462 0 0.011691281993884707 0.021103830076580895 0 0.011691281993884707 0.021103830076580895 0 0.011876000010876697 0.020684064817361601 0 0.01202931399613527 0.021097863853485901 0 0.0104780206787266 0.01323666149550122 0 0.0092498623177983182 0.012851665707971058 0 0.010000166375883513 0.012399196721357211 0 0.011691281993884707 0.021103830076580895 0 0.011876000010876697 0.020684064817361601 0 0.011023532003121306 0.020399479071120108 0 0.01199235593912904 0.021354348569615208 0 0.010704063824690828 0.018666947228901817 0 0.011263550221818594 0.017081361463044769 0 0.010704063824690828 0.018666947228901817 0 0.011256815180849341 0.02101659676336462 0 0.010885460593515427 0.020749315121417086 0 0.011181751054683577 0.020562603957231401 0 0.010885460593515427 0.020749315121417086 0 0.011181751054683577 0.020562603957231401 0 0.010747896990560923 0.020406668246942358 0 0.010227999163293413 0.020805903058513049 0 0.010704303030076624 0.021747455984609469 0 0.010894482564218386 0.021157486365117283 0 0.010227999163293413 0.020805903058513049 0 0.010885460593515427 0.020749315121417086 0 0.010747896990560923 0.020406668246942358 0 0.010227999163293413 0.020805903058513049 0 0.010885460593515427 0.020749315121417086 0 0.010894482564218386 0.021157486365117283 0 0.011323404348136713 0.021459075309838305 0 0.011256815180849341 0.02101659676336462 0 0.010894482564218386 0.021157486365117283 0 0.011256815180849341 0.02101659676336462 0 0.010885460593515427 0.020749315121417086 0 0.010894482564218386 0.021157486365117283 0 0.010699452065540327 0.015822198562404636 0 0.0078741987813591534 0.014976599530783827 0 0.010229323764572775 0.01213916729875624 0 0.0083290736066750533 0.015618033550330703 0 0.0087057893433775228 0.011679915266791614 0 0.010178387579831511 0.017080768935968792 0 0.010425594249666085 0.011684835368010738 0 0.0083290736066750533 0.015618033550330703 0 0.010178387579831511 0.017080768935968792 0 0.011263550221818594 0.017081361463044769 0 0.010178387579831511 0.017080768935968792 0 0.0104780206787266 0.01323666149550122 0 0.011722287579524942 0.013630394092278975 0 0.011058845570586416 0.012542089886366459 0 0.011876000010876697 0.020684064817361601 0 0.01202931399613527 0.021097863853485901 0 0.012609687321512344 0.020920945069753932 0 0.010178387579831511 0.017080768935968792 0 0.0096297553004352932 0.021046484697507122 0 0.012609687321512344 0.020920945069753932 0 0.011932751472193933 0.021663472184876655 0 0.012274656419011928 0.022294692146587948 0 0.0073853012212674951 0.017302366042317781 0 0.0078317374486612384 0.018450511233658654 0 0.006961633634775353 0.018994098972319944 0 0.01202931399613527 0.021097863853485901 0 0.012609687321512344 0.020920945069753932 0 0.011932751472193933 0.021663472184876655 0 0.0084046613371874402 0.017613173196101499 0 0.0078317374486612384 0.018450511233658654 0 0.008594050631412312 0.019086173882633933 0 0.0084046613371874402 0.017613173196101499 0 0.0073853012212674951 0.017302366042317781 0 0.0078317374486612384 0.018450511233658654 0 0.0078317374486612384 0.018450511233658654 0 0.006961633634775353 0.018994098972319944 0 0.0079406619922537097 0.019712057616085233 0 0.0078317374486612384 0.018450511233658654 0 0.0079406619922537097 0.019712057616085233 0 0.008594050631412312 0.019086173882633933 0 0.0079406619922537097 0.019712057616085233 0 0.0087678635085360508 0.019973359957016951 0 0.008594050631412312 0.019086173882633933 0 0.0096297553004352932 0.021046484697507122 0 0.0087085301533101518 0.022207736847444287 0 0.006961633634775353 0.018994098972319944 0 0.0079406619922537097 0.019712057616085233 0 0.0065861519826848191 0.02065503624317136 0 0.011675478845037673 0.022709647876834518 0 0.012274656419011928 0.022294692146587948 0 0.011947832342669291 0.023618706132545329 0 0.0071458075248481551 0.019500668771252724 0 0.0087085301533101518 0.022207736847444287 0 0.0079406619922537097 0.019712057616085233 0 0.0077005995303099624 0.020936723583967344 0 0.0063070964622473609 0.020812188987180066 0 0.0087678635085360508 0.019973359957016951 0 0.008796744773395225 0.021030900619034155 0 0.0077005995303099624 0.020936723583967344 0 0.0079406619922537097 0.019712057616085233 0 0.0087678635085360508 0.019973359957016951 0 0.0077005995303099624 0.020936723583967344 0 0.0096682624569026168 0.020108286113671672 0 0.0087000150287442901 0.021083537890700183 0 0.0087678635085360508 0.019973359957016951 0 0.0097116917978877036 0.019798558077609048 0 0.008796744773395225 0.021030900619034155 0 0.0087678635085360508 0.019973359957016951 0 0.0097116917978877036 0.019798558077609048 0 0.0091357332515099345 0.019410755049531266 0 0.0093960577201409393 0.020031794474478028 0 0.0098367711848488439 0.021048352745493663 0 0.0086323923292114003 0.021154000409497789 0 0.0093960577201409393 0.020031794474478028 0 0.01061182856547096 0.020337345927262516 0 0.0098367711848488439 0.021048352745493663 0 0.0096682624569026168 0.020108286113671672 0 0.0083840692243126961 0.016586486043669704 0 0.0097116917978877036 0.019798558077609048 0 0.010002996637644066 0.018667069394691288 0 0.0094812660093222031 0.018770665618976189 0 0.0097116917978877036 0.019798558077609048 0 0.010002996637644066 0.018667069394691288 0 0.010647137734914151 0.01852773508629817 0 0.0093960577201409393 0.020031794474478028 0 0.01061182856547096 0.020337345927262516 0 0.010202689091625722 0.018890087503614456 0 0.010002996637644066 0.018667069394691288 0 0.0094812660093222031 0.018770665618976189 0 0.009803141119782921 0.018223991110060369 0 0.0094812660093222031 0.018770665618976189 0 0.008594050631412312 0.019086173882633933 0 0.0091319896685985325 0.018197887506636531 0 0.0087678635085360508 0.019973359957016951 0 0.008594050631412312 0.019086173882633933 0 0.0091357332515099345 0.019410755049531266 0 0.0097116917978877036 0.019798558077609048 0 0.0094812660093222031 0.018770665618976189 0 0.0091357332515099345 0.019410755049531266 0 0.0094812660093222031 0.018770665618976189 0 0.008594050631412312 0.019086173882633933 0 0.0091357332515099345 0.019410755049531266 0 0.0043992090363881384 0.013299294070061094 0 0.0055057076196948929 0.012954752119553966 0 0.0049290708312945079 0.01368898804725468 0 0.0043992090363881384 0.013299294070061094 0 0.0046773226772893594 0.012568947983578917 0 0.0055057076196948929 0.012954752119553966 0 0.0043992090363881384 0.013299294070061094 0 0.0042503422166577818 0.012861089202888948 0 0.0039498391064695616 0.013007142705118361 0 0.0043992090363881384 0.013299294070061094 0 0.0042503422166577818 0.012861089202888948 0 0.0046773226772893594 0.012568947983578917 0 0.0042503422166577818 0.012861089202888948 0 0.0046773226772893594 0.012568947983578917 0 0.003975572475189839 0.012571130973637252 0 0.0052888589510380439 0.013976748320506762 0 0.0041755609271133644 0.014106576347912741 0 0.0056390193258097953 0.014578388810676718 0 0.0079907661024358201 0.01659550998301244 0 0.0083840692243126961 0.016586486043669704 0 0.0055057076196948929 0.012954752119553966 0 0.0059054967312031003 0.014233128470196975 0 0.0052888589510380439 0.013976748320506762 0 0.0055057076196948929 0.012954752119553966 0 0.0052888589510380439 0.013976748320506762 0 0.0049290708312945079 0.01368898804725468 0 0.0059054967312031003 0.014233128470196975 0 0.0052888589510380439 0.013976748320506762 0 0.0056390193258097953 0.014578388810676718 0 0.0052888589510380439 0.013976748320506762 0 0.0049290708312945079 0.01368898804725468 0 0.0041755609271133644 0.014106576347912741 0 0.0043992090363881384 0.013299294070061094 0 0.0049290708312945079 0.01368898804725468 0 0.0041755609271133644 0.014106576347912741 0 0.0042989634515717369 0.014075790676910588 0 0.0062191650401416353 0.014341738470056025 0 0.0046840807835524263 0.014052140411036321 0 0.00500321023522045 0.014396536831635526 0 0.0055932354029785492 0.014355428991815057 0 0.0046974093642025705 0.014506082734201066 0 0.00500321023522045 0.014396536831635526 0 0.0048621528622217105 0.014841648877684636 0 0.0046974093642025705 0.014506082734201066 0 0.0048621528622217105 0.014841648877684636 0 0.0044217039070384642 0.014745956344913123 0 0.0046840807835524263 0.014052140411036321 0 0.0047125693074711681 0.01430914914445252 0 0.00500321023522045 0.014396536831635526 0 0.0046974093642025705 0.014506082734201066 0 0.0047125693074711681 0.01430914914445252 0 0.0044458361581486139 0.014275415138086727 0 0.0046974093642025705 0.014506082734201066 0 0.0047125693074711681 0.01430914914445252 0 0.00500321023522045 0.014396536831635526 0 0.0046840807835524263 0.014052140411036321 0 0.0047125693074711681 0.01430914914445252 0 0.0044458361581486139 0.014275415138086727 0 0.00500321023522045 0.014396536831635526 0 0.005439817941015117 0.014552264773913142 0 0.0048621528622217105 0.014841648877684636 0 0.0053462820066260382 0.012308331458175255 0 0.0045669548182142887 0.012748999438448436 0 0.00500321023522045 0.014396536831635526 0 0.005439817941015117 0.014552264773913142 0 0.0055932354029785492 0.014355428991815057 0 0.0058953274216466409 0.013338020739451612 0 0.0060159601482949829 0.013188178006423926 0 0.0061335137353003867 0.013224456959969245 0 0.0074878807128187759 0.015126085486046803 0 0.0077193676305595945 0.014810049085604474 0 0.0075045022950499729 0.014744926793772989 0 0.0083840692243126961 0.016586486043669704 0 0.0062191650401416353 0.014341738470056025 0 0.0062191650401416353 0.014341738470056025 0 0.0069830134945153208 0.0138978428107247 0 0.0047585227060585426 0.010144129102058539 0 0.0048248921542090378 0.010128987560872478 0 0.004792898000420329 0.010191032596737898 0 0.0048248921542090378 0.010128987560872478 0 0.004792898000420329 0.010191032596737898 0 0.0048439094759227252 0.010135440150049427 0 0.0053462820066260382 0.012308331458175255 0 0.0069830134945153208 0.0138978428107247 0 0.0053462820066260382 0.012308331458175255 0 0.0062191650401416353 0.014341738470056025 0 0.004792898000420329 0.010191032596737898 0 0.0048821297454312729 0.010255249325898236 0 0.0047413852764999079 0.010279182098366292 0 0.004792898000420329 0.010191032596737898 0 0.0046883321392844996 0.010223620926865847 0 0.0047413852764999079 0.010279182098366292 0 0.0046883321392844996 0.010223620926865847 0 0.0046620573269549126 0.01027622717524556 0 0.0047413852764999079 0.010279182098366292 0 0.0047585227060585426 0.010144129102058539 0 0.004792898000420329 0.010191032596737898 0 0.0046883321392844996 0.010223620926865847 0 0.0047585227060585426 0.010144129102058539 0 0.0046883321392844996 0.010223620926865847 0 0.0045613268714101854 0.010270084055082564 0 0.0053462820066260382 0.012308331458175255 0 0.0044794443439110949 0.0096829930546656756 0 0.0042737093194775292 0.010671318943890791 0 0.0045629884085429664 0.010310533333479461 0 0.0045482604923361971 0.010514376411442906 0 0.0042737093194775292 0.010671318943890791 0 0.0045629884085429664 0.010310533333479461 0 0.0045613268714101854 0.010270084055082564 0 0.0046883321392844996 0.010223620926865847 0 0.0046313011455698253 0.010266093347781792 0 0.0045613268714101854 0.010270084055082564 0 0.0046883321392844996 0.010223620926865847 0 0.0046313011455698253 0.010266093347781792 0 0.0046620573269549126 0.01027622717524556 0 0.0045629884085429664 0.010310533333479461 0 0.0045482604923361971 0.010514376411442906 0 0.0048333378419354095 0.010372170284072016 0 0.0083255139360471561 0.017274035939376094 0 0.008594050631412312 0.019086173882633933 0 0.0091319896685985325 0.018197887506636531 0 0.0083290736066750533 0.015618033550330703 0 0.0086362552467686045 0.019727638711832807 0 0.0083255139360471561 0.017274035939376094 0 0.0094267386752380587 0.017618489404751456 0 0.0091319896685985325 0.018197887506636531 0 0.0083290736066750533 0.015618033550330703 0 0.0092254074342393317 0.015444585169812933 0 0.0094267386752380587 0.017618489404751456 0 0.0091319896685985325 0.018197887506636531 0 0.009803141119782921 0.018223991110060369 0 0.0094812660093222031 0.018770665618976189 0 0.0091319896685985325 0.018197887506636531 0 0.009803141119782921 0.018223991110060369 0 0.0094267386752380587 0.017618489404751456 0 0.009803141119782921 0.018223991110060369 0 0.010477962605980665 0.017938786795920127 0 0.0084565276504188908 0.013168139340217077 0 0.009507054165735121 0.013484836920584026 0 0.0091111235193039077 0.012052336546877611 0 0.009803141119782921 0.018223991110060369 0 0.010477962605980665 0.017938786795920127 0 0.010518065615597129 0.018077930433728663 0 0.010002996637644066 0.018667069394691288 0 0.009803141119782921 0.018223991110060369 0 0.010518065615597129 0.018077930433728663 0 0.010002996637644066 0.018667069394691288 0 0.010647137734914151 0.01852773508629817 0 0.010518065615597129 0.018077930433728663 0 0.0074878807128187759 0.015126085486046803 0 0.0075045022950499729 0.014744926793772989 0 0.0073940121078574306 0.014803040944751529 0 0.0083840692243126961 0.016586486043669704 0 0.0078067634505244706 0.014483180735723316 0 0.0079025809473518682 0.01377846940137032 0 0.0078067634505244706 0.014483180735723316 0 0.0077885682240259446 0.013776795655895187 0 0.0080561189901048741 0.01385626400866705 0 0.0080014150011911058 0.013667723001378439 0 0.0069830134945153208 0.0138978428107247 0 0.0079025809473518682 0.01377846940137032 0 0.0069830134945153208 0.0138978428107247 0 0.0078067634505244706 0.014483180735723316 0 0.0092254074342393317 0.015444585169812933 0 0.0079025809473518682 0.01377846940137032 0 0.0084565276504188908 0.013168139340217077 0 0.0091111235193039077 0.012052336546877611 0 0.0081707615201180219 0.011993072827754773 0 0.0079025809473518682 0.01377846940137032 0 0.0068661566935150457 0.010721644031767213 0 0.004792898000420329 0.010191032596737898 0 0.0048439094759227252 0.010135440150049427 0 0.0048821297454312729 0.010255249325898236 0 0.0073909810588013783 0.012856310300367687 0 0.0084565276504188908 0.013168139340217077 0 0.0081707615201180219 0.011993072827754773 0 0.0073909810588013783 0.012856310300367687 0 0.0081707615201180219 0.011993072827754773 0 0.0071811075029005649 0.011274143684180322 0 0.0081707615201180219 0.011993072827754773 0 0.0087087068144358574 0.010604245566130497 0 0.0071811075029005649 0.011274143684180322 0 0.0048821297454312729 0.010255249325898236 0 0.0048273048492029 0.010345156505164932 0 0.0047413852764999079 0.010279182098366292 0 0.0091111235193039077 0.012052336546877611 0 0.0081707615201180219 0.011993072827754773 0 0.0087087068144358574 0.010604245566130497 0 0.0068661566935150457 0.010721644031767213 0 0.0068617094157246384 0.010792699290204355 0 0.0048821297454312729 0.010255249325898236 0 0.0048273048492029 0.010345156505164932 0 0.004934544057288744 0.010400464474316607 0 0.0048273048492029 0.010345156505164932 0 0.004934544057288744 0.010400464474316607 0 0.0048415892965939459 0.010417907287055071 0 0.004934544057288744 0.010400464474316607 0 0.0048415892965939459 0.010417907287055071 0 0.0048993880333627962 0.010505325623193914 0 0.004934544057288744 0.010400464474316607 0 0.0048993880333627962 0.010505325623193914 0 0.0049822716561646451 0.010531803788063235 0 0.0048415892965939459 0.010417907287055071 0 0.0048993880333627962 0.010505325623193914 0 0.0048134996925754073 0.01049655067704231 0 0.0087087068144358574 0.010604245566130497 0 0.0082956801040235256 0.0091528235497526072 0 0.0069777696651887556 0.0096860058047083548 0 0.0087087068144358574 0.010604245566130497 0 0.0071811075029005649 0.011274143684180322 0 0.0069777696651887556 0.0096860058047083548 0 0.0068617094157246384 0.010792699290204355 0 0.0070704116427966366 0.0085906256575455538 0 0.0044977924055178828 0.010402228048240795 0 0.0045360468607225464 0.010362754056772722 0 0.0044745135760093343 0.01035209877187809 0 0.0044977924055178828 0.010402228048240795 0 0.0045360468607225464 0.010362754056772722 0 0.0045826304917594863 0.010398642613151579 0 0.0045360468607225464 0.010362754056772722 0 0.0045356722365341674 0.010316802349161125 0 0.0045932330264580228 0.010338021905650325 0 0.0045360468607225464 0.010362754056772722 0 0.0045932330264580228 0.010338021905650325 0 0.0045826304917594863 0.010398642613151579 0 0.0045360468607225464 0.010362754056772722 0 0.0045356722365341674 0.010316802349161125 0 0.0044745135760093343 0.01035209877187809 0 0.0045356722365341674 0.010316802349161125 0 0.0044886736460326209 0.010285319684082552 0 0.0044745135760093343 0.01035209877187809 0 0.0045629884085429664 0.010310533333479461 0 0.0045613268714101854 0.010270084055082564 0 0.0044886736460326209 0.010285319684082552 0 0.0045356722365341674 0.010316802349161125 0 0.0045613268714101854 0.010270084055082564 0 0.0044886736460326209 0.010285319684082552 0 0.0045356722365341674 0.010316802349161125 0 0.0045613268714101854 0.010270084055082564 0 0.0045760745976824628 0.010306141848135338 0 0.0045356722365341674 0.010316802349161125 0 0.0045760745976824628 0.010306141848135338 0 0.0045932330264580228 0.010338021905650325 0 0.0045760745976824628 0.010306141848135338 0 0.0046133261590030642 0.010297057431921434 0 0.0045932330264580228 0.010338021905650325 0 0.0045613268714101854 0.010270084055082564 0 0.0045760745976824628 0.010306141848135338 0 0.0046133261590030642 0.010297057431921434 0 0.0046313011455698253 0.010266093347781792 0 0.0045613268714101854 0.010270084055082564 0 0.0046133261590030642 0.010297057431921434 0 0.0046133261590030642 0.010297057431921434 0 0.0046620573269549126 0.01027622717524556 0 0.0046604227145479044 0.010318770457397175 0 0.0046313011455698253 0.010266093347781792 0 0.0046133261590030642 0.010297057431921434 0 0.0046620573269549126 0.01027622717524556 0 0.0046133261590030642 0.010297057431921434 0 0.0046604227145479044 0.010318770457397175 0 0.0045932330264580228 0.010338021905650325 0 0.0046604227145479044 0.010318770457397175 0 0.0046432246686414934 0.010365644228686514 0 0.0045932330264580228 0.010338021905650325 0 0.0046432246686414934 0.010365644228686514 0 0.0045932330264580228 0.010338021905650325 0 0.0045826304917594863 0.010398642613151579 0 0.0046432246686414934 0.010365644228686514 0 0.0045826304917594863 0.010398642613151579 0 0.0046515093057261873 0.010408342752746413 0 0.0046432246686414934 0.010365644228686514 0 0.0047298404459266826 0.01037482594686847 0 0.0046515093057261873 0.010408342752746413 0 0.0046604227145479044 0.010318770457397175 0 0.0046432246686414934 0.010365644228686514 0 0.0047298404459266826 0.01037482594686847 0 0.0046620573269549126 0.01027622717524556 0 0.0046604227145479044 0.010318770457397175 0 0.0047413852764999079 0.010279182098366292 0 0.0046604227145479044 0.010318770457397175 0 0.0047298404459266826 0.01037482594686847 0 0.0047413852764999079 0.010279182098366292 0 0.0048273048492029 0.010345156505164932 0 0.0047298404459266826 0.01037482594686847 0 0.0047413852764999079 0.010279182098366292 0 0.0048273048492029 0.010345156505164932 0 0.0048415892965939459 0.010417907287055071 0 0.0047298404459266826 0.01037482594686847 0 0.0048415892965939459 0.010417907287055071 0 0.0047609296959563539 0.010443041126937887 0 0.0048134996925754073 0.01049655067704231 0 0.0048415892965939459 0.010417907287055071 0 0.0047298404459266826 0.01037482594686847 0 0.0047609296959563539 0.010443041126937887 0 0.0047609296959563539 0.010443041126937887 0 0.0048134996925754073 0.01049655067704231 0 0.0047194105039754337 0.010520050613792381 0 0.0047194105039754337 0.010520050613792381 0 0.0046831490883663179 0.010450712531799593 0 0.0046040777915495905 0.010520571046162039 0 0.0047609296959563539 0.010443041126937887 0 0.0047194105039754337 0.010520050613792381 0 0.0046831490883663179 0.010450712531799593 0 0.0047298404459266826 0.01037482594686847 0 0.0047609296959563539 0.010443041126937887 0 0.0046831490883663179 0.010450712531799593 0 0.0047298404459266826 0.01037482594686847 0 0.0046831490883663179 0.010450712531799593 0 0.0046515093057261873 0.010408342752746413 0 0.0045826304917594863 0.010398642613151579 0 0.0046515093057261873 0.010408342752746413 0 0.0045975045595447878 0.01045843891032272 0 0.0046831490883663179 0.010450712531799593 0 0.0046515093057261873 0.010408342752746413 0 0.0045975045595447878 0.01045843891032272 0 0.0046831490883663179 0.010450712531799593 0 0.0045975045595447878 0.01045843891032272 0 0.0046040777915495905 0.010520571046162039 0 0.0045975045595447878 0.01045843891032272 0 0.0045111843149355079 0.010526965466842075 0 0.0045033496879825514 0.010462466329230844 0 0.0045975045595447878 0.01045843891032272 0 0.0046040777915495905 0.010520571046162039 0 0.0045111843149355079 0.010526965466842075 0 0.0045826304917594863 0.010398642613151579 0 0.0045975045595447878 0.01045843891032272 0 0.0045033496879825514 0.010462466329230844 0 0.0044977924055178828 0.010402228048240795 0 0.0045826304917594863 0.010398642613151579 0 0.0045033496879825514 0.010462466329230844 0 0.0044930433169315057 0.010690987256943113 0 0.0045296428959603532 0.01057970651345775 0 0.0046151380434360963 0.010601495294705906 0 0.0046040777915495905 0.010520571046162039 0 0.0045111843149355079 0.010526965466842075 0 0.0045296428959603532 0.01057970651345775 0 0.0044930433169315057 0.010690987256943113 0 0.0045296428959603532 0.01057970651345775 0 0.0044214130641920899 0.010563972878226909 0 0.0045111843149355079 0.010526965466842075 0 0.0045296428959603532 0.01057970651345775 0 0.0044214130641920899 0.010563972878226909 0 0.0047194105039754337 0.010520050613792381 0 0.0046040777915495905 0.010520571046162039 0 0.0046151380434360963 0.010601495294705906 0 0.0046040777915495905 0.010520571046162039 0 0.0045296428959603532 0.01057970651345775 0 0.0046151380434360963 0.010601495294705906 0 0.0046151380434360963 0.010601495294705906 0 0.0047279835198597965 0.010608393825332785 0 0.0046254410871409404 0.0106903882071169 0 0.0044930433169315057 0.010690987256943113 0 0.0046151380434360963 0.010601495294705906 0 0.0046254410871409404 0.0106903882071169 0 0.0047279835198597965 0.010608393825332785 0 0.004705857170884978 0.010681470532533809 0 0.0046254410871409404 0.0106903882071169 0 0.0047279835198597965 0.010608393825332785 0 0.004782012426584074 0.010646516053089637 0 0.004705857170884978 0.010681470532533809 0 0.0047194105039754337 0.010520050613792381 0 0.0047279835198597965 0.010608393825332785 0 0.0047914542964116093 0.010548938765817552 0 0.0047194105039754337 0.010520050613792381 0 0.0046151380434360963 0.010601495294705906 0 0.0047279835198597965 0.010608393825332785 0 0.0048134996925754073 0.01049655067704231 0 0.0047194105039754337 0.010520050613792381 0 0.0047914542964116093 0.010548938765817552 0 0.0048134996925754073 0.01049655067704231 0 0.0047914542964116093 0.010548938765817552 0 0.0048434681524847957 0.010542802399853349 0 0.0047914542964116093 0.010548938765817552 0 0.0048246961118934882 0.010591039623875181 0 0.0048434681524847957 0.010542802399853349 0 0.0047279835198597965 0.010608393825332785 0 0.0048246961118934882 0.010591039623875181 0 0.004782012426584074 0.010646516053089637 0 0.0048246961118934882 0.010591039623875181 0 0.004782012426584074 0.010646516053089637 0 0.0049142943636826366 0.01059095088221873 0 0.0047279835198597965 0.010608393825332785 0 0.0047914542964116093 0.010548938765817552 0 0.0048246961118934882 0.010591039623875181 0 0.0051755595088039319 0.010582018458631999 0 0.0047541511136599112 0.010657019681694116 0 0.004782012426584074 0.010646516053089637 0 0.0046866501843656821 0.010796486389564949 0 0.0049142943636826366 0.01059095088221873 0 0.0048641824603341032 0.010489363388835838 0 0.004897390581833666 0.010563347896135871 0 0.0048855755077446298 0.010539962393374019 0 0.004897390581833666 0.010563347896135871 0 0.0048855755077446298 0.010539962393374019 0 0.0049142943636826366 0.01059095088221873 0 0.0046866501843656821 0.010796486389564949 0 0.004705857170884978 0.010681470532533809 0 0.0046254410871409404 0.0106903882071169 0 0.004782012426584074 0.010646516053089637 0 0.0046866501843656821 0.010796486389564949 0 0.004705857170884978 0.010681470532533809 0 0.0044930433169315057 0.010690987256943113 0 0.0045593734197425942 0.010768965534117181 0 0.0044442231829393839 0.010894332068248247 0 0.0046866501843656821 0.010796486389564949 0 0.0045593734197425942 0.010768965534117181 0 0.0044442231829393839 0.010894332068248247 0 0.0051755595088039319 0.010582018458631999 0 0.0022654913855521615 0.010063128205326337 0 0.0046866501843656821 0.010796486389564949 0 0.0045593734197425942 0.010768965534117181 0 0.0046254410871409404 0.0106903882071169 0 0.0044930433169315057 0.010690987256943113 0 0.0045593734197425942 0.010768965534117181 0 0.0046254410871409404 0.0106903882071169 0 0.0070704116427966366 0.0085906256575455538 0 0.0090402868928428741 0.0079028004287355659 0 0.0087676261691276604 0.0044743315104391092 0 0.0091218416122115127 0.0045343927430310828 0 0.0084618576887271982 0.0048038834217747368 0 0.0089555192871869707 0.0041587070915391289 0 0.0087676261691276604 0.0044743315104391092 0 0.0086828415406237629 0.0038321608567663148 0 0.0090095149378548837 0.004136241895071802 0 0.0089555192871869707 0.0041587070915391289 0 0.0091218416122115127 0.0045343927430310828 0 0.0067716702921567506 0.0059363444298638516 0 0.0070704116427966366 0.0085906256575455538 0 0.0049666986467499343 0.010579208843157885 0 0.0049745385884216254 0.010518584067716451 0 0.0049366237937518752 0.010570154388905361 0 0.0067716702921567506 0.0059363444298638516 0 0.0070048833867131823 0.0058134770046434203 0 0.0089555192871869707 0.0041587070915391289 0 0.0087676261691276604 0.0044743315104391092 0 0.0091218416122115127 0.0045343927430310828 0 0.0049666986467499343 0.010579208843157885 0 0.0049366237937518752 0.010570154388905361 0 0.0049142943636826366 0.01059095088221873 0 0.0070704116427966366 0.0085906256575455538 0 0.0040916414942383517 0.01085351609569787 0 0.0048993880333627962 0.010505325623193914 0 0.0049822716561646451 0.010531803788063235 0 0.0048789366817833879 0.010575040282112919 0 0.0048993880333627962 0.010505325623193914 0 0.0048434681524847957 0.010542802399853349 0 0.0048789366817833879 0.010575040282112919 0 0.0048993880333627962 0.010505325623193914 0 0.0048134996925754073 0.01049655067704231 0 0.0048434681524847957 0.010542802399853349 0 0.0048789366817833879 0.010575040282112919 0 0.0049366237937518752 0.010570154388905361 0 0.0049142943636826366 0.01059095088221873 0 0.0048246961118934882 0.010591039623875181 0 0.0048434681524847957 0.010542802399853349 0 0.0048789366817833879 0.010575040282112919 0 0.0048246961118934882 0.010591039623875181 0 0.0048789366817833879 0.010575040282112919 0 0.0049142943636826366 0.01059095088221873 0 0.0049745385884216254 0.010518584067716451 0 0.0048789366817833879 0.010575040282112919 0 0.0049366237937518752 0.010570154388905361 0 0.0062912564779840641 0.0066209221360981558 0 0.0067716702921567506 0.0059363444298638516 0 0.004897390581833666 0.010563347896135871 0 0.0049666986467499343 0.010579208843157885 0 0.0049142943636826366 0.01059095088221873 0 0.0076236093264682812 0.0029238946147743406 0 0.0072460091824475426 0.0028324978633786041 0 0.0078301562309744614 0.0025533235597194164 0 0.0080262739424755807 0.0029852537910383115 0 0.0076236093264682812 0.0029238946147743406 0 0.0078301562309744614 0.0025533235597194164 0 0.0084663933996504178 0.0027958941612586997 0 0.0067716702921567506 0.0059363444298638516 0 0.0087440709647409777 0.0035099612462006873 0 0.0090001047926880004 0.0041283731753957702 0 0.0086828415406237629 0.0038321608567663148 0 0.0090001047926880004 0.0041283731753957702 0 0.0089555192871869707 0.0041587070915391289 0 0.0086828415406237629 0.0038321608567663148 0 0.0086828415406237629 0.0038321608567663148 0 0.0085166835791543362 0.0037686891349100349 0 0.0085834038936755293 0.0043035173436118661 0 0.0086490618257147704 0.0036434319911334881 0 0.0086828415406237629 0.0038321608567663148 0 0.0085166835791543362 0.0037686891349100349 0 0.0087440709647409777 0.0035099612462006873 0 0.0086490618257147704 0.0036434319911334881 0 0.0086828415406237629 0.0038321608567663148 0 0.0090135799942925223 0.0034852372032363171 0 0.0090267725261369367 0.0035627509685640774 0 0.0089806245968113031 0.0035065308398834439 0 0.0087676261691276604 0.0044743315104391092 0 0.0086828415406237629 0.0038321608567663148 0 0.0084390741932284206 0.0046233657670004605 0 0.0087243088013463557 0.0034265194613286943 0 0.0091297483902772567 0.0049472686716632427 0 0.0090135799942925223 0.0034852372032363171 0 0.0090267725261369367 0.0035627509685640774 0 0.0090796444984986031 0.0036314556895921347 0 0.0085872756909601503 0.0037277560759214298 0 0.0091297483902772567 0.0049472686716632427 0 0.0090267725261369367 0.0035627509685640774 0 0.0090389348105280667 0.0036103812464660639 0 0.0090796444984986031 0.0036314556895921347 0 0.0090389348105280667 0.0036103812464660639 0 0.0090683545954639896 0.0036598525459438183 0 0.0090243345397963363 0.0036327706585479436 0 0.0090389348105280667 0.0036103812464660639 0 0.0090796444984986031 0.0036314556895921347 0 0.0090683545954639896 0.0036598525459438183 0 0.0087676261691276604 0.0044743315104391092 0 0.0084390741932284206 0.0046233657670004605 0 0.0084618576887271982 0.0048038834217747368 0 0.009001413219190877 0.0035756268386751841 0 0.0090038051869868636 0.003621507229084451 0 0.0090243345397963363 0.0036327706585479436 0 0.0090389348105280667 0.0036103812464660639 0 0.009001413219190877 0.0035756268386751841 0 0.0090243345397963363 0.0036327706585479436 0 0.0090267725261369367 0.0035627509685640774 0 0.0090389348105280667 0.0036103812464660639 0 0.009001413219190877 0.0035756268386751841 0 0.009001413219190877 0.0035756268386751841 0 0.0089806245968113031 0.0035065308398834439 0 0.0089916107560842288 0.0035260690736775998 0 0.0090267725261369367 0.0035627509685640774 0 0.009001413219190877 0.0035756268386751841 0 0.0089806245968113031 0.0035065308398834439 0 0.0089643427227230534 0.0034643618629635465 0 0.0089218722344693302 0.003450176222771949 0 0.0089806245968113031 0.0035065308398834439 0 0.0089218722344693302 0.003450176222771949 0 0.0090135799942925223 0.0034852372032363171 0 0.0089806245968113031 0.0035065308398834439 0 0.0089643427227230534 0.0034643618629635465 0 0.0089806245968113031 0.0035065308398834439 0 0.0089916107560842288 0.0035260690736775998 0 0.009001413219190877 0.0035756268386751841 0 0.0090014670138533568 0.0035700134070138227 0 0.0089916107560842288 0.0035260690736775998 0 0.0089936025235352653 0.0034627243520322648 0 0.0090014670138533568 0.0035700134070138227 0 0.0089916107560842288 0.0035260690736775998 0 0.0089936025235352653 0.0034627243520322648 0 0.0089643427227230534 0.0034643618629635465 0 0.0089916107560842288 0.0035260690736775998 0 0.0090158013410142814 0.0034593998168129174 0 0.0090107167778048832 0.0036572390526694344 0 0.0090014670138533568 0.0035700134070138227 0 0.0090107167778048832 0.0036572390526694344 0 0.0090014670138533568 0.0035700134070138227 0 0.0089973084979033044 0.0036537533722497757 0 0.0090107167778048832 0.0036572390526694344 0 0.0090107008525425868 0.0036793185889038601 0 0.0089973084979033044 0.0036537533722497757 0 0.0090014670138533568 0.0035700134070138227 0 0.0090038051869868636 0.003621507229084451 0 0.0089973084979033044 0.0036537533722497757 0 0.009001413219190877 0.0035756268386751841 0 0.0090014670138533568 0.0035700134070138227 0 0.0090038051869868636 0.003621507229084451 0 0.0090038051869868636 0.003621507229084451 0 0.0090106786167888451 0.0036814975990175558 0 0.0089973084979033044 0.0036537533722497757 0 0.0090106786167888451 0.0036814975990175558 0 0.0089973084979033044 0.0036537533722497757 0 0.009001713910268291 0.0037115047645428193 0 0.0090107008525425868 0.0036793185889038601 0 0.0089973084979033044 0.0036537533722497757 0 0.009001713910268291 0.0037115047645428193 0 0.0092498623177983182 0.012851665707971058 0 0.008491211659482429 0.012034901323290033 0 0.010000166375883513 0.012399196721357211 0 0.011174842483200548 0.020523895442036557 0 0.010748156253816959 0.020058963199763764 0 0.010747896990560923 0.020406668246942358 0 0.010704063824690828 0.018666947228901817 0 0.011134004840754996 0.01977145561175234 0 0.010704063824690828 0.018666947228901817 0 0.0096212246864947927 0.0095980553783419163 0 0.010227999163293413 0.020805903058513049 0 0.010748156253816959 0.020058963199763764 0 0.010747896990560923 0.020406668246942358 0 0.0097771752820193063 0.0071479563968195915 0 0.0096212246864947927 0.0095980553783419163 0 0.010470981331343774 0.011210994094955797 0 0.008491211659482429 0.012034901323290033 0 0.010000166375883513 0.012399196721357211 0 0.010470981331343774 0.011210994094955797 0 0.010000166375883513 0.012399196721357211 0 0.011058845570586416 0.012542089886366459 0 0.0104780206787266 0.01323666149550122 0 0.010000166375883513 0.012399196721357211 0 0.011058845570586416 0.012542089886366459 0 0.011722287579524942 0.013630394092278975 0 0.011058845570586416 0.012542089886366459 0 0.012107641157072961 0.011995466967495429 0 0.010470981331343774 0.011210994094955797 0 0.011058845570586416 0.012542089886366459 0 0.012107641157072961 0.011995466967495429 0 0.0078741987813591534 0.014976599530783827 0 0.0086377235221863843 0.011776588555976556 0 0.010229323764572775 0.01213916729875624 0 0.0086377235221863843 0.011776588555976556 0 0.010229323764572775 0.01213916729875624 0 0.0094115915381806966 0.0085481297453167526 0 0.0087057893433775228 0.011679915266791614 0 0.0090402868928428741 0.0079028004287355659 0 0.010229323764572775 0.01213916729875624 0 0.0097485308785475334 0.0084116339408223228 0 0.0094115915381806966 0.0085481297453167526 0 0.010425594249666085 0.011684835368010738 0 0.010161544403111601 0.0077630073759968809 0 0.0095627018968806668 0.0058180762960565145 0 0.0098087767261620801 0.0076674145734892821 0 0.0090460863491179429 0.0079755543080770788 0 0.0091297483902772567 0.0049472686716632427 0 0.0090402868928428741 0.0079028004287355659 0 0.0091297483902772567 0.0049472686716632427 0 0.010161544403111601 0.0077630073759968809 0 0.0090402868928428741 0.0079028004287355659 0 0.010161544403111601 0.0077630073759968809 0 0.010470981331343774 0.011210994094955797 0 0.012107641157072961 0.011995466967495429 0 0.01248067906332103 0.01036331050200986 0 0.0090038051869868636 0.003621507229084451 0 0.0090106786167888451 0.0036814975990175558 0 0.0090243345397963363 0.0036327706585479436 0 0.0097771752820193063 0.0071479563968195915 0 0.010161544403111601 0.0077630073759968809 0 0.0090106786167888451 0.0036814975990175558 0 0.0090683545954639896 0.0036598525459438183 0 0.0090243345397963363 0.0036327706585479436 0 0.026328581738181128 0.0048732294578326327 0 0.025596379318671775 0.005108341373694765 0 0.025542446379868983 0.004610225356056011 0 0.026015976254366382 0.0057199793927728126 0 0.025446120756381533 0.0060934000263916203 0 0.026328581738181128 0.0048732294578326327 0 0.025596379318671775 0.005108341373694765 0 0.025680176368775978 0.0057223243542347535 0 0.024999972459336862 0.0051912392906826189 0 0.025596379318671775 0.005108341373694765 0 0.025542446379868983 0.004610225356056011 0 0.024999972459336862 0.0051912392906826189 0 0.025596379318671775 0.005108341373694765 0 0.025680176368775978 0.0057223243542347535 0 0.025446120756381533 0.0060934000263916203 0 0.025000101702624535 0.0065765056340459415 0 0.024999972459336862 0.0051912392906826189 0 0.025680176368775978 0.0057223243542347535 0 0.025000002023386217 0.0065765764531933169 0 0.025433683868847392 0.006321782179362391 0 0.025252603491965925 0.0064768018731946493 0 0.025544675796120703 0.0065827700632851765 0 0.025252603491965925 0.0064768018731946493 0 0.025544675796120703 0.0065827700632851765 0 0.025591490085780481 0.0070725654524985779 0 0.025544675796120703 0.0065827700632851765 0 0.025724956264374623 0.0067111265030313783 0 0.025634746301789427 0.0063608069058785693 0 0.025724956264374623 0.0067111265030313783 0 0.025714248742573855 0.0063640195260841444 0 0.025634746301789427 0.0063608069058785693 0 0.025714248742573855 0.0063640195260841444 0 0.025634746301789427 0.0063608069058785693 0 0.025721535846882745 0.0062328303412689107 0 0.025433683868847392 0.006321782179362391 0 0.025544675796120703 0.0065827700632851765 0 0.025634746301789427 0.0063608069058785693 0 0.0242869002290668 0.0034693341657451807 0 0.024988545599534423 0.0027073357261565411 0 0.026015976254366382 0.0057199793927728126 0 0.0242869002290668 0.0034693341657451807 0 0.025433683868847392 0.006321782179362391 0 0.025634746301789427 0.0063608069058785693 0 0.025551960407503384 0.0061700979836490132 0 0.026328581738181128 0.0048732294578326327 0 0.026949753712673906 0.0040649681792298388 0 0.026215895431546968 0.0038678530735832876 0 0.0242869002290668 0.0034693341657451807 0 0.023911991590174545 0.0044297678137454237 0 0.025634746301789427 0.0063608069058785693 0 0.025551960407503384 0.0061700979836490132 0 0.025721535846882745 0.0062328303412689107 0 0.022150727358801598 0.0023005531306912567 0 0.022253149889662371 0.0022601705767349919 0 0.022255280521876083 0.0024047585631653077 0 0.022150727358801598 0.0023005531306912567 0 0.022253149889662371 0.0022601705767349919 0 0.02229392108607877 0.0021417193389286129 0 0.0242869002290668 0.0034693341657451807 0 0.021967207194941014 0.0017449701854440054 0 0.022956676363541133 0.001316459107069291 0 0.022786251051894253 0.0018716820133051061 0 0.02229392108607877 0.0021417193389286129 0 0.022956676363541133 0.001316459107069291 0 0.02337134725258511 0.0020562656793276677 0 0.023706649119204483 0.0014922813690045032 0 0.02337134725258511 0.0020562656793276677 0 0.022786251051894253 0.0018716820133051061 0 0.02233037042011984 0.0022462363397072515 0 0.022956676363541133 0.001316459107069291 0 0.02337134725258511 0.0020562656793276677 0 0.022786251051894253 0.0018716820133051061 0 0.024988545599534423 0.0027073357261565411 0 0.025133271210491075 0.0030260653704437921 0 0.026366777850514615 0.0030333166194519913 0 0.025431499439794624 0.0035379764882580945 0 0.025429127439630661 0.0028732725500461714 0 0.024841984286234721 0.0025001425375570257 0 0.025133271210491075 0.0030260653704437921 0 0.02337134725258511 0.0020562656793276677 0 0.023706649119204483 0.0014922813690045032 0 0.024486559750942504 0.0017052814851564362 0 0.026215895431546968 0.0038678530735832876 0 0.025739517879148258 0.0041170398244364838 0 0.025462181710118752 0.0036549447458526832 0 0.026328581738181128 0.0048732294578326327 0 0.026215895431546968 0.0038678530735832876 0 0.025739517879148258 0.0041170398244364838 0 0.026328581738181128 0.0048732294578326327 0 0.025542446379868983 0.004610225356056011 0 0.025739517879148258 0.0041170398244364838 0 0.024999972459336862 0.0051912392906826189 0 0.025542446379868983 0.004610225356056011 0 0.024999984907283241 0.0038060604471624941 0 0.025542446379868983 0.004610225356056011 0 0.025739517879148258 0.0041170398244364838 0 0.024999984907283241 0.0038060604471624941 0 0.025133271210491075 0.0030260653704437921 0 0.025000362672472031 0.0035062036417790841 0 0.024999999186343644 0.0038059678779507832 0 0.025479471165050661 0.0036274538884716609 0 0.024999997960230082 0.0035064724193729683 0 0.025000097832480771 0.0038054885614463396 0 0.025133271210491075 0.0030260653704437921 0 0.025739517879148258 0.0041170398244364838 0 0.024999984907283241 0.0038060604471624941 0 0.025462181710118752 0.0036549447458526832 0 0.025431499439794624 0.0035379764882580945 0 0.024999953571123314 0.0035060713417010897 0 0.025429127439630661 0.0028732725500461714 0 0.025429127439630661 0.0028732725500461714 0 0.025887094390030063 0.0023358308871036034 0 0.02499997155417023 0.0022432490629228636 0 0.024999953571123314 0.0035060713417010897 0 0.025429127439630661 0.0028732725500461714 0 0.02499997155417023 0.0022432490629228636 0 0.026366777850514615 0.0030333166194519913 0 0.025429127439630661 0.0028732725500461714 0 0.025887094390030063 0.0023358308871036034 0 0.025896331634486486 0.0022605811533973337 0 0.026699105208158044 0.0022464449781503695 0 0.025936051353895453 0.0021967640129714225 0 0.025743301452380535 0.0014817706351776369 0 0.026430828163085607 0.0017076296111760948 0 0.025000005367422726 0.0022427984468921074 0 0.024999957006033521 0.00095406971736691163 0 0.025743301452380535 0.0014817706351776369 0 0.025896331634486486 0.0022605811533973337 0 0.025000204455888134 0.0022430175942413119 0 0.025936051353895453 0.0021967640129714225 0 0.025000005367422726 0.0022427984468921074 0 0.025743301452380535 0.0014817706351776369 0 0.024999957006033521 0.00095406971736691163 0 0.025743301452380535 0.0014817706351776369 0 0.025740269081869476 0.00064335988290343995 0 0.025743301452380535 0.0014817706351776369 0 0.026258805995078998 0.0011828856183768888 0 0.025740269081869476 0.00064335988290343995 0 0.025743301452380535 0.0014817706351776369 0 0.026258805995078998 0.0011828856183768888 0 0.026430828163085607 0.0017076296111760948 0 0.026258805995078998 0.0011828856183768888 0 0.025740269081869476 0.00064335988290343995 0 0.026347411057476643 0.00071734563519604115 0 0.025770426271507708 -0.00015977956903582636 0 0.025740269081869476 0.00064335988290343995 0 0.026061353293455256 0.00030552024487811078 0 0.025740269081869476 0.00064335988290343995 0 0.026347411057476643 0.00071734563519604115 0 0.026061353293455256 0.00030552024487811078 0 0.026347411057476643 0.00071734563519604115 0 0.026405800436916697 0.00033570402421746683 0 0.026061353293455256 0.00030552024487811078 0 0.026171188650640605 3.4046782989997573e-07 0 0.026405800436916697 0.00033570402421746683 0 0.026061353293455256 0.00030552024487811078 0 0.025770426271507708 -0.00015977956903582636 0 0.026171188650640605 3.4046782989997573e-07 0 0.026061353293455256 0.00030552024487811078 0 0.024999949108399925 -0.00033497060636608172 0 0.024999957006033521 0.00095406971736691163 0 0.025740269081869476 0.00064335988290343995 0 0.024999949108399925 -0.00033497060636608172 0 0.025770426271507708 -0.00015977956903582636 0 0.025740269081869476 0.00064335988290343995 0 0.026990801293630615 0.0008916956505364528 0 0.027169997149933674 0.001029496990714134 0 0.027134167571561691 0.00076362746293672629 0 0.026990801293630615 0.0008916956505364528 0 0.027169997149933674 0.001029496990714134 0 0.026985015954003048 0.0010913777812983692 0 0.027364950448087618 0.00093044326515160747 0 0.027169997149933674 0.001029496990714134 0 0.027134167571561691 0.00076362746293672629 0 0.027364950448087618 0.00093044326515160747 0 0.027169997149933674 0.001029496990714134 0 0.027399810629514281 0.0012315123697946291 0 0.027330504544323654 0.00086203774962147542 0 0.027015069559172104 0.00058007059637822862 0 0.027364950448087618 0.00093044326515160747 0 0.027106604230457902 0.00075575782677849714 0 0.02753666530855867 0.00080826733263264299 0 0.026990801293630615 0.0008916956505364528 0 0.027132788824644039 0.00075925340345695143 0 0.026996955082814567 0.00066521246525282486 0 0.027015069559172104 0.00058007059637822862 0 0.02673252060283212 5.2025816884670886e-05 0 0.026965324832899162 0.00072870902520164298 0 0.027015069559172104 0.00058007059637822862 0 0.027049595284772115 0.00060652930008222466 0 0.026680350158697949 0.00083720630852561603 0 0.026756695895585183 0.00096179855285425699 0 0.02673252060283212 5.2025816884670886e-05 0 0.026680504003602359 0.00089807709166026721 0 0.026529237829020138 -0.00030433817209628533 0 0.026405800436916697 0.00033570402421746683 0 0.026746482290509271 0.0004751133553059569 0 0.026990801293630615 0.0008916956505364528 0 0.026996955082814567 0.00066521246525282486 0 0.026756695895585183 0.00096179855285425699 0 0.026488554248825683 0.00020844852077718304 0 0.027049595284772115 0.00060652930008222466 0 0.026680350158697949 0.00083720630852561603 0 0.026680350158697949 0.00083720630852561603 0 0.026756695895585183 0.00096179855285425699 0 0.026855573629435796 0.0013473850129710541 0 0.026347411057476643 0.00071734563519604115 0 0.026746482290509271 0.0004751133553059569 0 0.026855573629435796 0.0013473850129710541 0 0.026347411057476643 0.00071734563519604115 0 0.026405800436916697 0.00033570402421746683 0 0.026746482290509271 0.0004751133553059569 0 0.026990801293630615 0.0008916956505364528 0 0.026756695895585183 0.00096179855285425699 0 0.026985015954003048 0.0010913777812983692 0 0.026756695895585183 0.00096179855285425699 0 0.026855573629435796 0.0013473850129710541 0 0.026985015954003048 0.0010913777812983692 0 0.02673418562127303 0.00075203595177802799 0 0.026839579998234171 0.0012262590021136679 0 0.026258805995078998 0.0011828856183768888 0 0.026347411057476643 0.00071734563519604115 0 0.026855573629435796 0.0013473850129710541 0 0.026258805995078998 0.0011828856183768888 0 0.026855573629435796 0.0013473850129710541 0 0.026430828163085607 0.0017076296111760948 0 0.026855573629435796 0.0013473850129710541 0 0.027121385210175195 0.001509270216940104 0 0.027153416365143682 0.0012479825686748239 0 0.026855573629435796 0.0013473850129710541 0 0.026985015954003048 0.0010913777812983692 0 0.027153416365143682 0.0012479825686748239 0 0.027169997149933674 0.001029496990714134 0 0.026985015954003048 0.0010913777812983692 0 0.027153416365143682 0.0012479825686748239 0 0.027169997149933674 0.001029496990714134 0 0.027153416365143682 0.0012479825686748239 0 0.027399810629514281 0.0012315123697946291 0 0.027121385210175195 0.001509270216940104 0 0.027153416365143682 0.0012479825686748239 0 0.027384712464504409 0.0015465122651175554 0 0.027153416365143682 0.0012479825686748239 0 0.027384712464504409 0.0015465122651175554 0 0.027399810629514281 0.0012315123697946291 0 0.027065158761330699 0.0018345814417228196 0 0.02671283881987389 0.0021567371597709306 0 0.027345548444294744 0.0022251881478477227 0 0.027121385210175195 0.001509270216940104 0 0.027065158761330699 0.0018345814417228196 0 0.027325613157509209 0.001893246070413639 0 0.027121385210175195 0.001509270216940104 0 0.027384712464504409 0.0015465122651175554 0 0.027325613157509209 0.001893246070413639 0 0.026855573629435796 0.0013473850129710541 0 0.027121385210175195 0.001509270216940104 0 0.027065158761330699 0.0018345814417228196 0 0.027065158761330699 0.0018345814417228196 0 0.027325613157509209 0.001893246070413639 0 0.027345548444294744 0.0022251881478477227 0 0.025936051353895453 0.0021967640129714225 0 0.026430828163085607 0.0017076296111760948 0 0.02671283881987389 0.0021567371597709306 0 0.026855573629435796 0.0013473850129710541 0 0.027065158761330699 0.0018345814417228196 0 0.026430828163085607 0.0017076296111760948 0 0.027065158761330699 0.0018345814417228196 0 0.026430828163085607 0.0017076296111760948 0 0.02671283881987389 0.0021567371597709306 0 0.024841984286234721 0.0025001425375570257 0 0.024741677749426292 0.0023797292066331213 0 0.026366777850514615 0.0030333166194519913 0 0.025887094390030063 0.0023358308871036034 0 0.02666088596417238 0.00233323041803288 0 0.026366777850514615 0.0030333166194519913 0 0.02666088596417238 0.00233323041803288 0 0.027161924110234249 0.0025301118226686492 0 0.02666088596417238 0.00233323041803288 0 0.027345548444294744 0.0022251881478477227 0 0.027161924110234249 0.0025301118226686492 0 0.026699105208158044 0.0022464449781503695 0 0.027301089171918758 0.0022393157313316666 0 0.022786251051894253 0.0018716820133051061 0 0.02233037042011984 0.0022462363397072515 0 0.02229392108607877 0.0021417193389286129 0 0.02233037042011984 0.0022462363397072515 0 0.02229392108607877 0.0021417193389286129 0 0.022348301329188885 0.0021368784595750946 0 0.024741677749426292 0.0023797292066331213 0 0.02529176544572688 0.0021452786604601575 0 0.027345548444294744 0.0022251881478477227 0 0.027161924110234249 0.0025301118226686492 0 0.027869739083397842 0.0020906600525240045 0 0.02233037042011984 0.0022462363397072515 0 0.022348301329188885 0.0021368784595750946 0 0.022429400399293919 0.0019914245594097046 0 0.022348301329188885 0.0021368784595750946 0 0.022475952012537614 0.0021218997899940238 0 0.022429400399293919 0.0019914245594097046 0 0.022475952012537614 0.0021218997899940238 0 0.022762819132237957 0.0018481621350134657 0 0.022620533984432624 0.0021766670147144603 0 0.022475952012537614 0.0021218997899940238 0 0.022429400399293919 0.0019914245594097046 0 0.022762819132237957 0.0018481621350134657 0 0.027993080027297852 0.0016940450506166987 0 0.0283199137579641 0.0014889688177582969 0 0.028492445677603125 0.0017996950016260305 0 0.02529176544572688 0.0021452786604601575 0 0.024732571236695065 0.00074286081902211881 0 0.027869739083397842 0.0020906600525240045 0 0.027993080027297852 0.0016940450506166987 0 0.028492445677603125 0.0017996950016260305 0 0.027345548444294744 0.0022251881478477227 0 0.027869739083397842 0.0020906600525240045 0 0.02759917892362667 0.0018570001087599012 0 0.027325613157509209 0.001893246070413639 0 0.027345548444294744 0.0022251881478477227 0 0.02759917892362667 0.0018570001087599012 0 0.027869739083397842 0.0020906600525240045 0 0.027993080027297852 0.0016940450506166987 0 0.02759917892362667 0.0018570001087599012 0 0.027993080027297852 0.0016940450506166987 0 0.02759917892362667 0.0018570001087599012 0 0.027664866828621123 0.0014987932719134575 0 0.027384712464504409 0.0015465122651175554 0 0.02759917892362667 0.0018570001087599012 0 0.027664866828621123 0.0014987932719134575 0 0.027384712464504409 0.0015465122651175554 0 0.027325613157509209 0.001893246070413639 0 0.02759917892362667 0.0018570001087599012 0 0.027384712464504409 0.0015465122651175554 0 0.027399810629514281 0.0012315123697946291 0 0.027664866828621123 0.0014987932719134575 0 0.027364950448087618 0.00093044326515160747 0 0.027399810629514281 0.0012315123697946291 0 0.027665670458874535 0.0011488178310392889 0 0.027399810629514281 0.0012315123697946291 0 0.027665670458874535 0.0011488178310392889 0 0.027664866828621123 0.0014987932719134575 0 0.027665670458874535 0.0011488178310392889 0 0.027664866828621123 0.0014987932719134575 0 0.027974009222171223 0.0014165955668419192 0 0.027993080027297852 0.0016940450506166987 0 0.027664866828621123 0.0014987932719134575 0 0.027974009222171223 0.0014165955668419192 0 0.027974009222171223 0.0014165955668419192 0 0.028333350628971587 0.00093778525622520946 0 0.0283199137579641 0.0014889688177582969 0 0.027974009222171223 0.0014165955668419192 0 0.027948905647416537 0.0010791258227582337 0 0.028333350628971587 0.00093778525622520946 0 0.027993080027297852 0.0016940450506166987 0 0.027974009222171223 0.0014165955668419192 0 0.0283199137579641 0.0014889688177582969 0 0.027665670458874535 0.0011488178310392889 0 0.027974009222171223 0.0014165955668419192 0 0.027948905647416537 0.0010791258227582337 0 0.028003310483492291 0.00052543319916430057 0 0.027819710242602231 0.00081419249773249849 0 0.028333350628971587 0.00093778525622520946 0 0.025623184718461801 -0.0014807213983363213 0 0.024977200643901291 -0.0013409157062270122 0 0.025436707197129226 -0.00078254060143430587 0 0.027948905647416537 0.0010791258227582337 0 0.027819710242602231 0.00081419249773249849 0 0.028333350628971587 0.00093778525622520946 0 0.026742865738561009 -0.00056168293376415701 0 0.027079853939507455 0.00030950790870227726 0 0.026742865738561009 -0.00056168293376415701 0 0.027454761866103888 0.00051628822188122916 0 0.027675135748384389 0.0005175018883024474 0 0.028023501663024458 0.00049647247341387871 0 0.027819710242602231 0.00081419249773249849 0 0.027675135748384389 0.0005175018883024474 0 0.027819710242602231 0.00081419249773249849 0 0.02753666530855867 0.00080826733263264299 0 0.027675135748384389 0.0005175018883024474 0 0.027106604230457902 0.00075575782677849714 0 0.02753666530855867 0.00080826733263264299 0 0.027364950448087618 0.00093044326515160747 0 0.027665670458874535 0.0011488178310392889 0 0.02753666530855867 0.00080826733263264299 0 0.027665670458874535 0.0011488178310392889 0 0.027819710242602231 0.00081419249773249849 0 0.02753666530855867 0.00080826733263264299 0 0.027665670458874535 0.0011488178310392889 0 0.027948905647416537 0.0010791258227582337 0 0.027819710242602231 0.00081419249773249849 0 0.022996177399768499 -0.0014724087540629817 0 0.022956794750394208 -0.0018000220318562087 0 0.023214312815139901 -0.0021121850497732271 0 0.024024336164604986 -0.0016445388817620283 0 0.025543918456003699 -0.00039614570312143199 0 0.022956794750394208 -0.0018000220318562087 0 0.022801436729148784 -0.0020240618922537693 0 0.022749841888835373 -0.0018290637999277227 0 0.022721725750413608 -0.0015642929005626033 0 0.022956794750394208 -0.0018000220318562087 0 0.022749841888835373 -0.0018290637999277227 0 0.022721725750413608 -0.0015642929005626033 0 0.022974392786480356 -0.0015069407001007818 0 0.022956794750394208 -0.0018000220318562087 0 0.024024336164604986 -0.0016445388817620283 0 0.023098563573199504 -0.0017541979698193811 0 0.026282450098261769 -0.0013900453569174911 0 0.025436707197129226 -0.00078254060143430587 0 0.025893126940906768 -0.00022553121277150986 0 0.028333350628971587 0.00093778525622520946 0 0.0283199137579641 0.0014889688177582969 0 0.028646052882482443 0.0013435481379951374 0 0.027079853939507455 0.00030950790870227726 0 0.025543918456003699 -0.00039614570312143199 0 0.0283199137579641 0.0014889688177582969 0 0.028646052882482443 0.0013435481379951374 0 0.028492445677603125 0.0017996950016260305 0 0.025543918456003699 -0.00039614570312143199 0 0.023402843023753592 -0.0012028823121953002 0 0.023214312815139901 -0.0021121850497732271 0 0.022801436729148784 -0.0020240618922537693 0 0.02301141836616959 -0.0023503483523496294 0 0.022956794750394208 -0.0018000220318562087 0 0.023214312815139901 -0.0021121850497732271 0 0.022801436729148784 -0.0020240618922537693 0 0.023402843023753592 -0.0012028823121953002 0 0.023798415093703063 8.410324880261934e-05 0 0.02374769932142325 -8.2516623151570961e-05 0 0.023302547789890871 8.3119387374295972e-05 0 0.023606965386936955 0.00064113381012184342 0 0.025543918456003699 -0.00039614570312143199 0 0.024732571236695065 0.00074286081902211881 0 0.023402843023753592 -0.0012028823121953002 0 0.024732571236695065 0.00074286081902211881 0 0.024626965421357394 -0.00026291771932483336 0 0.024621661255991932 -0.00026399690889434614 0 0.02462397441048832 -0.00025778877936861051 0 0.024732571236695065 0.00074286081902211881 0 0.022675680618333392 0.0016546481050066413 0 0.023302547789890871 8.3119387374295972e-05 0 0.023606965386936955 0.00064113381012184342 0 0.023037550169305174 0.00085987313175628051 0 0.023842286093405839 0.00072341099013187142 0 0.022675680618333392 0.0016546481050066413 0 0.023860304222791513 0.00086488740523254289 0 0.024371220144904084 0.00099216575072265628 0 0.024411999520891372 0.00074948668739831074 0 0.023842286093405839 0.00072341099013187142 0 0.023798415093703063 8.410324880261934e-05 0 0.02374769932142325 -8.2516623151570961e-05 0 0.023606965386936955 0.00064113381012184342 0 0.024166574098850768 0.00042668146639542498 0 0.023860304222791513 0.00086488740523254289 0 0.024377459065160981 0.001329338564770256 0 0.024371220144904084 0.00099216575072265628 0 0.023860304222791513 0.00086488740523254289 0 0.024377459065160981 0.001329338564770256 0 0.023683971685368021 0.0014603025394178619 0 0.024377459065160981 0.001329338564770256 0 0.023680815929228514 0.0020922093770057806 0 0.023683971685368021 0.0014603025394178619 0 0.024377459065160981 0.001329338564770256 0 0.024734987025474931 0.0026945348494881575 0 0.023680815929228514 0.0020922093770057806 0 0.024734987025474931 0.0026945348494881575 0 0.023680815929228514 0.0020922093770057806 0 0.022697456939692918 0.0030951959751038703 0 0.023680815929228514 0.0020922093770057806 0 0.022855363777807763 0.0023176520352860747 0 0.022697456939692918 0.0030951959751038703 0 0.022855363777807763 0.0023176520352860747 0 0.023189743417784854 0.0018659766093177296 0 0.022611005627528047 0.0021101207190936397 0 0.023680815929228514 0.0020922093770057806 0 0.022855363777807763 0.0023176520352860747 0 0.023189743417784854 0.0018659766093177296 0 0.023860304222791513 0.00086488740523254289 0 0.023683971685368021 0.0014603025394178619 0 0.022827206328973459 0.0012412752376744838 0 0.023189743417784854 0.0018659766093177296 0 0.022827206328973459 0.0012412752376744838 0 0.022611005627528047 0.0021101207190936397 0 0.023680815929228514 0.0020922093770057806 0 0.023189743417784854 0.0018659766093177296 0 0.023683971685368021 0.0014603025394178619 0 0.023189743417784854 0.0018659766093177296 0 0.023683971685368021 0.0014603025394178619 0 0.022827206328973459 0.0012412752376744838 0 0.022475952012537614 0.0021218997899940238 0 0.022620533984432624 0.0021766670147144603 0 0.022328413209328126 0.0022077528847390701 0 0.022668884980189905 0.0019320194544589584 0 0.022611005627528047 0.0021101207190936397 0 0.022328413209328126 0.0022077528847390701 0 0.022675680618333392 0.0016546481050066413 0 0.022320423100793914 0.0022776049687999751 0 0.022675680618333392 0.0016546481050066413 0 0.022625183374241544 0.00197624789985875 0 0.022611005627528047 0.0021101207190936397 0 0.022328413209328126 0.0022077528847390701 0 0.022462235426596842 0.002385728718338581 0 0.02229392108607877 0.0021417193389286129 0 0.022348301329188885 0.0021368784595750946 0 0.022328413209328126 0.0022077528847390701 0 0.022253149889662371 0.0022601705767349919 0 0.02229392108607877 0.0021417193389286129 0 0.022328413209328126 0.0022077528847390701 0 0.022348301329188885 0.0021368784595750946 0 0.022475952012537614 0.0021218997899940238 0 0.022328413209328126 0.0022077528847390701 0 0.022253149889662371 0.0022601705767349919 0 0.022328413209328126 0.0022077528847390701 0 0.022255280521876083 0.0024047585631653077 0 0.022328413209328126 0.0022077528847390701 0 0.022255280521876083 0.0024047585631653077 0 0.022462235426596842 0.002385728718338581 0 0.022255280521876083 0.0024047585631653077 0 0.022462235426596842 0.002385728718338581 0 0.022697456939692918 0.0030951959751038703 0 0.023911991590174545 0.0044297678137454237 0 0.024306143300620975 0.004549938416254738 0 0.022855363777807763 0.0023176520352860747 0 0.022611005627528047 0.0021101207190936397 0 0.022462235426596842 0.002385728718338581 0 0.022855363777807763 0.0023176520352860747 0 0.022462235426596842 0.002385728718338581 0 0.022697456939692918 0.0030951959751038703 0 0.025721535846882745 0.0062328303412689107 0 0.025732871370526107 0.0062900814882943558 0 0.025667335032893531 0.0060595784549922847 0 0.025732871370526107 0.0062900814882943558 0 0.025705373990745732 0.0061056990764653445 0 0.025667335032893531 0.0060595784549922847 0 0.025714248742573855 0.0063640195260841444 0 0.025721535846882745 0.0062328303412689107 0 0.025732871370526107 0.0062900814882943558 0 0.025724956264374623 0.0067111265030313783 0 0.025732871370526107 0.0062900814882943558 0 0.025829528399327086 0.0068929213880220422 0 0.025724956264374623 0.0067111265030313783 0 0.025714248742573855 0.0063640195260841444 0 0.025732871370526107 0.0062900814882943558 0 0.025705373990745732 0.0061056990764653445 0 0.02578943770741567 0.0063243066989068959 0 0.025829528399327086 0.0068929213880220422 0 0.025732871370526107 0.0062900814882943558 0 0.025705373990745732 0.0061056990764653445 0 0.025829528399327086 0.0068929213880220422 0 0.025705373990745732 0.0061056990764653445 0 0.02578943770741567 0.0063243066989068959 0 0.025513795237207777 0.0055938878280805751 0 0.025513795237207777 0.0055938878280805751 0 0.02612010537214899 0.0056280009218092524 0 0.026170826893310545 0.0062713101512685684 0 0.02578943770741567 0.0063243066989068959 0 0.025513795237207777 0.0055938878280805751 0 0.026170826893310545 0.0062713101512685684 0 0.025254825516654464 0.004625678867054602 0 0.025513795237207777 0.0055938878280805751 0 0.02612010537214899 0.0056280009218092524 0 0.024734987025474931 0.0026945348494881575 0 0.025254825516654464 0.004625678867054602 0 0.022697456939692918 0.0030951959751038703 0 0.025705373990745732 0.0061056990764653445 0 0.025513795237207777 0.0055938878280805751 0 0.025667335032893531 0.0060595784549922847 0 0.025281599021694814 0.0046850480632050408 0 0.024306143300620975 0.004549938416254738 0 0.025254825516654464 0.004625678867054602 0 0.025513795237207777 0.0055938878280805751 0 0.025667335032893531 0.0060595784549922847 0 0.024094947298019545 0.0013332650926035285 0 0.024046658942060886 0.001458422362686657 0 0.024133014897552305 0.0013218728075077165 0 0.023906439101806124 0.0011934264759276773 0 0.024080587788433853 0.0010966889338617429 0 0.023967808087637092 0.0013155224788747974 0 0.024133014897552305 0.0013218728075077165 0 0.023978348214641235 0.0017289358796121854 0 0.024133014897552305 0.0013218728075077165 0 0.023978348214641235 0.0017289358796121854 0 0.024169381636326322 0.0017088010011651628 0 0.024734987025474931 0.0026945348494881575 0 0.025254825516654464 0.004625678867054602 0 0.026916288399038635 0.0050625744853523454 0 0.025254825516654464 0.004625678867054602 0 0.026916288399038635 0.0050625744853523454 0 0.02612010537214899 0.0056280009218092524 0 0.023967808087637092 0.0013155224788747974 0 0.024133014897552305 0.0013218728075077165 0 0.025004598404047111 0.0016887098519604918 0 0.02541144738391787 0.0032369045046812535 0 0.025078870097878139 0.0018891354778947662 0 0.02612010537214899 0.0056280009218092524 0 0.027347414218792311 0.0066595929556011709 0 0.026170826893310545 0.0062713101512685684 0 0.026916288399038635 0.0050625744853523454 0 0.02612010537214899 0.0056280009218092524 0 0.027347414218792311 0.0066595929556011709 0 0.023967808087637092 0.0013155224788747974 0 0.023978348214641235 0.0017289358796121854 0 0.023575013955835795 0.0022970449023916322 0 0.02541144738391787 0.0032369045046812535 0 0.025482346438202779 0.0044943124588528128 0 0.023978348214641235 0.0017289358796121854 0 0.024169381636326322 0.0017088010011651628 0 0.024126826424373585 0.0023203018276319867 0 0.023906439101806124 0.0011934264759276773 0 0.024054574544149557 0.0010822750673041477 0 0.024276198090513037 0.001698034971041817 0 0.024169381636326322 0.0017088010011651628 0 0.024769368453434928 0.0020402578827077738 0 0.024126826424373585 0.0023203018276319867 0 0.024046658942060886 0.001458422362686657 0 0.024550893953321679 0.001871511703015081 0 0.023906439101806124 0.0011934264759276773 0 0.024054574544149557 0.0010822750673041477 0 0.023924264642869043 0.00080798405930956137 0 0.023906439101806124 0.0011934264759276773 0 0.023924264642869043 0.00080798405930956137 0 0.024080587788433853 0.0010966889338617429 0 0.023924264642869043 0.00080798405930956137 0 0.024021697076971254 0.00070036280772246557 0 0.024080587788433853 0.0010966889338617429 0 0.024054574544149557 0.0010822750673041477 0 0.023924264642869043 0.00080798405930956137 0 0.02406812858523865 0.00054373923844569505 0 0.023924264642869043 0.00080798405930956137 0 0.023803235012058787 0.00026813149523261659 0 0.02406812858523865 0.00054373923844569505 0 0.023803235012058787 0.00026813149523261659 0 0.024021697076971254 0.00070036280772246557 0 0.023754749016424867 5.3851471196059482e-05 0 0.023924264642869043 0.00080798405930956137 0 0.023803235012058787 0.00026813149523261659 0 0.024021697076971254 0.00070036280772246557 0 0.024021697076971254 0.00070036280772246557 0 0.024389705446704317 0.0011327949962908496 0 0.024080587788433853 0.0010966889338617429 0 0.024021697076971254 0.00070036280772246557 0 0.024389705446704317 0.0011327949962908496 0 0.02424136336227381 0.00075769653198735909 0 0.024389705446704317 0.0011327949962908496 0 0.024543329757413336 0.0011204796543951749 0 0.02424136336227381 0.00075769653198735909 0 0.024133014897552305 0.0013218728075077165 0 0.024080587788433853 0.0010966889338617429 0 0.025004598404047111 0.0016887098519604918 0 0.024389705446704317 0.0011327949962908496 0 0.024080587788433853 0.0010966889338617429 0 0.025004598404047111 0.0016887098519604918 0 0.024734987025474931 0.0026945348494881575 0 0.026916288399038635 0.0050625744853523454 0 0.025004598404047111 0.0016887098519604918 0 0.024377459065160981 0.001329338564770256 0 0.024734987025474931 0.0026945348494881575 0 0.025004598404047111 0.0016887098519604918 0 0.024377459065160981 0.001329338564770256 0 0.025004598404047111 0.0016887098519604918 0 0.024543329757413336 0.0011204796543951749 0 0.024389705446704317 0.0011327949962908496 0 0.025004598404047111 0.0016887098519604918 0 0.024543329757413336 0.0011204796543951749 0 0.024377459065160981 0.001329338564770256 0 0.024543329757413336 0.0011204796543951749 0 0.024371220144904084 0.00099216575072265628 0 0.02440794078050226 0.00086695180738563028 0 0.024425395585446066 0.00088861450991014907 0 0.024009389294564289 0.00045577135940111976 0 0.024543329757413336 0.0011204796543951749 0 0.024371220144904084 0.00099216575072265628 0 0.02440794078050226 0.00086695180738563028 0 0.024371220144904084 0.00099216575072265628 0 0.02440794078050226 0.00086695180738563028 0 0.024411999520891372 0.00074948668739831074 0 0.024543329757413336 0.0011204796543951749 0 0.02440794078050226 0.00086695180738563028 0 0.02424136336227381 0.00075769653198735909 0 0.024337361096312876 0.00074504490394618162 0 0.023798415093703063 8.410324880261934e-05 0 0.02440794078050226 0.00086695180738563028 0 0.02424136336227381 0.00075769653198735909 0 0.024009389294564289 0.00045577135940111976 0 0.02424136336227381 0.00075769653198735909 0 0.024009389294564289 0.00045577135940111976 0 0.023980845246147731 0.00044513575330736791 0 0.024021697076971254 0.00070036280772246557 0 0.02424136336227381 0.00075769653198735909 0 0.023980845246147731 0.00044513575330736791 0 0.022991063519025447 -0.0016463485820725717 0 0.022795573965858927 -0.0015903855788236638 0 0.022876121897085388 -0.0015525955980918804 0 0.023798415093703063 8.410324880261934e-05 0 0.023431705475125887 -0.00065356724356179896 0 0.022795573965858927 -0.0015903855788236638 0 0.022876121897085388 -0.0015525955980918804 0 0.022761940069946373 -0.0015087124868346867 0 0.023091063298109078 -0.00152859926091284 0 0.022958988870417359 -0.0015499672228914108 0 0.022875790530149192 -0.0014696925349395049 0 0.023091063298109078 -0.00152859926091284 0 0.022991063519025447 -0.0016463485820725717 0 0.022958988870417359 -0.0015499672228914108 0 0.022991063519025447 -0.0016463485820725717 0 0.022876121897085388 -0.0015525955980918804 0 0.022958988870417359 -0.0015499672228914108 0 0.022876121897085388 -0.0015525955980918804 0 0.022958988870417359 -0.0015499672228914108 0 0.022875790530149192 -0.0014696925349395049 0 0.023402843023753592 -0.0012028823121953002 0 0.022581136683714993 -0.0019087999033475305 0 0.022801436729148784 -0.0020240618922537693 0 0.02301141836616959 -0.0023503483523496294 0 0.022394575771645844 -0.0021457833851313553 0 0.022801436729148784 -0.0020240618922537693 0 0.022516647651296531 -0.0019349367569077686 0 0.022394575771645844 -0.0021457833851313553 0 0.022516647651296531 -0.0019349367569077686 0 0.022394575771645844 -0.0021457833851313553 0 0.022394522913963256 -0.0019968755455013342 0 0.022581136683714993 -0.0019087999033475305 0 0.022329764899109532 -0.0017236809307300104 0 0.022875790530149192 -0.0014696925349395049 0 0.022670930709183162 -0.0014347387409914814 0 0.022761940069946373 -0.0015087124868346867 0 0.022876121897085388 -0.0015525955980918804 0 0.022875790530149192 -0.0014696925349395049 0 0.022761940069946373 -0.0015087124868346867 0 0.022394575771645844 -0.0021457833851313553 0 0.022259322986535837 -0.0019778037339396215 0 0.02196569066411571 -0.0020479677366642981 0 0.022394575771645844 -0.0021457833851313553 0 0.022394522913963256 -0.0019968755455013342 0 0.022259322986535837 -0.0019778037339396215 0 0.022404126289354995 -0.0019483776534722267 0 0.022259322986535837 -0.0019778037339396215 0 0.022332273874273223 -0.0018806465467239599 0 0.022394522913963256 -0.0019968755455013342 0 0.022404126289354995 -0.0019483776534722267 0 0.022259322986535837 -0.0019778037339396215 0 0.022179580367194206 -0.001781110888131716 0 0.022259322986535837 -0.0019778037339396215 0 0.022096413602119631 -0.0019071240837058431 0 0.022179580367194206 -0.001781110888131716 0 0.022259322986535837 -0.0019778037339396215 0 0.022332273874273223 -0.0018806465467239599 0 0.022404126289354995 -0.0019483776534722267 0 0.022332273874273223 -0.0018806465467239599 0 0.02246571561526689 -0.0019686679314676928 0 0.022296582172607396 -0.0017336701349015945 0 0.022332273874273223 -0.0018806465467239599 0 0.02246571561526689 -0.0019686679314676928 0 0.022298707225589846 -0.0020958213888614317 0 0.022516647651296531 -0.0019349367569077686 0 0.02246571561526689 -0.0019686679314676928 0 0.022721725750413608 -0.0015642929005626033 0 0.022516647651296531 -0.0019349367569077686 0 0.022749841888835373 -0.0018290637999277227 0 0.022487479102596068 -0.0018515843667104037 0 0.022505044438422123 -0.0019250050104105587 0 0.022801436729148784 -0.0020240618922537693 0 0.022516647651296531 -0.0019349367569077686 0 0.022749841888835373 -0.0018290637999277227 0 0.022516647651296531 -0.0019349367569077686 0 0.022404126289354995 -0.0019483776534722267 0 0.02246571561526689 -0.0019686679314676928 0 0.022516647651296531 -0.0019349367569077686 0 0.022394522913963256 -0.0019968755455013342 0 0.022404126289354995 -0.0019483776534722267 0 0.021782412550233582 -0.0017949188880627637 0 0.02196569066411571 -0.0020479677366642981 0 0.021487798421633734 -0.0018771971037625866 0 0.022329764899109532 -0.0017236809307300104 0 0.021973139551519458 -0.0016825192958584755 0 0.022670930709183162 -0.0014347387409914814 0 0.022564957644013423 -0.0014799467722073649 0 0.022483334562791581 -0.001429797391781057 0 0.022259322986535837 -0.0019778037339396215 0 0.02196569066411571 -0.0020479677366642981 0 0.022096413602119631 -0.0019071240837058431 0 0.021987949284382115 -0.0017671819541420061 0 0.021782412550233582 -0.0017949188880627637 0 0.02196569066411571 -0.0020479677366642981 0 0.021987949284382115 -0.0017671819541420061 0 0.02196569066411571 -0.0020479677366642981 0 0.022096413602119631 -0.0019071240837058431 0 0.021987949284382115 -0.0017671819541420061 0 0.022179580367194206 -0.001781110888131716 0 0.022096413602119631 -0.0019071240837058431 0 0.022670930709183162 -0.0014347387409914814 0 0.022761940069946373 -0.0015087124868346867 0 0.022608064192094539 -0.0015326717957820882 0 0.022670930709183162 -0.0014347387409914814 0 0.022564957644013423 -0.0014799467722073649 0 0.022608064192094539 -0.0015326717957820882 0 0.0234812343040957 -0.00038824329064726811 0 0.023754749016424867 5.3851471196059482e-05 0 0.023540989072486678 -0.00065864310915322583 0 0.023431705475125887 -0.00065356724356179896 0 0.023079161365245817 -0.00099784952192534483 0 0.022795573965858927 -0.0015903855788236638 0 0.022761940069946373 -0.0015087124868346867 0 0.022608064192094539 -0.0015326717957820882 0 0.024009389294564289 0.00045577135940111976 0 0.0234812343040957 -0.00038824329064726811 0 0.023754749016424867 5.3851471196059482e-05 0 0.024009389294564289 0.00045577135940111976 0 0.023754749016424867 5.3851471196059482e-05 0 0.023980845246147731 0.00044513575330736791 0 0.024021697076971254 0.00070036280772246557 0 0.023754749016424867 5.3851471196059482e-05 0 0.023980845246147731 0.00044513575330736791 0 0.023803235012058787 0.00026813149523261659 0 0.023754749016424867 5.3851471196059482e-05 0 0.023540989072486678 -0.00065864310915322583 0 0.023540989072486678 -0.00065864310915322583 0 0.022840449792620288 -0.0011436544731035776 0 0.022814145521534459 -0.0014172569519374499 0 0.023540989072486678 -0.00065864310915322583 0 0.022840449792620288 -0.0011436544731035776 0 0.02272426166383482 -0.0011896872433422518 0 0.023581398354958708 -0.00068543411367785083 0 0.023944213256348039 -0.00061153213538590585 0 0.022475374952711218 -0.0017457937035395962 0 0.022973150058786605 -0.0010345443069459167 0 0.022533436476085734 -0.0014991975973835613 0 0.023540989072486678 -0.00065864310915322583 0 0.02272426166383482 -0.0011896872433422518 0 0.022973150058786605 -0.0010345443069459167 0 0.02272426166383482 -0.0011896872433422518 0 0.022475374952711218 -0.0017457937035395962 0 0.022973150058786605 -0.0010345443069459167 0 0.0234812343040957 -0.00038824329064726811 0 0.023540989072486678 -0.00065864310915322583 0 0.022973150058786605 -0.0010345443069459167 0 0.023079161365245817 -0.00099784952192534483 0 0.022659319352628732 -0.0014121103460328279 0 0.022564957644013423 -0.0014799467722073649 0 0.022608064192094539 -0.0015326717957820882 0 0.022533436476085734 -0.0014991975973835613 0 0.022564957644013423 -0.0014799467722073649 0 0.022533436476085734 -0.0014991975973835613 0 0.022483334562791581 -0.001429797391781057 0 0.0234812343040957 -0.00038824329064726811 0 0.022973150058786605 -0.0010345443069459167 0 0.022533436476085734 -0.0014991975973835613 0 0.022533436476085734 -0.0014991975973835613 0 0.021982102428304628 -0.0016430281098114116 0 0.021675209487021601 -0.0018587399389939354 0 0.022475374952711218 -0.0017457937035395962 0 0.022533436476085734 -0.0014991975973835613 0 0.021675209487021601 -0.0018587399389939354 0 0.021182155464942055 -0.0016880130297406426 0 0.021982102428304628 -0.0016430281098114116 0 0.021675209487021601 -0.0018587399389939354 0 0.021182155464942055 -0.0016880130297406426 0 0.021982102428304628 -0.0016430281098114116 0 0.022483334562791581 -0.001429797391781057 0 0.022533436476085734 -0.0014991975973835613 0 0.021982102428304628 -0.0016430281098114116 0 0.022483334562791581 -0.001429797391781057 0 0.021277338113904788 -0.0016630590496580545 0 0.021973139551519458 -0.0016825192958584755 0 0.02016938177502911 -0.0023759459589820374 0 0.020816526145014957 -0.0020186157549640336 0 0.021026470442480346 -0.0023221591182086007 0 0.020007112515716022 -0.0020220163262835507 0 0.02016938177502911 -0.0023759459589820374 0 0.020816526145014957 -0.0020186157549640336 0 0.020816526145014957 -0.0020186157549640336 0 0.021675209487021601 -0.0018587399389939354 0 0.021026470442480346 -0.0023221591182086007 0 0.021182155464942055 -0.0016880130297406426 0 0.020816526145014957 -0.0020186157549640336 0 0.021675209487021601 -0.0018587399389939354 0 0.022475374952711218 -0.0017457937035395962 0 0.021675209487021601 -0.0018587399389939354 0 0.021026470442480346 -0.0023221591182086007 0 0.02016938177502911 -0.0023759459589820374 0 0.021026470442480346 -0.0023221591182086007 0 0.020193784042397748 -0.0030035176850667115 0 0.021026470442480346 -0.0023221591182086007 0 0.020193784042397748 -0.0030035176850667115 0 0.020665271970811909 -0.0034266152412583892 0 0.01950732625157121 -0.0037334380489411744 0 0.020193784042397748 -0.0030035176850667115 0 0.020665271970811909 -0.0034266152412583892 0 0.022475374952711218 -0.0017457937035395962 0 0.021026470442480346 -0.0023221591182086007 0 0.020665271970811909 -0.0034266152412583892 0 0.022333570411604668 -0.0018551774293568391 0 0.021800271564202604 -0.0023239196087955407 0 0.02272426166383482 -0.0011896872433422518 0 0.022475374952711218 -0.0017457937035395962 0 0.022835124464359216 -0.001246251760494795 0 0.02272426166383482 -0.0011896872433422518 0 0.022835124464359216 -0.001246251760494795 0 0.022773852699530396 -0.0012043465650652839 0 0.022840449792620288 -0.0011436544731035776 0 0.02272426166383482 -0.0011896872433422518 0 0.022773852699530396 -0.0012043465650652839 0 0.022773852699530396 -0.0012043465650652839 0 0.022750019508728462 -0.0012462503458426628 0 0.02274752268460321 -0.0012783516193297824 0 0.022773852699530396 -0.0012043465650652839 0 0.02274752268460321 -0.0012783516193297824 0 0.022772066242906886 -0.0012680534020527558 0 0.022840449792620288 -0.0011436544731035776 0 0.022773852699530396 -0.0012043465650652839 0 0.022772066242906886 -0.0012680534020527558 0 0.022840449792620288 -0.0011436544731035776 0 0.022772066242906886 -0.0012680534020527558 0 0.022796830049467153 -0.0012928320605056446 0 0.022700201060248879 -0.0012431588480564808 0 0.022835124464359216 -0.001246251760494795 0 0.022750019508728462 -0.0012462503458426628 0 0.022835124464359216 -0.001246251760494795 0 0.022773852699530396 -0.0012043465650652839 0 0.022750019508728462 -0.0012462503458426628 0 0.022750019508728462 -0.0012462503458426628 0 0.022714363457151294 -0.0013004699042708909 0 0.02274752268460321 -0.0012783516193297824 0 0.022700201060248879 -0.0012431588480564808 0 0.022750019508728462 -0.0012462503458426628 0 0.022689345323278876 -0.0012706199697987235 0 0.022750019508728462 -0.0012462503458426628 0 0.022689345323278876 -0.0012706199697987235 0 0.022714363457151294 -0.0013004699042708909 0 0.022654952914757182 -0.0013003594345279417 0 0.022714363457151294 -0.0013004699042708909 0 0.022684953048529303 -0.0013368168060735991 0 0.022654952914757182 -0.0013003594345279417 0 0.022689345323278876 -0.0012706199697987235 0 0.022714363457151294 -0.0013004699042708909 0 0.022714363457151294 -0.0013004699042708909 0 0.022738199533521696 -0.0013324430728587162 0 0.02274752268460321 -0.0012783516193297824 0 0.022714363457151294 -0.0013004699042708909 0 0.022718285004547045 -0.0013440125287977284 0 0.022738199533521696 -0.0013324430728587162 0 0.022718285004547045 -0.0013440125287977284 0 0.022741476989513332 -0.0013638171535554188 0 0.022738199533521696 -0.0013324430728587162 0 0.022718285004547045 -0.0013440125287977284 0 0.022705498549362935 -0.0013611539782263805 0 0.02272345160953286 -0.0013624377598616627 0 0.022718285004547045 -0.0013440125287977284 0 0.02272345160953286 -0.0013624377598616627 0 0.022741476989513332 -0.0013638171535554188 0 0.022714363457151294 -0.0013004699042708909 0 0.022718285004547045 -0.0013440125287977284 0 0.022684953048529303 -0.0013368168060735991 0 0.022718285004547045 -0.0013440125287977284 0 0.022684953048529303 -0.0013368168060735991 0 0.022705498549362935 -0.0013611539782263805 0 0.022610513564521914 -0.001385866540052829 0 0.022669420218987813 -0.0013586082379092525 0 0.022715507850556732 -0.0013725349884383374 0 0.022669420218987813 -0.0013586082379092525 0 0.022705498549362935 -0.0013611539782263805 0 0.022715507850556732 -0.0013725349884383374 0 0.024394309114595007 0.00012506595502909072 0 0.024822835681037356 0.00025236493248262842 0 0.024808800252875633 0.00019234023057724132 0 0.022684953048529303 -0.0013368168060735991 0 0.022669420218987813 -0.0013586082379092525 0 0.022705498549362935 -0.0013611539782263805 0 0.02272345160953286 -0.0013624377598616627 0 0.022715507850556732 -0.0013725349884383374 0 0.022741476989513332 -0.0013638171535554188 0 0.022705498549362935 -0.0013611539782263805 0 0.02272345160953286 -0.0013624377598616627 0 0.022715507850556732 -0.0013725349884383374 0 0.026037191378820053 0.00093570801914074101 0 0.02543586221833033 0.00076733179946274926 0 0.025086055361571387 0.00018577001836946839 0 0.025290109727936536 0.00052802840202717961 0 0.025158901162504323 0.00024077987406008288 0 0.024822835681037356 0.00025236493248262842 0 0.024808800252875633 0.00019234023057724132 0 0.025086055361571387 0.00018577001836946839 0 0.02543586221833033 0.00076733179946274926 0 0.025188922689536087 0.00084436922242958113 0 0.025439973465089378 0.0010658415019957871 0 0.02543586221833033 0.00076733179946274926 0 0.025188922689536087 0.00084436922242958113 0 0.025085378857733768 0.00056887538216106282 0 0.026037191378820053 0.00093570801914074101 0 0.02543586221833033 0.00076733179946274926 0 0.025740634806045718 0.0010948580810767349 0 0.02543586221833033 0.00076733179946274926 0 0.025086055361571387 0.00018577001836946839 0 0.025085378857733768 0.00056887538216106282 0 0.022715507850556732 -0.0013725349884383374 0 0.022774391253658707 -0.0013833527176362276 0 0.022814145521534459 -0.0014172569519374499 0 0.024822835681037356 0.00025236493248262842 0 0.025086055361571387 0.00018577001836946839 0 0.025112479865458989 0.00013866697148283297 0 0.023674906902491688 -0.00058244768176185144 0 0.023944213256348039 -0.00061153213538590585 0 0.022715507850556732 -0.0013725349884383374 0 0.022774391253658707 -0.0013833527176362276 0 0.022741476989513332 -0.0013638171535554188 0 0.022774391253658707 -0.0013833527176362276 0 0.022741476989513332 -0.0013638171535554188 0 0.02275537864461865 -0.0013315499309209762 0 0.022741476989513332 -0.0013638171535554188 0 0.022738199533521696 -0.0013324430728587162 0 0.02275537864461865 -0.0013315499309209762 0 0.02275537864461865 -0.0013315499309209762 0 0.02274752268460321 -0.0012783516193297824 0 0.022772066242906886 -0.0012680534020527558 0 0.022738199533521696 -0.0013324430728587162 0 0.02275537864461865 -0.0013315499309209762 0 0.02274752268460321 -0.0012783516193297824 0 0.022774391253658707 -0.0013833527176362276 0 0.02277963352803929 -0.0013376124715812584 0 0.022814145521534459 -0.0014172569519374499 0 0.02277963352803929 -0.0013376124715812584 0 0.022796830049467153 -0.0012928320605056446 0 0.022814145521534459 -0.0014172569519374499 0 0.022774391253658707 -0.0013833527176362276 0 0.02275537864461865 -0.0013315499309209762 0 0.02277963352803929 -0.0013376124715812584 0 0.02277963352803929 -0.0013376124715812584 0 0.022772066242906886 -0.0012680534020527558 0 0.022796830049467153 -0.0012928320605056446 0 0.02275537864461865 -0.0013315499309209762 0 0.02277963352803929 -0.0013376124715812584 0 0.022772066242906886 -0.0012680534020527558 0 0.022840449792620288 -0.0011436544731035776 0 0.022796830049467153 -0.0012928320605056446 0 0.022814145521534459 -0.0014172569519374499 0 0.023540989072486678 -0.00065864310915322583 0 0.025112479865458989 0.00013866697148283297 0 0.024545127378979858 0.00038725869423265755 0 0.025112479865458989 0.00013866697148283297 0 0.024545127378979858 0.00038725869423265755 0 0.024881670712948264 0.00037076801048699398 0 0.025086055361571387 0.00018577001836946839 0 0.025112479865458989 0.00013866697148283297 0 0.024881670712948264 0.00037076801048699398 0 0.023540989072486678 -0.00065864310915322583 0 0.024545127378979858 0.00038725869423265755 0 0.02406812858523865 0.00054373923844569505 0 0.023803235012058787 0.00026813149523261659 0 0.023540989072486678 -0.00065864310915322583 0 0.02406812858523865 0.00054373923844569505 0 0.024545127378979858 0.00038725869423265755 0 0.02406812858523865 0.00054373923844569505 0 0.024443852644109674 0.00094501385385591954 0 0.024054574544149557 0.0010822750673041477 0 0.02406812858523865 0.00054373923844569505 0 0.024443852644109674 0.00094501385385591954 0 0.024545127378979858 0.00038725869423265755 0 0.024848296216966922 0.00071175223388434468 0 0.024443852644109674 0.00094501385385591954 0 0.025086055361571387 0.00018577001836946839 0 0.024881670712948264 0.00037076801048699398 0 0.025085378857733768 0.00056887538216106282 0 0.024881670712948264 0.00037076801048699398 0 0.025085378857733768 0.00056887538216106282 0 0.024848296216966922 0.00071175223388434468 0 0.024545127378979858 0.00038725869423265755 0 0.024881670712948264 0.00037076801048699398 0 0.024848296216966922 0.00071175223388434468 0 0.025188922689536087 0.00084436922242958113 0 0.025085378857733768 0.00056887538216106282 0 0.024848296216966922 0.00071175223388434468 0 0.025188922689536087 0.00084436922242958113 0 0.024848296216966922 0.00071175223388434468 0 0.024985409732830848 0.0012082991971609277 0 0.024848296216966922 0.00071175223388434468 0 0.024985409732830848 0.0012082991971609277 0 0.024443852644109674 0.00094501385385591954 0 0.024054574544149557 0.0010822750673041477 0 0.024443852644109674 0.00094501385385591954 0 0.024276198090513037 0.001698034971041817 0 0.024985409732830848 0.0012082991971609277 0 0.024443852644109674 0.00094501385385591954 0 0.024276198090513037 0.001698034971041817 0 0.024276198090513037 0.001698034971041817 0 0.025406572486966126 0.0017072579484787339 0 0.025353583150013934 0.0022925220758586973 0 0.024985409732830848 0.0012082991971609277 0 0.024276198090513037 0.001698034971041817 0 0.025406572486966126 0.0017072579484787339 0 0.024550893953321679 0.001871511703015081 0 0.025317932240861988 0.0022617819902018368 0 0.025406572486966126 0.0017072579484787339 0 0.026019114063376935 0.0018137624081443308 0 0.025764669802452494 0.0013833030643623386 0 0.025406572486966126 0.0017072579484787339 0 0.026019114063376935 0.0018137624081443308 0 0.025353583150013934 0.0022925220758586973 0 0.026498458663601128 0.0017878616862661118 0 0.026459274267380463 0.0021456772132903571 0 0.026019114063376935 0.0018137624081443308 0 0.026498458663601128 0.0017878616862661118 0 0.026019114063376935 0.0018137624081443308 0 0.026329295731119171 0.0014549745000895849 0 0.026019114063376935 0.0018137624081443308 0 0.02601729071537022 0.0013117960929361801 0 0.025764669802452494 0.0013833030643623386 0 0.02601729071537022 0.0013117960929361801 0 0.025740634806045718 0.0010948580810767349 0 0.025764669802452494 0.0013833030643623386 0 0.026019114063376935 0.0018137624081443308 0 0.02601729071537022 0.0013117960929361801 0 0.026329295731119171 0.0014549745000895849 0 0.026037191378820053 0.00093570801914074101 0 0.02601729071537022 0.0013117960929361801 0 0.026329295731119171 0.0014549745000895849 0 0.026037191378820053 0.00093570801914074101 0 0.02601729071537022 0.0013117960929361801 0 0.025740634806045718 0.0010948580810767349 0 0.02543586221833033 0.00076733179946274926 0 0.025740634806045718 0.0010948580810767349 0 0.025439973465089378 0.0010658415019957871 0 0.025740634806045718 0.0010948580810767349 0 0.025439973465089378 0.0010658415019957871 0 0.025764669802452494 0.0013833030643623386 0 0.025406572486966126 0.0017072579484787339 0 0.025439973465089378 0.0010658415019957871 0 0.025764669802452494 0.0013833030643623386 0 0.024985409732830848 0.0012082991971609277 0 0.025406572486966126 0.0017072579484787339 0 0.025439973465089378 0.0010658415019957871 0 0.025188922689536087 0.00084436922242958113 0 0.024985409732830848 0.0012082991971609277 0 0.025439973465089378 0.0010658415019957871 0 0.026146611221181157 0.002627013639427014 0 0.025353583150013934 0.0022925220758586973 0 0.025590458163126162 0.0032796627650463041 0 0.026675902069269772 0.0031007533996764806 0 0.026146611221181157 0.002627013639427014 0 0.026193813366179156 0.003214998811865614 0 0.026146611221181157 0.002627013639427014 0 0.025590458163126162 0.0032796627650463041 0 0.026193813366179156 0.003214998811865614 0 0.026459274267380463 0.0021456772132903571 0 0.026019114063376935 0.0018137624081443308 0 0.026146611221181157 0.002627013639427014 0 0.026019114063376935 0.0018137624081443308 0 0.026146611221181157 0.002627013639427014 0 0.025353583150013934 0.0022925220758586973 0 0.024769368453434928 0.0020402578827077738 0 0.025353583150013934 0.0022925220758586973 0 0.025033725426225423 0.0027800576005567465 0 0.024769368453434928 0.0020402578827077738 0 0.025033725426225423 0.0027800576005567465 0 0.024477942453255488 0.002959699389464338 0 0.025033725426225423 0.0027800576005567465 0 0.024939753535218115 0.0034941081208359954 0 0.024477942453255488 0.002959699389464338 0 0.025353583150013934 0.0022925220758586973 0 0.025033725426225423 0.0027800576005567465 0 0.025590458163126162 0.0032796627650463041 0 0.025033725426225423 0.0027800576005567465 0 0.024939753535218115 0.0034941081208359954 0 0.025590458163126162 0.0032796627650463041 0 0.024939753535218115 0.0034941081208359954 0 0.025559193247964067 0.0040723862440114281 0 0.025590458163126162 0.0032796627650463041 0 0.024939753535218115 0.0034941081208359954 0 0.02479939311629948 0.0041945317021522327 0 0.024194602968392417 0.0037681005813742503 0 0.024939753535218115 0.0034941081208359954 0 0.02479939311629948 0.0041945317021522327 0 0.025559193247964067 0.0040723862440114281 0 0.025559193247964067 0.0040723862440114281 0 0.025590458163126162 0.0032796627650463041 0 0.026410244443457853 0.0038604981135360876 0 0.025559193247964067 0.0040723862440114281 0 0.026410244443457853 0.0038604981135360876 0 0.026125134846582541 0.0047688215035780876 0 0.026675902069269772 0.0031007533996764806 0 0.026193813366179156 0.003214998811865614 0 0.026410244443457853 0.0038604981135360876 0 0.025590458163126162 0.0032796627650463041 0 0.026193813366179156 0.003214998811865614 0 0.026410244443457853 0.0038604981135360876 0 0.02653139394820983 0.0049829133216100019 0 0.026194264692378823 0.0042149398621940653 0 0.02590956885720113 0.0051509982650352251 0 0.026312940352536011 0.0040262636351281102 0 0.026012071993244072 0.0049716355507459804 0 0.025559193247964067 0.0040723862440114281 0 0.026125134846582541 0.0047688215035780876 0 0.025366426161880066 0.0050002437799280047 0 0.026125134846582541 0.0047688215035780876 0 0.025715457517643987 0.0058714543783370066 0 0.025366426161880066 0.0050002437799280047 0 0.026012071993244072 0.0049716355507459804 0 0.025720040489227727 0.005816802985813798 0 0.02653139394820983 0.0049829133216100019 0 0.02590956885720113 0.0051509982650352251 0 0.026251929740820142 0.0058633717385033028 0 0.02590956885720113 0.0051509982650352251 0 0.026251929740820142 0.0058633717385033028 0 0.025715457517643987 0.0058714543783370066 0 0.023250450802530929 0.012866274692957886 0 0.02326593879408027 0.012817245514508458 0 0.023421225172626861 0.012838733125399846 0 0.026251929740820142 0.0058633717385033028 0 0.025715457517643987 0.0058714543783370066 0 0.02573587284739081 0.0062706536180368727 0 0.025442332487436232 0.0092207670210502374 0 0.0243840623219168 0.0096894198526179167 0 0.025715457517643987 0.0058714543783370066 0 0.02573587284739081 0.0062706536180368727 0 0.025318145448316953 0.0060597548873777673 0 0.02326593879408027 0.012817245514508458 0 0.02342600756823229 0.012839702565618798 0 0.023421225172626861 0.012838733125399846 0 0.023177489462945358 0.016675764140905262 0 0.022909923427276935 0.016590570366669298 0 0.022193057917189282 0.020441363806694483 0 0.02249303943873808 0.02039172032406595 0 0.022238690442862811 0.020313052362658249 0 0.021968057539065881 0.020324018098222724 0 0.022193057917189282 0.020441363806694483 0 0.022238690442862811 0.020313052362658249 0 0.024725309395002899 0.0071469206654789464 0 0.024906491650252053 0.0057200847597186225 0 0.023748118107121522 0.00604871098560247 0 0.02573587284739081 0.0062706536180368727 0 0.024725309395002899 0.0071469206654789464 0 0.025318145448316953 0.0060597548873777673 0 0.022909923427276935 0.016590570366669298 0 0.023030437940201418 0.016940822723810828 0 0.02342600756823229 0.012839702565618798 0 0.023421225172626861 0.012838733125399846 0 0.023451013506619954 0.012903733840093424 0 0.02342600756823229 0.012839702565618798 0 0.023451013506619954 0.012903733840093424 0 0.023451537193885749 0.012920589024565476 0 0.024725309395002899 0.0071469206654789464 0 0.025318145448316953 0.0060597548873777673 0 0.024906491650252053 0.0057200847597186225 0 0.0243840623219168 0.0096894198526179167 0 0.024211744414408074 0.009541471602500887 0 0.025715457517643987 0.0058714543783370066 0 0.025318145448316953 0.0060597548873777673 0 0.025333439060506929 0.0056175439015216273 0 0.025318145448316953 0.0060597548873777673 0 0.025333439060506929 0.0056175439015216273 0 0.024906491650252053 0.0057200847597186225 0 0.024906491650252053 0.0057200847597186225 0 0.024550614575961124 0.0051301300875318361 0 0.024353162823737177 0.0058023404382435686 0 0.02493112642455721 0.0057271077939048788 0 0.023774626417124339 0.0058164237998984637 0 0.024906491650252053 0.0057200847597186225 0 0.024550614575961124 0.0051301300875318361 0 0.025366426161880066 0.0050002437799280047 0 0.025333439060506929 0.0056175439015216273 0 0.024906491650252053 0.0057200847597186225 0 0.025366426161880066 0.0050002437799280047 0 0.025715457517643987 0.0058714543783370066 0 0.025333439060506929 0.0056175439015216273 0 0.025366426161880066 0.0050002437799280047 0 0.02479939311629948 0.0041945317021522327 0 0.025559193247964067 0.0040723862440114281 0 0.025366426161880066 0.0050002437799280047 0 0.02479939311629948 0.0041945317021522327 0 0.024550614575961124 0.0051301300875318361 0 0.025366426161880066 0.0050002437799280047 0 0.02479939311629948 0.0041945317021522327 0 0.024550614575961124 0.0051301300875318361 0 0.024095827318968407 0.0046330058102656939 0 0.024095827318968407 0.0046330058102656939 0 0.023574302470736483 0.0050855243581748224 0 0.023487966158948895 0.004133624765989728 0 0.024095827318968407 0.0046330058102656939 0 0.023574302470736483 0.0050855243581748224 0 0.024066144989597991 0.0053328346293578157 0 0.024550614575961124 0.0051301300875318361 0 0.024095827318968407 0.0046330058102656939 0 0.024066144989597991 0.0053328346293578157 0 0.024550614575961124 0.0051301300875318361 0 0.024066144989597991 0.0053328346293578157 0 0.024353162823737177 0.0058023404382435686 0 0.023774626417124339 0.0058164237998984637 0 0.02531834494771815 0.0096063035312545439 0 0.024066144989597991 0.0053328346293578157 0 0.024353162823737177 0.0058023404382435686 0 0.023733370030392588 0.0059881789643773491 0 0.023574302470736483 0.0050855243581748224 0 0.024066144989597991 0.0053328346293578157 0 0.023733370030392588 0.0059881789643773491 0 0.02579583132872449 0.0070046984878304021 0 0.02531834494771815 0.0096063035312545439 0 0.027931179489500173 0.0095423675475289887 0 0.028030379786960373 0.010306019042622414 0 0.027600960082404997 0.010027844880300067 0 0.022533548056605658 0.0063836461667445745 0 0.023450962834650847 0.0071780668512734591 0 0.022877587057054623 0.0083207965033751368 0 0.024725309395002899 0.0071469206654789464 0 0.023748118107121522 0.00604871098560247 0 0.023450962834650847 0.0071780668512734591 0 0.023748118107121522 0.00604871098560247 0 0.022533548056605658 0.0063836461667445745 0 0.023450962834650847 0.0071780668512734591 0 0.025610185573054552 0.01778990991354331 0 0.025045079050511964 0.018048908651073295 0 0.02531674656113141 0.018268751261624073 0 0.028030379786960373 0.010306019042622414 0 0.027272074024898233 0.010501253276350837 0 0.027600960082404997 0.010027844880300067 0 0.02531834494771815 0.0096063035312545439 0 0.026392441409773908 0.01482450946600663 0 0.027272074024898233 0.010501253276350837 0 0.027600960082404997 0.010027844880300067 0 0.027188070792401774 0.0097720217046316539 0 0.027272074024898233 0.010501253276350837 0 0.027188070792401774 0.0097720217046316539 0 0.026756865310289112 0.010089781887700764 0 0.027931179489500173 0.0095423675475289887 0 0.027600960082404997 0.010027844880300067 0 0.027188070792401774 0.0097720217046316539 0 0.027931179489500173 0.0095423675475289887 0 0.027188070792401774 0.0097720217046316539 0 0.027137444889202608 0.0090145720660924494 0 0.027931179489500173 0.0095423675475289887 0 0.027137444889202608 0.0090145720660924494 0 0.027832854032764857 0.0087090276682691321 0 0.02579583132872449 0.0070046984878304021 0 0.025663327111858064 0.0064905493305249468 0 0.027188070792401774 0.0097720217046316539 0 0.027137444889202608 0.0090145720660924494 0 0.026553685389517835 0.0093752669816162693 0 0.027650050616323484 0.0077509076881467544 0 0.027832854032764857 0.0087090276682691321 0 0.026735334847715581 0.0082904245968426892 0 0.027137444889202608 0.0090145720660924494 0 0.027832854032764857 0.0087090276682691321 0 0.026735334847715581 0.0082904245968426892 0 0.027650050616323484 0.0077509076881467544 0 0.026666376302501439 0.0072948209753893314 0 0.026735334847715581 0.0082904245968426892 0 0.025567451025935002 0.0054688658128188685 0 0.025663327111858064 0.0064905493305249468 0 0.023488885613413221 0.0031902968654562327 0 0.024194602968392417 0.0037681005813742503 0 0.024477942453255488 0.002959699389464338 0 0.024095827318968407 0.0046330058102656939 0 0.023487966158948895 0.004133624765989728 0 0.024194602968392417 0.0037681005813742503 0 0.023488885613413221 0.0031902968654562327 0 0.023487966158948895 0.004133624765989728 0 0.024194602968392417 0.0037681005813742503 0 0.02479939311629948 0.0041945317021522327 0 0.024095827318968407 0.0046330058102656939 0 0.024194602968392417 0.0037681005813742503 0 0.024939753535218115 0.0034941081208359954 0 0.024194602968392417 0.0037681005813742503 0 0.024477942453255488 0.002959699389464338 0 0.023488885613413221 0.0031902968654562327 0 0.024477942453255488 0.002959699389464338 0 0.024126826424373585 0.0023203018276319867 0 0.024769368453434928 0.0020402578827077738 0 0.024477942453255488 0.002959699389464338 0 0.024126826424373585 0.0023203018276319867 0 0.023978348214641235 0.0017289358796121854 0 0.024126826424373585 0.0023203018276319867 0 0.023575013955835795 0.0022970449023916322 0 0.027347414218792311 0.0066595929556011709 0 0.026666376302501439 0.0072948209753893314 0 0.026170826893310545 0.0062713101512685684 0 0.027650050616323484 0.0077509076881467544 0 0.027347414218792311 0.0066595929556011709 0 0.026666376302501439 0.0072948209753893314 0 0.025567451025935002 0.0054688658128188685 0 0.025482346438202779 0.0044943124588528128 0 0.023488885613413221 0.0031902968654562327 0 0.024126826424373585 0.0023203018276319867 0 0.023575013955835795 0.0022970449023916322 0 0.025994084628450913 0.0074503338348750735 0 0.026666376302501439 0.0072948209753893314 0 0.026173748196657149 0.0067511434218740759 0 0.026666376302501439 0.0072948209753893314 0 0.026170826893310545 0.0062713101512685684 0 0.026173748196657149 0.0067511434218740759 0 0.02578943770741567 0.0063243066989068959 0 0.026170826893310545 0.0062713101512685684 0 0.026173748196657149 0.0067511434218740759 0 0.02578943770741567 0.0063243066989068959 0 0.025994084628450913 0.0074503338348750735 0 0.026173748196657149 0.0067511434218740759 0 0.025994084628450913 0.0074503338348750735 0 0.025829528399327086 0.0068929213880220422 0 0.026163102335502373 0.0078571522868004402 0 0.025829528399327086 0.0068929213880220422 0 0.026163102335502373 0.0078571522868004402 0 0.025907947307423813 0.0074759539247579174 0 0.02578943770741567 0.0063243066989068959 0 0.025994084628450913 0.0074503338348750735 0 0.025829528399327086 0.0068929213880220422 0 0.025724956264374623 0.0067111265030313783 0 0.025829528399327086 0.0068929213880220422 0 0.025907947307423813 0.0074759539247579174 0 0.026034232423086626 0.0075235907291011112 0 0.025871962135683605 0.0082457992231589252 0 0.025994084628450913 0.0074503338348750735 0 0.025567927228263728 0.0086522536679079134 0 0.026132101233725311 0.0087098784470393108 0 0.025567927228263728 0.0086522536679079134 0 0.025874613904756903 0.0095094794719760081 0 0.025463041507533108 0.0095422653320642297 0 0.025567927228263728 0.0086522536679079134 0 0.026132101233725311 0.0087098784470393108 0 0.025874613904756903 0.0095094794719760081 0 0.026132101233725311 0.0087098784470393108 0 0.026735334847715581 0.0082904245968426892 0 0.026553685389517835 0.0093752669816162693 0 0.025994084628450913 0.0074503338348750735 0 0.026132101233725311 0.0087098784470393108 0 0.026735334847715581 0.0082904245968426892 0 0.025994084628450913 0.0074503338348750735 0 0.026666376302501439 0.0072948209753893314 0 0.026735334847715581 0.0082904245968426892 0 0.026132101233725311 0.0087098784470393108 0 0.026553685389517835 0.0093752669816162693 0 0.025874613904756903 0.0095094794719760081 0 0.027137444889202608 0.0090145720660924494 0 0.026735334847715581 0.0082904245968426892 0 0.026553685389517835 0.0093752669816162693 0 0.026553685389517835 0.0093752669816162693 0 0.026252821225354262 0.01012126939232905 0 0.025874613904756903 0.0095094794719760081 0 0.026553685389517835 0.0093752669816162693 0 0.026756865310289112 0.010089781887700764 0 0.026252821225354262 0.01012126939232905 0 0.027188070792401774 0.0097720217046316539 0 0.026553685389517835 0.0093752669816162693 0 0.026756865310289112 0.010089781887700764 0 0.026756865310289112 0.010089781887700764 0 0.026252821225354262 0.01012126939232905 0 0.026579024983220498 0.010624551789758808 0 0.026252821225354262 0.01012126939232905 0 0.026579024983220498 0.010624551789758808 0 0.026048067893388375 0.010695506676344363 0 0.026392441409773908 0.01482450946600663 0 0.025561905102868529 0.01442467415486156 0 0.027272074024898233 0.010501253276350837 0 0.026756865310289112 0.010089781887700764 0 0.026579024983220498 0.010624551789758808 0 0.026252821225354262 0.01012126939232905 0 0.025889591196253548 0.01041530586383059 0 0.026048067893388375 0.010695506676344363 0 0.026252821225354262 0.01012126939232905 0 0.025889591196253548 0.01041530586383059 0 0.025872667206647566 0.010044343100954502 0 0.025889591196253548 0.01041530586383059 0 0.025872667206647566 0.010044343100954502 0 0.025703746225659848 0.010369829356685872 0 0.025872667206647566 0.010044343100954502 0 0.025874613904756903 0.0095094794719760081 0 0.025673636121936891 0.010083148637941415 0 0.026252821225354262 0.01012126939232905 0 0.025872667206647566 0.010044343100954502 0 0.025874613904756903 0.0095094794719760081 0 0.025874613904756903 0.0095094794719760081 0 0.025463041507533108 0.0095422653320642297 0 0.025673636121936891 0.010083148637941415 0 0.025818865015935923 0.0091441817304203608 0 0.025651920096365955 0.010131375586539803 0 0.025463041507533108 0.0095422653320642297 0 0.025673636121936891 0.010083148637941415 0 0.025513712095869927 0.010254541048173235 0 0.025673636121936891 0.010083148637941415 0 0.025754784556521391 0.010501860490984248 0 0.025513712095869927 0.010254541048173235 0 0.025673636121936891 0.010083148637941415 0 0.025703746225659848 0.010369829356685872 0 0.025754784556521391 0.010501860490984248 0 0.025872667206647566 0.010044343100954502 0 0.025673636121936891 0.010083148637941415 0 0.025703746225659848 0.010369829356685872 0 0.025703746225659848 0.010369829356685872 0 0.025754784556521391 0.010501860490984248 0 0.025594007398252187 0.010509107489477004 0 0.025782313265634304 0.010807091767727581 0 0.025998948960148184 0.010814809942628588 0 0.025703746225659848 0.010369829356685872 0 0.025594007398252187 0.010509107489477004 0 0.025738598661775206 0.010702159773629608 0 0.025889591196253548 0.01041530586383059 0 0.025703746225659848 0.010369829356685872 0 0.025738598661775206 0.010702159773629608 0 0.024999674290717724 0.012397789712131475 0 0.025361580214733982 0.01174158237634431 0 0.025066017991257999 0.011255573387802682 0 0.024999674290717724 0.012397789712131475 0 0.025361580214733982 0.01174158237634431 0 0.025593616461971867 0.012645673866039047 0 0.026316876349246902 0.012054505079055693 0 0.025732064809671655 0.011587551127967589 0 0.025593616461971867 0.012645673866039047 0 0.025361580214733982 0.01174158237634431 0 0.025732064809671655 0.011587551127967589 0 0.025593616461971867 0.012645673866039047 0 0.025754784556521391 0.010501860490984248 0 0.025732064809671655 0.011587551127967589 0 0.025503790912971495 0.011015224985957939 0 0.025503790912971495 0.011015224985957939 0 0.025066017991257999 0.011255573387802682 0 0.025513712095869927 0.010254541048173235 0 0.025361580214733982 0.01174158237634431 0 0.025732064809671655 0.011587551127967589 0 0.025503790912971495 0.011015224985957939 0 0.025754784556521391 0.010501860490984248 0 0.026316876349246902 0.012054505079055693 0 0.025732064809671655 0.011587551127967589 0 0.025361580214733982 0.01174158237634431 0 0.025503790912971495 0.011015224985957939 0 0.025066017991257999 0.011255573387802682 0 0.024999674290717724 0.012397789712131475 0 0.024999787899177398 0.010942255122556971 0 0.025066017991257999 0.011255573387802682 0 0.024999787899177398 0.010942255122556971 0 0.025066017991257999 0.011255573387802682 0 0.025833301353921624 0.0099761220819894244 0 0.024999787899177398 0.010942255122556971 0 0.025833301353921624 0.0099761220819894244 0 0.024999699532685389 0.0094869033695858373 0 0.025065369815323445 0.011158520515992242 0 0.025651920096365955 0.010131375586539803 0 0.025754784556521391 0.010501860490984248 0 0.025503790912971495 0.011015224985957939 0 0.025513712095869927 0.010254541048173235 0 0.026183909593581356 0.0087365826857185233 0 0.025833301353921624 0.0099761220819894244 0 0.025572767429244952 0.0089215181937796154 0 0.025833301353921624 0.0099761220819894244 0 0.024999699532685389 0.0094869033695858373 0 0.025572767429244952 0.0089215181937796154 0 0.024999699532685389 0.0094869033695858373 0 0.024999684597977603 0.0080313791671042488 0 0.025572767429244952 0.0089215181937796154 0 0.024999684597977603 0.0080313791671042488 0 0.025650551301399392 0.0079513476667318374 0 0.025572767429244952 0.0089215181937796154 0 0.026163102335502373 0.0078571522868004402 0 0.026183909593581356 0.0087365826857185233 0 0.025907947307423813 0.0074759539247579174 0 0.026183909593581356 0.0087365826857185233 0 0.025650551301399392 0.0079513476667318374 0 0.025572767429244952 0.0089215181937796154 0 0.026183909593581356 0.0087365826857185233 0 0.025650551301399392 0.0079513476667318374 0 0.025907947307423813 0.0074759539247579174 0 0.025871962135683605 0.0082457992231589252 0 0.025818865015935923 0.0091441817304203608 0 0.025650551301399392 0.0079513476667318374 0 0.025907947307423813 0.0074759539247579174 0 0.025591490085780481 0.0070725654524985779 0 0.025544675796120703 0.0065827700632851765 0 0.025724956264374623 0.0067111265030313783 0 0.025591490085780481 0.0070725654524985779 0 0.025724956264374623 0.0067111265030313783 0 0.025907947307423813 0.0074759539247579174 0 0.025591490085780481 0.0070725654524985779 0 0.025252603491965925 0.0064768018731946493 0 0.025591490085780481 0.0070725654524985779 0 0.025315337488280545 0.0071885180315355932 0 0.025252603491965925 0.0064768018731946493 0 0.024999759680902713 0.0065781292604791541 0 0.025315337488280545 0.0071885180315355932 0 0.024999684597977603 0.0080313791671042488 0 0.024999759680902713 0.0065781292604791541 0 0.025315337488280545 0.0071885180315355932 0 0.024999684597977603 0.0080313791671042488 0 0.025650551301399392 0.0079513476667318374 0 0.025315337488280545 0.0071885180315355932 0 0.025650551301399392 0.0079513476667318374 0 0.025591490085780481 0.0070725654524985779 0 0.025315337488280545 0.0071885180315355932 0 0.025001165334261968 0.01854150822798149 0 0.025069564908452333 0.017759656269380232 0 0.025206159270772882 0.017779244332198723 0 0.025001165334261968 0.01854150822798149 0 0.025069564908452333 0.017759656269380232 0 0.024999384329159574 0.017920188117001967 0 0.025069564908452333 0.017759656269380232 0 0.024999384329159574 0.017920188117001967 0 0.024999657621257124 0.016565381732300887 0 0.025001165334261968 0.01854150822798149 0 0.024999384329159574 0.017920188117001967 0 0.024959552720434878 0.019392225440839843 0 0.024999384329159574 0.017920188117001967 0 0.024959552720434878 0.019392225440839843 0 0.024999310384680094 0.019275371015748666 0 0.025001165334261968 0.01854150822798149 0 0.024695782235419121 0.019612052671101412 0 0.024959552720434878 0.019392225440839843 0 0.025001165334261968 0.01854150822798149 0 0.024799353231761807 0.018784117616158402 0 0.024695782235419121 0.019612052671101412 0 0.024413177191471038 0.019575644543014043 0 0.024799353231761807 0.018784117616158402 0 0.024695782235419121 0.019612052671101412 0 0.024550880650236417 0.018976646668103742 0 0.024799353231761807 0.018784117616158402 0 0.024818543240643604 0.018351756696347723 0 0.024413177191471038 0.019575644543014043 0 0.024550880650236417 0.018976646668103742 0 0.024799353231761807 0.018784117616158402 0 0.025001165334261968 0.01854150822798149 0 0.024799353231761807 0.018784117616158402 0 0.025206159270772882 0.017779244332198723 0 0.024818543240643604 0.018351756696347723 0 0.025049226212447911 0.017847741884536288 0 0.025206159270772882 0.017779244332198723 0 0.024799353231761807 0.018784117616158402 0 0.024818543240643604 0.018351756696347723 0 0.025206159270772882 0.017779244332198723 0 0.024550880650236417 0.018976646668103742 0 0.024818543240643604 0.018351756696347723 0 0.024442751222560049 0.018879880100196197 0 0.024818543240643604 0.018351756696347723 0 0.024650112724369948 0.018389793933458229 0 0.024442751222560049 0.018879880100196197 0 0.024818543240643604 0.018351756696347723 0 0.024650112724369948 0.018389793933458229 0 0.025049226212447911 0.017847741884536288 0 0.024650112724369948 0.018389793933458229 0 0.025049226212447911 0.017847741884536288 0 0.024773561018981507 0.018185267669447818 0 0.024650112724369948 0.018389793933458229 0 0.024773561018981507 0.018185267669447818 0 0.02458534769448496 0.018478877335286008 0 0.025049226212447911 0.017847741884536288 0 0.025570286804037449 0.017083063291063183 0 0.025206159270772882 0.017779244332198723 0 0.025049226212447911 0.017847741884536288 0 0.025570286804037449 0.017083063291063183 0 0.024773561018981507 0.018185267669447818 0 0.025570286804037449 0.017083063291063183 0 0.025206159270772882 0.017779244332198723 0 0.024999657621257124 0.016565381732300887 0 0.025069564908452333 0.017759656269380232 0 0.025206159270772882 0.017779244332198723 0 0.024999657621257124 0.016565381732300887 0 0.025570286804037449 0.017083063291063183 0 0.024999657621257124 0.016565381732300887 0 0.024999492083841432 0.015209826586401239 0 0.025570286804037449 0.017083063291063183 0 0.024999492083841432 0.015209826586401239 0 0.02539514641357099 0.014718892053108846 0 0.025570286804037449 0.017083063291063183 0 0.026363004734690908 0.014918724028696958 0 0.02539514641357099 0.014718892053108846 0 0.025647631241855675 0.016844641554355038 0 0.025842600424089434 0.017061063793027728 0 0.026363004734690908 0.014918724028696958 0 0.02539514641357099 0.014718892053108846 0 0.025609874790796679 0.013770845276201628 0 0.024999492083841432 0.015209826586401239 0 0.02539514641357099 0.014718892053108846 0 0.024999809932122988 0.013853607248498819 0 0.024999947949228513 0.013853098716950053 0 0.025610223494666677 0.013547942067461696 0 0.025593616461971867 0.012645673866039047 0 0.02539514641357099 0.014718892053108846 0 0.024999809932122988 0.013853607248498819 0 0.025609874790796679 0.013770845276201628 0 0.025000001117544749 0.013853372886575357 0 0.025783625297805458 0.013630209603514409 0 0.025842600424089434 0.017061063793027728 0 0.025432485851745564 0.014183884582852408 0 0.025610223494666677 0.013547942067461696 0 0.025593616461971867 0.012645673866039047 0 0.02631438616809777 0.013319677871096546 0 0.026363004734690908 0.014918724028696958 0 0.025609874790796679 0.013770845276201628 0 0.02651094140945982 0.013556968799580514 0 0.025783625297805458 0.013630209603514409 0 0.025432485851745564 0.014183884582852408 0 0.026316876349246902 0.012054505079055693 0 0.025593616461971867 0.012645673866039047 0 0.02631438616809777 0.013319677871096546 0 0.024999674290717724 0.012397789712131475 0 0.024999947949228513 0.013853098716950053 0 0.025593616461971867 0.012645673866039047 0 0.025998948960148184 0.010814809942628588 0 0.025432485851745564 0.014183884582852408 0 0.025594007398252187 0.010509107489477004 0 0.025738598661775206 0.010702159773629608 0 0.025539496773283911 0.010773122866023263 0 0.025373262492280012 0.018382984791004933 0 0.025215162067869678 0.018824136244389941 0 0.024821356699790374 0.018622186975299632 0 0.025203333635886799 0.014847874216414076 0 0.025432485851745564 0.014183884582852408 0 0.024698796046579732 0.01883746938081645 0 0.025215162067869678 0.018824136244389941 0 0.024821356699790374 0.018622186975299632 0 0.024698796046579732 0.01883746938081645 0 0.024821356699790374 0.018622186975299632 0 0.024503632537763859 0.018715554450886168 0 0.024821356699790374 0.018622186975299632 0 0.024773561018981507 0.018185267669447818 0 0.024565392667241774 0.018572472247717201 0 0.025373262492280012 0.018382984791004933 0 0.024821356699790374 0.018622186975299632 0 0.024773561018981507 0.018185267669447818 0 0.025570286804037449 0.017083063291063183 0 0.025373262492280012 0.018382984791004933 0 0.024773561018981507 0.018185267669447818 0 0.024773561018981507 0.018185267669447818 0 0.02458534769448496 0.018478877335286008 0 0.024565392667241774 0.018572472247717201 0 0.02458534769448496 0.018478877335286008 0 0.02449075038157519 0.018655188837009808 0 0.024484051605505548 0.018653272903780459 0 0.02458534769448496 0.018478877335286008 0 0.02449075038157519 0.018655188837009808 0 0.024565392667241774 0.018572472247717201 0 0.024460013850298185 0.0187639264968083 0 0.02449075038157519 0.018655188837009808 0 0.024468838605443237 0.018807814533357763 0 0.024460013850298185 0.0187639264968083 0 0.02449075038157519 0.018655188837009808 0 0.024484051605505548 0.018653272903780459 0 0.02449075038157519 0.018655188837009808 0 0.024477255528549381 0.018710677319109203 0 0.024468838605443237 0.018807814533357763 0 0.024477255528549381 0.018710677319109203 0 0.024503632537763859 0.018715554450886168 0 0.024466705725285889 0.018749822706874031 0 0.024477255528549381 0.018710677319109203 0 0.024476207197752224 0.018803162511502682 0 0.024468838605443237 0.018807814533357763 0 0.024477255528549381 0.018710677319109203 0 0.024466705725285889 0.018749822706874031 0 0.024476207197752224 0.018803162511502682 0 0.024477255528549381 0.018710677319109203 0 0.024565392667241774 0.018572472247717201 0 0.024503632537763859 0.018715554450886168 0 0.02449075038157519 0.018655188837009808 0 0.024477255528549381 0.018710677319109203 0 0.024565392667241774 0.018572472247717201 0 0.024821356699790374 0.018622186975299632 0 0.024565392667241774 0.018572472247717201 0 0.024503632537763859 0.018715554450886168 0 0.024503632537763859 0.018715554450886168 0 0.024466705725285889 0.018749822706874031 0 0.024470832335182664 0.018674676448443284 0 0.024503632537763859 0.018715554450886168 0 0.024453337839892873 0.018671018679132869 0 0.024470832335182664 0.018674676448443284 0 0.025203333635886799 0.014847874216414076 0 0.025284815796287607 0.014671917389833727 0 0.025889591196253548 0.01041530586383059 0 0.025738598661775206 0.010702159773629608 0 0.026048067893388375 0.010695506676344363 0 0.024698796046579732 0.01883746938081645 0 0.024503632537763859 0.018715554450886168 0 0.024453337839892873 0.018671018679132869 0 0.024584437305301004 0.01835902458219494 0 0.024536214142089022 0.01870416774244138 0 0.024724784329772233 0.018628745952513348 0 0.024584437305301004 0.01835902458219494 0 0.024724784329772233 0.018628745952513348 0 0.024992580305568668 0.018455518160020903 0 0.025561905102868529 0.01442467415486156 0 0.025284815796287607 0.014671917389833727 0 0.024584437305301004 0.01835902458219494 0 0.024536214142089022 0.01870416774244138 0 0.024470832335182664 0.018674676448443284 0 0.024584437305301004 0.01835902458219494 0 0.024453337839892873 0.018671018679132869 0 0.024470832335182664 0.018674676448443284 0 0.024466705725285889 0.018749822706874031 0 0.024536214142089022 0.01870416774244138 0 0.024470832335182664 0.018674676448443284 0 0.024466705725285889 0.018749822706874031 0 0.024536214142089022 0.01870416774244138 0 0.024505016795164512 0.01882872351130797 0 0.024536214142089022 0.01870416774244138 0 0.024584108869803171 0.018808240840412268 0 0.024505016795164512 0.01882872351130797 0 0.024584108869803171 0.018808240840412268 0 0.024766981365440924 0.018780138677770945 0 0.024573638424482638 0.018950806639460763 0 0.024536214142089022 0.01870416774244138 0 0.024584108869803171 0.018808240840412268 0 0.024724784329772233 0.018628745952513348 0 0.024724784329772233 0.018628745952513348 0 0.024766981365440924 0.018780138677770945 0 0.024911129801272917 0.018641444162858987 0 0.024584108869803171 0.018808240840412268 0 0.024724784329772233 0.018628745952513348 0 0.024766981365440924 0.018780138677770945 0 0.024584108869803171 0.018808240840412268 0 0.024531933961935842 0.018905586237926646 0 0.024573638424482638 0.018950806639460763 0 0.024531933961935842 0.018905586237926646 0 0.024573638424482638 0.018950806639460763 0 0.024542680270189115 0.018990131297135466 0 0.024573638424482638 0.018950806639460763 0 0.024542680270189115 0.018990131297135466 0 0.024589599415363626 0.019043346648726089 0 0.024531933961935842 0.018905586237926646 0 0.024542680270189115 0.018990131297135466 0 0.024501659697835673 0.01890331635679246 0 0.024542680270189115 0.018990131297135466 0 0.024501659697835673 0.01890331635679246 0 0.024514332880413783 0.019015235111258143 0 0.024501084288695872 0.019133322533581847 0 0.024589599415363626 0.019043346648726089 0 0.024452708729358633 0.01926107651614611 0 0.02453558233816152 0.01906354406882305 0 0.024501084288695872 0.019133322533581847 0 0.024589599415363626 0.019043346648726089 0 0.024542680270189115 0.018990131297135466 0 0.02453558233816152 0.01906354406882305 0 0.024589599415363626 0.019043346648726089 0 0.024466705725285889 0.018749822706874031 0 0.024505016795164512 0.01882872351130797 0 0.024476207197752224 0.018803162511502682 0 0.024584108869803171 0.018808240840412268 0 0.024531933961935842 0.018905586237926646 0 0.024505016795164512 0.01882872351130797 0 0.024531933961935842 0.018905586237926646 0 0.024505016795164512 0.01882872351130797 0 0.024501659697835673 0.01890331635679246 0 0.024505016795164512 0.01882872351130797 0 0.024501659697835673 0.01890331635679246 0 0.024476207197752224 0.018803162511502682 0 0.024501659697835673 0.01890331635679246 0 0.024476207197752224 0.018803162511502682 0 0.024468838605443237 0.018807814533357763 0 0.024501659697835673 0.01890331635679246 0 0.024484620645209728 0.018910578629051225 0 0.024514332880413783 0.019015235111258143 0 0.024501659697835673 0.01890331635679246 0 0.024468838605443237 0.018807814533357763 0 0.024484620645209728 0.018910578629051225 0 0.024484620645209728 0.018910578629051225 0 0.024458671143573994 0.01887489615050943 0 0.024478100455748553 0.018956567281465664 0 0.024460013850298185 0.0187639264968083 0 0.024468838605443237 0.018807814533357763 0 0.024458671143573994 0.01887489615050943 0 0.024468838605443237 0.018807814533357763 0 0.024484620645209728 0.018910578629051225 0 0.024458671143573994 0.01887489615050943 0 0.02453558233816152 0.01906354406882305 0 0.024514332880413783 0.019015235111258143 0 0.024471466175679382 0.019112711332316505 0 0.024514332880413783 0.019015235111258143 0 0.024461898054638425 0.01904748363242556 0 0.024471466175679382 0.019112711332316505 0 0.02453558233816152 0.01906354406882305 0 0.024501084288695872 0.019133322533581847 0 0.024471466175679382 0.019112711332316505 0 0.024542680270189115 0.018990131297135466 0 0.02453558233816152 0.01906354406882305 0 0.024514332880413783 0.019015235111258143 0 0.024484620645209728 0.018910578629051225 0 0.024514332880413783 0.019015235111258143 0 0.024478100455748553 0.018956567281465664 0 0.024514332880413783 0.019015235111258143 0 0.024478100455748553 0.018956567281465664 0 0.024461898054638425 0.01904748363242556 0 0.024461898054638425 0.01904748363242556 0 0.024452944992921728 0.018993364338092553 0 0.024438519243811001 0.019035177537032787 0 0.024478100455748553 0.018956567281465664 0 0.024452944992921728 0.018993364338092553 0 0.024446009624725411 0.018943871452922964 0 0.024478100455748553 0.018956567281465664 0 0.024461898054638425 0.01904748363242556 0 0.024452944992921728 0.018993364338092553 0 0.024452944992921728 0.018993364338092553 0 0.024438519243811001 0.019035177537032787 0 0.024415713586230375 0.019022428328167376 0 0.024452944992921728 0.018993364338092553 0 0.024415713586230375 0.019022428328167376 0 0.024446009624725411 0.018943871452922964 0 0.024438519243811001 0.019035177537032787 0 0.02442629460334541 0.019091152748284462 0 0.024415713586230375 0.019022428328167376 0 0.02442629460334541 0.019091152748284462 0 0.024415713586230375 0.019022428328167376 0 0.024320953677873177 0.019262528021017127 0 0.024415713586230375 0.019022428328167376 0 0.024336794977608565 0.019087439887141299 0 0.024320953677873177 0.019262528021017127 0 0.024415713586230375 0.019022428328167376 0 0.024336794977608565 0.019087439887141299 0 0.024417220019032973 0.018888199917435278 0 0.024415713586230375 0.019022428328167376 0 0.024417220019032973 0.018888199917435278 0 0.024446009624725411 0.018943871452922964 0 0.024458671143573994 0.01887489615050943 0 0.024478100455748553 0.018956567281465664 0 0.024446009624725411 0.018943871452922964 0 0.024460013850298185 0.0187639264968083 0 0.024458671143573994 0.01887489615050943 0 0.024417220019032973 0.018888199917435278 0 0.024458671143573994 0.01887489615050943 0 0.024417220019032973 0.018888199917435278 0 0.024446009624725411 0.018943871452922964 0 0.024460013850298185 0.0187639264968083 0 0.024417220019032973 0.018888199917435278 0 0.024484051605505548 0.018653272903780459 0 0.024417220019032973 0.018888199917435278 0 0.024484051605505548 0.018653272903780459 0 0.024374044865445917 0.018924748813628326 0 0.024650112724369948 0.018389793933458229 0 0.024484051605505548 0.018653272903780459 0 0.024442751222560049 0.018879880100196197 0 0.024650112724369948 0.018389793933458229 0 0.02458534769448496 0.018478877335286008 0 0.024484051605505548 0.018653272903780459 0 0.024484051605505548 0.018653272903780459 0 0.024442751222560049 0.018879880100196197 0 0.024374044865445917 0.018924748813628326 0 0.024442751222560049 0.018879880100196197 0 0.024374044865445917 0.018924748813628326 0 0.024147978736164494 0.019399783458278762 0 0.024336794977608565 0.019087439887141299 0 0.024374044865445917 0.018924748813628326 0 0.024147978736164494 0.019399783458278762 0 0.024336794977608565 0.019087439887141299 0 0.024417220019032973 0.018888199917435278 0 0.024374044865445917 0.018924748813628326 0 0.024442751222560049 0.018879880100196197 0 0.024147978736164494 0.019399783458278762 0 0.02420920033872934 0.019481776642723009 0 0.024413177191471038 0.019575644543014043 0 0.024550880650236417 0.018976646668103742 0 0.02420920033872934 0.019481776642723009 0 0.024550880650236417 0.018976646668103742 0 0.024442751222560049 0.018879880100196197 0 0.02420920033872934 0.019481776642723009 0 0.024413177191471038 0.019575644543014043 0 0.02420920033872934 0.019481776642723009 0 0.023854041000253047 0.020302299864650146 0 0.02420920033872934 0.019481776642723009 0 0.023932096530970129 0.019899149811264526 0 0.023854041000253047 0.020302299864650146 0 0.024147978736164494 0.019399783458278762 0 0.023932096530970129 0.019899149811264526 0 0.023928792814611445 0.019893757139436721 0 0.023932096530970129 0.019899149811264526 0 0.023651178194310039 0.020454435430583621 0 0.023854041000253047 0.020302299864650146 0 0.024147978736164494 0.019399783458278762 0 0.02420920033872934 0.019481776642723009 0 0.023932096530970129 0.019899149811264526 0 0.023932096530970129 0.019899149811264526 0 0.023928792814611445 0.019893757139436721 0 0.023651178194310039 0.020454435430583621 0 0.023928792814611445 0.019893757139436721 0 0.024320953677873177 0.019262528021017127 0 0.024623800308159447 0.019716536329147646 0 0.023928792814611445 0.019893757139436721 0 0.024623800308159447 0.019716536329147646 0 0.023440535453653492 0.021089394820733375 0 0.024320953677873177 0.019262528021017127 0 0.024482994061134144 0.019193151546379378 0 0.024623800308159447 0.019716536329147646 0 0.02442629460334541 0.019091152748284462 0 0.024320953677873177 0.019262528021017127 0 0.024482994061134144 0.019193151546379378 0 0.024147978736164494 0.019399783458278762 0 0.023928792814611445 0.019893757139436721 0 0.024320953677873177 0.019262528021017127 0 0.024336794977608565 0.019087439887141299 0 0.024147978736164494 0.019399783458278762 0 0.024320953677873177 0.019262528021017127 0 0.024403826137482449 0.019056228917401163 0 0.024482994061134144 0.019193151546379378 0 0.02438520043704262 0.019083644529091285 0 0.024403826137482449 0.019056228917401163 0 0.024482994061134144 0.019193151546379378 0 0.024623800308159447 0.019716536329147646 0 0.024187671817832428 0.020006369955475119 0 0.023990699372077103 0.020467081454470595 0 0.02378865418553798 0.020944840462323411 0 0.023498087100129926 0.021161080254221185 0 0.023688944127086008 0.021278521939614305 0 0.02378865418553798 0.020944840462323411 0 0.023881306641729317 0.021202870176076076 0 0.023688944127086008 0.021278521939614305 0 0.023881306641729317 0.021202870176076076 0 0.024054778548540677 0.021045806296081885 0 0.024047907137544192 0.021337470429198188 0 0.02378865418553798 0.020944840462323411 0 0.023881306641729317 0.021202870176076076 0 0.024054778548540677 0.021045806296081885 0 0.022791778596106867 0.020838222817397653 0 0.021928990559478306 0.021164118689168145 0 0.021479766432223331 0.020430734266763794 0 0.021755914390512852 0.020446744601357852 0 0.021474070638617844 0.020800570684941764 0 0.022791778596106867 0.020838222817397653 0 0.023373960872645334 0.019794938384630884 0 0.021479766432223331 0.020430734266763794 0 0.021485679856216001 0.019998791030620022 0 0.021774452114294397 0.020153029610088427 0 0.02378865418553798 0.020944840462323411 0 0.024054778548540677 0.021045806296081885 0 0.024045850969375854 0.020739822571011021 0 0.024187671817832428 0.020006369955475119 0 0.023373960872645334 0.019794938384630884 0 0.024403826137482449 0.019056228917401163 0 0.024029267459513337 0.018992726146308123 0 0.023831073961371175 0.018913370718753913 0 0.024403826137482449 0.019056228917401163 0 0.024029267459513337 0.018992726146308123 0 0.024195026827842084 0.019045367456997815 0 0.024029267459513337 0.018992726146308123 0 0.023831073961371175 0.018913370718753913 0 0.023713754154151064 0.018983067151102959 0 0.024029267459513337 0.018992726146308123 0 0.023946748343869707 0.01908892329411048 0 0.024195026827842084 0.019045367456997815 0 0.023373960872645334 0.019794938384630884 0 0.02235142789549123 0.019401931733245881 0 0.023702105925347189 0.018603550268827634 0 0.023713754154151064 0.018983067151102959 0 0.023047826047321553 0.018969226909716985 0 0.021485679856216001 0.019998791030620022 0 0.021802853670880761 0.019777734096011135 0 0.021774452114294397 0.020153029610088427 0 0.023373960872645334 0.019794938384630884 0 0.023578212798251657 0.018847841260585557 0 0.023713754154151064 0.018983067151102959 0 0.02339491883621871 0.019171864147423105 0 0.023047826047321553 0.018969226909716985 0 0.023713754154151064 0.018983067151102959 0 0.023693835480730761 0.019201538855041427 0 0.02339491883621871 0.019171864147423105 0 0.023693835480730761 0.019201538855041427 0 0.02339491883621871 0.019171864147423105 0 0.023408487029942967 0.019376377504139321 0 0.023946748343869707 0.01908892329411048 0 0.024128388398716609 0.01913142709337819 0 0.024195026827842084 0.019045367456997815 0 0.024029267459513337 0.018992726146308123 0 0.023713754154151064 0.018983067151102959 0 0.023946748343869707 0.01908892329411048 0 0.023713754154151064 0.018983067151102959 0 0.023693835480730761 0.019201538855041427 0 0.023946748343869707 0.01908892329411048 0 0.023693835480730761 0.019201538855041427 0 0.023946748343869707 0.01908892329411048 0 0.023902699045736192 0.019247557421572619 0 0.023946748343869707 0.01908892329411048 0 0.024128388398716609 0.01913142709337819 0 0.023902699045736192 0.019247557421572619 0 0.024128388398716609 0.01913142709337819 0 0.024076132800574166 0.019235419633410432 0 0.023902699045736192 0.019247557421572619 0 0.024128388398716609 0.01913142709337819 0 0.024076132800574166 0.019235419633410432 0 0.02424326056399486 0.019168515965759466 0 0.024300350871157249 0.019077328726780099 0 0.024382942293588988 0.019084872710194808 0 0.02424326056399486 0.019168515965759466 0 0.024128388398716609 0.01913142709337819 0 0.024300350871157249 0.019077328726780099 0 0.02424326056399486 0.019168515965759466 0 0.024128388398716609 0.01913142709337819 0 0.024300350871157249 0.019077328726780099 0 0.024195026827842084 0.019045367456997815 0 0.024403826137482449 0.019056228917401163 0 0.024195026827842084 0.019045367456997815 0 0.02438520043704262 0.019083644529091285 0 0.024300350871157249 0.019077328726780099 0 0.024195026827842084 0.019045367456997815 0 0.02438520043704262 0.019083644529091285 0 0.02442629460334541 0.019091152748284462 0 0.024482994061134144 0.019193151546379378 0 0.024404491290221968 0.019061773458063265 0 0.024482994061134144 0.019193151546379378 0 0.02438520043704262 0.019083644529091285 0 0.024404491290221968 0.019061773458063265 0 0.024300350871157249 0.019077328726780099 0 0.02438520043704262 0.019083644529091285 0 0.024404491290221968 0.019061773458063265 0 0.024438519243811001 0.019035177537032787 0 0.02442629460334541 0.019091152748284462 0 0.024404491290221968 0.019061773458063265 0 0.024438519243811001 0.019035177537032787 0 0.024404491290221968 0.019061773458063265 0 0.024382942293588988 0.019084872710194808 0 0.024300350871157249 0.019077328726780099 0 0.024404491290221968 0.019061773458063265 0 0.024382942293588988 0.019084872710194808 0 0.024461898054638425 0.01904748363242556 0 0.024438519243811001 0.019035177537032787 0 0.024382942293588988 0.019084872710194808 0 0.024461898054638425 0.01904748363242556 0 0.024370887743410383 0.019152529456937673 0 0.024471466175679382 0.019112711332316505 0 0.024461898054638425 0.01904748363242556 0 0.024382942293588988 0.019084872710194808 0 0.024370887743410383 0.019152529456937673 0 0.024382942293588988 0.019084872710194808 0 0.024370887743410383 0.019152529456937673 0 0.02424326056399486 0.019168515965759466 0 0.024370887743410383 0.019152529456937673 0 0.024304211608921791 0.019265322520209256 0 0.024384604936996863 0.019207394168348442 0 0.024370887743410383 0.019152529456937673 0 0.024304211608921791 0.019265322520209256 0 0.024262663943057924 0.019230523652004033 0 0.024304211608921791 0.019265322520209256 0 0.024384604936996863 0.019207394168348442 0 0.024344275778583779 0.019306928751664502 0 0.024384604936996863 0.019207394168348442 0 0.024471466175679382 0.019112711332316505 0 0.024421302709472143 0.019227065087340522 0 0.024370887743410383 0.019152529456937673 0 0.024384604936996863 0.019207394168348442 0 0.024471466175679382 0.019112711332316505 0 0.024501084288695872 0.019133322533581847 0 0.024471466175679382 0.019112711332316505 0 0.024421302709472143 0.019227065087340522 0 0.024076132800574166 0.019235419633410432 0 0.02424326056399486 0.019168515965759466 0 0.024117517430823906 0.019308342002406192 0 0.024076132800574166 0.019235419633410432 0 0.024117517430823906 0.019308342002406192 0 0.023959077941495106 0.019363137199182572 0 0.02424326056399486 0.019168515965759466 0 0.024262663943057924 0.019230523652004033 0 0.024117517430823906 0.019308342002406192 0 0.024370887743410383 0.019152529456937673 0 0.02424326056399486 0.019168515965759466 0 0.024262663943057924 0.019230523652004033 0 0.024262663943057924 0.019230523652004033 0 0.024192766039157217 0.019351969342244382 0 0.024117517430823906 0.019308342002406192 0 0.024304211608921791 0.019265322520209256 0 0.024262663943057924 0.019230523652004033 0 0.024192766039157217 0.019351969342244382 0 0.024192766039157217 0.019351969342244382 0 0.024117517430823906 0.019308342002406192 0 0.024019027081551098 0.019466241096445479 0 0.024117517430823906 0.019308342002406192 0 0.024019027081551098 0.019466241096445479 0 0.023959077941495106 0.019363137199182572 0 0.024019027081551098 0.019466241096445479 0 0.024123706030799472 0.019495428781751398 0 0.023969761812054166 0.019638837026685198 0 0.024192766039157217 0.019351969342244382 0 0.024019027081551098 0.019466241096445479 0 0.024123706030799472 0.019495428781751398 0 0.024123706030799472 0.019495428781751398 0 0.024253971068342772 0.019403997632918842 0 0.024188921053977172 0.019529606762795648 0 0.024192766039157217 0.019351969342244382 0 0.024123706030799472 0.019495428781751398 0 0.024253971068342772 0.019403997632918842 0 0.024304211608921791 0.019265322520209256 0 0.024192766039157217 0.019351969342244382 0 0.024253971068342772 0.019403997632918842 0 0.024253971068342772 0.019403997632918842 0 0.024261636085339891 0.01951944261179336 0 0.024301609939923127 0.019405159183764214 0 0.024253971068342772 0.019403997632918842 0 0.024261636085339891 0.01951944261179336 0 0.024188921053977172 0.019529606762795648 0 0.024261636085339891 0.01951944261179336 0 0.024340574266499028 0.019400870487646171 0 0.024241825936036417 0.019804566896346167 0 0.024261636085339891 0.01951944261179336 0 0.02417007696859701 0.019649151053883204 0 0.024241825936036417 0.019804566896346167 0 0.024261636085339891 0.01951944261179336 0 0.02417007696859701 0.019649151053883204 0 0.024188921053977172 0.019529606762795648 0 0.02417007696859701 0.019649151053883204 0 0.024061624311653769 0.019712198934511479 0 0.024132892682188614 0.01974274050785747 0 0.02417007696859701 0.019649151053883204 0 0.024188921053977172 0.019529606762795648 0 0.024113955094493694 0.019606657579409981 0 0.024123706030799472 0.019495428781751398 0 0.024188921053977172 0.019529606762795648 0 0.024113955094493694 0.019606657579409981 0 0.024123706030799472 0.019495428781751398 0 0.024113955094493694 0.019606657579409981 0 0.023969761812054166 0.019638837026685198 0 0.024113955094493694 0.019606657579409981 0 0.024061624311653769 0.019712198934511479 0 0.023969761812054166 0.019638837026685198 0 0.02417007696859701 0.019649151053883204 0 0.024113955094493694 0.019606657579409981 0 0.024061624311653769 0.019712198934511479 0 0.023969761812054166 0.019638837026685198 0 0.023976920621950591 0.019796463890177481 0 0.023869007939986697 0.019793852152111362 0 0.024061624311653769 0.019712198934511479 0 0.023969761812054166 0.019638837026685198 0 0.023976920621950591 0.019796463890177481 0 0.024589599415363626 0.019043346648726089 0 0.024452708729358633 0.01926107651614611 0 0.024241825936036417 0.019804566896346167 0 0.024573638424482638 0.018950806639460763 0 0.024589599415363626 0.019043346648726089 0 0.02475311185453025 0.018873906577093438 0 0.024589599415363626 0.019043346648726089 0 0.02475311185453025 0.018873906577093438 0 0.024760659107599906 0.018886790319800707 0 0.024594648166999241 0.018985959352154344 0 0.024488626838120909 0.019703770930646337 0 0.024452708729358633 0.01926107651614611 0 0.024421302709472143 0.019227065087340522 0 0.024340574266499028 0.019400870487646171 0 0.024501084288695872 0.019133322533581847 0 0.024452708729358633 0.01926107651614611 0 0.024421302709472143 0.019227065087340522 0 0.024384604936996863 0.019207394168348442 0 0.024421302709472143 0.019227065087340522 0 0.024344275778583779 0.019306928751664502 0 0.024421302709472143 0.019227065087340522 0 0.024344275778583779 0.019306928751664502 0 0.024340574266499028 0.019400870487646171 0 0.024304211608921791 0.019265322520209256 0 0.024253971068342772 0.019403997632918842 0 0.024344275778583779 0.019306928751664502 0 0.024261636085339891 0.01951944261179336 0 0.024301609939923127 0.019405159183764214 0 0.024340574266499028 0.019400870487646171 0 0.024344275778583779 0.019306928751664502 0 0.024301609939923127 0.019405159183764214 0 0.024340574266499028 0.019400870487646171 0 0.024253971068342772 0.019403997632918842 0 0.024344275778583779 0.019306928751664502 0 0.024301609939923127 0.019405159183764214 0 0.024452708729358633 0.01926107651614611 0 0.024340574266499028 0.019400870487646171 0 0.024241825936036417 0.019804566896346167 0 0.02447016753851838 0.018905126642406497 0 0.025261129824404 0.019003357260491342 0 0.024766981365440924 0.018780138677770945 0 0.024573638424482638 0.018950806639460763 0 0.025136924873645394 0.018749666629027432 0 0.024766981365440924 0.018780138677770945 0 0.024968729125115167 0.018697092404166688 0 0.025136924873645394 0.018749666629027432 0 0.024766981365440924 0.018780138677770945 0 0.024911129801272917 0.018641444162858987 0 0.024968729125115167 0.018697092404166688 0 0.024724784329772233 0.018628745952513348 0 0.024911129801272917 0.018641444162858987 0 0.024992580305568668 0.018455518160020903 0 0.024911129801272917 0.018641444162858987 0 0.025061780591531146 0.018614085715910601 0 0.024992580305568668 0.018455518160020903 0 0.025061780591531146 0.018614085715910601 0 0.024968729125115167 0.018697092404166688 0 0.025136924873645394 0.018749666629027432 0 0.024911129801272917 0.018641444162858987 0 0.025061780591531146 0.018614085715910601 0 0.024968729125115167 0.018697092404166688 0 0.025261129824404 0.019003357260491342 0 0.023629919093959117 0.017044420563338821 0 0.02475311185453025 0.018873906577093438 0 0.024760659107599906 0.018886790319800707 0 0.024755416046822635 0.018754827149551151 0 0.025136924873645394 0.018749666629027432 0 0.025246044327512315 0.0185123342718999 0 0.025724996310806485 0.01849828198453439 0 0.024241825936036417 0.019804566896346167 0 0.024132892682188614 0.01974274050785747 0 0.024067955216148244 0.019788104470842591 0 0.02417007696859701 0.019649151053883204 0 0.024241825936036417 0.019804566896346167 0 0.024132892682188614 0.01974274050785747 0 0.024241825936036417 0.019804566896346167 0 0.024067955216148244 0.019788104470842591 0 0.023932336549356416 0.019890309311316939 0 0.023976920621950591 0.019796463890177481 0 0.024067955216148244 0.019788104470842591 0 0.023932336549356416 0.019890309311316939 0 0.023976920621950591 0.019796463890177481 0 0.023932336549356416 0.019890309311316939 0 0.023869007939986697 0.019793852152111362 0 0.024061624311653769 0.019712198934511479 0 0.023976920621950591 0.019796463890177481 0 0.024067955216148244 0.019788104470842591 0 0.024061624311653769 0.019712198934511479 0 0.024132892682188614 0.01974274050785747 0 0.024067955216148244 0.019788104470842591 0 0.025061780591531146 0.018614085715910601 0 0.025136924873645394 0.018749666629027432 0 0.025246044327512315 0.0185123342718999 0 0.025246044327512315 0.0185123342718999 0 0.02531674656113141 0.018268751261624073 0 0.025724996310806485 0.01849828198453439 0 0.025246044327512315 0.0185123342718999 0 0.02531674656113141 0.018268751261624073 0 0.024992580305568668 0.018455518160020903 0 0.025045079050511964 0.018048908651073295 0 0.02531674656113141 0.018268751261624073 0 0.024992580305568668 0.018455518160020903 0 0.025045079050511964 0.018048908651073295 0 0.024584437305301004 0.01835902458219494 0 0.024992580305568668 0.018455518160020903 0 0.025061780591531146 0.018614085715910601 0 0.025246044327512315 0.0185123342718999 0 0.024992580305568668 0.018455518160020903 0 0.023364844640076269 0.020254788241576196 0 0.02325348746006398 0.020107206649841391 0 0.022853982570408299 0.020355880710257217 0 0.023450962834650847 0.0071780668512734591 0 0.023325836318928039 0.0080668014319926224 0 0.022877587057054623 0.0083207965033751368 0 0.024725309395002899 0.0071469206654789464 0 0.023450962834650847 0.0071780668512734591 0 0.023325836318928039 0.0080668014319926224 0 0.023364844640076269 0.020254788241576196 0 0.023531559508093103 0.020187161321028064 0 0.023418516266857287 0.020147502294194652 0 0.023567473825740572 0.014061109543937061 0 0.023629919093959117 0.017044420563338821 0 0.02531834494771815 0.0096063035312545439 0 0.023629919093959117 0.017044420563338821 0 0.025610185573054552 0.01778990991354331 0 0.02531674656113141 0.018268751261624073 0 0.025724996310806485 0.01849828198453439 0 0.024241825936036417 0.019804566896346167 0 0.023932336549356416 0.019890309311316939 0 0.023572174379558043 0.020234469492217622 0 0.023629919093959117 0.017044420563338821 0 0.023869171046416796 0.019803702131952657 0 0.023531559508093103 0.020187161321028064 0 0.023522446836866058 0.020033745030863123 0 0.023418516266857287 0.020147502294194652 0 0.024488626838120909 0.019703770930646337 0 0.023629919093959117 0.017044420563338821 0 0.023572174379558043 0.020234469492217622 0 0.023522446836866058 0.020033745030863123 0 0.023688225655169575 0.019899209251919337 0 0.023932336549356416 0.019890309311316939 0 0.023572174379558043 0.020234469492217622 0 0.023688225655169575 0.019899209251919337 0 0.023932336549356416 0.019890309311316939 0 0.023869007939986697 0.019793852152111362 0 0.023688225655169575 0.019899209251919337 0 0.023522446836866058 0.020033745030863123 0 0.023688225655169575 0.019899209251919337 0 0.023433680066514879 0.01990881351897374 0 0.023688225655169575 0.019899209251919337 0 0.023433680066514879 0.01990881351897374 0 0.02359088997174881 0.019768034738632683 0 0.023522446836866058 0.020033745030863123 0 0.023433680066514879 0.01990881351897374 0 0.02325348746006398 0.020107206649841391 0 0.023522446836866058 0.020033745030863123 0 0.023418516266857287 0.020147502294194652 0 0.02325348746006398 0.020107206649841391 0 0.023364844640076269 0.020254788241576196 0 0.023418516266857287 0.020147502294194652 0 0.02325348746006398 0.020107206649841391 0 0.023433680066514879 0.01990881351897374 0 0.02325348746006398 0.020107206649841391 0 0.023197264686071049 0.01990124837410704 0 0.02325348746006398 0.020107206649841391 0 0.023197264686071049 0.01990124837410704 0 0.023015426027432246 0.020068857085438173 0 0.023197264686071049 0.01990124837410704 0 0.023375554043595401 0.0197377309935034 0 0.023108020804610593 0.019724417629776295 0 0.023433680066514879 0.01990881351897374 0 0.023375554043595401 0.0197377309935034 0 0.02359088997174881 0.019768034738632683 0 0.023433680066514879 0.01990881351897374 0 0.023197264686071049 0.01990124837410704 0 0.023375554043595401 0.0197377309935034 0 0.023375554043595401 0.0197377309935034 0 0.02365073622426353 0.019616507607821083 0 0.023549163522689889 0.019540074147002262 0 0.023375554043595401 0.0197377309935034 0 0.02359088997174881 0.019768034738632683 0 0.02365073622426353 0.019616507607821083 0 0.023375554043595401 0.0197377309935034 0 0.023320605210672335 0.019557180394835623 0 0.023549163522689889 0.019540074147002262 0 0.023375554043595401 0.0197377309935034 0 0.023320605210672335 0.019557180394835623 0 0.023108020804610593 0.019724417629776295 0 0.023969761812054166 0.019638837026685198 0 0.023869007939986697 0.019793852152111362 0 0.023767593907762521 0.019721716884924429 0 0.023969761812054166 0.019638837026685198 0 0.023767593907762521 0.019721716884924429 0 0.023843831599380628 0.019534332805417158 0 0.023869007939986697 0.019793852152111362 0 0.023688225655169575 0.019899209251919337 0 0.023767593907762521 0.019721716884924429 0 0.023767593907762521 0.019721716884924429 0 0.02359088997174881 0.019768034738632683 0 0.02365073622426353 0.019616507607821083 0 0.023688225655169575 0.019899209251919337 0 0.023767593907762521 0.019721716884924429 0 0.02359088997174881 0.019768034738632683 0 0.02365073622426353 0.019616507607821083 0 0.023843831599380628 0.019534332805417158 0 0.023777340442660808 0.019410036728241632 0 0.023767593907762521 0.019721716884924429 0 0.02365073622426353 0.019616507607821083 0 0.023843831599380628 0.019534332805417158 0 0.024019027081551098 0.019466241096445479 0 0.023969761812054166 0.019638837026685198 0 0.023843831599380628 0.019534332805417158 0 0.024019027081551098 0.019466241096445479 0 0.023843831599380628 0.019534332805417158 0 0.023959077941495106 0.019363137199182572 0 0.023843831599380628 0.019534332805417158 0 0.023959077941495106 0.019363137199182572 0 0.023777340442660808 0.019410036728241632 0 0.02365073622426353 0.019616507607821083 0 0.023777340442660808 0.019410036728241632 0 0.023549163522689889 0.019540074147002262 0 0.023777340442660808 0.019410036728241632 0 0.023549163522689889 0.019540074147002262 0 0.023611958263895311 0.019389206667058085 0 0.023777340442660808 0.019410036728241632 0 0.023902699045736192 0.019247557421572619 0 0.023611958263895311 0.019389206667058085 0 0.023693835480730761 0.019201538855041427 0 0.023902699045736192 0.019247557421572619 0 0.023611958263895311 0.019389206667058085 0 0.023959077941495106 0.019363137199182572 0 0.023777340442660808 0.019410036728241632 0 0.023902699045736192 0.019247557421572619 0 0.024076132800574166 0.019235419633410432 0 0.023959077941495106 0.019363137199182572 0 0.023902699045736192 0.019247557421572619 0 0.023320605210672335 0.019557180394835623 0 0.023017418034033378 0.019497016810166516 0 0.023108020804610593 0.019724417629776295 0 0.023320605210672335 0.019557180394835623 0 0.023549163522689889 0.019540074147002262 0 0.023611958263895311 0.019389206667058085 0 0.023320605210672335 0.019557180394835623 0 0.023611958263895311 0.019389206667058085 0 0.023408487029942967 0.019376377504139321 0 0.023693835480730761 0.019201538855041427 0 0.023611958263895311 0.019389206667058085 0 0.023408487029942967 0.019376377504139321 0 0.023320605210672335 0.019557180394835623 0 0.023408487029942967 0.019376377504139321 0 0.023017418034033378 0.019497016810166516 0 0.02339491883621871 0.019171864147423105 0 0.023408487029942967 0.019376377504139321 0 0.023017418034033378 0.019497016810166516 0 0.023017418034033378 0.019497016810166516 0 0.022717049847531284 0.019717977044844584 0 0.022372771177278115 0.019549293545778307 0 0.023017418034033378 0.019497016810166516 0 0.022717049847531284 0.019717977044844584 0 0.023108020804610593 0.019724417629776295 0 0.022372771177278115 0.019549293545778307 0 0.022409915881523253 0.019709311959799549 0 0.022315533802291607 0.019749392932206306 0 0.022717049847531284 0.019717977044844584 0 0.022372771177278115 0.019549293545778307 0 0.022409915881523253 0.019709311959799549 0 0.022717049847531284 0.019717977044844584 0 0.022409915881523253 0.019709311959799549 0 0.022653708831964839 0.019872627541107215 0 0.022409915881523253 0.019709311959799549 0 0.022653708831964839 0.019872627541107215 0 0.022483714643110834 0.019986110769114152 0 0.022717049847531284 0.019717977044844584 0 0.023108020804610593 0.019724417629776295 0 0.022920778285083938 0.019881270185425258 0 0.022717049847531284 0.019717977044844584 0 0.022653708831964839 0.019872627541107215 0 0.022920778285083938 0.019881270185425258 0 0.023197264686071049 0.01990124837410704 0 0.023108020804610593 0.019724417629776295 0 0.022920778285083938 0.019881270185425258 0 0.023197264686071049 0.01990124837410704 0 0.022920778285083938 0.019881270185425258 0 0.023015426027432246 0.020068857085438173 0 0.022920778285083938 0.019881270185425258 0 0.023015426027432246 0.020068857085438173 0 0.022736955748529242 0.020075165449594062 0 0.022653708831964839 0.019872627541107215 0 0.022920778285083938 0.019881270185425258 0 0.022736955748529242 0.020075165449594062 0 0.022736955748529242 0.020075165449594062 0 0.022530385213587235 0.020205938521832334 0 0.022483714643110834 0.019986110769114152 0 0.022653708831964839 0.019872627541107215 0 0.022736955748529242 0.020075165449594062 0 0.022483714643110834 0.019986110769114152 0 0.02249303943873808 0.02039172032406595 0 0.022853982570408299 0.020355880710257217 0 0.022530385213587235 0.020205938521832334 0 0.022736955748529242 0.020075165449594062 0 0.022853982570408299 0.020355880710257217 0 0.022530385213587235 0.020205938521832334 0 0.024211744414408074 0.009541471602500887 0 0.023567473825740572 0.014061109543937061 0 0.023567473825740572 0.014061109543937061 0 0.023030437940201418 0.016940822723810828 0 0.023451013506619954 0.012903733840093424 0 0.023390408983992576 0.013059969540339934 0 0.023451537193885749 0.012920589024565476 0 0.023015426027432246 0.020068857085438173 0 0.022736955748529242 0.020075165449594062 0 0.022853982570408299 0.020355880710257217 0 0.02325348746006398 0.020107206649841391 0 0.023015426027432246 0.020068857085438173 0 0.022853982570408299 0.020355880710257217 0 0.022312466045369263 0.020177072705982936 0 0.022168114542411164 0.02018453393476094 0 0.022228801947799463 0.020080460636240867 0 0.022312466045369263 0.020177072705982936 0 0.022391710159750101 0.020073714813981999 0 0.022228801947799463 0.020080460636240867 0 0.022238690442862811 0.020313052362658249 0 0.022312466045369263 0.020177072705982936 0 0.022168114542411164 0.02018453393476094 0 0.022312466045369263 0.020177072705982936 0 0.022530385213587235 0.020205938521832334 0 0.022391710159750101 0.020073714813981999 0 0.02249303943873808 0.02039172032406595 0 0.022312466045369263 0.020177072705982936 0 0.022530385213587235 0.020205938521832334 0 0.02249303943873808 0.02039172032406595 0 0.022238690442862811 0.020313052362658249 0 0.022312466045369263 0.020177072705982936 0 0.022530385213587235 0.020205938521832334 0 0.022391710159750101 0.020073714813981999 0 0.022483714643110834 0.019986110769114152 0 0.022391710159750101 0.020073714813981999 0 0.022483714643110834 0.019986110769114152 0 0.022305543863193607 0.019975745313721035 0 0.022483714643110834 0.019986110769114152 0 0.022305543863193607 0.019975745313721035 0 0.022342159414549288 0.019824457988262174 0 0.022305543863193607 0.019975745313721035 0 0.022225392618950447 0.019989820586735724 0 0.022260900327665846 0.019903469796643033 0 0.022305543863193607 0.019975745313721035 0 0.022228801947799463 0.020080460636240867 0 0.022225392618950447 0.019989820586735724 0 0.022391710159750101 0.020073714813981999 0 0.022305543863193607 0.019975745313721035 0 0.022228801947799463 0.020080460636240867 0 0.022228801947799463 0.020080460636240867 0 0.022225392618950447 0.019989820586735724 0 0.022104098120135831 0.020021775698768039 0 0.022168114542411164 0.02018453393476094 0 0.022228801947799463 0.020080460636240867 0 0.022104098120135831 0.020021775698768039 0 0.022225392618950447 0.019989820586735724 0 0.022260900327665846 0.019903469796643033 0 0.022104098120135831 0.020021775698768039 0 0.022260900327665846 0.019903469796643033 0 0.022308118859516831 0.019724099161669083 0 0.022104098120135831 0.020021775698768039 0 0.022260900327665846 0.019903469796643033 0 0.022342159414549288 0.019824457988262174 0 0.022308118859516831 0.019724099161669083 0 0.022046327676462165 0.02032112668484579 0 0.022453464593825721 0.020907319071820276 0 0.022043096899705551 0.020793052333568259 0 0.021334176878171771 0.022089363421262734 0 0.021549707755013338 0.020704307648275095 0 0.022305543863193607 0.019975745313721035 0 0.022260900327665846 0.019903469796643033 0 0.022342159414549288 0.019824457988262174 0 0.022342159414549288 0.019824457988262174 0 0.022341219992368638 0.019746895134851356 0 0.022308118859516831 0.019724099161669083 0 0.022409915881523253 0.019709311959799549 0 0.022483714643110834 0.019986110769114152 0 0.022342159414549288 0.019824457988262174 0 0.022409915881523253 0.019709311959799549 0 0.022342159414549288 0.019824457988262174 0 0.022341219992368638 0.019746895134851356 0 0.022323127604973857 0.019758080451747675 0 0.022308118859516831 0.019724099161669083 0 0.022318705425973848 0.019927456817234235 0 0.022409915881523253 0.019709311959799549 0 0.022323127604973857 0.019758080451747675 0 0.022315533802291607 0.019749392932206306 0 0.022409915881523253 0.019709311959799549 0 0.022341219992368638 0.019746895134851356 0 0.022323127604973857 0.019758080451747675 0 0.022341219992368638 0.019746895134851356 0 0.022323127604973857 0.019758080451747675 0 0.022308118859516831 0.019724099161669083 0 0.022043096899705551 0.020793052333568259 0 0.022025892235763071 0.020325403093179088 0 0.021549707755013338 0.020704307648275095 0 0.022046327676462165 0.02032112668484579 0 0.022349074688565371 0.019916188132007798 0 0.022043096899705551 0.020793052333568259 0 0.022025892235763071 0.020325403093179088 0 0.022318705425973848 0.019927456817234235 0 0.022025892235763071 0.020325403093179088 0 0.022142544043122415 0.019965221519287989 0 0.021549707755013338 0.020704307648275095 0 0.022025892235763071 0.020325403093179088 0 0.022142544043122415 0.019965221519287989 0 0.022318705425973848 0.019927456817234235 0 0.014345929923744059 0.023308291478785052 0 0.014784610080179516 0.023457556825244193 0 0.022142544043122415 0.019965221519287989 0 0.022264550299562723 0.02003660317906307 0 0.022359813850843777 0.020304236211686547 0 0.022142544043122415 0.019965221519287989 0 0.022264550299562723 0.02003660317906307 0 0.022318705425973848 0.019927456817234235 0 0.022264550299562723 0.02003660317906307 0 0.022318705425973848 0.019927456817234235 0 0.022315533802291607 0.019749392932206306 0 0.022323127604973857 0.019758080451747675 0 0.022318705425973848 0.019927456817234235 0 0.022315533802291607 0.019749392932206306 0 0.022372771177278115 0.019549293545778307 0 0.022315533802291607 0.019749392932206306 0 0.022110616771258813 0.019929627089676143 0 0.02339491883621871 0.019171864147423105 0 0.023017418034033378 0.019497016810166516 0 0.023047826047321553 0.018969226909716985 0 0.022385078575035869 0.019505722988917815 0 0.02235142789549123 0.019401931733245881 0 0.022372771177278115 0.019549293545778307 0 0.021802853670880761 0.019777734096011135 0 0.022110616771258813 0.019929627089676143 0 0.023017418034033378 0.019497016810166516 0 0.022372771177278115 0.019549293545778307 0 0.023047826047321553 0.018969226909716985 0 0.021802853670880761 0.019777734096011135 0 0.022110616771258813 0.019929627089676143 0 0.021774452114294397 0.020153029610088427 0 0.022264550299562723 0.02003660317906307 0 0.022315533802291607 0.019749392932206306 0 0.022110616771258813 0.019929627089676143 0 0.022110616771258813 0.019929627089676143 0 0.02203531212956631 0.020229745718860579 0 0.021774452114294397 0.020153029610088427 0 0.022264550299562723 0.02003660317906307 0 0.022110616771258813 0.019929627089676143 0 0.02203531212956631 0.020229745718860579 0 0.02203531212956631 0.020229745718860579 0 0.021774452114294397 0.020153029610088427 0 0.021755914390512852 0.020446744601357852 0 0.021479766432223331 0.020430734266763794 0 0.021774452114294397 0.020153029610088427 0 0.021755914390512852 0.020446744601357852 0 0.021755914390512852 0.020446744601357852 0 0.022112307334536615 0.020548826924199421 0 0.021778727824001486 0.020737411657632043 0 0.02203531212956631 0.020229745718860579 0 0.021755914390512852 0.020446744601357852 0 0.022112307334536615 0.020548826924199421 0 0.022112307334536615 0.020548826924199421 0 0.022359813850843777 0.020304236211686547 0 0.022199311193987041 0.020284314127811481 0 0.022112307334536615 0.020548826924199421 0 0.022359813850843777 0.020304236211686547 0 0.022328301773892011 0.020848137358924594 0 0.0067564027410902585 0.02712739667302266 0 0.0067808261823098159 0.027619039063756737 0 0.0071161433547040596 0.027479163114486286 0 0.014784610080179516 0.023457556825244193 0 0.012951544259194567 0.025241704539725771 0 0.022264550299562723 0.02003660317906307 0 0.02203531212956631 0.020229745718860579 0 0.022199311193987041 0.020284314127811481 0 0.022264550299562723 0.02003660317906307 0 0.022359813850843777 0.020304236211686547 0 0.022199311193987041 0.020284314127811481 0 0.02203531212956631 0.020229745718860579 0 0.022112307334536615 0.020548826924199421 0 0.022199311193987041 0.020284314127811481 0 0.015479533085510828 0.0258302890745595 0 0.015353963057509605 0.026432349771116876 0 0.01597806720925907 0.026119503809734993 0 0.015479533085510828 0.0258302890745595 0 0.01597806720925907 0.026119503809734993 0 0.016084064172302442 0.025577108074923447 0 0.0068054900549524792 0.0281629443354727 0 0.0068144328234365425 0.027772047846711993 0 0.0071385835394190602 0.028064930454524076 0 0.010875841618583357 0.027481253006550348 0 0.012951544259194567 0.025241704539725771 0 0.012951544259194567 0.025241704539725771 0 0.0045948803438219154 0.028649083649731504 0 0.022112307334536615 0.020548826924199421 0 0.022328301773892011 0.020848137358924594 0 0.022060902225345489 0.02106705780866213 0 0.012951544259194567 0.025241704539725771 0 0.020159655447230782 0.023109641104960478 0 0.022112307334536615 0.020548826924199421 0 0.021778727824001486 0.020737411657632043 0 0.022060902225345489 0.02106705780866213 0 0.021778727824001486 0.020737411657632043 0 0.021419659491545517 0.02106635970910908 0 0.021025610931080005 0.020859888349017634 0 0.021481228554759993 0.020690693415538277 0 0.021928990559478306 0.021164118689168145 0 0.021755914390512852 0.020446744601357852 0 0.021778727824001486 0.020737411657632043 0 0.021474070638617844 0.020800570684941764 0 0.021778727824001486 0.020737411657632043 0 0.021419659491545517 0.02106635970910908 0 0.021622653697941859 0.021413205856448753 0 0.021419659491545517 0.02106635970910908 0 0.021622653697941859 0.021413205856448753 0 0.021290221645119276 0.021491552557449427 0 0.020159655447230782 0.023109641104960478 0 0.018806944951812569 0.023735136202564712 0 0.021778727824001486 0.020737411657632043 0 0.022060902225345489 0.02106705780866213 0 0.021622653697941859 0.021413205856448753 0 0.01597806720925907 0.026119503809734993 0 0.016084064172302442 0.025577108074923447 0 0.016571991753237529 0.025811970015564446 0 0.016084064172302442 0.025577108074923447 0 0.016571991753237529 0.025811970015564446 0 0.016561064969619024 0.025402115559971735 0 0.018806944951812569 0.023735136202564712 0 0.019484460121993202 0.02365354771681211 0 0.016571991753237529 0.025811970015564446 0 0.016561064969619024 0.025402115559971735 0 0.01698384642274945 0.025523283771652312 0 0.016561064969619024 0.025402115559971735 0 0.016762611529944276 0.024990123856771348 0 0.016311755885505874 0.025085318718856407 0 0.016561064969619024 0.025402115559971735 0 0.016762611529944276 0.024990123856771348 0 0.01698384642274945 0.025523283771652312 0 0.016311755885505874 0.025085318718856407 0 0.015550802700320056 0.025292157922061569 0 0.015918093465098059 0.024945066943512003 0 0.016084064172302442 0.025577108074923447 0 0.016311755885505874 0.025085318718856407 0 0.01559406637547771 0.025236151567730881 0 0.017529948987250337 0.024693081035978049 0 0.012586843148976243 0.026497339223278706 0 0.016084064172302442 0.025577108074923447 0 0.016561064969619024 0.025402115559971735 0 0.016311755885505874 0.025085318718856407 0 0.010875841618583357 0.027481253006550348 0 0.012586843148976243 0.026497339223278706 0 0.015479533085510828 0.0258302890745595 0 0.016084064172302442 0.025577108074923447 0 0.01559406637547771 0.025236151567730881 0 0.0068054900549524792 0.0281629443354727 0 0.0068113666507140748 0.028460155951100734 0 0.0071371560012472362 0.028442759115367273 0 0.0068054900549524792 0.0281629443354727 0 0.0071385835394190602 0.028064930454524076 0 0.0071371560012472362 0.028442759115367273 0 0.01288820905641487 0.028234208982609244 0 0.012287660029501449 0.027545106781780716 0 0.011560544342715041 0.028541547589935025 0 0.012586843148976243 0.026497339223278706 0 0.0087175679196628119 0.028783251422429955 0 0.012287660029501449 0.027545106781780716 0 0.01242173923329235 0.026972567022380371 0 0.011889414935818483 0.02680653414526701 0 0.012287660029501449 0.027545106781780716 0 0.01242173923329235 0.026972567022380371 0 0.013097961943458736 0.027117859604722405 0 0.01288820905641487 0.028234208982609244 0 0.012287660029501449 0.027545106781780716 0 0.013097961943458736 0.027117859604722405 0 0.015550802700320056 0.025292157922061569 0 0.015703662980668793 0.024608575774426929 0 0.015918093465098059 0.024945066943512003 0 0.012586843148976243 0.026497339223278706 0 0.014594241660971837 0.025777637909149508 0 0.013097961943458736 0.027117859604722405 0 0.012575364341982703 0.026409544281657132 0 0.013307747723638888 0.026022112932241558 0 0.014594241660971837 0.025777637909149508 0 0.014112518876924024 0.025500268699893674 0 0.015703662980668793 0.024608575774426929 0 0.015826113805887405 0.023985419988028479 0 0.01610663202385345 0.024263488639222137 0 0.01242173923329235 0.026972567022380371 0 0.013097961943458736 0.027117859604722405 0 0.012575364341982703 0.026409544281657132 0 0.012402531475626361 0.026543698362093495 0 0.014112518876924024 0.025500268699893674 0 0.012402531475626361 0.026543698362093495 0 0.012031090115372341 0.026735051379503477 0 0.01242173923329235 0.026972567022380371 0 0.012575364341982703 0.026409544281657132 0 0.011889414935818483 0.02680653414526701 0 0.012569373067968835 0.026505041770536881 0 0.012178185661838819 0.026385546107251336 0 0.012495515895605495 0.026154451697577005 0 0.012569373067968835 0.026505041770536881 0 0.012178185661838819 0.026385546107251336 0 0.011889414935818483 0.02680653414526701 0 0.013006393370534389 0.026293467588277847 0 0.012747637848396474 0.025671420593728143 0 0.011912951282918378 0.026191438633845102 0 0.012178185661838819 0.026385546107251336 0 0.012495515895605495 0.026154451697577005 0 0.011912951282918378 0.026191438633845102 0 0.012652411216093885 0.026211358369538879 0 0.012058597201635202 0.026207828796262544 0 0.013006393370534389 0.026293467588277847 0 0.013327122155324733 0.025953115685343777 0 0.012747637848396474 0.025671420593728143 0 0.013006393370534389 0.026293467588277847 0 0.013887627985203906 0.02625178359387989 0 0.013327122155324733 0.025953115685343777 0 0.012495515895605495 0.026154451697577005 0 0.013207964762318003 0.026176455980159621 0 0.013219428902497783 0.02611553950429429 0 0.012569373067968835 0.026505041770536881 0 0.012495515895605495 0.026154451697577005 0 0.013207964762318003 0.026176455980159621 0 0.013960724667168948 0.026229843480353354 0 0.014085586440620763 0.026225481883567863 0 0.014163188169950788 0.025000046119795154 0 0.012652411216093885 0.026211358369538879 0 0.014032937418707092 0.025760251486545562 0 0.014112518876924024 0.025500268699893674 0 0.014032937418707092 0.025760251486545562 0 0.014032937418707092 0.025760251486545562 0 0.014662249872091497 0.025427983513971408 0 0.014013304274189372 0.025684744736267036 0 0.014040796871356296 0.025535112217511317 0 0.014321889298210672 0.025524671027540732 0 0.014112518876924024 0.025500268699893674 0 0.014662249872091497 0.025427983513971408 0 0.013887627985203906 0.02625178359387989 0 0.013327122155324733 0.025953115685343777 0 0.013442852149123687 0.02550575900676872 0 0.014032937418707092 0.025760251486545562 0 0.014163034576020481 0.02500097220604135 0 0.013887627985203906 0.02625178359387989 0 0.013442852149123687 0.02550575900676872 0 0.014163212444551869 0.024999966494884309 0 0.013442852149123687 0.02550575900676872 0 0.01277629792724732 0.024999866968308204 0 0.014163212444551869 0.024999966494884309 0 0.01277629792724732 0.024999866968308204 0 0.012747637848396474 0.025671420593728143 0 0.012037132407920436 0.025463694471895882 0 0.013442852149123687 0.02550575900676872 0 0.01277629792724732 0.024999866968308204 0 0.012747637848396474 0.025671420593728143 0 0.013327122155324733 0.025953115685343777 0 0.013442852149123687 0.02550575900676872 0 0.012747637848396474 0.025671420593728143 0 0.015124849637328748 0.025594405897575716 0 0.015871085878628847 0.02532798120305883 0 0.015309636175801783 0.025606898244803208 0 0.015972428687939307 0.025239091058410015 0 0.015905630125340877 0.025490317074190017 0 0.015265574282372222 0.025309719123160646 0 0.014813448311997643 0.025935115907415516 0 0.015972428687939307 0.025239091058410015 0 0.015265574282372222 0.025309719123160646 0 0.014621729228757761 0.025140505234959344 0 0.015657473587748133 0.024999721309500136 0 0.015265574282372222 0.025309719123160646 0 0.014621729228757761 0.025140505234959344 0 0.014813448311997643 0.025935115907415516 0 0.015265574282372222 0.025309719123160646 0 0.015972428687939307 0.025239091058410015 0 0.015657473587748133 0.024999721309500136 0 0.014621729228757761 0.025140505234959344 0 0.014163188169950788 0.025000046119795154 0 0.015657473587748133 0.024999721309500136 0 0.014085586440620763 0.026225481883567863 0 0.014621729228757761 0.025140505234959344 0 0.014163188169950788 0.025000046119795154 0 0.014085586440620763 0.026225481883567863 0 0.014621729228757761 0.025140505234959344 0 0.014824377718915512 0.025840512759473484 0 0.014692371994915829 0.025295232461900123 0 0.015124849637328748 0.025594405897575716 0 0.014662249872091497 0.025427983513971408 0 0.015874550871814202 0.024717560093355382 0 0.015907192564992272 0.02394306928074847 0 0.016398319343649669 0.023921218228069255 0 0.01610663202385345 0.024263488639222137 0 0.014791602383729117 0.02530641872653016 0 0.015398923424634423 0.024990664692587178 0 0.015483083378553614 0.025279314089282381 0 0.014662249872091497 0.025427983513971408 0 0.015124849637328748 0.025594405897575716 0 0.015826113805887405 0.023985419988028479 0 0.015907192564992272 0.02394306928074847 0 0.01610663202385345 0.024263488639222137 0 0.015309636175801783 0.025606898244803208 0 0.015593407913563593 0.025677391056496579 0 0.015905630125340877 0.025490317074190017 0 0.015364903012446933 0.025870209301981497 0 0.015786672872484649 0.025748167195491976 0 0.016234316983097408 0.025877689802870966 0 0.016659732467089784 0.024141736934457834 0 0.016914782612577426 0.024312568016297404 0 0.017158168271434886 0.02412212412251457 0 0.015874550871814202 0.024717560093355382 0 0.017708937855053761 0.024895086854915011 0 0.015364903012446933 0.025870209301981497 0 0.015593407913563593 0.025677391056496579 0 0.015786672872484649 0.025748167195491976 0 0.015309636175801783 0.025606898244803208 0 0.015364903012446933 0.025870209301981497 0 0.015593407913563593 0.025677391056496579 0 0.015124849637328748 0.025594405897575716 0 0.015874550871814202 0.024717560093355382 0 0.015593407913563593 0.025677391056496579 0 0.015786672872484649 0.025748167195491976 0 0.015905630125340877 0.025490317074190017 0 0.016659732467089784 0.024141736934457834 0 0.016914782612577426 0.024312568016297404 0 0.016780999479431173 0.024564034819149087 0 0.015874550871814202 0.024717560093355382 0 0.01669160521585315 0.024408591658726043 0 0.016914782612577426 0.024312568016297404 0 0.016780999479431173 0.024564034819149087 0 0.017009526583060063 0.024440686772393357 0 0.016398319343649669 0.023921218228069255 0 0.016572326107891375 0.024455022731461728 0 0.01610663202385345 0.024263488639222137 0 0.016572326107891375 0.024455022731461728 0 0.01610663202385345 0.024263488639222137 0 0.016229400277064755 0.024695443906511624 0 0.015703662980668793 0.024608575774426929 0 0.01610663202385345 0.024263488639222137 0 0.016229400277064755 0.024695443906511624 0 0.015703662980668793 0.024608575774426929 0 0.016229400277064755 0.024695443906511624 0 0.015918093465098059 0.024945066943512003 0 0.016311755885505874 0.025085318718856407 0 0.016229400277064755 0.024695443906511624 0 0.015918093465098059 0.024945066943512003 0 0.016762611529944276 0.024990123856771348 0 0.016572326107891375 0.024455022731461728 0 0.016229400277064755 0.024695443906511624 0 0.016762611529944276 0.024990123856771348 0 0.016311755885505874 0.025085318718856407 0 0.016229400277064755 0.024695443906511624 0 0.016890591638700245 0.02501563268709105 0 0.016780999479431173 0.024564034819149087 0 0.017182732026818397 0.024765257264952271 0 0.016834158983820728 0.025036992247614739 0 0.01669160521585315 0.024408591658726043 0 0.020482263709231618 0.023355680385573275 0 0.020452318901400288 0.023225498160777455 0 0.020660385913173884 0.023038824436700477 0 0.020482263709231618 0.023355680385573275 0 0.020660385913173884 0.023038824436700477 0 0.020690394000340048 0.023163905829118096 0 0.020896103589613298 0.023314905639427376 0 0.020482263709231618 0.023355680385573275 0 0.020690394000340048 0.023163905829118096 0 0.020896103589613298 0.023314905639427376 0 0.020482263709231618 0.023355680385573275 0 0.020234586407567361 0.024023647367462354 0 0.020482263709231618 0.023355680385573275 0 0.019980523129608577 0.02379731326441771 0 0.020452318901400288 0.023225498160777455 0 0.020482263709231618 0.023355680385573275 0 0.020234586407567361 0.024023647367462354 0 0.019980523129608577 0.02379731326441771 0 0.020234586407567361 0.024023647367462354 0 0.018814147680785265 0.025218619109478931 0 0.019980523129608577 0.02379731326441771 0 0.016780999479431173 0.024564034819149087 0 0.017182732026818397 0.024765257264952271 0 0.017009526583060063 0.024440686772393357 0 0.019169371689872493 0.024119793972564085 0 0.017708937855053761 0.024895086854915011 0 0.020896103589613298 0.023314905639427376 0 0.020234586407567361 0.024023647367462354 0 0.020942438680093857 0.025146517811091604 0 0.017182732026818397 0.024765257264952271 0 0.017009526583060063 0.024440686772393357 0 0.017158168271434886 0.02412212412251457 0 0.016914782612577426 0.024312568016297404 0 0.017009526583060063 0.024440686772393357 0 0.017158168271434886 0.02412212412251457 0 0.015786672872484649 0.025748167195491976 0 0.016044466290290885 0.025690166090411134 0 0.016234316983097408 0.025877689802870966 0 0.016044466290290885 0.025690166090411134 0 0.016266697039892999 0.025620983918767066 0 0.016234316983097408 0.025877689802870966 0 0.016044466290290885 0.025690166090411134 0 0.016266697039892999 0.025620983918767066 0 0.015905630125340877 0.025490317074190017 0 0.015786672872484649 0.025748167195491976 0 0.016044466290290885 0.025690166090411134 0 0.015905630125340877 0.025490317074190017 0 0.016266697039892999 0.025620983918767066 0 0.017111359945341627 0.025397541146577926 0 0.016397476301918155 0.025341195029201912 0 0.016266697039892999 0.025620983918767066 0 0.016230842374321416 0.026295495765812645 0 0.017111359945341627 0.025397541146577926 0 0.017264243275992259 0.025558030040728406 0 0.017708937855053761 0.024895086854915011 0 0.017708937855053761 0.024895086854915011 0 0.019051969822559911 0.025442507007950761 0 0.016230842374321416 0.026295495765812645 0 0.018814147680785265 0.025218619109478931 0 0.017111359945341627 0.025397541146577926 0 0.020234586407567361 0.024023647367462354 0 0.020942438680093857 0.025146517811091604 0 0.018814147680785265 0.025218619109478931 0 0.018814147680785265 0.025218619109478931 0 0.017111359945341627 0.025397541146577926 0 0.016850835295067517 0.025098537116864994 0 0.018814147680785265 0.025218619109478931 0 0.01715335012188568 0.024999361977838738 0 0.016850835295067517 0.025098537116864994 0 0.01715335012188568 0.024999361977838738 0 0.016850835295067517 0.025098537116864994 0 0.015657473587748133 0.024999721309500136 0 0.016850835295067517 0.025098537116864994 0 0.015972428687939307 0.025239091058410015 0 0.015657473587748133 0.024999721309500136 0 0.016266697039892999 0.025620983918767066 0 0.015905630125340877 0.025490317074190017 0 0.016397476301918155 0.025341195029201912 0 0.015972428687939307 0.025239091058410015 0 0.015905630125340877 0.025490317074190017 0 0.016397476301918155 0.025341195029201912 0 0.017111359945341627 0.025397541146577926 0 0.016850835295067517 0.025098537116864994 0 0.016397476301918155 0.025341195029201912 0 0.016850835295067517 0.025098537116864994 0 0.015972428687939307 0.025239091058410015 0 0.016397476301918155 0.025341195029201912 0 0.018646613311498014 0.024998777265169851 0 0.018527073585145538 0.024999489049184538 0 0.019489374287222156 0.024612486009953829 0 0.018814147680785265 0.025218619109478931 0 0.01715335012188568 0.024999361977838738 0 0.018527073585145538 0.024999489049184538 0 0.01715335012188568 0.024999361977838738 0 0.018646613311498014 0.024998777265169851 0 0.018527073585145538 0.024999489049184538 0 0.018814147680785265 0.025218619109478931 0 0.019465986818118487 0.024482808533337772 0 0.01967333161322074 0.024196308466748744 0 0.018814147680785265 0.025218619109478931 0 0.018527073585145538 0.024999489049184538 0 0.019465986818118487 0.024482808533337772 0 0.018527073585145538 0.024999489049184538 0 0.019465986818118487 0.024482808533337772 0 0.019489374287222156 0.024612486009953829 0 0.019465986818118487 0.024482808533337772 0 0.020251241379078196 0.023596433061948079 0 0.020001811046972569 0.024136957272623265 0 0.019465986818118487 0.024482808533337772 0 0.01967333161322074 0.024196308466748744 0 0.020251241379078196 0.023596433061948079 0 0.018814147680785265 0.025218619109478931 0 0.01967333161322074 0.024196308466748744 0 0.019980523129608577 0.02379731326441771 0 0.01967333161322074 0.024196308466748744 0 0.019980523129608577 0.02379731326441771 0 0.020251241379078196 0.023596433061948079 0 0.020452318901400288 0.023225498160777455 0 0.020251241379078196 0.023596433061948079 0 0.020725342846037935 0.022984904796120208 0 0.019980523129608577 0.02379731326441771 0 0.020452318901400288 0.023225498160777455 0 0.020251241379078196 0.023596433061948079 0 0.020251241379078196 0.023596433061948079 0 0.020936190752751067 0.022939983946595476 0 0.020725342846037935 0.022984904796120208 0 0.020936190752751067 0.022939983946595476 0 0.021119993555424044 0.022651670855332331 0 0.021607978828886012 0.022520781560218889 0 0.020936190752751067 0.022939983946595476 0 0.021119993555424044 0.022651670855332331 0 0.020725342846037935 0.022984904796120208 0 0.021119993555424044 0.022651670855332331 0 0.021842945825605378 0.022415329507713213 0 0.021607978828886012 0.022520781560218889 0 0.021119993555424044 0.022651670855332331 0 0.020743754045897744 0.022884095167888929 0 0.020818806960240858 0.022866240173193407 0 0.021119993555424044 0.022651670855332331 0 0.020818806960240858 0.022866240173193407 0 0.021033049325877132 0.022885395382182143 0 0.021119993555424044 0.022651670855332331 0 0.020743754045897744 0.022884095167888929 0 0.020725342846037935 0.022984904796120208 0 0.020452318901400288 0.023225498160777455 0 0.020743754045897744 0.022884095167888929 0 0.020725342846037935 0.022984904796120208 0 0.020452318901400288 0.023225498160777455 0 0.020743754045897744 0.022884095167888929 0 0.020660385913173884 0.023038824436700477 0 0.020660385913173884 0.023038824436700477 0 0.020690394000340048 0.023163905829118096 0 0.020744213019231808 0.023008414864295577 0 0.020660385913173884 0.023038824436700477 0 0.020744213019231808 0.023008414864295577 0 0.020739821012306103 0.022902905500650654 0 0.020744213019231808 0.023008414864295577 0 0.020759990478216476 0.022897745218090095 0 0.020739821012306103 0.022902905500650654 0 0.020743754045897744 0.022884095167888929 0 0.020660385913173884 0.023038824436700477 0 0.020739821012306103 0.022902905500650654 0 0.019169371689872493 0.024119793972564085 0 0.019484460121993202 0.02365354771681211 0 0.016890591638700245 0.02501563268709105 0 0.017087341507841282 0.025256155536671827 0 0.01698384642274945 0.025523283771652312 0 0.017182732026818397 0.024765257264952271 0 0.017087341507841282 0.025256155536671827 0 0.017174993115652539 0.025483957134270284 0 0.020896103589613298 0.023314905639427376 0 0.020744213019231808 0.023008414864295577 0 0.020786816253741042 0.022867105039654608 0 0.020896103589613298 0.023314905639427376 0 0.020690394000340048 0.023163905829118096 0 0.020744213019231808 0.023008414864295577 0 0.016834158983820728 0.025036992247614739 0 0.016968875932341757 0.025477479273735466 0 0.016890591638700245 0.02501563268709105 0 0.017182732026818397 0.024765257264952271 0 0.017087341507841282 0.025256155536671827 0 0.021622653697941859 0.021413205856448753 0 0.02105099830818824 0.0217627743475057 0 0.021290221645119276 0.021491552557449427 0 0.016571991753237529 0.025811970015564446 0 0.01698384642274945 0.025523283771652312 0 0.017174993115652539 0.025483957134270284 0 0.017087341507841282 0.025256155536671827 0 0.01698384642274945 0.025523283771652312 0 0.017174993115652539 0.025483957134270284 0 0.020786816253741042 0.022867105039654608 0 0.020759990478216476 0.022897745218090095 0 0.020769825881861763 0.022888182382754356 0 0.020744213019231808 0.023008414864295577 0 0.020786816253741042 0.022867105039654608 0 0.020759990478216476 0.022897745218090095 0 0.020743754045897744 0.022884095167888929 0 0.020739821012306103 0.022902905500650654 0 0.020818806960240858 0.022866240173193407 0 0.020759990478216476 0.022897745218090095 0 0.020739821012306103 0.022902905500650654 0 0.020769825881861763 0.022888182382754356 0 0.020786816253741042 0.022867105039654608 0 0.020769825881861763 0.022888182382754356 0 0.020769454924624217 0.022927585892006101 0 0.020769825881861763 0.022888182382754356 0 0.020818806960240858 0.022866240173193407 0 0.020769454924624217 0.022927585892006101 0 0.020739821012306103 0.022902905500650654 0 0.020769825881861763 0.022888182382754356 0 0.020818806960240858 0.022866240173193407 0 0.020769454924624217 0.022927585892006101 0 0.020730914649252041 0.022996643419784982 0 0.020871709800431893 0.023042147264250787 0 0.020818806960240858 0.022866240173193407 0 0.020769454924624217 0.022927585892006101 0 0.020871709800431893 0.023042147264250787 0 0.020786816253741042 0.022867105039654608 0 0.020769454924624217 0.022927585892006101 0 0.020730914649252041 0.022996643419784982 0 0.02105099830818824 0.0217627743475057 0 0.021290221645119276 0.021491552557449427 0 0.021025610931080005 0.020859888349017634 0 0.021419659491545517 0.02106635970910908 0 0.021290221645119276 0.021491552557449427 0 0.021025610931080005 0.020859888349017634 0 0.019484460121993202 0.02365354771681211 0 0.021928990559478306 0.021164118689168145 0 0.021928990559478306 0.021164118689168145 0 0.022427275320084723 0.022288224562329255 0 0.023881306641729317 0.021202870176076076 0 0.024047907137544192 0.021337470429198188 0 0.023824884709478703 0.021394602083818253 0 0.023881306641729317 0.021202870176076076 0 0.023688944127086008 0.021278521939614305 0 0.023824884709478703 0.021394602083818253 0 0.023688944127086008 0.021278521939614305 0 0.02366442473098403 0.021514604432217862 0 0.023824884709478703 0.021394602083818253 0 0.023498087100129926 0.021161080254221185 0 0.023688944127086008 0.021278521939614305 0 0.023427676444808997 0.021268374542639461 0 0.023688944127086008 0.021278521939614305 0 0.02366442473098403 0.021514604432217862 0 0.023427676444808997 0.021268374542639461 0 0.021119993555424044 0.022651670855332331 0 0.021367168008747141 0.02299070140087793 0 0.021842945825605378 0.022415329507713213 0 0.021119993555424044 0.022651670855332331 0 0.021367168008747141 0.02299070140087793 0 0.021033049325877132 0.022885395382182143 0 0.021367168008747141 0.02299070140087793 0 0.021033049325877132 0.022885395382182143 0 0.020871709800431893 0.023042147264250787 0 0.020818806960240858 0.022866240173193407 0 0.021033049325877132 0.022885395382182143 0 0.020871709800431893 0.023042147264250787 0 0.022478978300779724 0.02221550326590338 0 0.022427275320084723 0.022288224562329255 0 0.022805749115845379 0.021973950091485304 0 0.02333516968322832 0.021089547499743344 0 0.023016433215934579 0.021512399688499686 0 0.022805749115845379 0.021973950091485304 0 0.023016433215934579 0.021512399688499686 0 0.022450359985646942 0.022071213198947632 0 0.022805749115845379 0.021973950091485304 0 0.023440535453653492 0.021089394820733375 0 0.02333516968322832 0.021089547499743344 0 0.021367168008747141 0.02299070140087793 0 0.022805749115845379 0.021973950091485304 0 0.021842945825605378 0.022415329507713213 0 0.022478978300779724 0.02221550326590338 0 0.022727266258750049 0.022048335870484787 0 0.02366442473098403 0.021514604432217862 0 0.022805749115845379 0.021973950091485304 0 0.023427676444808997 0.021268374542639461 0 0.022805749115845379 0.021973950091485304 0 0.022450359985646942 0.022071213198947632 0 0.021842945825605378 0.022415329507713213 0 0.023990699372077103 0.020467081454470595 0 0.023458965042314203 0.021050079512508264 0 0.022805749115845379 0.021973950091485304 0 0.023427676444808997 0.021268374542639461 0 0.023440535453653492 0.021089394820733375 0 0.023498087100129926 0.021161080254221185 0 0.023427676444808997 0.021268374542639461 0 0.023440535453653492 0.021089394820733375 0 0.023928792814611445 0.019893757139436721 0 0.023440535453653492 0.021089394820733375 0 0.023651178194310039 0.020454435430583621 0 0.023440535453653492 0.021089394820733375 0 0.023651178194310039 0.020454435430583621 0 0.02333516968322832 0.021089547499743344 0 0.023651178194310039 0.020454435430583621 0 0.02333516968322832 0.021089547499743344 0 0.023854041000253047 0.020302299864650146 0 0.02333516968322832 0.021089547499743344 0 0.023854041000253047 0.020302299864650146 0 0.023633275034038333 0.020987477799957469 0 0.024413177191471038 0.019575644543014043 0 0.023854041000253047 0.020302299864650146 0 0.024218014648529386 0.02042435125382374 0 0.023854041000253047 0.020302299864650146 0 0.023633275034038333 0.020987477799957469 0 0.024218014648529386 0.02042435125382374 0 0.023633275034038333 0.020987477799957469 0 0.023016433215934579 0.021512399688499686 0 0.023443605719272904 0.021388081088322304 0 0.02333516968322832 0.021089547499743344 0 0.023633275034038333 0.020987477799957469 0 0.023016433215934579 0.021512399688499686 0 0.023016433215934579 0.021512399688499686 0 0.022462325851879728 0.021951641165492249 0 0.023443605719272904 0.021388081088322304 0 0.023016433215934579 0.021512399688499686 0 0.022462325851879728 0.021951641165492249 0 0.022450359985646942 0.022071213198947632 0 0.023633275034038333 0.020987477799957469 0 0.023443605719272904 0.021388081088322304 0 0.024223575405031322 0.02096579760746612 0 0.023357159818307851 0.021613113618764158 0 0.023085011904660526 0.022240387287055987 0 0.023443605719272904 0.021388081088322304 0 0.021853208015579467 0.022442860871686458 0 0.021318534795408212 0.022682876574800125 0 0.022462325851879728 0.021951641165492249 0 0.023443605719272904 0.021388081088322304 0 0.021853208015579467 0.022442860871686458 0 0.022462325851879728 0.021951641165492249 0 0.021853208015579467 0.022442860871686458 0 0.021864559975041085 0.022444767523729738 0 0.021853208015579467 0.022442860871686458 0 0.021864559975041085 0.022444767523729738 0 0.021324279047721821 0.022966152105129711 0 0.021864559975041085 0.022444767523729738 0 0.02110896402094194 0.022990881899262964 0 0.021324279047721821 0.022966152105129711 0 0.022462325851879728 0.021951641165492249 0 0.021864559975041085 0.022444767523729738 0 0.022450359985646942 0.022071213198947632 0 0.021864559975041085 0.022444767523729738 0 0.022450359985646942 0.022071213198947632 0 0.021607978828886012 0.022520781560218889 0 0.022450359985646942 0.022071213198947632 0 0.021842945825605378 0.022415329507713213 0 0.021607978828886012 0.022520781560218889 0 0.020936190752751067 0.022939983946595476 0 0.021607978828886012 0.022520781560218889 0 0.02110896402094194 0.022990881899262964 0 0.021864559975041085 0.022444767523729738 0 0.021607978828886012 0.022520781560218889 0 0.02110896402094194 0.022990881899262964 0 0.020251241379078196 0.023596433061948079 0 0.020936190752751067 0.022939983946595476 0 0.02110896402094194 0.022990881899262964 0 0.020251241379078196 0.023596433061948079 0 0.02110896402094194 0.022990881899262964 0 0.020644715992537463 0.023592977261931991 0 0.02110896402094194 0.022990881899262964 0 0.021324279047721821 0.022966152105129711 0 0.020644715992537463 0.023592977261931991 0 0.021324279047721821 0.022966152105129711 0 0.020644715992537463 0.023592977261931991 0 0.021049815970343923 0.023382428226325733 0 0.020644715992537463 0.023592977261931991 0 0.020140196406698244 0.024169283499939045 0 0.02056040957010475 0.023845578028375742 0 0.020644715992537463 0.023592977261931991 0 0.02056040957010475 0.023845578028375742 0 0.021049815970343923 0.023382428226325733 0 0.020251241379078196 0.023596433061948079 0 0.020644715992537463 0.023592977261931991 0 0.020001811046972569 0.024136957272623265 0 0.020644715992537463 0.023592977261931991 0 0.020001811046972569 0.024136957272623265 0 0.020140196406698244 0.024169283499939045 0 0.019465986818118487 0.024482808533337772 0 0.020001811046972569 0.024136957272623265 0 0.019489374287222156 0.024612486009953829 0 0.020140196406698244 0.024169283499939045 0 0.019879473613469364 0.0244164791615104 0 0.019489374287222156 0.024612486009953829 0 0.020001811046972569 0.024136957272623265 0 0.020140196406698244 0.024169283499939045 0 0.019489374287222156 0.024612486009953829 0 0.020140196406698244 0.024169283499939045 0 0.02056040957010475 0.023845578028375742 0 0.020288098582838365 0.024159162133543906 0 0.020140196406698244 0.024169283499939045 0 0.020288098582838365 0.024159162133543906 0 0.019879473613469364 0.0244164791615104 0 0.019879473613469364 0.0244164791615104 0 0.019354672696762495 0.024945472543507121 0 0.020334212843914477 0.024057537827827078 0 0.020139090830532388 0.024999744371208853 0 0.019354672696762495 0.024945472543507121 0 0.020473296096673973 0.025286556342161027 0 0.01963457769808357 0.024871850454290502 0 0.020111661077643103 0.02475693112219569 0 0.020288098582838365 0.024159162133543906 0 0.019879473613469364 0.0244164791615104 0 0.020334212843914477 0.024057537827827078 0 0.018646613311498014 0.024998777265169851 0 0.020139090830532388 0.024999744371208853 0 0.019354672696762495 0.024945472543507121 0 0.018646613311498014 0.024998777265169851 0 0.019354672696762495 0.024945472543507121 0 0.019489374287222156 0.024612486009953829 0 0.019879473613469364 0.0244164791615104 0 0.019354672696762495 0.024945472543507121 0 0.019489374287222156 0.024612486009953829 0 0.021625417313420908 0.025489710538068772 0 0.021633433661615246 0.025000122660958475 0 0.020473296096673973 0.025286556342161027 0 0.022461110207709311 0.024084136378594714 0 0.02163387300329828 0.025000441932535748 0 0.020139090830532388 0.024999744371208853 0 0.021633433661615246 0.025000122660958475 0 0.020473296096673973 0.025286556342161027 0 0.020477510220375097 0.024016883932029449 0 0.020334212843914477 0.024057537827827078 0 0.020534062962543575 0.023977173871833044 0 0.020288098582838365 0.024159162133543906 0 0.020334212843914477 0.024057537827827078 0 0.020534062962543575 0.023977173871833044 0 0.022461110207709311 0.024084136378594714 0 0.020111661077643103 0.02475693112219569 0 0.02056040957010475 0.023845578028375742 0 0.020288098582838365 0.024159162133543906 0 0.020534062962543575 0.023977173871833044 0 0.020477510220375097 0.024016883932029449 0 0.020534062962543575 0.023977173871833044 0 0.020565274742076971 0.023672460671372741 0 0.025402164647121927 0.023168769785391417 0 0.025374145401902647 0.02243282775315282 0 0.025104729755945656 0.022805548785350314 0 0.022461110207709311 0.024084136378594714 0 0.023019666416964443 0.022959158124016422 0 0.023019666416964443 0.022959158124016422 0 0.023085011904660526 0.022240387287055987 0 0.020565274742076971 0.023672460671372741 0 0.021049815970343923 0.023382428226325733 0 0.021318534795408212 0.022682876574800125 0 0.025374145401902647 0.02243282775315282 0 0.024788363994445315 0.021491492797014584 0 0.02499245587836476 0.022247026605000175 0 0.020534062962543575 0.023977173871833044 0 0.020565274742076971 0.023672460671372741 0 0.021049815970343923 0.023382428226325733 0 0.02056040957010475 0.023845578028375742 0 0.020534062962543575 0.023977173871833044 0 0.021049815970343923 0.023382428226325733 0 0.021853208015579467 0.022442860871686458 0 0.021049815970343923 0.023382428226325733 0 0.021318534795408212 0.022682876574800125 0 0.021853208015579467 0.022442860871686458 0 0.021324279047721821 0.022966152105129711 0 0.021049815970343923 0.023382428226325733 0 0.021634801745102749 0.024999883992215734 0 0.023230268567552177 0.025287809351436593 0 0.025000132005842494 0.024997936230530045 0 0.024788363994445315 0.021491492797014584 0 0.024873719171012013 0.021768527747903853 0 0.02499245587836476 0.022247026605000175 0 0.024873719171012013 0.021768527747903853 0 0.024875124064493676 0.022360305930686691 0 0.024994033987138068 0.02225470687802817 0 0.024873719171012013 0.021768527747903853 0 0.024875124064493676 0.022360305930686691 0 0.02499245587836476 0.022247026605000175 0 0.024875124064493676 0.022360305930686691 0 0.02499245587836476 0.022247026605000175 0 0.024898617738637625 0.022895530566396424 0 0.025374145401902647 0.02243282775315282 0 0.02499245587836476 0.022247026605000175 0 0.025104729755945656 0.022805548785350314 0 0.025402164647121927 0.023168769785391417 0 0.025104729755945656 0.022805548785350314 0 0.024844614446258042 0.02316140966111678 0 0.02499245587836476 0.022247026605000175 0 0.025104729755945656 0.022805548785350314 0 0.024898617738637625 0.022895530566396424 0 0.024990756987476631 0.023017178622773339 0 0.024843908832951428 0.023244788525934975 0 0.024898617738637625 0.022895530566396424 0 0.024844614446258042 0.02316140966111678 0 0.024811216870782724 0.023975049609164828 0 0.024875124064493676 0.022360305930686691 0 0.024898617738637625 0.022895530566396424 0 0.024891983439478529 0.022625921051989805 0 0.025104729755945656 0.022805548785350314 0 0.024898617738637625 0.022895530566396424 0 0.024844614446258042 0.02316140966111678 0 0.022461110207709311 0.024084136378594714 0 0.024233561547782816 0.024283346360201349 0 0.021669249965989752 0.025418664009917064 0 0.021634801745102749 0.024999883992215734 0 0.023230268567552177 0.025287809351436593 0 0.023230268567552177 0.025287809351436593 0 0.025000132005842494 0.024997936230530045 0 0.024699330293240517 0.024411841836836874 0 0.025000132005842494 0.024997936230530045 0 0.024699330293240517 0.024411841836836874 0 0.024998190556190018 0.023344285420955922 0 0.024844614446258042 0.02316140966111678 0 0.024811216870782724 0.023975049609164828 0 0.024699330293240517 0.024411841836836874 0 0.024233561547782816 0.024283346360201349 0 0.02443092114372844 0.024345404811364362 0 0.024843908832951428 0.023244788525934975 0 0.024999654733927925 0.023340929748530168 0 0.024811216870782724 0.023975049609164828 0 0.024699330293240517 0.024411841836836874 0 0.024998190556190018 0.023344285420955922 0 0.024891983439478529 0.022625921051989805 0 0.024999484696344183 0.023338753580270991 0 0.024994033987138068 0.02225470687802817 0 0.024875124064493676 0.022360305930686691 0 0.024891983439478529 0.022625921051989805 0 0.024994033987138068 0.02225470687802817 0 0.024873719171012013 0.021768527747903853 0 0.024994033987138068 0.02225470687802817 0 0.024985702269678611 0.02117288413257579 0 0.024999484696344183 0.023338753580270991 0 0.024994033987138068 0.02225470687802817 0 0.024999373151562677 0.02198575919055662 0 0.024994033987138068 0.02225470687802817 0 0.024999373151562677 0.02198575919055662 0 0.024985702269678611 0.02117288413257579 0 0.024999373151562677 0.02198575919055662 0 0.024999386093907578 0.020630292171074004 0 0.024985702269678611 0.02117288413257579 0 0.024999386093907578 0.020630292171074004 0 0.024985702269678611 0.02117288413257579 0 0.024979907238552108 0.02021463535113515 0 0.024985702269678611 0.02117288413257579 0 0.024736027522742378 0.020489953199069291 0 0.024979907238552108 0.02021463535113515 0 0.024873719171012013 0.021768527747903853 0 0.024985702269678611 0.02117288413257579 0 0.02466313191526897 0.021149001461359142 0 0.024788363994445315 0.021491492797014584 0 0.024873719171012013 0.021768527747903853 0 0.02466313191526897 0.021149001461359142 0 0.023443605719272904 0.021388081088322304 0 0.024788363994445315 0.021491492797014584 0 0.02466313191526897 0.021149001461359142 0 0.023443605719272904 0.021388081088322304 0 0.02466313191526897 0.021149001461359142 0 0.024223575405031322 0.02096579760746612 0 0.024985702269678611 0.02117288413257579 0 0.02466313191526897 0.021149001461359142 0 0.024736027522742378 0.020489953199069291 0 0.02466313191526897 0.021149001461359142 0 0.024223575405031322 0.02096579760746612 0 0.024736027522742378 0.020489953199069291 0 0.024223575405031322 0.02096579760746612 0 0.024736027522742378 0.020489953199069291 0 0.024218014648529386 0.02042435125382374 0 0.023633275034038333 0.020987477799957469 0 0.024223575405031322 0.02096579760746612 0 0.024218014648529386 0.02042435125382374 0 0.024413177191471038 0.019575644543014043 0 0.024218014648529386 0.02042435125382374 0 0.024695782235419121 0.019612052671101412 0 0.024736027522742378 0.020489953199069291 0 0.024695782235419121 0.019612052671101412 0 0.024959552720434878 0.019392225440839843 0 0.024736027522742378 0.020489953199069291 0 0.024218014648529386 0.02042435125382374 0 0.024695782235419121 0.019612052671101412 0 0.024959552720434878 0.019392225440839843 0 0.024999310384680094 0.019275371015748666 0 0.024979907238552108 0.02021463535113515 0 0.024999386093907578 0.020630292171074004 0 0.024999310384680094 0.019275371015748666 0 0.024979907238552108 0.02021463535113515 0 0.024736027522742378 0.020489953199069291 0 0.024959552720434878 0.019392225440839843 0 0.024979907238552108 0.02021463535113515 0 0.006643372356201758 0.027337679331339397 0 0.0058616751800772823 0.028016366716105925 0 0.0052326905802553957 0.028426732188652666 0 0.0052104086995156075 0.028541437917079419 0 0.0051875728680128843 0.028555462050341818 0 0.0079638217345714378 0.026363778730980093 0 0.0066160855687179745 0.025680594171090244 0 0.0065489326330157478 0.02747638637921105 0 0.0079638217345714378 0.026363778730980093 0 0.0066160855687179745 0.025680594171090244 0 0.0083388238452339458 0.024473684213206292 0 0.0066160855687179745 0.025680594171090244 0 0.0051655326032994942 0.02600897608379223 0 0.0056893789260011492 0.027088231060390003 0 0.0066160855687179745 0.025680594171090244 0 0.0051655326032994942 0.02600897608379223 0 0.0055052600570192692 0.024242797351945757 0 0.0095341017022933794 0.026937504684604079 0 0.0089126577096894435 0.027251934709868524 0 0.00884707299460483 0.026874877198661839 0 0.0095341017022933794 0.026937504684604079 0 0.0089463483087881997 0.026459472202380301 0 0.00884707299460483 0.026874877198661839 0 0.0089126577096894435 0.027251934709868524 0 0.0092431082291083988 0.027983517923995022 0 0.0087241846605769762 0.027900007282041631 0 0.0051655326032994942 0.02600897608379223 0 0.0056893789260011492 0.027088231060390003 0 0.0049817720931997281 0.027768469171046563 0 0.0073593435118945328 0.026453678538681909 0 0.0070931263850459222 0.027933302796482498 0 0.0095341017022933794 0.026937504684604079 0 0.0089126577096894435 0.027251934709868524 0 0.0092431082291083988 0.027983517923995022 0 0.0066160855687179745 0.025680594171090244 0 0.0056893789260011492 0.027088231060390003 0 0.0065489326330157478 0.02747638637921105 0 0.005315010901204233 0.028420292613720043 0 0.005259481352848319 0.028572233418486786 0 0.0052104086995156075 0.028541437917079419 0 0.0056893789260011492 0.027088231060390003 0 0.005315010901204233 0.028420292613720043 0 0.0065489326330157478 0.02747638637921105 0 0.0053477228963773145 0.028397527413180336 0 0.0058616751800772823 0.028016366716105925 0 0.0049817720931997281 0.027768469171046563 0 0.005315010901204233 0.028420292613720043 0 0.0052530459365075612 0.028699019794463747 0 0.0070931263850459222 0.027933302796482498 0 0.0073951535244315154 0.028389465622569374 0 0.0056893789260011492 0.027088231060390003 0 0.0049817720931997281 0.027768469171046563 0 0.005315010901204233 0.028420292613720043 0 0.0092431082291083988 0.027983517923995022 0 0.0089788464773480157 0.028932451750386574 0 0.0087241846605769762 0.027900007282041631 0 0.005315010901204233 0.028420292613720043 0 0.0053550463700527042 0.028590389754123254 0 0.0052530459365075612 0.028699019794463747 0 0.0053550463700527042 0.028590389754123254 0 0.0052530459365075612 0.028699019794463747 0 0.0054276494432472719 0.028607443491901724 0 0.0073951535244315154 0.028389465622569374 0 0.007427288151007602 0.028120065824444315 0 0.0074470678073248727 0.027895709477201679 0 0.0074671818397032833 0.027884492158137472 0 0.0073109571217525706 0.02792188844615372 0 0.005259481352848319 0.028572233418486786 0 0.0053444967924301846 0.028618385971325936 0 0.0051261481177030561 0.028731095149093614 0 0.005315010901204233 0.028420292613720043 0 0.0053550463700527042 0.028590389754123254 0 0.005259481352848319 0.028572233418486786 0 0.0053550463700527042 0.028590389754123254 0 0.005259481352848319 0.028572233418486786 0 0.0053444967924301846 0.028618385971325936 0 0.0053550463700527042 0.028590389754123254 0 0.0053444967924301846 0.028618385971325936 0 0.0054276494432472719 0.028607443491901724 0 0.005259481352848319 0.028572233418486786 0 0.0051261481177030561 0.028731095149093614 0 0.0051875728680128843 0.028555462050341818 0 0.005259481352848319 0.028572233418486786 0 0.0052104086995156075 0.028541437917079419 0 0.0051875728680128843 0.028555462050341818 0 0.0052326905802553957 0.028426732188652666 0 0.0051875728680128843 0.028555462050341818 0 0.0051910097628392595 0.028493238390209601 0 0.0051261481177030561 0.028731095149093614 0 0.0051875728680128843 0.028555462050341818 0 0.0051995107495501824 0.028625783860227197 0 0.0051875728680128843 0.028555462050341818 0 0.0051910097628392595 0.028493238390209601 0 0.0051995107495501824 0.028625783860227197 0 0.0052245677919836456 0.028562037883082279 0 0.0051910097628392595 0.028493238390209601 0 0.0051995107495501824 0.028625783860227197 0 0.0052245677919836456 0.028562037883082279 0 0.0052662809109874347 0.028530263055430334 0 0.0051910097628392595 0.028493238390209601 0 0.0052245677919836456 0.028562037883082279 0 0.0052662809109874347 0.028530263055430334 0 0.0052294835260034631 0.028586498913798226 0 0.0052662809109874347 0.028530263055430334 0 0.0051910097628392595 0.028493238390209601 0 0.0051591204325311989 0.028324893138880723 0 0.0048546663069375263 0.027413337594131379 0 0.004638090576294677 0.027995936727500597 0 0.0051591204325311989 0.028324893138880723 0 0.0053488749714974198 0.027869384640530161 0 0.0050746235286511232 0.028331401325173037 0 0.0042941186762555945 0.027150402598084468 0 0.0041734688808968334 0.026784325331861463 0 0.0036702171326286745 0.027174035596369692 0 0.0042941186762555945 0.027150402598084468 0 0.0042765993926355966 0.02767675955757895 0 0.0036702171326286745 0.027174035596369692 0 0.0053488749714974198 0.027869384640530161 0 0.0029034574899672923 0.028327130087022371 0 0.0048546663069375263 0.027413337594131379 0 0.0042941186762555945 0.027150402598084468 0 0.0042765993926355966 0.02767675955757895 0 0.0048546663069375263 0.027413337594131379 0 0.0042941186762555945 0.027150402598084468 0 0.0044805321551193936 0.026566327314094088 0 0.0048546663069375263 0.027413337594131379 0 0.0042765993926355966 0.02767675955757895 0 0.004638090576294677 0.027995936727500597 0 0.0042765993926355966 0.02767675955757895 0 0.0036702171326286745 0.027174035596369692 0 0.0039068904836369947 0.027958118128431127 0 0.0043082969254944507 0.028242761806723096 0 0.0041171238838012608 0.028591376738750153 0 0.0039068904836369947 0.027958118128431127 0 0.0042765993926355966 0.02767675955757895 0 0.0043082969254944507 0.028242761806723096 0 0.0039068904836369947 0.027958118128431127 0 0.0043082969254944507 0.028242761806723096 0 0.004638090576294677 0.027995936727500597 0 0.0047689004475790324 0.028475384517472405 0 0.0042765993926355966 0.02767675955757895 0 0.0043082969254944507 0.028242761806723096 0 0.004638090576294677 0.027995936727500597 0 0.0043082969254944507 0.028242761806723096 0 0.0047689004475790324 0.028475384517472405 0 0.004410707269277574 0.0285985356845718 0 0.0043082969254944507 0.028242761806723096 0 0.004410707269277574 0.0285985356845718 0 0.0041171238838012608 0.028591376738750153 0 0.00049935747074253921 0.024683877053479401 0 -0.001756807219897833 0.022323279296576064 0 0.00049935747074253921 0.024683877053479401 0 0.0022817032378854947 0.026705528282740205 0 -0.0027834418847649638 0.021559518853750806 0 -0.0027262100450777911 0.02173479231558156 0 -0.0031303886944364801 0.021334751650041485 0 0.0052326905802553957 0.028426732188652666 0 0.0051910097628392595 0.028493238390209601 0 0.0051591204325311989 0.028324893138880723 0 0.004638090576294677 0.027995936727500597 0 0.0047689004475790324 0.028475384517472405 0 0.0051591204325311989 0.028324893138880723 0 0.0047689004475790324 0.028475384517472405 0 0.0051591204325311989 0.028324893138880723 0 0.0051672432472280984 0.028568618489951438 0 0.006643372356201758 0.027337679331339397 0 0.0071461840587216099 0.027310822535579482 0 0.0052326905802553957 0.028426732188652666 0 0.0051591204325311989 0.028324893138880723 0 0.0051672432472280984 0.028568618489951438 0 0.0079638217345714378 0.026363778730980093 0 0.0093997340575308567 0.025240784246970606 0 0.0083388238452339458 0.024473684213206292 0 0.0093997340575308567 0.025240784246970606 0 0.0098557016551276775 0.023684430155266351 0 0.0083388238452339458 0.024473684213206292 0 0.0071461840587216099 0.027310822535579482 0 0.0077364003381165348 0.023841094512079899 0 0.0093997340575308567 0.025240784246970606 0 0.0098557016551276775 0.023684430155266351 0 0.010850762577004035 0.024134097990253081 0 0.0047689004475790324 0.028475384517472405 0 0.0051672432472280984 0.028568618489951438 0 0.0047214738356961862 0.028908899850174054 0 0.0096035245529841971 0.023421239216399561 0 0.010406837880296622 0.023725735202593076 0 0.010363003200913389 0.022770212590669806 0 0.0096035245529841971 0.023421239216399561 0 0.0088005009660536496 0.023171025251264549 0 0.0096757739221107406 0.022073964716252444 0 0.010077691117854323 0.023743818433215661 0 0.0077364003381165348 0.023841094512079899 0 0.010077691117854323 0.023743818433215661 0 0.0088004205152913025 0.023165175791236812 0 0.0098557016551276775 0.023684430155266351 0 0.0088005009660536496 0.023171025251264549 0 0.0083388238452339458 0.024473684213206292 0 0.0015448743650392689 0.016086248403613845 0 -1.1975058653969417e-05 0.020453514800270082 0 -0.0016752603977197398 0.014227611720182078 0 -0.0015926439337445438 0.014938947545620758 0 -0.0011124976756101961 0.013929497910187234 0 0.00049935747074253921 0.024683877053479401 0 -1.1975058653969417e-05 0.020453514800270082 0 0.004410707269277574 0.0285985356845718 0 0.0041653252001264051 0.028717953586211303 0 0.0043783270024958252 0.02879830281353387 0 -1.1975058653969417e-05 0.020453514800270082 0 0.0037159348528320356 0.021742883139835485 0 0.004410707269277574 0.0285985356845718 0 0.0041171238838012608 0.028591376738750153 0 0.0041653252001264051 0.028717953586211303 0 0.0016298623104735682 0.019313570457341368 0 0.0017074987488298887 0.020015601576937599 0 0.0011351773944046062 0.0197649094159414 0 0.0015448743650392689 0.016086248403613845 0 0.0037159348528320356 0.021742883139835485 0 0.004410707269277574 0.0285985356845718 0 0.0043783270024958252 0.02879830281353387 0 0.0047214738356961862 0.028908899850174054 0 0.0047689004475790324 0.028475384517472405 0 0.004410707269277574 0.0285985356845718 0 0.0047214738356961862 0.028908899850174054 0 0.0037159348528320356 0.021742883139835485 0 0.0077364003381165348 0.023841094512079899 0 0.0050950579790815364 0.019454318426562697 0 0.00536165815430508 0.019579972710696926 0 0.0050562697439131676 0.019757345543161782 0 0.010406837880296622 0.023725735202593076 0 0.010363003200913389 0.022770212590669806 0 0.011285195873780062 0.023041189011214432 0 0.0077364003381165348 0.023841094512079899 0 0.0053580622689532557 0.016507772541575136 0 0.0011142197231655045 0.012659489098810525 0 0.0012742637344999898 0.01264012589788141 0 0.001420964268050487 0.012376000103686398 0 0.0049595297951877731 0.019555341549247058 0 0.0050950579790815364 0.019454318426562697 0 0.0050562697439131676 0.019757345543161782 0 0.0011877225438195018 0.012882609513993025 0 0.0011142197231655045 0.012659489098810525 0 0.0011793258628267893 0.012797257136408013 0 0.0015448743650392689 0.016086248403613845 0 0.0053580622689532557 0.016507772541575136 0 0.0011995310875633947 0.012881200750194459 0 0.0012742637344999898 0.01264012589788141 0 0.0011793258628267893 0.012797257136408013 0 0.0011142197231655045 0.012659489098810525 0 0.0012742637344999898 0.01264012589788141 0 0.0011793258628267893 0.012797257136408013 0 0.0015448743650392689 0.016086248403613845 0 0.0013009451848036804 0.014567664297341501 0 0.0047271778455144856 0.0106295242006302 0 0.0043227043167444424 0.011470004148211498 0 0.003690142028035197 0.0112774540857062 0 0.0053580622689532557 0.016507772541575136 0 0.0083048777732427411 0.01689450003313623 0 0.0047271778455144856 0.0106295242006302 0 0.0043227043167444424 0.011470004148211498 0 0.0050913261537233242 0.01174471042738987 0 0.0053580622689532557 0.016507772541575136 0 0.0023950177040645971 0.0112886979107545 0 0.010363003200913389 0.022770212590669806 0 0.010964179462781892 0.021734652822656405 0 0.0096757739221107406 0.022073964716252444 0 0.010363003200913389 0.022770212590669806 0 0.011285195873780062 0.023041189011214432 0 0.010964179462781892 0.021734652822656405 0 0.0079907661024358201 0.01659550998301244 0 0.0083048777732427411 0.01689450003313623 0 0.0046773226772893594 0.012568947983578917 0 0.0055057076196948929 0.012954752119553966 0 0.0050913261537233242 0.01174471042738987 0 0.01061182856547096 0.020337345927262516 0 0.010964179462781892 0.021734652822656405 0 0.0098367711848488439 0.021048352745493663 0 0.0046773226772893594 0.012568947983578917 0 0.0050913261537233242 0.01174471042738987 0 0.0042917682509184246 0.012001949242704681 0 0.0043227043167444424 0.011470004148211498 0 0.0050913261537233242 0.01174471042738987 0 0.0042917682509184246 0.012001949242704681 0 0.0046773226772893594 0.012568947983578917 0 0.0042917682509184246 0.012001949242704681 0 0.003975572475189839 0.012571130973637252 0 0.0043227043167444424 0.011470004148211498 0 0.0042917682509184246 0.012001949242704681 0 0.0038909188286927431 0.011766010071672025 0 0.0088005009660536496 0.023171025251264549 0 0.0087543373053628939 0.022168594304142135 0 0.0096757739221107406 0.022073964716252444 0 0.0088005009660536496 0.023171025251264549 0 0.0087543373053628939 0.022168594304142135 0 0.0078455691722680316 0.022274648118395985 0 0.0096035245529841971 0.023421239216399561 0 0.010363003200913389 0.022770212590669806 0 0.0096757739221107406 0.022073964716252444 0 0.0096757739221107406 0.022073964716252444 0 0.0098367711848488439 0.021048352745493663 0 0.0086323923292114003 0.021154000409497789 0 0.010964179462781892 0.021734652822656405 0 0.0096757739221107406 0.022073964716252444 0 0.0098367711848488439 0.021048352745493663 0 0.0087543373053628939 0.022168594304142135 0 0.0096757739221107406 0.022073964716252444 0 0.0086323923292114003 0.021154000409497789 0 0.0087543373053628939 0.022168594304142135 0 0.0086323923292114003 0.021154000409497789 0 0.0078455691722680316 0.022274648118395985 0 0.0087000150287442901 0.021083537890700183 0 0.0079111290690394211 0.022183800819639676 0 0.0077005995303099624 0.020936723583967344 0 0.0069311596983908713 0.02189482912989189 0 0.0078455691722680316 0.022274648118395985 0 0.008796744773395225 0.021030900619034155 0 0.0077005995303099624 0.020936723583967344 0 0.0078455691722680316 0.022274648118395985 0 0.0063070964622473609 0.020812188987180066 0 0.0069311596983908713 0.02189482912989189 0 0.0058991593298586944 0.022513493378368714 0 0.0077005995303099624 0.020936723583967344 0 0.0063070964622473609 0.020812188987180066 0 0.0069311596983908713 0.02189482912989189 0 0.0069311596983908713 0.02189482912989189 0 0.0068724625569469861 0.023002230787678619 0 0.0058991593298586944 0.022513493378368714 0 0.0069311596983908713 0.02189482912989189 0 0.0078455691722680316 0.022274648118395985 0 0.0068724625569469861 0.023002230787678619 0 0.0078455691722680316 0.022274648118395985 0 0.0078153598525945323 0.023339066954140647 0 0.0068724625569469861 0.023002230787678619 0 0.0078153598525945323 0.023339066954140647 0 0.0070692155126893409 0.024073069809889752 0 0.0083388238452339458 0.024473684213206292 0 0.0088005009660536496 0.023171025251264549 0 0.0078153598525945323 0.023339066954140647 0 0.0083388238452339458 0.024473684213206292 0 0.0088005009660536496 0.023171025251264549 0 0.0078455691722680316 0.022274648118395985 0 0.0078153598525945323 0.023339066954140647 0 0.0078153598525945323 0.023339066954140647 0 0.0068724625569469861 0.023002230787678619 0 0.0070692155126893409 0.024073069809889752 0 0.0068724625569469861 0.023002230787678619 0 0.0070692155126893409 0.024073069809889752 0 0.0055052600570192692 0.024242797351945757 0 0.0066160855687179745 0.025680594171090244 0 0.0070692155126893409 0.024073069809889752 0 0.0083388238452339458 0.024473684213206292 0 0.0066160855687179745 0.025680594171090244 0 0.0070692155126893409 0.024073069809889752 0 0.0055052600570192692 0.024242797351945757 0 0.0091136696431269072 0.025955594501203071 0 0.0097585166578174117 0.025928817440104251 0 0.0089463483087881997 0.026459472202380301 0 0.0095341017022933794 0.026937504684604079 0 0.0097585166578174117 0.025928817440104251 0 0.0089463483087881997 0.026459472202380301 0 0.0073593435118945328 0.026453678538681909 0 0.0076408910558118104 0.025072063434214736 0 0.0076408910558118104 0.025072063434214736 0 0.0078360850867912786 0.023937813988617111 0 0.0097585166578174117 0.025928817440104251 0 0.0094804910519944233 0.025272904217680893 0 0.0099005116032965194 0.025171031298533254 0 0.0068724625569469861 0.023002230787678619 0 0.0055052600570192692 0.024242797351945757 0 0.0058991593298586944 0.022513493378368714 0 0.0091136696431269072 0.025955594501203071 0 0.0097585166578174117 0.025928817440104251 0 0.0092160278728429731 0.025537643155287351 0 0.0097585166578174117 0.025928817440104251 0 0.0092160278728429731 0.025537643155287351 0 0.0094804910519944233 0.025272904217680893 0 0.0091136696431269072 0.025955594501203071 0 0.0092160278728429731 0.025537643155287351 0 0.0089295940673454564 0.025857938880787096 0 0.010560698438405651 0.0245809814878299 0 0.009540926196505678 0.025057198388690978 0 0.0092160278728429731 0.025537643155287351 0 0.0094804910519944233 0.025272904217680893 0 0.0089996591117111769 0.025266433074411211 0 0.0094804910519944233 0.025272904217680893 0 0.0095121634642439511 0.024808019963656999 0 0.0089996591117111769 0.025266433074411211 0 0.011069155701997346 0.024228379990721256 0 0.010375064185716197 0.024088139192160327 0 0.010157098915253694 0.024849867878385137 0 0.0094804910519944233 0.025272904217680893 0 0.0099005116032965194 0.025171031298533254 0 0.0095121634642439511 0.024808019963656999 0 0.0087085301533101518 0.022207736847444287 0 0.010560698438405651 0.0245809814878299 0 0.01083643147501169 0.023572856819562553 0 0.011947832342669291 0.023618706132545329 0 0.011069155701997346 0.024228379990721256 0 0.010076821215722863 0.024390010320056908 0 0.0099005116032965194 0.025171031298533254 0 0.0095121634642439511 0.024808019963656999 0 0.0087085301533101518 0.022207736847444287 0 0.0078360850867912786 0.023937813988617111 0 0.0099997628975171289 0.02346066575908326 0 0.01083643147501169 0.023572856819562553 0 0.010375064185716197 0.024088139192160327 0 0.01083643147501169 0.023572856819562553 0 0.011069155701997346 0.024228379990721256 0 0.010375064185716197 0.024088139192160327 0 0.0099997628975171289 0.02346066575908326 0 0.0097069890656995388 0.024192704489966427 0 0.0092611803263655465 0.023736256183462805 0 0.0099997628975171289 0.02346066575908326 0 0.0097069890656995388 0.024192704489966427 0 0.010375064185716197 0.024088139192160327 0 0.009540926196505678 0.025057198388690978 0 0.0090872052725629905 0.025385847424220932 0 0.010157098915253694 0.024849867878385137 0 0.0093403608078228596 0.024786806081226406 0 0.0090148014039086819 0.025429417474194967 0 0.0097069890656995388 0.024192704489966427 0 0.010375064185716197 0.024088139192160327 0 0.010157098915253694 0.024849867878385137 0 0.0097069890656995388 0.024192704489966427 0 0.010157098915253694 0.024849867878385137 0 0.0093403608078228596 0.024786806081226406 0 0.0093403608078228596 0.024786806081226406 0 0.0087242407633721878 0.024941221158593103 0 0.0090148014039086819 0.025429417474194967 0 0.0097069890656995388 0.024192704489966427 0 0.0093403608078228596 0.024786806081226406 0 0.009182149157605235 0.024350454633616993 0 0.0093403608078228596 0.024786806081226406 0 0.009182149157605235 0.024350454633616993 0 0.0087242407633721878 0.024941221158593103 0 0.009182149157605235 0.024350454633616993 0 0.0092611803263655465 0.023736256183462805 0 0.0087365179760897724 0.02402582087037769 0 0.0097069890656995388 0.024192704489966427 0 0.009182149157605235 0.024350454633616993 0 0.0092611803263655465 0.023736256183462805 0 0.0086548465417524405 0.02333532730828233 0 0.0092611803263655465 0.023736256183462805 0 0.0087365179760897724 0.02402582087037769 0 0.0086548465417524405 0.02333532730828233 0 0.0087365179760897724 0.02402582087037769 0 0.0081981470259367886 0.023870080553374775 0 0.0087365179760897724 0.02402582087037769 0 0.0081981470259367886 0.023870080553374775 0 0.0083706149988200095 0.024509045186845636 0 0.0081981470259367886 0.023870080553374775 0 0.007856439335902703 0.024461994621812807 0 0.0076022718414372843 0.023736818532225968 0 0.0081981470259367886 0.023870080553374775 0 0.007856439335902703 0.024461994621812807 0 0.0083706149988200095 0.024509045186845636 0 0.007856439335902703 0.024461994621812807 0 0.0082143375146932537 0.024982993352320484 0 0.0083706149988200095 0.024509045186845636 0 0.007856439335902703 0.024461994621812807 0 0.0082143375146932537 0.024982993352320484 0 0.0078439762079031243 0.025085544048772803 0 0.0087365179760897724 0.02402582087037769 0 0.0083706149988200095 0.024509045186845636 0 0.0087242407633721878 0.024941221158593103 0 0.009182149157605235 0.024350454633616993 0 0.0087365179760897724 0.02402582087037769 0 0.0087242407633721878 0.024941221158593103 0 0.0082143375146932537 0.024982993352320484 0 0.0083706149988200095 0.024509045186845636 0 0.0087242407633721878 0.024941221158593103 0 0.0087242407633721878 0.024941221158593103 0 0.0083983940447334721 0.025353389265579215 0 0.0086383277035813107 0.025659187214288399 0 0.0082143375146932537 0.024982993352320484 0 0.0087242407633721878 0.024941221158593103 0 0.0083983940447334721 0.025353389265579215 0 0.0083983940447334721 0.025353389265579215 0 0.0086383277035813107 0.025659187214288399 0 0.008306983458064009 0.025728582883536265 0 0.0078439762079031243 0.025085544048772803 0 0.0080682672450484091 0.025426977430893533 0 0.0077309795000106976 0.025566370892545077 0 0.0082143375146932537 0.024982993352320484 0 0.0078439762079031243 0.025085544048772803 0 0.0080682672450484091 0.025426977430893533 0 0.0082143375146932537 0.024982993352320484 0 0.0083983940447334721 0.025353389265579215 0 0.0080682672450484091 0.025426977430893533 0 0.0083983940447334721 0.025353389265579215 0 0.0080682672450484091 0.025426977430893533 0 0.008306983458064009 0.025728582883536265 0 0.0080682672450484091 0.025426977430893533 0 0.0080116670198354511 0.02578275353312641 0 0.008306983458064009 0.025728582883536265 0 0.0080682672450484091 0.025426977430893533 0 0.0080116670198354511 0.02578275353312641 0 0.0077309795000106976 0.025566370892545077 0 0.0080116670198354511 0.02578275353312641 0 0.0077309795000106976 0.025566370892545077 0 0.0077945693461596455 0.026012029975339655 0 0.0080116670198354511 0.02578275353312641 0 0.008145329616811926 0.026090585212620421 0 0.008306983458064009 0.025728582883536265 0 0.0080116670198354511 0.02578275353312641 0 0.008145329616811926 0.026090585212620421 0 0.0077945693461596455 0.026012029975339655 0 0.0086383277035813107 0.025659187214288399 0 0.0084730038282135149 0.025985809490583395 0 0.008835320923113836 0.025788135329596919 0 0.0086383277035813107 0.025659187214288399 0 0.008306983458064009 0.025728582883536265 0 0.0084730038282135149 0.025985809490583395 0 0.008145329616811926 0.026090585212620421 0 0.008306983458064009 0.025728582883536265 0 0.0084730038282135149 0.025985809490583395 0 0.0084730038282135149 0.025985809490583395 0 0.008835320923113836 0.025788135329596919 0 0.0087711761374999718 0.026121135529417326 0 0.008835320923113836 0.025788135329596919 0 0.008981367022338229 0.025709588802541428 0 0.0089411309716109447 0.02593403604181627 0 0.008835320923113836 0.025788135329596919 0 0.0089411309716109447 0.02593403604181627 0 0.0087711761374999718 0.026121135529417326 0 0.008981367022338229 0.025709588802541428 0 0.0089411309716109447 0.02593403604181627 0 0.0091337205917684048 0.026062311003563154 0 0.0089411309716109447 0.02593403604181627 0 0.0091337205917684048 0.026062311003563154 0 0.0087711761374999718 0.026121135529417326 0 0.0087270499659559391 0.026307223970059062 0 0.0089547204946722348 0.025483207329672613 0 0.0083520477198462794 0.026507000637231617 0 0.0089295940673454564 0.025857938880787096 0 0.0089815774462679836 0.025407689719070838 0 0.008981367022338229 0.025709588802541428 0 0.0091337205917684048 0.026062311003563154 0 0.0089815774462679836 0.025407689719070838 0 0.0091136696431269072 0.025955594501203071 0 0.0089463483087881997 0.026459472202380301 0 0.0088381048009003177 0.02616591975708198 0 0.0083520477198462794 0.026507000637231617 0 0.0089463483087881997 0.026459472202380301 0 0.0088381048009003177 0.02616591975708198 0 0.0083520477198462794 0.026507000637231617 0 0.0088381048009003177 0.02616591975708198 0 0.0089295940673454564 0.025857938880787096 0 0.0091136696431269072 0.025955594501203071 0 0.0088381048009003177 0.02616591975708198 0 0.0089295940673454564 0.025857938880787096 0 0.0089996591117111769 0.025266433074411211 0 0.0089815774462679836 0.025407689719070838 0 0.0090148014039086819 0.025429417474194967 0 0.0092160278728429731 0.025537643155287351 0 0.0089295940673454564 0.025857938880787096 0 0.0089815774462679836 0.025407689719070838 0 0.0092160278728429731 0.025537643155287351 0 0.0089996591117111769 0.025266433074411211 0 0.0089815774462679836 0.025407689719070838 0 0.0087242407633721878 0.024941221158593103 0 0.0086383277035813107 0.025659187214288399 0 0.0090148014039086819 0.025429417474194967 0 0.0086383277035813107 0.025659187214288399 0 0.008835320923113836 0.025788135329596919 0 0.0090148014039086819 0.025429417474194967 0 0.008835320923113836 0.025788135329596919 0 0.008981367022338229 0.025709588802541428 0 0.0090148014039086819 0.025429417474194967 0 0.008981367022338229 0.025709588802541428 0 0.0089815774462679836 0.025407689719070838 0 0.0090148014039086819 0.025429417474194967 0 0.016371571049605512 0.021781962450916847 0 0.013642321324127177 0.022808910352029029 0 0.020550472903706814 0.023378320611629526 0 0.021055826446049485 0.022042030776675933 0 0.021334176878171771 0.022089363421262734 0 0.016371571049605512 0.021781962450916847 0 0.022453464593825721 0.020907319071820276 0 0.021968057539065881 0.020324018098222724 0 0.022168114542411164 0.02018453393476094 0 0.022104098120135831 0.020021775698768039 0 0.021968057539065881 0.020324018098222724 0 0.022238690442862811 0.020313052362658249 0 0.022168114542411164 0.02018453393476094 0 0.0091509071269911084 0.020567236703571974 0 0.0073329474019711675 0.020831507176980329 0 0.0085761374235919074 0.022960667237022822 0 0.0073329474019711675 0.020831507176980329 0 0.006908389518187218 0.023333040462417409 0 0.0085761374235919074 0.022960667237022822 0 0.007604284911053534 0.023164852878827084 0 0.0076052973449963653 0.023478846349412275 0 0.006908389518187218 0.023333040462417409 0 0.0085761374235919074 0.022960667237022822 0 0.0079276412695300467 0.024962037164549922 0 0.0065295591620998517 0.024601180686334483 0 0.007127897345621307 0.024336186535595366 0 0.0072536750147792041 0.025136191584095288 0 0.0071260846759978267 0.023604006363414955 0 0.0064852799207371203 0.023371608235863751 0 0.007127897345621307 0.024336186535595366 0 0.0064852799207371203 0.023371608235863751 0 0.0065295591620998517 0.024601180686334483 0 0.007127897345621307 0.024336186535595366 0 0.007856439335902703 0.024461994621812807 0 0.007127897345621307 0.024336186535595366 0 0.0076022718414372843 0.023736818532225968 0 0.0071260846759978267 0.023604006363414955 0 0.007127897345621307 0.024336186535595366 0 0.0076022718414372843 0.023736818532225968 0 0.007856439335902703 0.024461994621812807 0 0.007127897345621307 0.024336186535595366 0 0.0074952500038273301 0.024761300453759839 0 0.007127897345621307 0.024336186535595366 0 0.0074952500038273301 0.024761300453759839 0 0.0072536750147792041 0.025136191584095288 0 0.0078439762079031243 0.025085544048772803 0 0.0074952500038273301 0.024761300453759839 0 0.0072536750147792041 0.025136191584095288 0 0.007856439335902703 0.024461994621812807 0 0.0078439762079031243 0.025085544048772803 0 0.0074952500038273301 0.024761300453759839 0 0.0078439762079031243 0.025085544048772803 0 0.0077309795000106976 0.025566370892545077 0 0.0072536750147792041 0.025136191584095288 0 0.0077309795000106976 0.025566370892545077 0 0.0074218063787627351 0.025816631455900348 0 0.0072536750147792041 0.025136191584095288 0 0.0077309795000106976 0.025566370892545077 0 0.0077945693461596455 0.026012029975339655 0 0.0074218063787627351 0.025816631455900348 0 0.0077945693461596455 0.026012029975339655 0 0.0074218063787627351 0.025816631455900348 0 0.0075847536886054666 0.026259219912270773 0 0.0074218063787627351 0.025816631455900348 0 0.0067470250760806377 0.025658397148563713 0 0.0072533056807555377 0.026167524608386256 0 0.0074218063787627351 0.025816631455900348 0 0.0072533056807555377 0.026167524608386256 0 0.0075847536886054666 0.026259219912270773 0 0.0074218063787627351 0.025816631455900348 0 0.0072536750147792041 0.025136191584095288 0 0.0067470250760806377 0.025658397148563713 0 0.0065295591620998517 0.024601180686334483 0 0.0072536750147792041 0.025136191584095288 0 0.0067470250760806377 0.025658397148563713 0 0.0076052973449963653 0.023478846349412275 0 0.0073334634053325142 0.025330519123908792 0 0.0067470250760806377 0.025658397148563713 0 0.007199435676051984 0.026316612085891956 0 0.0072533056807555377 0.026167524608386256 0 0.0073334634053325142 0.025330519123908792 0 0.0072158843709649572 0.026186936340760723 0 0.0079276412695300467 0.024962037164549922 0 0.0066376366139267989 0.025352434351248988 0 0.007199435676051984 0.026316612085891956 0 0.006908389518187218 0.023333040462417409 0 0.0079276412695300467 0.024962037164549922 0 0.0066376366139267989 0.025352434351248988 0 0.013642321324127177 0.022808910352029029 0 0.014161045319866389 0.022989209026666738 0 0.021055826446049485 0.022042030776675933 0 0.021334176878171771 0.022089363421262734 0 0.021549707755013338 0.020704307648275095 0 0.0066574551271588751 0.026486109323022689 0 0.007199435676051984 0.026316612085891956 0 0.007031444917961655 0.026887420833082036 0 0.0066574551271588751 0.026486109323022689 0 0.0066376366139267989 0.025352434351248988 0 0.007199435676051984 0.026316612085891956 0 0.014345929923744059 0.023308291478785052 0 0.014161045319866389 0.022989209026666738 0 0.007199435676051984 0.026316612085891956 0 0.0073422376709733964 0.026638111822117571 0 0.0072533056807555377 0.026167524608386256 0 0.007199435676051984 0.026316612085891956 0 0.0073422376709733964 0.026638111822117571 0 0.007031444917961655 0.026887420833082036 0 0.0073422376709733964 0.026638111822117571 0 0.0074816639170313401 0.026524794257799505 0 0.0076085635905395396 0.026917091028064062 0 0.0073422376709733964 0.026638111822117571 0 0.0072533056807555377 0.026167524608386256 0 0.0074816639170313401 0.026524794257799505 0 0.0072533056807555377 0.026167524608386256 0 0.0074816639170313401 0.026524794257799505 0 0.0075847536886054666 0.026259219912270773 0 0.0074816639170313401 0.026524794257799505 0 0.0075847536886054666 0.026259219912270773 0 0.0077095004666668911 0.026589358467727028 0 0.0077945693461596455 0.026012029975339655 0 0.0075847536886054666 0.026259219912270773 0 0.0079184421519242192 0.026405142500497459 0 0.0075847536886054666 0.026259219912270773 0 0.0077095004666668911 0.026589358467727028 0 0.0079184421519242192 0.026405142500497459 0 0.0077095004666668911 0.026589358467727028 0 0.0076085635905395396 0.026917091028064062 0 0.0078927333588894952 0.026890984366556764 0 0.0077095004666668911 0.026589358467727028 0 0.0079184421519242192 0.026405142500497459 0 0.0078927333588894952 0.026890984366556764 0 0.0074816639170313401 0.026524794257799505 0 0.0077095004666668911 0.026589358467727028 0 0.0076085635905395396 0.026917091028064062 0 0.0078309058447315703 0.027174403746270608 0 0.0076085635905395396 0.026917091028064062 0 0.0078927333588894952 0.026890984366556764 0 0.0078309058447315703 0.027174403746270608 0 0.0077790966318722309 0.02742276642798697 0 0.0076085635905395396 0.026917091028064062 0 0.0077790966318722309 0.02742276642798697 0 0.0079471805602990882 0.027427431370083463 0 0.0080246673563575937 0.027609713631267487 0 0.0078309058447315703 0.027174403746270608 0 0.0077790966318722309 0.02742276642798697 0 0.0079471805602990882 0.027427431370083463 0 0.0077790966318722309 0.02742276642798697 0 0.0073718856330466142 0.027098391721322331 0 0.0074989275052806895 0.027497415972229121 0 0.0077790966318722309 0.02742276642798697 0 0.0074989275052806895 0.027497415972229121 0 0.0078416075289668603 0.027752387522513477 0 0.0077790966318722309 0.02742276642798697 0 0.0076085635905395396 0.026917091028064062 0 0.0073718856330466142 0.027098391721322331 0 0.0073422376709733964 0.026638111822117571 0 0.0076085635905395396 0.026917091028064062 0 0.0073718856330466142 0.027098391721322331 0 0.0073718856330466142 0.027098391721322331 0 0.0071161433547040596 0.027479163114486286 0 0.007031444917961655 0.026887420833082036 0 0.0073422376709733964 0.026638111822117571 0 0.0073718856330466142 0.027098391721322331 0 0.007031444917961655 0.026887420833082036 0 0.0073718856330466142 0.027098391721322331 0 0.0074989275052806895 0.027497415972229121 0 0.0071161433547040596 0.027479163114486286 0 0.0066574551271588751 0.026486109323022689 0 0.0067564027410902585 0.02712739667302266 0 0.007031444917961655 0.026887420833082036 0 0.0067564027410902585 0.02712739667302266 0 0.0071161433547040596 0.027479163114486286 0 0.007031444917961655 0.026887420833082036 0 0.0084182820050887064 0.026924348281429901 0 0.008803044406786531 0.0270013899180425 0 0.0086536325790734451 0.026508167107021443 0 0.0084182820050887064 0.026924348281429901 0 0.0086536325790734451 0.026508167107021443 0 0.0083331562106067538 0.026655257714509311 0 0.0084182820050887064 0.026924348281429901 0 0.008803044406786531 0.0270013899180425 0 0.0082573393645436945 0.027318707803850328 0 0.008291282529020302 0.026817297123289945 0 0.0084413042160485039 0.027825922702542184 0 0.0089126577096894435 0.027251934709868524 0 0.008365533606053039 0.026793270177507249 0 0.0087241846605769762 0.027900007282041631 0 0.0077827786683908997 0.027714306557518269 0 0.008365533606053039 0.026793270177507249 0 0.0079529894026444583 0.027814178784407031 0 0.0087270499659559391 0.026307223970059062 0 0.0082938152754701532 0.027328162525609139 0 0.0083520477198462794 0.026507000637231617 0 0.0077827786683908997 0.027714306557518269 0 0.008365533606053039 0.026793270177507249 0 0.0089126577096894435 0.027251934709868524 0 0.00884707299460483 0.026874877198661839 0 0.008365533606053039 0.026793270177507249 0 0.0089463483087881997 0.026459472202380301 0 0.00884707299460483 0.026874877198661839 0 0.008365533606053039 0.026793270177507249 0 0.0083520477198462794 0.026507000637231617 0 0.0089463483087881997 0.026459472202380301 0 0.008365533606053039 0.026793270177507249 0 0.0091337205917684048 0.026062311003563154 0 0.008803044406786531 0.0270013899180425 0 0.0086536325790734451 0.026508167107021443 0 0.0091337205917684048 0.026062311003563154 0 0.0086536325790734451 0.026508167107021443 0 0.0087711761374999718 0.026121135529417326 0 0.0086536325790734451 0.026508167107021443 0 0.0087711761374999718 0.026121135529417326 0 0.0085074543379681806 0.026291780847445999 0 0.0084730038282135149 0.025985809490583395 0 0.0087711761374999718 0.026121135529417326 0 0.0085074543379681806 0.026291780847445999 0 0.0084730038282135149 0.025985809490583395 0 0.0085074543379681806 0.026291780847445999 0 0.0082449394450521459 0.026398254458993624 0 0.008145329616811926 0.026090585212620421 0 0.0084730038282135149 0.025985809490583395 0 0.0082449394450521459 0.026398254458993624 0 0.0082449394450521459 0.026398254458993624 0 0.0080972536088283371 0.026702565855405525 0 0.0083331562106067538 0.026655257714509311 0 0.0086536325790734451 0.026508167107021443 0 0.0085074543379681806 0.026291780847445999 0 0.0083331562106067538 0.026655257714509311 0 0.0085074543379681806 0.026291780847445999 0 0.0082449394450521459 0.026398254458993624 0 0.0083331562106067538 0.026655257714509311 0 0.008145329616811926 0.026090585212620421 0 0.0077945693461596455 0.026012029975339655 0 0.0079184421519242192 0.026405142500497459 0 0.008145329616811926 0.026090585212620421 0 0.0082449394450521459 0.026398254458993624 0 0.0079184421519242192 0.026405142500497459 0 0.0082449394450521459 0.026398254458993624 0 0.0079184421519242192 0.026405142500497459 0 0.0080972536088283371 0.026702565855405525 0 0.0080972536088283371 0.026702565855405525 0 0.0078927333588894952 0.026890984366556764 0 0.0081478499182165501 0.027043103775003293 0 0.0079184421519242192 0.026405142500497459 0 0.0080972536088283371 0.026702565855405525 0 0.0078927333588894952 0.026890984366556764 0 0.0080972536088283371 0.026702565855405525 0 0.0083331562106067538 0.026655257714509311 0 0.0081478499182165501 0.027043103775003293 0 0.0084182820050887064 0.026924348281429901 0 0.0083331562106067538 0.026655257714509311 0 0.0081478499182165501 0.027043103775003293 0 0.0081478499182165501 0.027043103775003293 0 0.0081264689331437996 0.027352483583412367 0 0.0082573393645436945 0.027318707803850328 0 0.0084182820050887064 0.026924348281429901 0 0.0081478499182165501 0.027043103775003293 0 0.0082573393645436945 0.027318707803850328 0 0.0081478499182165501 0.027043103775003293 0 0.0081264689331437996 0.027352483583412367 0 0.0080085750474408191 0.02724858100390461 0 0.0081264689331437996 0.027352483583412367 0 0.0080085750474408191 0.02724858100390461 0 0.008092549951168251 0.027488779483938658 0 0.0081264689331437996 0.027352483583412367 0 0.0081060653664325796 0.027571805280412504 0 0.0082573393645436945 0.027318707803850328 0 0.0078927333588894952 0.026890984366556764 0 0.0081478499182165501 0.027043103775003293 0 0.0080085750474408191 0.02724858100390461 0 0.0078309058447315703 0.027174403746270608 0 0.0078927333588894952 0.026890984366556764 0 0.0080085750474408191 0.02724858100390461 0 0.0078309058447315703 0.027174403746270608 0 0.0080085750474408191 0.02724858100390461 0 0.0079471805602990882 0.027427431370083463 0 0.0080609818938983044 0.027535521144497765 0 0.0079471805602990882 0.027427431370083463 0 0.008092549951168251 0.027488779483938658 0 0.0080085750474408191 0.02724858100390461 0 0.0079471805602990882 0.027427431370083463 0 0.008092549951168251 0.027488779483938658 0 0.0081060653664325796 0.027571805280412504 0 0.008092549951168251 0.027488779483938658 0 0.0080903802457518628 0.027553725232403407 0 0.0080609818938983044 0.027535521144497765 0 0.008092549951168251 0.027488779483938658 0 0.0080903802457518628 0.027553725232403407 0 0.0081264689331437996 0.027352483583412367 0 0.0081060653664325796 0.027571805280412504 0 0.008092549951168251 0.027488779483938658 0 0.0081060653664325796 0.027571805280412504 0 0.0079486850771626743 0.027772357238290087 0 0.0080903802457518628 0.027553725232403407 0 0.0081060653664325796 0.027571805280412504 0 0.0079486850771626743 0.027772357238290087 0 0.0082573393645436945 0.027318707803850328 0 0.0082938152754701532 0.027328162525609139 0 0.0080054029326983543 0.027711074752707458 0 0.008803044406786531 0.0270013899180425 0 0.0079486850771626743 0.027772357238290087 0 0.0082573393645436945 0.027318707803850328 0 0.0073951535244315154 0.028389465622569374 0 0.0084413042160485039 0.027825922702542184 0 0.0077827786683908997 0.027714306557518269 0 0.0079529894026444583 0.027814178784407031 0 0.0077311368432305214 0.027860096275911905 0 0.0074470678073248727 0.027895709477201679 0 0.0079529894026444583 0.027814178784407031 0 0.0077311368432305214 0.027860096275911905 0 0.0077827786683908997 0.027714306557518269 0 0.0079486850771626743 0.027772357238290087 0 0.0077311368432305214 0.027860096275911905 0 0.0079486850771626743 0.027772357238290087 0 0.0075848465147238383 0.027853576959365321 0 0.0072272686343910833 0.027905694891247643 0 0.0079486850771626743 0.027772357238290087 0 0.0077311368432305214 0.027860096275911905 0 0.0075848465147238383 0.027853576959365321 0 0.0077311368432305214 0.027860096275911905 0 0.0075848465147238383 0.027853576959365321 0 0.0074671818397032833 0.027884492158137472 0 0.0075848465147238383 0.027853576959365321 0 0.0074671818397032833 0.027884492158137472 0 0.0072272686343910833 0.027905694891247643 0 0.0074470678073248727 0.027895709477201679 0 0.0077311368432305214 0.027860096275911905 0 0.0074671818397032833 0.027884492158137472 0 0.0074671818397032833 0.027884492158137472 0 0.0072272686343910833 0.027905694891247643 0 0.0073109571217525706 0.02792188844615372 0 0.0072272686343910833 0.027905694891247643 0 0.0068564043215199764 0.028016532965481431 0 0.0071584715752909889 0.028044715797410361 0 0.0068564043215199764 0.028016532965481431 0 0.0071584715752909889 0.028044715797410361 0 0.0069666326036895996 0.027844634319363105 0 0.0072394347676182783 0.027895662835918118 0 0.0071584715752909889 0.028044715797410361 0 0.0074741344419833929 0.027977459707451628 0 0.0071584715752909889 0.028044715797410361 0 0.0073601126669127952 0.028260475768882517 0 0.0074741344419833929 0.027977459707451628 0 0.0072394347676182783 0.027895662835918118 0 0.0074741344419833929 0.027977459707451628 0 0.0073563782416555422 0.027688334934091278 0 0.0072394347676182783 0.027895662835918118 0 0.0071584715752909889 0.028044715797410361 0 0.0069666326036895996 0.027844634319363105 0 0.0072272686343910833 0.027905694891247643 0 0.0071584715752909889 0.028044715797410361 0 0.0073601126669127952 0.028260475768882517 0 0.0079486850771626743 0.027772357238290087 0 0.0072272686343910833 0.027905694891247643 0 0.0080903802457518628 0.027553725232403407 0 0.0072951188322260734 0.027905509016223365 0 0.0077393577716660623 0.027910328039081608 0 0.0077393577716660623 0.027910328039081608 0 0.0080954467180936428 0.027899566479602633 0 0.0080609818938983044 0.027535521144497765 0 0.0080903802457518628 0.027553725232403407 0 0.0080246673563575937 0.027609713631267487 0 0.0073601126669127952 0.028260475768882517 0 0.0082539044861312805 0.02823230551041828 0 0.00793028942992818 0.028021871802008429 0 0.0080609818938983044 0.027535521144497765 0 0.0079471805602990882 0.027427431370083463 0 0.0080246673563575937 0.027609713631267487 0 0.0082539044861312805 0.02823230551041828 0 0.00793028942992818 0.028021871802008429 0 0.0083332306739187581 0.028162411310450455 0 0.0083964306303905556 0.028480864724332564 0 0.0083332306739187581 0.028162411310450455 0 0.0085069793453079346 0.02853326053908942 0 0.0080958170418855106 0.028061709139544228 0 0.0083091288024476854 0.028162008356673665 0 0.00793028942992818 0.028021871802008429 0 0.0078264372230155491 0.02765874963200542 0 0.0083332306739187581 0.028162411310450455 0 0.0073601126669127952 0.028260475768882517 0 0.00793028942992818 0.028021871802008429 0 0.0074741344419833929 0.027977459707451628 0 0.00793028942992818 0.028021871802008429 0 0.0074741344419833929 0.027977459707451628 0 0.0078264372230155491 0.02765874963200542 0 0.0074741344419833929 0.027977459707451628 0 0.0078264372230155491 0.02765874963200542 0 0.0073563782416555422 0.027688334934091278 0 0.0080958170418855106 0.028061709139544228 0 0.0075269937925454642 0.027698046010681172 0 0.0078264372230155491 0.02765874963200542 0 0.0072995628453324923 0.02730909322790458 0 0.0073563782416555422 0.027688334934091278 0 0.0083964306303905556 0.028480864724332564 0 0.0085691028546163034 0.028176957916243844 0 0.0085069793453079346 0.02853326053908942 0 0.0085691028546163034 0.028176957916243844 0 0.0082455827314822077 0.028104126192602458 0 0.008658233755706634 0.027462329877743833 0 0.0083964306303905556 0.028480864724332564 0 0.0085691028546163034 0.028176957916243844 0 0.0082455827314822077 0.028104126192602458 0 0.0083061563453886988 0.028047909570710516 0 0.008950559735319245 0.027518224102247493 0 0.0083964306303905556 0.028480864724332564 0 0.0082455827314822077 0.028104126192602458 0 0.0077497492749759927 0.028097254470087818 0 0.0082455827314822077 0.028104126192602458 0 0.0077497492749759927 0.028097254470087818 0 0.0080411214412499706 0.027604591626751041 0 0.0072995628453324923 0.02730909322790458 0 0.0068796022811999447 0.027512163447896629 0 0.006692355737613326 0.026884379244726801 0 0.0072995628453324923 0.02730909322790458 0 0.0068796022811999447 0.027512163447896629 0 0.0073563782416555422 0.027688334934091278 0 0.0063838574653811578 0.027390199143500354 0 0.0068796022811999447 0.027512163447896629 0 0.0065131388085385763 0.027766974519204811 0 0.0063838574653811578 0.027390199143500354 0 0.0068796022811999447 0.027512163447896629 0 0.006692355737613326 0.026884379244726801 0 0.0068564043215199764 0.028016532965481431 0 0.0065131388085385763 0.027766974519204811 0 0.0069666326036895996 0.027844634319363105 0 0.0068796022811999447 0.027512163447896629 0 0.0065131388085385763 0.027766974519204811 0 0.0069666326036895996 0.027844634319363105 0 0.0072394347676182783 0.027895662835918118 0 0.0069666326036895996 0.027844634319363105 0 0.0073563782416555422 0.027688334934091278 0 0.0068796022811999447 0.027512163447896629 0 0.0069666326036895996 0.027844634319363105 0 0.0073563782416555422 0.027688334934091278 0 0.0068144328234365425 0.027772047846711993 0 0.0071161433547040596 0.027479163114486286 0 0.0071385835394190602 0.028064930454524076 0 0.0071161433547040596 0.027479163114486286 0 0.0071385835394190602 0.028064930454524076 0 0.0075060663162767492 0.027898169971978456 0 0.0074989275052806895 0.027497415972229121 0 0.0071161433547040596 0.027479163114486286 0 0.0075060663162767492 0.027898169971978456 0 0.0071385835394190602 0.028064930454524076 0 0.0075060663162767492 0.027898169971978456 0 0.0076133393998025429 0.028494746972916121 0 0.0075060663162767492 0.027898169971978456 0 0.0079674610655439508 0.028171194950374862 0 0.0078416075289668603 0.027752387522513477 0 0.0075060663162767492 0.027898169971978456 0 0.0079674610655439508 0.028171194950374862 0 0.0076133393998025429 0.028494746972916121 0 0.0074989275052806895 0.027497415972229121 0 0.0075060663162767492 0.027898169971978456 0 0.0078416075289668603 0.027752387522513477 0 0.0077790966318722309 0.02742276642798697 0 0.0080246673563575937 0.027609713631267487 0 0.0078416075289668603 0.027752387522513477 0 0.0080954467180936428 0.027899566479602633 0 0.0078332131067659853 0.02778900450314099 0 0.0082539044861312805 0.02823230551041828 0 0.0078416075289668603 0.027752387522513477 0 0.0083332306739187581 0.028162411310450455 0 0.0079674610655439508 0.028171194950374862 0 0.0078416075289668603 0.027752387522513477 0 0.0083332306739187581 0.028162411310450455 0 0.0079674610655439508 0.028171194950374862 0 0.0083332306739187581 0.028162411310450455 0 0.0085069793453079346 0.02853326053908942 0 0.0085691028546163034 0.028176957916243844 0 0.0085069793453079346 0.02853326053908942 0 0.0093117949433210671 0.027947414855853468 0 0.0085691028546163034 0.028176957916243844 0 0.0093117949433210671 0.027947414855853468 0 0.008658233755706634 0.027462329877743833 0 0.0093117949433210671 0.027947414855853468 0 0.010095922332736774 0.028743796668805464 0 0.010549299808050177 0.02765576627030987 0 0.0085062159744079997 0.02857157545219113 0 0.0090291793450645169 0.028541708852085734 0 0.0085069793453079346 0.02853326053908942 0 0.0093117949433210671 0.027947414855853468 0 0.010095922332736774 0.028743796668805464 0 0.0079674610655439508 0.028171194950374862 0 0.0085069793453079346 0.02853326053908942 0 0.0076133393998025429 0.028494746972916121 0 0.0090291793450645169 0.028541708852085734 0 0.0087175679196628119 0.028783251422429955 0 0.010095922332736774 0.028743796668805464 0 0.011560544342715041 0.028541547589935025 0 0.010549299808050177 0.02765576627030987 0 0.011560544342715041 0.028541547589935025 0 0.011477811454298272 0.027462217171560104 0 0.010549299808050177 0.02765576627030987 0 0.012287660029501449 0.027545106781780716 0 0.011560544342715041 0.028541547589935025 0 0.011477811454298272 0.027462217171560104 0 0.0071385835394190602 0.028064930454524076 0 0.0076133393998025429 0.028494746972916121 0 0.0071371560012472362 0.028442759115367273 0 0.012178185661838819 0.026385546107251336 0 0.011889414935818483 0.02680653414526701 0 0.011912951282918378 0.026191438633845102 0 0.011889414935818483 0.02680653414526701 0 0.011048446427445277 0.026804469165370493 0 0.011912951282918378 0.026191438633845102 0 0.011889414935818483 0.02680653414526701 0 0.011477811454298272 0.027462217171560104 0 0.011048446427445277 0.026804469165370493 0 0.012287660029501449 0.027545106781780716 0 0.011889414935818483 0.02680653414526701 0 0.011477811454298272 0.027462217171560104 0 0.010549299808050177 0.02765576627030987 0 0.011048446427445277 0.026804469165370493 0 0.0096006813085186566 0.026694905369115 0 0.011477811454298272 0.027462217171560104 0 0.010549299808050177 0.02765576627030987 0 0.011048446427445277 0.026804469165370493 0 0.011048446427445277 0.026804469165370493 0 0.010737069523976491 0.026012188091209972 0 0.011912951282918378 0.026191438633845102 0 0.011048446427445277 0.026804469165370493 0 0.0096006813085186566 0.026694905369115 0 0.010737069523976491 0.026012188091209972 0 0.0099003735471242353 0.026813712908591254 0 0.010957304477500911 0.0261180263066534 0 0.0093117949433210671 0.027947414855853468 0 0.010549299808050177 0.02765576627030987 0 0.0096006813085186566 0.026694905369115 0 0.0093117949433210671 0.027947414855853468 0 0.0096006813085186566 0.026694905369115 0 0.008658233755706634 0.027462329877743833 0 0.0099003735471242353 0.026813712908591254 0 0.008950559735319245 0.027518224102247493 0 0.010196057105314444 0.026921575089485787 0 0.0092139225188246424 0.027578690990739185 0 0.0091648823531711027 0.02617005807839249 0 0.010196057105314444 0.026921575089485787 0 0.010175061101839588 0.025944368436209418 0 0.0091648823531711027 0.02617005807839249 0 0.010003188575975527 0.02499994056086665 0 0.010175061101839588 0.025944368436209418 0 0.0091648823531711027 0.02617005807839249 0 0.010003188575975527 0.02499994056086665 0 0.010857856229600086 0.025547803152457568 0 0.010175061101839588 0.025944368436209418 0 0.010003188575975527 0.02499994056086665 0 0.010857856229600086 0.025547803152457568 0 0.011389772952890327 0.024999971107400373 0 0.010196057105314444 0.026921575089485787 0 0.010175061101839588 0.025944368436209418 0 0.011162233041960616 0.026212322523519078 0 0.010857856229600086 0.025547803152457568 0 0.010175061101839588 0.025944368436209418 0 0.011162233041960616 0.026212322523519078 0 0.010857856229600086 0.025547803152457568 0 0.011162233041960616 0.026212322523519078 0 0.012037132407920436 0.025463694471895882 0 0.010957304477500911 0.0261180263066534 0 0.011928280528426656 0.025501996400616376 0 0.010857856229600086 0.025547803152457568 0 0.011389772952890327 0.024999971107400373 0 0.012037132407920436 0.025463694471895882 0 0.01277629792724732 0.024999866968308204 0 0.011389772952890327 0.024999971107400373 0 0.012037132407920436 0.025463694471895882 0 0.012747637848396474 0.025671420593728143 0 0.012037132407920436 0.025463694471895882 0 0.011912951282918378 0.026191438633845102 0 0.010737069523976491 0.026012188091209972 0 0.012037132407920436 0.025463694471895882 0 0.011912951282918378 0.026191438633845102 0 0.0068954917667893812 0.02735058812871129 0 0.0081027765919554819 0.026810134416095713 0 0.0072439140294029338 0.026189262291306348 0 0.0068954917667893812 0.02735058812871129 0 0.0072439140294029338 0.026189262291306348 0 0.0060028132575930693 0.02642249606844033 0 0.0067870848602710442 0.0271090830849324 0 0.0060671512177773888 0.026466151979670036 0 0.0063838574653811578 0.027390199143500354 0 0.006692355737613326 0.026884379244726801 0 0.0058667464833308171 0.027060781623581887 0 0.0077497492749759927 0.028097254470087818 0 0.0068954917667893812 0.02735058812871129 0 0.0080411214412499706 0.027604591626751041 0 0.0075269937925454642 0.027698046010681172 0 0.0067870848602710442 0.0271090830849324 0 0.0068954917667893812 0.02735058812871129 0 0.0080411214412499706 0.027604591626751041 0 0.0081027765919554819 0.026810134416095713 0 0.0080411214412499706 0.027604591626751041 0 0.0092139225188246424 0.027578690990739185 0 0.0081027765919554819 0.026810134416095713 0 0.0082455827314822077 0.028104126192602458 0 0.0080411214412499706 0.027604591626751041 0 0.0092139225188246424 0.027578690990739185 0 0.0092139225188246424 0.027578690990739185 0 0.0081027765919554819 0.026810134416095713 0 0.0091648823531711027 0.02617005807839249 0 0.0081027765919554819 0.026810134416095713 0 0.008132556598943113 0.025838375736726031 0 0.0072439140294029338 0.026189262291306348 0 0.0081027765919554819 0.026810134416095713 0 0.008132556598943113 0.025838375736726031 0 0.0091648823531711027 0.02617005807839249 0 0.010003188575975527 0.02499994056086665 0 0.0091648823531711027 0.02617005807839249 0 0.008616507864251723 0.024999954925787056 0 0.008132556598943113 0.025838375736726031 0 0.0091648823531711027 0.02617005807839249 0 0.008616507864251723 0.024999954925787056 0 0.008132556598943113 0.025838375736726031 0 0.008616507864251723 0.024999954925787056 0 0.0072298824547760276 0.02499992159421292 0 0.008132556598943113 0.025838375736726031 0 0.0072298824547760276 0.02499992159421292 0 0.0072439140294029338 0.026189262291306348 0 0.0072439140294029338 0.026189262291306348 0 0.0064068720037779867 0.025705814488674959 0 0.0060028132575930693 0.02642249606844033 0 0.0072298824547760276 0.02499992159421292 0 0.0064068720037779867 0.025705814488674959 0 0.0058432586861209912 0.0249999259498844 0 0.0072298824547760276 0.02499992159421292 0 0.0072439140294029338 0.026189262291306348 0 0.0064068720037779867 0.025705814488674959 0 0.0064068720037779867 0.025705814488674959 0 0.0058432586861209912 0.0249999259498844 0 0.0050323435110850969 0.025866028964244461 0 0.0058432586861209912 0.0249999259498844 0 0.0050323435110850969 0.025866028964244461 0 0.0044566852442955458 0.024999866804101455 0 0.0064068720037779867 0.025705814488674959 0 0.0050323435110850969 0.025866028964244461 0 0.0060028132575930693 0.02642249606844033 0 0.0038158409676698848 0.025577994544777834 0 0.0044566852442955458 0.024999866804101455 0 0.0030699933224322216 0.024999878015454138 0 0.0050323435110850969 0.025866028964244461 0 0.0038158409676698848 0.025577994544777834 0 0.0044566852442955458 0.024999866804101455 0 0.0050323435110850969 0.025866028964244461 0 0.0038158409676698848 0.025577994544777834 0 0.0037069449730879863 0.026375119136329526 0 0.0038158409676698848 0.025577994544777834 0 0.0037069449730879863 0.026375119136329526 0 0.0026020706734429118 0.02584234362612536 0 0.0050323435110850969 0.025866028964244461 0 0.0037069449730879863 0.026375119136329526 0 0.0050261634834663929 0.026702936400779198 0 0.0037069449730879863 0.026375119136329526 0 0.0036979354797317455 0.027292540811928317 0 0.0050261634834663929 0.026702936400779198 0 0.0036979354797317455 0.027292540811928317 0 0.0050261634834663929 0.026702936400779198 0 0.0051559880058797865 0.027446416585578795 0 0.0060028132575930693 0.02642249606844033 0 0.0050261634834663929 0.026702936400779198 0 0.0058667464833308171 0.027060781623581887 0 0.0050323435110850969 0.025866028964244461 0 0.0060028132575930693 0.02642249606844033 0 0.0050261634834663929 0.026702936400779198 0 0.0050261634834663929 0.026702936400779198 0 0.0058667464833308171 0.027060781623581887 0 0.0051559880058797865 0.027446416585578795 0 0.006692355737613326 0.026884379244726801 0 0.0060028132575930693 0.02642249606844033 0 0.0058667464833308171 0.027060781623581887 0 0.0063838574653811578 0.027390199143500354 0 0.0058667464833308171 0.027060781623581887 0 0.0058082352261943967 0.027589682049859315 0 0.0063838574653811578 0.027390199143500354 0 0.0065131388085385763 0.027766974519204811 0 0.0058082352261943967 0.027589682049859315 0 0.0065131388085385763 0.027766974519204811 0 0.0058082352261943967 0.027589682049859315 0 0.0059904111442443337 0.028000686237468854 0 0.0068564043215199764 0.028016532965481431 0 0.0065131388085385763 0.027766974519204811 0 0.0059904111442443337 0.028000686237468854 0 0.0059904111442443337 0.028000686237468854 0 0.0052458368708945737 0.027790688574215686 0 0.0052350108841449552 0.028321841432071445 0 0.0058082352261943967 0.027589682049859315 0 0.0059904111442443337 0.028000686237468854 0 0.0052458368708945737 0.027790688574215686 0 0.0058082352261943967 0.027589682049859315 0 0.0051559880058797865 0.027446416585578795 0 0.0052458368708945737 0.027790688574215686 0 0.0058667464833308171 0.027060781623581887 0 0.0058082352261943967 0.027589682049859315 0 0.0051559880058797865 0.027446416585578795 0 0.0051559880058797865 0.027446416585578795 0 0.0047177101772090235 0.02761956003812405 0 0.0052458368708945737 0.027790688574215686 0 0.0051023439776085484 0.027478155027881718 0 0.0042633832328269989 0.027997717957400227 0 0.0036979354797317455 0.027292540811928317 0 0.0051559880058797865 0.027446416585578795 0 0.0038146990154315124 0.028415604379869196 0 0.0036979354797317455 0.027292540811928317 0 0.0038146990154315124 0.028415604379869196 0 0.0027074985619877159 0.028047256097110885 0 0.0047177101772090235 0.02761956003812405 0 0.0046524208267176188 0.028302961284368822 0 0.0037065793409240162 0.027997720594912515 0 0.0042633832328269989 0.027997717957400227 0 0.0031921503871104023 0.028519527719542411 0 0.0047177101772090235 0.02761956003812405 0 0.0052458368708945737 0.027790688574215686 0 0.0046524208267176188 0.028302961284368822 0 0.0052458368708945737 0.027790688574215686 0 0.0052350108841449552 0.028321841432071445 0 0.0046524208267176188 0.028302961284368822 0 0.0050683350909611841 0.028764389990281001 0 0.0046810926422265675 0.028825077752035855 0 0.0046524208267176188 0.028302961284368822 0 0.0042959992873671466 0.029048259778089839 0 0.0039663623096199375 0.028643555036925509 0 0.0051261481177030561 0.028731095149093614 0 0.0046524208267176188 0.028302961284368822 0 0.0042959992873671466 0.029048259778089839 0 0.0051261481177030561 0.028731095149093614 0 0.0052350108841449552 0.028321841432071445 0 0.0054512841568707107 0.028498518699563297 0 0.0051261481177030561 0.028731095149093614 0 0.0052350108841449552 0.028321841432071445 0 0.0046524208267176188 0.028302961284368822 0 0.0053444967924301846 0.028618385971325936 0 0.0051261481177030561 0.028731095149093614 0 0.0054512841568707107 0.028498518699563297 0 0.0053444967924301846 0.028618385971325936 0 0.0054512841568707107 0.028498518699563297 0 0.0054276494432472719 0.028607443491901724 0 0.0073951535244315154 0.028389465622569374 0 0.0061651579370204674 0.028102440425065912 0 0.0074101500080053411 0.027900798240975185 0 0.0073109571217525706 0.02792188844615372 0 0.0068705579347599485 0.028031154079305547 0 0.0052530459365075612 0.028699019794463747 0 0.0054276494432472719 0.028607443491901724 0 0.0056533659672167117 0.028485129675577758 0 0.0072272686343910833 0.027905694891247643 0 0.0073109571217525706 0.02792188844615372 0 0.0068705579347599485 0.028031154079305547 0 0.0072272686343910833 0.027905694891247643 0 0.0068564043215199764 0.028016532965481431 0 0.0068705579347599485 0.028031154079305547 0 0.0054512841568707107 0.028498518699563297 0 0.0054276494432472719 0.028607443491901724 0 0.0056533659672167117 0.028485129675577758 0 0.0060429257318207795 0.027963418035198872 0 0.0061651579370204674 0.028102440425065912 0 0.0068564043215199764 0.028016532965481431 0 0.0059904111442443337 0.028000686237468854 0 0.0068705579347599485 0.028031154079305547 0 0.0059904111442443337 0.028000686237468854 0 0.0054512841568707107 0.028498518699563297 0 0.0056533659672167117 0.028485129675577758 0 0.0059904111442443337 0.028000686237468854 0 0.0052350108841449552 0.028321841432071445 0 0.0054512841568707107 0.028498518699563297 0 0.0018803850625728712 0.028982741016847408 0 0.00154776379955213 0.029331231516240577 0 0.0010457407322387357 0.028610610880923343 0 0.0018803850625728712 0.028982741016847408 0 0.00154776379955213 0.029331231516240577 0 0.0021094245742155245 0.029264105860459588 0 -4.9716210887280108e-05 0.028673983021539527 0 8.2485835157853715e-05 0.028136209952305952 0 -0.00031085615314092711 0.028305481714243037 0 0.0029034574899672923 0.028327130087022371 0 0.00033134412530139178 0.028439894144961449 0 -4.9716210887280108e-05 0.028673983021539527 0 0.00040547399563267759 0.028775126458108282 0 8.2485835157853715e-05 0.028136209952305952 0 0.0039789138728157742 0.026439344451945606 0 0.0041734688808968334 0.026784325331861463 0 0.0036702171326286745 0.027174035596369692 0 0.0042941186762555945 0.027150402598084468 0 0.0041734688808968334 0.026784325331861463 0 0.0044805321551193936 0.026566327314094088 0 0.0039789138728157742 0.026439344451945606 0 0.0041734688808968334 0.026784325331861463 0 0.0044805321551193936 0.026566327314094088 0 0.0020259482448132188 0.027559088440534642 0 0.0029034574899672923 0.028327130087022371 0 0.00154776379955213 0.029331231516240577 0 0.0021094245742155245 0.029264105860459588 0 0.0029410125113818429 0.029301620899020695 0 0.0029034574899672923 0.028327130087022371 0 0.0041712979226251144 0.028987688675542127 0 0.0052662809109874347 0.028530263055430334 0 0.0052407784072932779 0.028583494285617583 0 0.0052294835260034631 0.028586498913798226 0 0.0042959992873671466 0.029048259778089839 0 0.0029410125113818429 0.029301620899020695 0 0.0039663623096199375 0.028643555036925509 0 0.0046810926422265675 0.028825077752035855 0 0.0041712979226251144 0.028987688675542127 0 0.0052245677919836456 0.028562037883082279 0 0.0051995107495501824 0.028625783860227197 0 0.0052294835260034631 0.028586498913798226 0 0.0029410125113818429 0.029301620899020695 0 0.0037065793409240162 0.027997720594912515 0 0.0039663623096199375 0.028643555036925509 0 0.0046524208267176188 0.028302961284368822 0 0.0037065793409240162 0.027997720594912515 0 0.0039663623096199375 0.028643555036925509 0 0.0021767920397678768 0.02921072732419874 0 0.0031921503871104023 0.028519527719542411 0 0.0018803850625728712 0.028982741016847408 0 0.0026858021435913646 0.02897996624702159 0 0.0018650041404481819 0.028714959192733799 0 0.0018803850625728712 0.028982741016847408 0 0.0021094245742155245 0.029264105860459588 0 0.0026858021435913646 0.02897996624702159 0 0.0021094245742155245 0.029264105860459588 0 0.0029410125113818429 0.029301620899020695 0 0.0037065793409240162 0.027997720594912515 0 0.0026858021435913646 0.02897996624702159 0 0.0022288220101085564 0.028444559585252192 0 0.0018650041404481819 0.028714959192733799 0 0.0022288220101085564 0.028444559585252192 0 0.0016564791507465656 0.02799614327010851 0 0.0018650041404481819 0.028714959192733799 0 0.0026858021435913646 0.02897996624702159 0 0.0022288220101085564 0.028444559585252192 0 0.0027074985619877159 0.028047256097110885 0 0.0038146990154315124 0.028415604379869196 0 0.0026858021435913646 0.02897996624702159 0 0.0027074985619877159 0.028047256097110885 0 0.0022288220101085564 0.028444559585252192 0 0.0027074985619877159 0.028047256097110885 0 0.0016564791507465656 0.02799614327010851 0 0.0027074985619877159 0.028047256097110885 0 0.0016564791507465656 0.02799614327010851 0 0.0023224755311409598 0.026947965594792445 0 0.0016564791507465656 0.02799614327010851 0 0.0018650041404481819 0.028714959192733799 0 0.0010457407322387357 0.028610610880923343 0 0.0018803850625728712 0.028982741016847408 0 0.0018650041404481819 0.028714959192733799 0 0.0010457407322387357 0.028610610880923343 0 8.2485835157853715e-05 0.028136209952305952 0 -0.00045437262130863213 0.027753696342300984 0 -0.0001974014417226 0.027508496185052508 0 0.0016564791507465656 0.02799614327010851 0 0.0010457407322387357 0.028610610880923343 0 0.00035353290879680706 0.027750308776190401 0 0.00033134412530139178 0.028439894144961449 0 9.5736537253132356e-05 0.027590036113415348 0 0.0010459900588218707 0.027131085198844742 0 -0.00040871565649962233 0.026726203264089927 0 0.00035353290879680706 0.027750308776190401 0 0.0016564791507465656 0.02799614327010851 0 0.0010459900588218707 0.027131085198844742 0 0.00035353290879680706 0.027750308776190401 0 0.0016564791507465656 0.02799614327010851 0 0.0010459900588218707 0.027131085198844742 0 0.0023224755311409598 0.026947965594792445 0 0.0010459900588218707 0.027131085198844742 0 0.0023224755311409598 0.026947965594792445 0 0.00100983336580367 0.026162293509866014 0 0.0010459900588218707 0.027131085198844742 0 0.00100983336580367 0.026162293509866014 0 -0.00040871565649962233 0.026726203264089927 0 0.0023224755311409598 0.026947965594792445 0 0.0026020706734429118 0.02584234362612536 0 0.00100983336580367 0.026162293509866014 0 0.0036979354797317455 0.027292540811928317 0 0.0027074985619877159 0.028047256097110885 0 0.0023224755311409598 0.026947965594792445 0 0.0037069449730879863 0.026375119136329526 0 0.0036979354797317455 0.027292540811928317 0 0.0023224755311409598 0.026947965594792445 0 0.0037069449730879863 0.026375119136329526 0 0.0023224755311409598 0.026947965594792445 0 0.0026020706734429118 0.02584234362612536 0 0.0026020706734429118 0.02584234362612536 0 0.0016833598263909107 0.024999894488525881 0 0.00100983336580367 0.026162293509866014 0 0.0038158409676698848 0.025577994544777834 0 0.0026020706734429118 0.02584234362612536 0 0.0030699933224322216 0.024999878015454138 0 0.0026020706734429118 0.02584234362612536 0 0.0016833598263909107 0.024999894488525881 0 0.0030699933224322216 0.024999878015454138 0 0.0016833598263909107 0.024999894488525881 0 0.00100983336580367 0.026162293509866014 0 0.00029666378542113038 0.024999886507461325 0 0.00100983336580367 0.026162293509866014 0 0.00029666378542113038 0.024999886507461325 0 -0.00036457120939041674 0.025748014289977108 0 0.00029666378542113038 0.024999886507461325 0 -0.00036457120939041674 0.025748014289977108 0 -0.0010899779826187023 0.024999932195365795 0 0.00100983336580367 0.026162293509866014 0 -0.00036457120939041674 0.025748014289977108 0 -0.00040871565649962233 0.026726203264089927 0 -0.00036457120939041674 0.025748014289977108 0 -0.0014589720389818013 0.025710643731669057 0 -0.00040871565649962233 0.026726203264089927 0 -0.0014589720389818013 0.025710643731669057 0 -0.0017861992960496143 0.026392809816124036 0 -0.00040871565649962233 0.026726203264089927 0 -0.00036457120939041674 0.025748014289977108 0 -0.0014589720389818013 0.025710643731669057 0 -0.0010899779826187023 0.024999932195365795 0 -0.0014589720389818013 0.025710643731669057 0 -0.0022533804140236003 0.025220993552154 0 -0.002357197978946362 0.025236969664500591 0 -0.0010899779826187023 0.024999932195365795 0 -0.0022533804140236003 0.025220993552154 0 -0.0024765334915057263 0.024999946555170061 0 -0.0014589720389818013 0.025710643731669057 0 -0.0010899779826187023 0.024999932195365795 0 -0.0022533804140236003 0.025220993552154 0 -0.0054211448306911349 0.0247238412349816 0 -0.0056332785655681039 0.025024186857120871 0 -0.0060092376277045539 0.024765030920126361 0 -0.0024767989315730723 0.024999984882235503 0 -0.0024051031008678675 0.025257302068729413 0 -0.0038773349385852699 0.025489654218893314 0 -0.0024783546168289958 0.025000293345044861 0 -0.0035188518816521748 0.024853793736739963 0 -0.0022533804140236003 0.025220993552154 0 -0.0024765334915057263 0.024999946555170061 0 -0.0023754226302651837 0.025243664764456254 0 -0.0033059423514769479 0.024848725007216053 0 -0.0035188518816521748 0.024853793736739963 0 -0.0054211448306911349 0.0247238412349816 0 -0.0056332785655681039 0.025024186857120871 0 -0.0053920669714048733 0.025101555655735585 0 -0.0035188518816521748 0.024853793736739963 0 -0.0036485540482634206 0.025695754741194406 0 -0.0014589720389818013 0.025710643731669057 0 -0.002357197978946362 0.025236969664500591 0 -0.0017861992960496143 0.026392809816124036 0 -0.0036485540482634206 0.025695754741194406 0 -0.0033073882938639701 0.026572448919702191 0 -0.0056332785655681039 0.025024186857120871 0 -0.0053920669714048733 0.025101555655735585 0 -0.0055510097468827024 0.025209428285380694 0 -0.0053920669714048733 0.025101555655735585 0 -0.0055510097468827024 0.025209428285380694 0 -0.0053420614747758189 0.025270941268864179 0 -0.0055510097468827024 0.025209428285380694 0 -0.0053420614747758189 0.025270941268864179 0 -0.0054525178931838078 0.025340970150707152 0 -0.0012998982287783492 0.027397879866437515 0 -0.00062764059986038559 0.02743108446803395 0 -0.00040871565649962233 0.026726203264089927 0 -0.00038546648338282118 0.026757810861281706 0 9.5736537253132356e-05 0.027590036113415348 0 -0.00062764059986038559 0.02743108446803395 0 -0.00040871565649962233 0.026726203264089927 0 -0.0001974014417226 0.027508496185052508 0 -0.0017861992960496143 0.026392809816124036 0 -0.0012998982287783492 0.027397879866437515 0 -0.00040871565649962233 0.026726203264089927 0 -0.0068539774833408004 0.025305570130202633 0 -0.0066480457557526983 0.024999650239706211 0 -0.0070299875646459651 0.025467453886455271 0 -0.0067003375253408687 0.025251459205609662 0 -0.0064822809858752321 0.025154723367596055 0 -0.0068132186598407005 0.025533881670819429 0 -0.0059734516772490653 0.025340662798359285 0 -0.0069485837096418769 0.025465829026391763 0 -0.0068539774833408004 0.025305570130202633 0 -0.0068132186598407005 0.025533881670819429 0 -0.0070078819192385764 0.025394758892373009 0 -0.0068539774833408004 0.025305570130202633 0 -0.0067003375253408687 0.025251459205609662 0 -0.0068132186598407005 0.025533881670819429 0 -0.0068539774833408004 0.025305570130202633 0 -0.0067003375253408687 0.025251459205609662 0 -0.0066480457557526983 0.024999650239706211 0 -0.006311938838827265 0.025338004923720965 0 -0.005918143509227783 0.025234616404837502 0 -0.0053668370378915555 0.02571771669991299 0 -0.006311938838827265 0.025338004923720965 0 -0.0053668370378915555 0.02571771669991299 0 -0.0070299875646459651 0.025467453886455271 0 -0.005918143509227783 0.025234616404837502 0 -0.0052575051620648251 0.024999928506586232 0 -0.0066480348903385509 0.024999746347125353 0 -0.006311938838827265 0.025338004923720965 0 -0.005918143509227783 0.025234616404837502 0 -0.0066480348903385509 0.024999746347125353 0 -0.005918143509227783 0.025234616404837502 0 -0.0053668370378915555 0.02571771669991299 0 -0.0052575051620648251 0.024999928506586232 0 -0.0053668370378915555 0.02571771669991299 0 -0.0052575051620648251 0.024999928506586232 0 -0.0038773349385852699 0.025489654218893314 0 -0.0066480457557526983 0.024999650239706211 0 -0.0064822809858752321 0.025154723367596055 0 -0.0063023274031528626 0.025048894762745487 0 -0.0067003375253408687 0.025251459205609662 0 -0.0066480457557526983 0.024999650239706211 0 -0.0064822809858752321 0.025154723367596055 0 -0.0060648198364916016 0.025074389316802771 0 -0.0063023274031528626 0.025048894762745487 0 -0.0063082688962737806 0.025199401204741165 0 -0.0064822809858752321 0.025154723367596055 0 -0.0063023274031528626 0.025048894762745487 0 -0.0063082688962737806 0.025199401204741165 0 -0.0060648198364916016 0.025074389316802771 0 -0.0063023274031528626 0.025048894762745487 0 -0.0060092376277045539 0.024765030920126361 0 -0.0059734516772490653 0.025340662798359285 0 -0.0050356841900543953 0.025160730908218153 0 -0.0052575051620648251 0.024999928506586232 0 -0.0038773349385852699 0.025489654218893314 0 -0.0038670702329567904 0.025000017610809475 0 -0.0066480457557526983 0.024999650239706211 0 -0.0063023274031528626 0.025048894762745487 0 -0.0060092376277045539 0.024765030920126361 0 -0.0024767989315730723 0.024999984882235503 0 -0.0038773349385852699 0.025489654218893314 0 -0.0038670702329567904 0.025000017610809475 0 -0.0035188518816521748 0.024853793736739963 0 -0.0050356841900543953 0.025160730908218153 0 -0.0056332785655681039 0.025024186857120871 0 -0.0060648198364916016 0.025074389316802771 0 -0.0060092376277045539 0.024765030920126361 0 -0.0056332785655681039 0.025024186857120871 0 -0.0060648198364916016 0.025074389316802771 0 -0.0060833508016114295 0.025374720862800418 0 -0.0056332785655681039 0.025024186857120871 0 -0.0055510097468827024 0.025209428285380694 0 -0.0056857596630242998 0.025141613915228476 0 -0.0056478944899053946 0.025037545535345988 0 -0.0058733267373607947 0.025243477277042067 0 -0.0055510097468827024 0.025209428285380694 0 -0.0056793915219549391 0.025246914592953345 0 -0.0056001521934322352 0.02533212665839198 0 -0.0055510097468827024 0.025209428285380694 0 -0.0056793915219549391 0.025246914592953345 0 -0.0056857596630242998 0.025141613915228476 0 -0.0058733267373607947 0.025243477277042067 0 -0.0061768866689247953 0.025450936302615915 0 -0.0056793915219549391 0.025246914592953345 0 -0.0056857596630242998 0.025141613915228476 0 -0.0057825618267168611 0.025236220798573326 0 -0.0060648198364916016 0.025074389316802771 0 -0.0060833508016114295 0.025374720862800418 0 -0.0063082688962737806 0.025199401204741165 0 -0.0060833508016114295 0.025374720862800418 0 -0.0063082688962737806 0.025199401204741165 0 -0.0065097570645282973 0.025646590281546526 0 -0.0063602115538944036 0.025206625876226386 0 -0.0069683555100019121 0.025318640012117213 0 -0.0063082688962737806 0.025199401204741165 0 -0.0065097570645282973 0.025646590281546526 0 -0.0071043463176167455 0.025098891702735493 0 -0.0064822809858752321 0.025154723367596055 0 -0.0063082688962737806 0.025199401204741165 0 -0.0068132186598407005 0.025533881670819429 0 -0.0070720352143948508 0.025610341816551651 0 -0.0071043463176167455 0.025098891702735493 0 -0.0075523260116521843 0.02544546341168754 0 -0.0065097570645282973 0.025646590281546526 0 -0.0070720352143948508 0.025610341816551651 0 -0.0071043463176167455 0.025098891702735493 0 -0.0062552713215811503 0.025725376001509172 0 -0.0083449853072267901 0.025316963741301487 0 -0.0059323315793315089 0.025436198819166728 0 -0.0059032385794095714 0.025321704435439921 0 -0.0060598701013240283 0.025428864802363126 0 -0.0059323315793315089 0.025436198819166728 0 -0.0059032385794095714 0.025321704435439921 0 -0.0058631685196101346 0.025388633217952011 0 -0.0059323315793315089 0.025436198819166728 0 -0.0058631685196101346 0.025388633217952011 0 -0.0058702138081134884 0.025436787318491437 0 -0.0070720352143948508 0.025610341816551651 0 -0.0070174713001276397 0.026075835977651673 0 -0.007581923120122281 0.025886310981106452 0 -0.0061768866689247953 0.025450936302615915 0 -0.0062552713215811503 0.025725376001509172 0 -0.0065097570645282973 0.025646590281546526 0 -0.0070720352143948508 0.025610341816551651 0 -0.0070174713001276397 0.026075835977651673 0 -0.0057825618267168611 0.025236220798573326 0 -0.0059032385794095714 0.025321704435439921 0 -0.0057603362518212093 0.025342004190358307 0 -0.0059032385794095714 0.025321704435439921 0 -0.0058631685196101346 0.025388633217952011 0 -0.0057603362518212093 0.025342004190358307 0 -0.0058631685196101346 0.025388633217952011 0 -0.005804106457564023 0.025424795202487981 0 -0.0057603362518212093 0.025342004190358307 0 -0.0058631685196101346 0.025388633217952011 0 -0.0058702138081134884 0.025436787318491437 0 -0.005804106457564023 0.025424795202487981 0 -0.005804106457564023 0.025424795202487981 0 -0.0057603362518212093 0.025342004190358307 0 -0.0056844775296626829 0.025467347539312558 0 -0.0057603362518212093 0.025342004190358307 0 -0.0056001521934322352 0.02533212665839198 0 -0.0056844775296626829 0.025467347539312558 0 -0.0056793915219549391 0.025246914592953345 0 -0.0057603362518212093 0.025342004190358307 0 -0.0056001521934322352 0.02533212665839198 0 -0.0056793915219549391 0.025246914592953345 0 -0.0057825618267168611 0.025236220798573326 0 -0.0057603362518212093 0.025342004190358307 0 -0.0056001521934322352 0.02533212665839198 0 -0.0056844775296626829 0.025467347539312558 0 -0.0054884553718313562 0.02545363908073071 0 -0.004997621574152426 0.022892749297529134 0 -0.0049120065174945516 0.022310189938038613 0 -0.0040596926531088267 0.020313918281041392 0 -0.0043371592045297639 0.020022227464968474 0 -0.0038331509545361186 0.019997013033326735 0 -0.0040596926531088267 0.020313918281041392 0 -0.0043976682002443354 0.020335516142850292 0 -0.0043371592045297639 0.020022227464968474 0 -0.0043976682002443354 0.020335516142850292 0 -0.0043371592045297639 0.020022227464968474 0 -0.0046662822232774234 0.020188401376191514 0 -0.0043371592045297639 0.020022227464968474 0 -0.0046662822232774234 0.020188401376191514 0 -0.0048459263154987282 0.020100324096387102 0 -0.005804106457564023 0.025424795202487981 0 -0.0056844775296626829 0.025467347539312558 0 -0.0058837104387486341 0.0254950860655795 0 -0.004997621574152426 0.022892749297529134 0 -0.0052536742214967938 0.02217155105485346 0 -0.0058702138081134884 0.025436787318491437 0 -0.005804106457564023 0.025424795202487981 0 -0.0058837104387486341 0.0254950860655795 0 -0.0050801901967779985 0.020617842893235493 0 -0.0052536742214967938 0.02217155105485346 0 -0.0046662822232774234 0.020188401376191514 0 -0.0048966500718625912 0.0203456832550423 0 -0.0048477389655395484 0.020095712292317849 0 -0.0043976682002443354 0.020335516142850292 0 -0.0046662822232774234 0.020188401376191514 0 -0.0046751001506403246 0.02039402085569662 0 -0.0046662822232774234 0.020188401376191514 0 -0.0046751001506403246 0.02039402085569662 0 -0.0048966500718625912 0.0203456832550423 0 -0.0048966500718625912 0.0203456832550423 0 -0.0048477389655395484 0.020095712292317849 0 -0.005143413382194627 0.020154133224180026 0 -0.0048966500718625912 0.0203456832550423 0 -0.0051128429113473867 0.020467415410507592 0 -0.005143413382194627 0.020154133224180026 0 -0.0068811263921739179 0.02457902375367433 0 -0.007667212604331103 0.023133052507020677 0 -0.0052536742214967938 0.02217155105485346 0 -0.007667212604331103 0.023133052507020677 0 -0.0058598856069646274 0.023110835523027007 0 -0.0067201249736512161 0.022646880676936359 0 -0.0073508196614422757 0.023400738833044162 0 -0.0059323315793315089 0.025436198819166728 0 -0.0058837104387486341 0.0254950860655795 0 -0.0059582430511634591 0.025462757689741607 0 -0.0052536742214967938 0.02217155105485346 0 -0.0068811263921739179 0.02457902375367433 0 -0.0059323315793315089 0.025436198819166728 0 -0.0058702138081134884 0.025436787318491437 0 -0.0058837104387486341 0.0254950860655795 0 -0.0065916727142214101 0.024889899942443703 0 -0.0068811263921739179 0.02457902375367433 0 -0.0059323315793315089 0.025436198819166728 0 -0.0059707405966564885 0.025475891352699596 0 -0.0060598701013240283 0.025428864802363126 0 -0.00068765161462816852 0.027921991536957572 0 -0.00095253291890035183 0.028166047352224485 0 -0.00083974233593512465 0.027709651843571693 0 -0.0029939429714899374 0.025659740793275307 0 -0.0001598281421893701 0.0276431893687023 0 -0.00068765161462816852 0.027921991536957572 0 -0.00095253291890035183 0.028166047352224485 0 -0.00050519232065705832 0.028056584924233931 0 -0.0034096202553398885 0.02000255288054445 0 -0.0035923597390626703 0.020108002702942142 0 -0.0034589656402290721 0.020117012877567075 0 -0.00063590407759529257 0.028105875591241752 0 -0.00056006389782197027 0.028136340782391391 0 -0.00058069693894958303 0.028124326462940101 0 -0.00063590407759529257 0.028105875591241752 0 -0.00056006389782197027 0.028136340782391391 0 -0.00050519232065705832 0.028056584924233931 0 -0.00056006389782197027 0.028136340782391391 0 -0.00050519232065705832 0.028056584924233931 0 -0.00031085615314092711 0.028305481714243037 0 8.2485835157853715e-05 0.028136209952305952 0 -0.00050519232065705832 0.028056584924233931 0 -0.00031085615314092711 0.028305481714243037 0 8.2485835157853715e-05 0.028136209952305952 0 -0.00050519232065705832 0.028056584924233931 0 -0.00045437262130863213 0.027753696342300984 0 -0.00068765161462816852 0.027921991536957572 0 -0.00050519232065705832 0.028056584924233931 0 -0.00045437262130863213 0.027753696342300984 0 -0.00068765161462816852 0.027921991536957572 0 -0.00045437262130863213 0.027753696342300984 0 -0.00083974233593512465 0.027709651843571693 0 -0.00062764059986038559 0.02743108446803395 0 -0.00045437262130863213 0.027753696342300984 0 -0.0001974014417226 0.027508496185052508 0 -0.00062764059986038559 0.02743108446803395 0 -0.00045437262130863213 0.027753696342300984 0 -0.00083974233593512465 0.027709651843571693 0 -0.0012998982287783492 0.027397879866437515 0 -0.00062764059986038559 0.02743108446803395 0 -0.00083974233593512465 0.027709651843571693 0 -0.0012998982287783492 0.027397879866437515 0 -0.00095253291890035183 0.028166047352224485 0 -0.00083974233593512465 0.027709651843571693 0 -0.0033073882938639701 0.026572448919702191 0 -0.0029939429714899374 0.025659740793275307 0 -0.0053420614747758189 0.025270941268864179 0 -0.0052729925172466637 0.025438422958923936 0 -0.0054525178931838078 0.025340970150707152 0 -0.0055510097468827024 0.025209428285380694 0 -0.0056001521934322352 0.02533212665839198 0 -0.0054525178931838078 0.025340970150707152 0 -0.0056001521934322352 0.02533212665839198 0 -0.0054525178931838078 0.025340970150707152 0 -0.0054884553718313562 0.02545363908073071 0 -0.0052729925172466637 0.025438422958923936 0 -0.0054525178931838078 0.025340970150707152 0 -0.0054884553718313562 0.02545363908073071 0 -0.0034096202553398885 0.02000255288054445 0 -0.0038331509545361186 0.019997013033326735 0 -0.0035923597390626703 0.020108002702942142 0 -0.0029939429714899374 0.025659740793275307 0 -0.0049120065174945516 0.022310189938038613 0 -0.0035923597390626703 0.020108002702942142 0 -0.0034703895904161868 0.020174420507099007 0 -0.0034589656402290721 0.020117012877567075 0 -0.0035923597390626703 0.020108002702942142 0 -0.0037175716409439006 0.020291877682156019 0 -0.0034703478290394386 0.020284774558925609 0 -0.0038331509545361186 0.019997013033326735 0 -0.0035923597390626703 0.020108002702942142 0 -0.0037175716409439006 0.020291877682156019 0 -0.0035923597390626703 0.020108002702942142 0 -0.0034703478290394386 0.020284774558925609 0 -0.0034703895904161868 0.020174420507099007 0 -0.0040596926531088267 0.020313918281041392 0 -0.0038331509545361186 0.019997013033326735 0 -0.0037175716409439006 0.020291877682156019 0 -0.0040596926531088267 0.020313918281041392 0 -0.0037175716409439006 0.020291877682156019 0 -0.0037964034573304403 0.020505663878398254 0 -0.0037175716409439006 0.020291877682156019 0 -0.003552112319186688 0.020511458947293486 0 -0.0037964034573304403 0.020505663878398254 0 -0.0037175716409439006 0.020291877682156019 0 -0.0034703478290394386 0.020284774558925609 0 -0.003552112319186688 0.020511458947293486 0 -0.0034703478290394386 0.020284774558925609 0 -0.0032453940318916525 0.020529958575017278 0 -0.003552112319186688 0.020511458947293486 0 -0.0034703478290394386 0.020284774558925609 0 -0.0033530595513157156 0.020191190937780133 0 -0.0032453940318916525 0.020529958575017278 0 -0.0011887998201947031 0.023399598886713453 0 -0.0016625741330637421 0.02215686383643542 0 -0.0034703478290394386 0.020284774558925609 0 -0.0034703895904161868 0.020174420507099007 0 -0.0033530595513157156 0.020191190937780133 0 -0.0029939429714899374 0.025659740793275307 0 -0.0011887998201947031 0.023399598886713453 0 -0.0034096202553398885 0.02000255288054445 0 -0.0033530595513157156 0.020191190937780133 0 -0.0034589656402290721 0.020117012877567075 0 -0.0034703895904161868 0.020174420507099007 0 -0.0033530595513157156 0.020191190937780133 0 -0.0034589656402290721 0.020117012877567075 0 0.0020259482448132188 0.027559088440534642 0 0.00075373235385279885 0.02621201144529826 0 -4.9716210887280108e-05 0.028673983021539527 0 -0.00031085615314092711 0.028305481714243037 0 -0.00049469954385967661 0.028561044452478295 0 -0.00056006389782197027 0.028136340782391391 0 -0.00058069693894958303 0.028124326462940101 0 -0.00057488573233016528 0.028116578588902093 0 -0.00031964011363674221 0.028672893933820838 0 0.00075373235385279885 0.02621201144529826 0 -0.00056006389782197027 0.028136340782391391 0 -0.00031085615314092711 0.028305481714243037 0 -0.00049469954385967661 0.028561044452478295 0 -0.0011887998201947031 0.023399598886713453 0 0.00075373235385279885 0.02621201144529826 0 2.0955842835423095e-05 0.024058386809686295 0 2.6764162900128828e-05 0.024204555634857228 0 7.6934751855210962e-05 0.024217704765209371 0 0.00075373235385279885 0.02621201144529826 0 0.0019480582265012703 0.025379490106556643 0 0.0039789138728157742 0.026439344451945606 0 0.0034604082781890043 0.02631586628577838 0 0.0036702171326286745 0.027174035596369692 0 -4.0154530639395152e-05 0.024042576316526329 0 2.0955842835423095e-05 0.024058386809686295 0 2.6764162900128828e-05 0.024204555634857228 0 2.6764162900128828e-05 0.024204555634857228 0 7.6934751855210962e-05 0.024217704765209371 0 0.00012720307981424765 0.024431474712977273 0 -0.0032453940318916525 0.020529958575017278 0 -0.0033854288140850817 0.020731676600507554 0 -0.003552112319186688 0.020511458947293486 0 -0.0032453940318916525 0.020529958575017278 0 -0.0033854288140850817 0.020731676600507554 0 -0.0031058036941173867 0.020843780955006604 0 -0.0016625741330637421 0.02215686383643542 0 -0.001756807219897833 0.022323279296576064 0 0.0019480582265012703 0.025379490106556643 0 0.0022817032378854947 0.026705528282740205 0 7.6934751855210962e-05 0.024217704765209371 0 0.00012720307981424765 0.024431474712977273 0 0.00016020089490183663 0.02443959558456392 0 -0.0033854288140850817 0.020731676600507554 0 -0.0031058036941173867 0.020843780955006604 0 -0.0033378490541063331 0.020888601942995612 0 0.00027477356551222176 0.024712066245837414 0 0.00012720307981424765 0.024431474712977273 0 0.00016020089490183663 0.02443959558456392 0 -0.0031058036941173867 0.020843780955006604 0 -0.0032597883081451626 0.020962329925261997 0 -0.0031303886944364801 0.021334751650041485 0 -0.0031058036941173867 0.020843780955006604 0 -0.0032597883081451626 0.020962329925261997 0 -0.0033378490541063331 0.020888601942995612 0 -0.0033854288140850817 0.020731676600507554 0 -0.0033378490541063331 0.020888601942995612 0 -0.0034547360544554934 0.020890901910585402 0 -0.0032597883081451626 0.020962329925261997 0 -0.0033975109848867033 0.020949017017923278 0 -0.0034703188504658176 0.020965665729136194 0 -0.0033378490541063331 0.020888601942995612 0 -0.0034547360544554934 0.020890901910585402 0 -0.0033975109848867033 0.020949017017923278 0 -0.0034547360544554934 0.020890901910585402 0 -0.0034664926472548754 0.020948426917238534 0 -0.0033975109848867033 0.020949017017923278 0 -0.0032597883081451626 0.020962329925261997 0 -0.0033378490541063331 0.020888601942995612 0 -0.0033975109848867033 0.020949017017923278 0 -0.0033975109848867033 0.020949017017923278 0 -0.0034605938659252188 0.020948429408506747 0 -0.0034703188504658176 0.020965665729136194 0 -0.0036485454592459689 0.02153212618195079 0 -0.0025104034277150908 0.019577642809260172 0 -0.0034664926472548754 0.020948426917238534 0 -0.0033975109848867033 0.020949017017923278 0 -0.0034605938659252188 0.020948429408506747 0 -0.0034664926472548754 0.020948426917238534 0 -0.0035031865721356051 0.020942523425955099 0 -0.0034782134137507029 0.020934308538625167 0 -0.0034664926472548754 0.020948426917238534 0 -0.0034605938659252188 0.020948429408506747 0 -0.0035031865721356051 0.020942523425955099 0 -0.0034605938659252188 0.020948429408506747 0 -0.0035031865721356051 0.020942523425955099 0 -0.0034703188504658176 0.020965665729136194 0 -0.0035031865721356051 0.020942523425955099 0 -0.0035380729052725238 0.020923473402305281 0 -0.0034551324218102643 0.02086708860339672 0 -0.0026934496408123347 0.01968548444341375 0 -0.0025104034277150908 0.019577642809260172 0 -0.0032597883081451626 0.020962329925261997 0 -0.0035209604020964495 0.021390990791140922 0 -0.0031303886944364801 0.021334751650041485 0 -0.0027262100450777911 0.02173479231558156 0 -0.0035209604020964495 0.021390990791140922 0 -0.0031303886944364801 0.021334751650041485 0 -0.0027834418847649638 0.021559518853750806 0 -0.0031058036941173867 0.020843780955006604 0 -0.0031303886944364801 0.021334751650041485 0 -1.1975058653969417e-05 0.020453514800270082 0 -0.0025104034277150908 0.019577642809260172 0 -0.0037527400279793043 0.021281530289210818 0 -0.0038114411182701641 0.020862320092918617 0 -0.0040814989985935926 0.020971810595801197 0 -0.0038069202369556947 0.021490471565370223 0 -0.0033759538436466509 0.020820361599302496 0 -0.0037527400279793043 0.021281530289210818 0 -0.0035131309696309256 0.020988585574168855 0 -0.0038114411182701641 0.020862320092918617 0 -0.003220306889534702 0.020806790129409832 0 -0.0034551324218102643 0.02086708860339672 0 -0.0035131309696309256 0.020988585574168855 0 -0.0035031865721356051 0.020942523425955099 0 -0.0034551324218102643 0.02086708860339672 0 -0.0034782134137507029 0.020934308538625167 0 -0.0034664926472548754 0.020948426917238534 0 -0.0034782134137507029 0.020934308538625167 0 -0.0035131309696309256 0.020988585574168855 0 -0.0034551324218102643 0.02086708860339672 0 -0.0034782134137507029 0.020934308538625167 0 -0.0035131309696309256 0.020988585574168855 0 -0.0034547360544554934 0.020890901910585402 0 -0.0035131309696309256 0.020988585574168855 0 -0.0036533563563468747 0.020729045685780604 0 -0.0034547360544554934 0.020890901910585402 0 -0.0034664926472548754 0.020948426917238534 0 -0.0035131309696309256 0.020988585574168855 0 -0.0035131309696309256 0.020988585574168855 0 -0.0038114411182701641 0.020862320092918617 0 -0.0036533563563468747 0.020729045685780604 0 -0.0038114411182701641 0.020862320092918617 0 -0.0036533563563468747 0.020729045685780604 0 -0.004011535347777262 0.020643884663692477 0 -0.0033854288140850817 0.020731676600507554 0 -0.0036533563563468747 0.020729045685780604 0 -0.003552112319186688 0.020511458947293486 0 -0.0033854288140850817 0.020731676600507554 0 -0.0034547360544554934 0.020890901910585402 0 -0.0036533563563468747 0.020729045685780604 0 -0.0036533563563468747 0.020729045685780604 0 -0.003552112319186688 0.020511458947293486 0 -0.0037964034573304403 0.020505663878398254 0 -0.0036533563563468747 0.020729045685780604 0 -0.0037964034573304403 0.020505663878398254 0 -0.004011535347777262 0.020643884663692477 0 -0.0040596926531088267 0.020313918281041392 0 -0.0043976682002443354 0.020335516142850292 0 -0.0041953859376454546 0.020672843443987034 0 -0.0040596926531088267 0.020313918281041392 0 -0.0037964034573304403 0.020505663878398254 0 -0.004011535347777262 0.020643884663692477 0 -0.0040601152683436741 0.020324100098871787 0 -0.004104092102679517 0.020647504050091116 0 -0.0043976682002443354 0.020335516142850292 0 -0.0045399148219756611 0.020556304373762296 0 -0.0041953859376454546 0.020672843443987034 0 -0.0043976682002443354 0.020335516142850292 0 -0.0046751001506403246 0.02039402085569662 0 -0.0045399148219756611 0.020556304373762296 0 -0.0041953859376454546 0.020672843443987034 0 -0.0045765397304488396 0.020835567125165485 0 -0.0042499685155961376 0.021013904869161753 0 -0.0045399148219756611 0.020556304373762296 0 -0.0041953859376454546 0.020672843443987034 0 -0.0045765397304488396 0.020835567125165485 0 -0.004104092102679517 0.020647504050091116 0 -0.0041656178338028184 0.021006780897041191 0 -0.0048966500718625912 0.0203456832550423 0 -0.0048584364532826265 0.020598323696197948 0 -0.0051128429113473867 0.020467415410507592 0 -0.0048584364532826265 0.020598323696197948 0 -0.0051511038665816803 0.020676878396910309 0 -0.0051128429113473867 0.020467415410507592 0 -0.0046751001506403246 0.02039402085569662 0 -0.0048966500718625912 0.0203456832550423 0 -0.0048584364532826265 0.020598323696197948 0 -0.0046751001506403246 0.02039402085569662 0 -0.0045399148219756611 0.020556304373762296 0 -0.0048584364532826265 0.020598323696197948 0 -0.0048584364532826265 0.020598323696197948 0 -0.0045765397304488396 0.020835567125165485 0 -0.0049935706605531071 0.020888823467115864 0 -0.0045399148219756611 0.020556304373762296 0 -0.0048584364532826265 0.020598323696197948 0 -0.0045765397304488396 0.020835567125165485 0 -0.0048584364532826265 0.020598323696197948 0 -0.0049935706605531071 0.020888823467115864 0 -0.0051511038665816803 0.020676878396910309 0 -0.0049935706605531071 0.020888823467115864 0 -0.0049621810488399013 0.021094440417926439 0 -0.0052259837440080557 0.021102766008010091 0 -0.0049935706605531071 0.020888823467115864 0 -0.0047545649774050919 0.021048025755936738 0 -0.0049621810488399013 0.021094440417926439 0 -0.0045765397304488396 0.020835567125165485 0 -0.0049935706605531071 0.020888823467115864 0 -0.0047545649774050919 0.021048025755936738 0 -0.0045765397304488396 0.020835567125165485 0 -0.0047545649774050919 0.021048025755936738 0 -0.0044844903104456612 0.021079165156986924 0 -0.0047545649774050919 0.021048025755936738 0 -0.0046503794627670092 0.021215426017082921 0 -0.0044844903104456612 0.021079165156986924 0 -0.0046503794627670092 0.021215426017082921 0 -0.0048484929494787754 0.021222983323024292 0 -0.0047702752106575834 0.021337493666178372 0 -0.0047545649774050919 0.021048025755936738 0 -0.0046503794627670092 0.021215426017082921 0 -0.0048484929494787754 0.021222983323024292 0 -0.0047545649774050919 0.021048025755936738 0 -0.0048484929494787754 0.021222983323024292 0 -0.0049621810488399013 0.021094440417926439 0 -0.0048484929494787754 0.021222983323024292 0 -0.0050235815596353772 0.021246731838566436 0 -0.0049291985256126394 0.021327677755614463 0 -0.0048484929494787754 0.021222983323024292 0 -0.0050235815596353772 0.021246731838566436 0 -0.0049621810488399013 0.021094440417926439 0 -0.0038114411182701641 0.020862320092918617 0 -0.004011535347777262 0.020643884663692477 0 -0.0040814989985935926 0.020971810595801197 0 -0.0045765397304488396 0.020835567125165485 0 -0.0042499685155961376 0.021013904869161753 0 -0.0044844903104456612 0.021079165156986924 0 -0.0044844903104456612 0.021079165156986924 0 -0.0042203892789830543 0.02141052011506903 0 -0.0044826763586775379 0.021302243180611111 0 -0.0042499685155961376 0.021013904869161753 0 -0.0044844903104456612 0.021079165156986924 0 -0.0042203892789830543 0.02141052011506903 0 -0.0046503794627670092 0.021215426017082921 0 -0.0044844903104456612 0.021079165156986924 0 -0.0044826763586775379 0.021302243180611111 0 -0.0037527400279793043 0.021281530289210818 0 -0.0040814989985935926 0.020971810595801197 0 -0.0042203892789830543 0.02141052011506903 0 -0.0041656178338028184 0.021006780897041191 0 -0.0042189355903959821 0.021394211975616476 0 -0.0037527400279793043 0.021281530289210818 0 -0.0042203892789830543 0.02141052011506903 0 -0.0039822932367493602 0.021583849375107829 0 -0.0042203892789830543 0.02141052011506903 0 -0.0045215384941614369 0.021554915466690278 0 -0.0039822932367493602 0.021583849375107829 0 -0.0042606829058914721 0.021642738708513944 0 -0.0019826124754385721 0.018747828413346466 0 -0.0044826763586775379 0.021302243180611111 0 -0.0044628510646032293 0.021416284214869439 0 -0.0046174100773710728 0.021399596906085346 0 -0.0042203892789830543 0.02141052011506903 0 -0.0044826763586775379 0.021302243180611111 0 -0.0044628510646032293 0.021416284214869439 0 -0.0044628510646032293 0.021416284214869439 0 -0.0045215384941614369 0.021554915466690278 0 -0.0046174100773710728 0.021399596906085346 0 -0.0042203892789830543 0.02141052011506903 0 -0.0044628510646032293 0.021416284214869439 0 -0.0045215384941614369 0.021554915466690278 0 -0.0024001248201645595 0.01406615947577333 0 -0.0030094344671489966 0.014692533710109871 0 -0.0015565399425941416 0.014957018116377707 0 -0.0036140475741106622 0.021092027762671439 0 -0.0036421481417079822 0.021275152624596474 0 -0.0019812453402118201 0.021186520083304339 0 -0.0024001248201645595 0.01406615947577333 0 -0.00094659444449486532 0.014107506431067868 0 -0.0015565399425941416 0.014957018116377707 0 -0.0031973559387071288 0.017984273115581859 0 -0.00063772445768928198 0.01483686274448839 0 -0.0036140475741106622 0.021092027762671439 0 -0.0018431143591053154 0.020981816124146242 0 -0.0019812453402118201 0.021186520083304339 0 0.0011357618750827902 0.011006142097322022 0 0.0012150168577146864 0.011145765888947456 0 0.0013826925514405495 0.010908222050394288 0 -0.00063772445768928198 0.01483686274448839 0 -0.00028098663303587816 0.011285831891895026 0 0.0012358150869277494 0.011240867035765951 0 0.0012679518579510397 0.011196699938878335 0 0.0010261551451054391 0.011151334211419315 0 -0.0019826124754385721 0.018747828413346466 0 -0.00063772445768928198 0.01483686274448839 0 -0.0036140475741106622 0.021092027762671439 0 -0.0049634473450293239 0.021448254745494329 0 -0.0049222779938384378 0.021553851119083357 0 -0.0049634473450293239 0.021448254745494329 0 -0.0049222779938384378 0.021553851119083357 0 -0.0051037759493976383 0.021440764608759696 0 -0.0049634473450293239 0.021448254745494329 0 -0.0050406962057196053 0.021362080487561021 0 -0.0049291985256126394 0.021327677755614463 0 -0.0049634473450293239 0.021448254745494329 0 -0.0050406962057196053 0.021362080487561021 0 -0.0051037759493976383 0.021440764608759696 0 -0.0050235815596353772 0.021246731838566436 0 -0.0050406962057196053 0.021362080487561021 0 -0.0049291985256126394 0.021327677755614463 0 -0.0049634473450293239 0.021448254745494329 0 -0.0049291985256126394 0.021327677755614463 0 -0.0047702752106575834 0.021337493666178372 0 -0.0048484929494787754 0.021222983323024292 0 -0.0049291985256126394 0.021327677755614463 0 -0.0047702752106575834 0.021337493666178372 0 -0.0049634473450293239 0.021448254745494329 0 -0.0047702752106575834 0.021337493666178372 0 -0.0046174100773710728 0.021399596906085346 0 -0.0045215384941614369 0.021554915466690278 0 -0.0049634473450293239 0.021448254745494329 0 -0.0046174100773710728 0.021399596906085346 0 -0.0042606829058914721 0.021642738708513944 0 -0.0048051280765679522 0.021348537850040421 0 -0.0046503794627670092 0.021215426017082921 0 -0.0047702752106575834 0.021337493666178372 0 -0.0046174100773710728 0.021399596906085346 0 -0.0046503794627670092 0.021215426017082921 0 -0.0044826763586775379 0.021302243180611111 0 -0.0046174100773710728 0.021399596906085346 0 -0.0031973559387071288 0.017984273115581859 0 -0.0043804338445931502 0.017694699900401147 0 -0.0024001248201645595 0.01406615947577333 0 -0.0030094344671489966 0.014692533710109871 0 -0.003869904637006664 0.014024298012878866 0 -0.0036140475741106622 0.021092027762671439 0 -0.0036421481417079822 0.021275152624596474 0 -0.0049222779938384378 0.021553851119083357 0 -0.0030094344671489966 0.014692533710109871 0 -0.003869904637006664 0.014024298012878866 0 -0.0044771601472936825 0.014421509119018268 0 -0.0025886968416994811 0.011946271199433275 0 -0.0042717031189197707 0.01131677435083887 0 -0.0026709510281108764 0.010464848490472231 0 -0.0042869326975146305 0.011109596886077024 0 -0.00412456867720135 0.0082612516791623018 0 -0.0020025905387999828 0.0090069722325440485 0 -0.0026709510281108764 0.010464848490472231 0 -0.00412456867720135 0.0082612516791623018 0 -0.0020025905387999828 0.0090069722325440485 0 -0.0026709510281108764 0.010464848490472231 0 -0.00065482741509990895 0.01082506593963105 0 -0.0026709510281108764 0.010464848490472231 0 -0.0017198729641526025 0.011807501898931228 0 -0.0027497911692783176 0.011883880032910969 0 -0.0026709510281108764 0.010464848490472231 0 -0.0017198729641526025 0.011807501898931228 0 -0.00065482741509990895 0.01082506593963105 0 -0.0026709510281108764 0.010464848490472231 0 -0.0042869326975146305 0.011109596886077024 0 -0.0027497911692783176 0.011883880032910969 0 0.0013826925514405495 0.010908222050394288 0 0.0010142413081742161 0.010816479992662742 0 0.0011114058983275569 0.010922463690860314 0 -0.00028098663303587816 0.011285831891895026 0 0.0013025767352844884 0.010725039511968314 0 0.00035031551024469228 0.01109854126722977 0 -9.7517231306204057e-05 0.010391951440326149 0 0.0010142413081742161 0.010816479992662742 0 0.0011357618750827902 0.011006142097322022 0 0.0013826925514405495 0.010908222050394288 0 0.0011114058983275569 0.010922463690860314 0 0.00035031551024469228 0.01109854126722977 0 -9.7517231306204057e-05 0.010391951440326149 0 -0.00065482741509990895 0.01082506593963105 0 -0.0020025905387999828 0.0090069722325440485 0 0.00021398803236949142 0.0096119727450772394 0 -0.00065482741509990895 0.01082506593963105 0 -0.0025886968416994811 0.011946271199433275 0 -0.00028098663303587816 0.011285831891895026 0 -0.00028098663303587816 0.011285831891895026 0 -0.00030803910874331987 0.010460423701573634 0 -0.0017198729641526025 0.011807501898931228 0 -5.0045770456210318e-05 0.011583556837092571 0 0.00018944865548207852 0.012476909201167953 0 -0.0017198729641526025 0.011807501898931228 0 -0.00065482741509990895 0.01082506593963105 0 -5.0045770456210318e-05 0.011583556837092571 0 0.00035031551024469228 0.01109854126722977 0 -0.00065482741509990895 0.01082506593963105 0 -5.0045770456210318e-05 0.011583556837092571 0 -5.0045770456210318e-05 0.011583556837092571 0 0.00078662169479146637 0.012013892624062258 0 0.00018944865548207852 0.012476909201167953 0 0.00035031551024469228 0.01109854126722977 0 0.00078662169479146637 0.012013892624062258 0 0.0010142413081742161 0.010816479992662742 0 0.00035031551024469228 0.01109854126722977 0 -5.0045770456210318e-05 0.011583556837092571 0 0.00078662169479146637 0.012013892624062258 0 0.00078662169479146637 0.012013892624062258 0 0.0011218121750882946 0.012268145776552275 0 0.00096094648226354394 0.012404979744844594 0 0.00078662169479146637 0.012013892624062258 0 0.0011619314208882725 0.012273162619766227 0 0.0013522063036662051 0.012523681118568613 0 0.00078662169479146637 0.012013892624062258 0 0.0011218121750882946 0.012268145776552275 0 0.0011619314208882725 0.012273162619766227 0 0.00068802229843345063 0.012250745298040364 0 0.0014853470340375587 0.01123822699985221 0 0.0011218121750882946 0.012268145776552275 0 0.0011619314208882725 0.012273162619766227 0 0.0012813031128856799 0.012266947405813874 0 0.0011619314208882725 0.012273162619766227 0 0.0011650759340134738 0.012324007751679715 0 0.0012813031128856799 0.012266947405813874 0 0.0011619314208882725 0.012273162619766227 0 0.0011697724587321555 0.012400677486728172 0 0.0011650759340134738 0.012324007751679715 0 0.00078662169479146637 0.012013892624062258 0 0.0011356016846272399 0.010813027585058636 0 0.0010142413081742161 0.010816479992662742 0 0.0011619314208882725 0.012273162619766227 0 0.0013522063036662051 0.012523681118568613 0 0.0011697724587321555 0.012400677486728172 0 0.0011356016846272399 0.010813027585058636 0 0.0010142413081742161 0.010816479992662742 0 0.0010535661421007423 0.010960490528916768 0 0.0010142413081742161 0.010816479992662742 0 0.0011114058983275569 0.010922463690860314 0 0.0010535661421007423 0.010960490528916768 0 0.00092021228858525021 0.012936131739447623 0 0.00081602885317826534 0.012624494634093254 0 0.001063273541725673 0.012558474283964352 0 0.00092021228858525021 0.012936131739447623 0 0.00081602885317826534 0.012624494634093254 0 0.00048602382740060889 0.01306083301078147 0 0.0013522063036662051 0.012523681118568613 0 0.00092021228858525021 0.012936131739447623 0 0.001063273541725673 0.012558474283964352 0 0.0013522063036662051 0.012523681118568613 0 0.001063273541725673 0.012558474283964352 0 0.0011697724587321555 0.012400677486728172 0 0.00081602885317826534 0.012624494634093254 0 0.001063273541725673 0.012558474283964352 0 0.0010139271183393611 0.012399554160028642 0 0.001063273541725673 0.012558474283964352 0 0.0011697724587321555 0.012400677486728172 0 0.0010139271183393611 0.012399554160028642 0 0.00081602885317826534 0.012624494634093254 0 0.0010139271183393611 0.012399554160028642 0 0.00052490286994165425 0.012383629245673409 0 0.0012813031128856799 0.012266947405813874 0 0.001500036639186421 0.012260375586685439 0 0.0015155874715956715 0.012280469453478245 0 0.0012813031128856799 0.012266947405813874 0 0.001500036639186421 0.012260375586685439 0 0.0013575114205355793 0.01252091127195272 0 0.0020091387098555517 0.012181080648645001 0 0.0013988031078940387 0.012490840388273781 0 0.0010139271183393611 0.012399554160028642 0 0.0012813031128856799 0.012266947405813874 0 0.00052490286994165425 0.012383629245673409 0 0.0012286663454951937 0.012267946276327065 0 0.0010087006409492171 0.012392993567908661 0 0.0010139271183393611 0.012399554160028642 0 0.0011650759340134738 0.012324007751679715 0 0.0012813031128856799 0.012266947405813874 0 0.0011697724587321555 0.012400677486728172 0 0.0010139271183393611 0.012399554160028642 0 0.0011650759340134738 0.012324007751679715 0 0.0026845766525579748 0.012368493488667132 0 0.0025687491040380177 0.011928459258591878 0 0.0022057406614844222 0.012582833209510204 0 0.0020091387098555517 0.012181080648645001 0 0.0023950177040645971 0.0112886979107545 0 0.0025687491040380177 0.011928459258591878 0 0.0033690897962884241 0.01195940426312677 0 0.003690142028035197 0.0112774540857062 0 0.0026845766525579748 0.012368493488667132 0 0.00298338029355279 0.012267968703563293 0 0.0025687491040380177 0.011928459258591878 0 0.00298338029355279 0.012267968703563293 0 0.0025687491040380177 0.011928459258591878 0 0.0033690897962884241 0.01195940426312677 0 0.0037739106655752946 0.012133843305576975 0 0.0034241004723588441 0.012427510430504692 0 0.003975572475189839 0.012571130973637252 0 0.0042917682509184246 0.012001949242704681 0 0.0037739106655752946 0.012133843305576975 0 0.003975572475189839 0.012571130973637252 0 0.0037739106655752946 0.012133843305576975 0 0.0034241004723588441 0.012427510430504692 0 0.0033690897962884241 0.01195940426312677 0 0.00298338029355279 0.012267968703563293 0 0.0034241004723588441 0.012427510430504692 0 0.0033690897962884241 0.01195940426312677 0 0.0033690897962884241 0.01195940426312677 0 0.0038909188286927431 0.011766010071672025 0 0.003690142028035197 0.0112774540857062 0 0.0037739106655752946 0.012133843305576975 0 0.0033690897962884241 0.01195940426312677 0 0.0038909188286927431 0.011766010071672025 0 0.0042917682509184246 0.012001949242704681 0 0.0037739106655752946 0.012133843305576975 0 0.0038909188286927431 0.011766010071672025 0 0.001420964268050487 0.012376000103686398 0 0.0015155874715956715 0.012280469453478245 0 0.0014542144746778739 0.012529440027870794 0 0.0043227043167444424 0.011470004148211498 0 0.0038909188286927431 0.011766010071672025 0 0.003690142028035197 0.0112774540857062 0 0.0012742637344999898 0.01264012589788141 0 0.001420964268050487 0.012376000103686398 0 0.0014542144746778739 0.012529440027870794 0 0.0010087006409492171 0.012392993567908661 0 0.000363253331792082 0.012611558088854348 0 0.001500036639186421 0.012260375586685439 0 0.001420964268050487 0.012376000103686398 0 0.0015155874715956715 0.012280469453478245 0 0.00052490286994165425 0.012383629245673409 0 0.00048602382740060889 0.01306083301078147 0 -0.00048138345338438418 0.013120791663048498 0 0.00081602885317826534 0.012624494634093254 0 0.00052490286994165425 0.012383629245673409 0 0.00048602382740060889 0.01306083301078147 0 4.1273377323092343e-05 0.013760289126222397 0 0.00048602382740060889 0.01306083301078147 0 0.00093910349273155244 0.013663709069411233 0 4.1273377323092343e-05 0.013760289126222397 0 0.00048602382740060889 0.01306083301078147 0 -0.00048138345338438418 0.013120791663048498 0 0.00034330297001158616 0.013899747051101965 0 -0.0004698872675992726 0.014619245743343966 0 -0.0016752603977197398 0.014227611720182078 0 -0.00048138345338438418 0.013120791663048498 0 -0.0011124976756101961 0.013929497910187234 0 0.0011995310875633947 0.012881200750194459 0 0.0012742637344999898 0.01264012589788141 0 0.0014542144746778739 0.012529440027870794 0 4.1273377323092343e-05 0.013760289126222397 0 -0.00048138345338438418 0.013120791663048498 0 -0.0011124976756101961 0.013929497910187234 0 0.0015448743650392689 0.016086248403613845 0 0.000363253331792082 0.012611558088854348 0 0.00034330297001158616 0.013899747051101965 0 -0.0011010752306774428 0.013906633919775173 0 -0.0015926439337445438 0.014938947545620758 0 0.00014501341031051233 0.01403866010686246 0 -0.0011124976756101961 0.013929497910187234 0 -0.0015926439337445438 0.014938947545620758 0 0.00031916597089001367 0.01581767273214869 0 0.00014501341031051233 0.01403866010686246 0 0.00031916597089001367 0.01581767273214869 0 0.00014501341031051233 0.01403866010686246 0 0.0013865680117098292 0.014103787935017102 0 -0.0025104034277150908 0.019577642809260172 0 -0.0004698872675992726 0.014619245743343966 0 -0.0035380729052725238 0.020923473402305281 0 -0.0034551324218102643 0.02086708860339672 0 -0.003435182235380006 0.020547091084609309 0 -0.003220306889534702 0.020806790129409832 0 -0.0034551324218102643 0.02086708860339672 0 -0.003435182235380006 0.020547091084609309 0 -0.0038069202369556947 0.021490471565370223 0 -0.0019826124754385721 0.018747828413346466 0 -0.003220306889534702 0.020806790129409832 0 -0.003020692595734393 0.020535184951583262 0 -0.003435182235380006 0.020547091084609309 0 0.0012358150869277494 0.011240867035765951 0 0.0010261551451054391 0.011151334211419315 0 0.00071901818116064441 0.011190798052287676 0 0.0011356016846272399 0.010813027585058636 0 0.0010535661421007423 0.010960490528916768 0 0.00071901818116064441 0.011190798052287676 0 0.0010261551451054391 0.011151334211419315 0 0.0010535661421007423 0.010960490528916768 0 0.00071901818116064441 0.011190798052287676 0 -0.0019826124754385721 0.018747828413346466 0 -0.0004698872675992726 0.014619245743343966 0 -0.00063772445768928198 0.01483686274448839 0 0.0015035066586419634 0.011689781815774227 0 0.0011357618750827902 0.011006142097322022 0 0.0012150168577146864 0.011145765888947456 0 0.0010261551451054391 0.011151334211419315 0 0.0011357618750827902 0.011006142097322022 0 0.0010261551451054391 0.011151334211419315 0 0.0010535661421007423 0.010960490528916768 0 0.0011357618750827902 0.011006142097322022 0 0.0011114058983275569 0.010922463690860314 0 0.0010535661421007423 0.010960490528916768 0 0.0014853470340375587 0.01123822699985221 0 -0.0004698872675992726 0.014619245743343966 0 0.0013522063036662051 0.012523681118568613 0 0.00092021228858525021 0.012936131739447623 0 0.00093910349273155244 0.013663709069411233 0 0.00092021228858525021 0.012936131739447623 0 0.00048602382740060889 0.01306083301078147 0 0.00093910349273155244 0.013663709069411233 0 -0.0097043293636456616 0.014672605267554014 0 -0.011771616552880403 0.0044326313356295183 0 -0.010802836491355751 0.0062916335016554728 0 -0.012256455628439683 0.0075056103256551177 0 -0.01063984364562482 0.0080103085693341031 0 -0.0097646876167695219 0.0075658836159890027 0 -0.010802836491355751 0.0062916335016554728 0 -0.0089636906460662732 0.0067553697395866495 0 -0.0097646876167695219 0.0075658836159890027 0 -0.010802836491355751 0.0062916335016554728 0 -0.01063984364562482 0.0080103085693341031 0 -0.0063739896112403752 0.021289146301502936 0 -0.0059786534946765094 0.021402664912554267 0 -0.0060594408558694822 0.021045178703165853 0 -0.0097043293636456616 0.014672605267554014 0 -0.0071913685180918915 0.013992642072150188 0 -0.01068098705348264 0.0056506034090800889 0 -0.012681202666264938 0.005194617589643344 0 -0.012256455628439683 0.0075056103256551177 0 -0.0097043293636456616 0.014672605267554014 0 -0.011392521184712356 0.014808075042396519 0 -0.0097724987207757092 0.024373067507307652 0 -0.0097969018205786313 0.024400398396710501 0 -0.0097633958270927496 0.024452024375756973 0 -0.01471420978263928 0.0048361061987143503 0 -0.014023406599960703 0.0064497095093882031 0 -0.015458064481270054 0.0060162148652942076 0 -0.012681202666264938 0.005194617589643344 0 -0.01471420978263928 0.0048361061987143503 0 -0.014023406599960703 0.0064497095093882031 0 -0.011392521184712356 0.014808075042396519 0 -0.011981083894416615 0.014618971640375485 0 -0.014023406599960703 0.0064497095093882031 0 -0.014292366619195323 0.0079889743905769955 0 -0.01554104997916933 0.0073797926041447486 0 -0.014023406599960703 0.0064497095093882031 0 -0.012256455628439683 0.0075056103256551177 0 -0.014292366619195323 0.0079889743905769955 0 -0.012681202666264938 0.005194617589643344 0 -0.014023406599960703 0.0064497095093882031 0 -0.012256455628439683 0.0075056103256551177 0 -0.012256455628439683 0.0075056103256551177 0 -0.013100660938368052 0.0086623665927456801 0 -0.014292366619195323 0.0079889743905769955 0 -0.012256455628439683 0.0075056103256551177 0 -0.013100660938368052 0.0086623665927456801 0 -0.011615007544781251 0.0089376540346805707 0 -0.013100660938368052 0.0086623665927456801 0 -0.014292366619195323 0.0079889743905769955 0 -0.014230438291621756 0.0091402349327436919 0 -0.014292366619195323 0.0079889743905769955 0 -0.014230438291621756 0.0091402349327436919 0 -0.015580059727894236 0.0086491272325249242 0 -0.014230438291621756 0.0091402349327436919 0 -0.015580059727894236 0.0086491272325249242 0 -0.015310524941648687 0.0095987082789207763 0 -0.014230438291621756 0.0091402349327436919 0 -0.012946004840243788 0.0098221106227621459 0 -0.014381601209324215 0.010048796005521308 0 -0.015310524941648687 0.0095987082789207763 0 -0.01519873449866793 0.010460514022959772 0 -0.014381601209324215 0.010048796005521308 0 -0.014230438291621756 0.0091402349327436919 0 -0.015310524941648687 0.0095987082789207763 0 -0.014381601209324215 0.010048796005521308 0 -0.013100660938368052 0.0086623665927456801 0 -0.012946004840243788 0.0098221106227621459 0 -0.011615007544781251 0.0089376540346805707 0 -0.013100660938368052 0.0086623665927456801 0 -0.014230438291621756 0.0091402349327436919 0 -0.012946004840243788 0.0098221106227621459 0 -0.012946004840243788 0.0098221106227621459 0 -0.011615007544781251 0.0089376540346805707 0 -0.010738170786208513 0.010275557840661458 0 -0.011615007544781251 0.0089376540346805707 0 -0.010294664994357846 0.0092521584378150289 0 -0.010738170786208513 0.010275557840661458 0 -0.011615007544781251 0.0089376540346805707 0 -0.01063984364562482 0.0080103085693341031 0 -0.010294664994357846 0.0092521584378150289 0 -0.012256455628439683 0.0075056103256551177 0 -0.011615007544781251 0.0089376540346805707 0 -0.01063984364562482 0.0080103085693341031 0 -0.01063984364562482 0.0080103085693341031 0 -0.010294664994357846 0.0092521584378150289 0 -0.0094421820378249015 0.0086782144212555808 0 -0.0097646876167695219 0.0075658836159890027 0 -0.01063984364562482 0.0080103085693341031 0 -0.0094421820378249015 0.0086782144212555808 0 -0.010294664994357846 0.0092521584378150289 0 -0.0094421820378249015 0.0086782144212555808 0 -0.0091457668914970997 0.01024899102987983 0 -0.0082037664889497482 0.0091942706123357941 0 -0.0094421820378249015 0.0086782144212555808 0 -0.0091457668914970997 0.01024899102987983 0 -0.0078709321765982575 0.0099434279574348323 0 -0.0088578205184424389 0.0080480469638269519 0 -0.0076605543723536323 0.010683710923303015 0 -0.0072000614428803849 0.0088858318761707213 0 -0.0088955430528259508 0.0079353312659128216 0 -0.0076605543723536323 0.010683710923303015 0 -0.0072000614428803849 0.0088858318761707213 0 -0.0058301481574345787 0.0095798950339570834 0 -0.0082037664889497482 0.0091942706123357941 0 -0.0094421820378249015 0.0086782144212555808 0 -0.0088955430528259508 0.0079353312659128216 0 -0.0097646876167695219 0.0075658836159890027 0 -0.0094421820378249015 0.0086782144212555808 0 -0.0088955430528259508 0.0079353312659128216 0 -0.0076605543723536323 0.010683710923303015 0 -0.0059110860982916763 0.011310370435244537 0 -0.0058301481574345787 0.0095798950339570834 0 -0.0076605543723536323 0.010683710923303015 0 -0.0059110860982916763 0.011310370435244537 0 -0.006429312654673394 0.012822071720871889 0 -0.0042869326975146305 0.011109596886077024 0 -0.0059110860982916763 0.011310370435244537 0 -0.0058301481574345787 0.0095798950339570834 0 -0.0072000614428803849 0.0088858318761707213 0 -0.0058301481574345787 0.0095798950339570834 0 -0.0064896229208252065 0.007419664496258898 0 -0.0042869326975146305 0.011109596886077024 0 -0.0058301481574345787 0.0095798950339570834 0 -0.00412456867720135 0.0082612516791623018 0 -0.0043804338445931502 0.017694699900401147 0 -0.0052714104820373517 0.018149934118165567 0 -0.003869904637006664 0.014024298012878866 0 -0.0044771601472936825 0.014421509119018268 0 -0.0053473925257054283 0.013981140991808499 0 -0.0053473925257054283 0.013981140991808499 0 -0.0059483430239806673 0.014145514006893758 0 -0.0068350278958876909 0.013976689945046541 0 -0.0044771601472936825 0.014421509119018268 0 -0.0053473925257054283 0.013981140991808499 0 -0.0059483430239806673 0.014145514006893758 0 -0.0042717031189197707 0.01131677435083887 0 -0.0064318743986787295 0.010883894290539237 0 -0.0058301481574345787 0.0095798950339570834 0 -0.00412456867720135 0.0082612516791623018 0 -0.0064896229208252065 0.007419664496258898 0 -0.0052714104820373517 0.018149934118165567 0 -0.0068057919191566105 0.014202620711744454 0 -0.0053961464109348488 0.02149316292963319 0 -0.0051971740214306131 0.02132378350779603 0 -0.0054208414219618067 0.021237307206130061 0 -0.0053961464109348488 0.02149316292963319 0 -0.0056097991133186743 0.021332154863419044 0 -0.0054208414219618067 0.021237307206130061 0 -0.0056097991133186743 0.021332154863419044 0 -0.0056187461431049315 0.021182502927704596 0 -0.0054208414219618067 0.021237307206130061 0 -0.0049222779938384378 0.021553851119083357 0 -0.0053961464109348488 0.02149316292963319 0 -0.0051037759493976383 0.021440764608759696 0 -0.0053961464109348488 0.02149316292963319 0 -0.0051971740214306131 0.02132378350779603 0 -0.0051037759493976383 0.021440764608759696 0 -0.0050235815596353772 0.021246731838566436 0 -0.0050406962057196053 0.021362080487561021 0 -0.0051971740214306131 0.02132378350779603 0 -0.0050406962057196053 0.021362080487561021 0 -0.0051971740214306131 0.02132378350779603 0 -0.0051037759493976383 0.021440764608759696 0 -0.0088955430528259508 0.0079353312659128216 0 -0.0080405640196087799 0.0069392045576733129 0 -0.0089636906460662732 0.0067553697395866495 0 -0.0097646876167695219 0.0075658836159890027 0 -0.0088955430528259508 0.0079353312659128216 0 -0.0089636906460662732 0.0067553697395866495 0 -0.0072000614428803849 0.0088858318761707213 0 -0.0064896229208252065 0.007419664496258898 0 -0.0088955430528259508 0.0079353312659128216 0 -0.0064896229208252065 0.007419664496258898 0 -0.0088955430528259508 0.0079353312659128216 0 -0.0080405640196087799 0.0069392045576733129 0 -0.0064318743986787295 0.010883894290539237 0 -0.0068057919191566105 0.014202620711744454 0 -0.0058150746195236832 0.021448821359723137 0 -0.0056097991133186743 0.021332154863419044 0 -0.0058056743894007012 0.021241532174527355 0 -0.0053961464109348488 0.02149316292963319 0 -0.0058150746195236832 0.021448821359723137 0 -0.0056097991133186743 0.021332154863419044 0 -0.0056097991133186743 0.021332154863419044 0 -0.0058056743894007012 0.021241532174527355 0 -0.0056187461431049315 0.021182502927704596 0 -0.0058056743894007012 0.021241532174527355 0 -0.0059786534946765094 0.021402664912554267 0 -0.0060594408558694822 0.021045178703165853 0 -0.0058150746195236832 0.021448821359723137 0 -0.0058056743894007012 0.021241532174527355 0 -0.0059786534946765094 0.021402664912554267 0 -0.0068057919191566105 0.014202620711744454 0 -0.0071913685180918915 0.013992642072150188 0 -0.0058056743894007012 0.021241532174527355 0 -0.0060594408558694822 0.021045178703165853 0 -0.0057432097012635186 0.021034180686822022 0 -0.0058056743894007012 0.021241532174527355 0 -0.0057432097012635186 0.021034180686822022 0 -0.0056187461431049315 0.021182502927704596 0 -0.0057432097012635186 0.021034180686822022 0 -0.0056187461431049315 0.021182502927704596 0 -0.0054855346608138986 0.021012608943894989 0 -0.0057432097012635186 0.021034180686822022 0 -0.0054855346608138986 0.021012608943894989 0 -0.0057419615397633506 0.020765900323187536 0 -0.0060594408558694822 0.021045178703165853 0 -0.0057432097012635186 0.021034180686822022 0 -0.0057419615397633506 0.020765900323187536 0 -0.0079663209477794511 0.024265241683309659 0 -0.007679985713134053 0.02240262757286841 0 -0.0097523645884274521 0.024476726155025264 0 -0.0097270166813691692 0.024561135501280931 0 -0.0097281196545544752 0.024541165176684698 0 -0.0051971740214306131 0.02132378350779603 0 -0.0052259837440080557 0.021102766008010091 0 -0.0054208414219618067 0.021237307206130061 0 -0.0050235815596353772 0.021246731838566436 0 -0.0049621810488399013 0.021094440417926439 0 -0.0052259837440080557 0.021102766008010091 0 -0.0050235815596353772 0.021246731838566436 0 -0.0051971740214306131 0.02132378350779603 0 -0.0052259837440080557 0.021102766008010091 0 -0.0052259837440080557 0.021102766008010091 0 -0.0054208414219618067 0.021237307206130061 0 -0.0054855346608138986 0.021012608943894989 0 -0.0056187461431049315 0.021182502927704596 0 -0.0054208414219618067 0.021237307206130061 0 -0.0054855346608138986 0.021012608943894989 0 -0.0052259837440080557 0.021102766008010091 0 -0.0054855346608138986 0.021012608943894989 0 -0.0053764118376112566 0.020814377323309097 0 -0.0054855346608138986 0.021012608943894989 0 -0.0053764118376112566 0.020814377323309097 0 -0.0057419615397633506 0.020765900323187536 0 -0.0049935706605531071 0.020888823467115864 0 -0.0052259837440080557 0.021102766008010091 0 -0.0053764118376112566 0.020814377323309097 0 -0.0049935706605531071 0.020888823467115864 0 -0.0051511038665816803 0.020676878396910309 0 -0.0053764118376112566 0.020814377323309097 0 -0.0051511038665816803 0.020676878396910309 0 -0.0053764118376112566 0.020814377323309097 0 -0.0054365505546350211 0.020471302579963293 0 -0.0053764118376112566 0.020814377323309097 0 -0.0054365505546350211 0.020471302579963293 0 -0.0057419615397633506 0.020765900323187536 0 -0.0051511038665816803 0.020676878396910309 0 -0.0054365505546350211 0.020471302579963293 0 -0.0051128429113473867 0.020467415410507592 0 -0.0097270166813691692 0.024561135501280931 0 -0.0097018060686459226 0.024616963364300842 0 -0.0097281196545544752 0.024541165176684698 0 -0.0097270166813691692 0.024561135501280931 0 -0.0097105234486775712 0.024624502823863022 0 -0.0097018060686459226 0.024616963364300842 0 -0.009679152163170418 0.024622652386989373 0 -0.0097270166813691692 0.024561135501280931 0 -0.0097105234486775712 0.024624502823863022 0 -0.0074933271967244528 0.022436698234135403 0 -0.007679985713134053 0.02240262757286841 0 -0.0097105234486775712 0.024624502823863022 0 -0.0097018060686459226 0.024616963364300842 0 -0.0097080284855032579 0.024668563822547156 0 -0.0097018060686459226 0.024616963364300842 0 -0.0096815906325134569 0.024633515895025628 0 -0.0097281196545544752 0.024541165176684698 0 -0.0097018060686459226 0.024616963364300842 0 -0.0096815906325134569 0.024633515895025628 0 -0.0096444588850676891 0.024701390944663996 0 -0.0096815906325134569 0.024633515895025628 0 -0.0097119505452076694 0.024587881914849345 0 -0.00966326752502745 0.024682249743742075 0 -0.0097119505452076694 0.024587881914849345 0 -0.0097281196545544752 0.024541165176684698 0 -0.0097529568526938931 0.024512647096803238 0 -0.0096815906325134569 0.024633515895025628 0 -0.0097119505452076694 0.024587881914849345 0 -0.0097281196545544752 0.024541165176684698 0 -0.0097523645884274521 0.024476726155025264 0 -0.0097281196545544752 0.024541165176684698 0 -0.0097633958270927496 0.024452024375756973 0 -0.0097281196545544752 0.024541165176684698 0 -0.0097529568526938931 0.024512647096803238 0 -0.0097633958270927496 0.024452024375756973 0 -0.0097724987207757092 0.024373067507307652 0 -0.0097523645884274521 0.024476726155025264 0 -0.0097633958270927496 0.024452024375756973 0 -0.0097043293636456616 0.014672605267554014 0 -0.0079663209477794511 0.024265241683309659 0 -0.0098439295297842924 0.024389288629510789 0 -0.0098056916866149542 0.024472009209167568 0 -0.0098436640262012896 0.024443318689880266 0 -0.0097969018205786313 0.024400398396710501 0 -0.0098439295297842924 0.024389288629510789 0 -0.0098056916866149542 0.024472009209167568 0 -0.0097969018205786313 0.024400398396710501 0 -0.0097633958270927496 0.024452024375756973 0 -0.0098056916866149542 0.024472009209167568 0 -0.0097529568526938931 0.024512647096803238 0 -0.0098056916866149542 0.024472009209167568 0 -0.0097584080506726203 0.024546558075562573 0 -0.0097529568526938931 0.024512647096803238 0 -0.0097633958270927496 0.024452024375756973 0 -0.0098056916866149542 0.024472009209167568 0 -0.0098056916866149542 0.024472009209167568 0 -0.0098750576019501143 0.024571707262215508 0 -0.0098436640262012896 0.024443318689880266 0 -0.0098056916866149542 0.024472009209167568 0 -0.0098750576019501143 0.024571707262215508 0 -0.0097584080506726203 0.024546558075562573 0 -0.0098750576019501143 0.024571707262215508 0 -0.0096974076137570711 0.024568037304671542 0 -0.010292564971524653 0.02396636829185424 0 -0.0098750576019501143 0.024571707262215508 0 -0.0097584080506726203 0.024546558075562573 0 -0.0096974076137570711 0.024568037304671542 0 -0.0097119505452076694 0.024587881914849345 0 -0.0097529568526938931 0.024512647096803238 0 -0.0097584080506726203 0.024546558075562573 0 -0.0097119505452076694 0.024587881914849345 0 -0.0097584080506726203 0.024546558075562573 0 -0.0096974076137570711 0.024568037304671542 0 -0.0097119505452076694 0.024587881914849345 0 -0.0096906644604025788 0.024677839732315091 0 -0.0096974076137570711 0.024568037304671542 0 -0.0097119505452076694 0.024587881914849345 0 -0.0096906644604025788 0.024677839732315091 0 -0.00966326752502745 0.024682249743742075 0 -0.0096906644604025788 0.024677839732315091 0 -0.0096974076137570711 0.024568037304671542 0 -0.0096588966976096525 0.024796542323367535 0 -0.0096974076137570711 0.024568037304671542 0 -0.0098330062054092747 0.024787197655067882 0 -0.0099577254572541588 0.025010011774201216 0 -0.0097874889181220389 0.024550868261100797 0 -0.010160509235814246 0.024492115630304675 0 -0.0096974076137570711 0.024568037304671542 0 -0.0098330062054092747 0.024787197655067882 0 -0.0096588966976096525 0.024796542323367535 0 -0.0096588966976096525 0.024796542323367535 0 -0.0097191950186518838 0.024667476058863668 0 -0.010214005207390008 0.024837074251124639 0 -0.0097191950186518838 0.024667476058863668 0 -0.010214005207390008 0.024837074251124639 0 -0.0099310887500317722 0.024419412584224573 0 -0.0097191950186518838 0.024667476058863668 0 -0.0096887950773811363 0.024632863842300581 0 -0.0099310887500317722 0.024419412584224573 0 -0.0096317973193059819 0.024711930781986118 0 -0.0095999695237288119 0.024773769542444677 0 -0.0096887950773811363 0.024632863842300581 0 -0.0097191950186518838 0.024667476058863668 0 -0.0096317973193059819 0.024711930781986118 0 -0.0096887950773811363 0.024632863842300581 0 -0.0097191950186518838 0.024667476058863668 0 -0.0096317973193059819 0.024711930781986118 0 -0.0096433291491295359 0.024730889834753186 0 -0.0096317973193059819 0.024711930781986118 0 -0.0096433291491295359 0.024730889834753186 0 -0.0096121072123560511 0.024740024061027092 0 -0.0096588966976096525 0.024796542323367535 0 -0.0097191950186518838 0.024667476058863668 0 -0.0096433291491295359 0.024730889834753186 0 -0.0096906644604025788 0.024677839732315091 0 -0.0096588966976096525 0.024796542323367535 0 -0.0096433291491295359 0.024730889834753186 0 -0.0096906644604025788 0.024677839732315091 0 -0.0096433291491295359 0.024730889834753186 0 -0.00966326752502745 0.024682249743742075 0 -0.0096433291491295359 0.024730889834753186 0 -0.00966326752502745 0.024682249743742075 0 -0.0096121072123560511 0.024740024061027092 0 -0.0096815906325134569 0.024633515895025628 0 -0.00966326752502745 0.024682249743742075 0 -0.0096307073984541608 0.024709269325315416 0 -0.00966326752502745 0.024682249743742075 0 -0.0096307073984541608 0.024709269325315416 0 -0.0096121072123560511 0.024740024061027092 0 -0.0096815906325134569 0.024633515895025628 0 -0.0096307073984541608 0.024709269325315416 0 -0.0096444588850676891 0.024701390944663996 0 -0.0096307073984541608 0.024709269325315416 0 -0.0096444588850676891 0.024701390944663996 0 -0.0095681147435231675 0.024812998287994888 0 -0.0096444588850676891 0.024701390944663996 0 -0.0095681147435231675 0.024812998287994888 0 -0.0096031431179423865 0.024797022326036974 0 -0.0095681147435231675 0.024812998287994888 0 -0.0095291054411461677 0.024919833388026582 0 -0.0096031431179423865 0.024797022326036974 0 -0.0095681147435231675 0.024812998287994888 0 -0.0096121072123560511 0.024740024061027092 0 -0.0095999695237288119 0.024773769542444677 0 -0.0096307073984541608 0.024709269325315416 0 -0.0095681147435231675 0.024812998287994888 0 -0.0096121072123560511 0.024740024061027092 0 -0.0096317973193059819 0.024711930781986118 0 -0.0096121072123560511 0.024740024061027092 0 -0.0095999695237288119 0.024773769542444677 0 -0.0095681147435231675 0.024812998287994888 0 -0.0095999695237288119 0.024773769542444677 0 -0.0095211784499785058 0.024959043660717769 0 -0.0095999695237288119 0.024773769542444677 0 -0.0095211784499785058 0.024959043660717769 0 -0.0096056216671899699 0.024862809291392493 0 -0.0095681147435231675 0.024812998287994888 0 -0.0095291054411461677 0.024919833388026582 0 -0.0095211784499785058 0.024959043660717769 0 -0.0095291054411461677 0.024919833388026582 0 -0.0095211784499785058 0.024959043660717769 0 -0.0094755790438408403 0.025061505366195197 0 -0.0095211784499785058 0.024959043660717769 0 -0.0094381812269601507 0.02517053932034162 0 -0.0094755790438408403 0.025061505366195197 0 -0.0095211784499785058 0.024959043660717769 0 -0.0094381812269601507 0.02517053932034162 0 -0.0095217378211578576 0.025045577029351528 0 -0.0095217378211578576 0.025045577029351528 0 -0.0096056216671899699 0.024862809291392493 0 -0.0095903509405509436 0.024953718269425478 0 -0.0095211784499785058 0.024959043660717769 0 -0.0095217378211578576 0.025045577029351528 0 -0.0096056216671899699 0.024862809291392493 0 -0.010941686464858878 0.025436176610805401 0 -0.010320502042728765 0.026270308199472823 0 -0.0096056216671899699 0.024862809291392493 0 -0.0095798649679593815 0.024801931078223385 0 -0.0095903509405509436 0.024953718269425478 0 -0.0096056216671899699 0.024862809291392493 0 -0.0095798649679593815 0.024801931078223385 0 -0.0096402610688401235 0.024718274820627772 0 -0.012114797841070932 0.027892520399031617 0 -0.012087964802598227 0.027252954736022097 0 -0.012283112031340741 0.027754929529813014 0 -0.011605771773293753 0.025431503952038456 0 -0.011650503543108103 0.025451711359618226 0 -0.011650309551741048 0.025399360840208586 0 -0.010941686464858878 0.025436176610805401 0 -0.012068613569302248 0.026009590218734491 0 -0.0097085609000009503 0.024673534332416255 0 -0.0097351065158490079 0.024623942586778566 0 -0.0096686295557452517 0.024678912425674108 0 -0.010941686464858878 0.025436176610805401 0 -0.010998354888356095 0.024437401317666547 0 -0.010941686464858878 0.025436176610805401 0 -0.0095548347311229763 0.02490395270869241 0 -0.0097085609000009503 0.024673534332416255 0 -0.0097351065158490079 0.024623942586778566 0 -0.0096402610688401235 0.024718274820627772 0 -0.0097351065158490079 0.024623942586778566 0 -0.0096887950773811363 0.024632863842300581 0 -0.0096402610688401235 0.024718274820627772 0 -0.0097351065158490079 0.024623942586778566 0 -0.0096887950773811363 0.024632863842300581 0 -0.0099310887500317722 0.024419412584224573 0 -0.0097351065158490079 0.024623942586778566 0 -0.0099310887500317722 0.024419412584224573 0 -0.0096686295557452517 0.024678912425674108 0 -0.0095999695237288119 0.024773769542444677 0 -0.0096887950773811363 0.024632863842300581 0 -0.0096402610688401235 0.024718274820627772 0 -0.0095999695237288119 0.024773769542444677 0 -0.0096056216671899699 0.024862809291392493 0 -0.0096402610688401235 0.024718274820627772 0 -0.007667212604331103 0.023133052507020677 0 -0.01018513690798901 0.02480775435949038 0 -0.0098648336551612203 0.024798455291678428 0 -0.0098324472275002003 0.024801492103079258 0 -0.0098426525914081572 0.024749672646092794 0 -0.0068811263921739179 0.02457902375367433 0 -0.0083449853072267901 0.025316963741301487 0 -0.0097781949274682589 0.024777183296781174 0 -0.0098285194347958581 0.024784448905095798 0 -0.0098324472275002003 0.024801492103079258 0 -0.0097781949274682589 0.024777183296781174 0 -0.0098285194347958581 0.024784448905095798 0 -0.0098302558732464903 0.024755940106748666 0 -0.0098285194347958581 0.024784448905095798 0 -0.0098648336551612203 0.024798455291678428 0 -0.0098302558732464903 0.024755940106748666 0 -0.0096270631439628069 0.025209122852373374 0 -0.0083449853072267901 0.025316963741301487 0 -0.0098285194347958581 0.024784448905095798 0 -0.0098648336551612203 0.024798455291678428 0 -0.0098324472275002003 0.024801492103079258 0 -0.0054365505546350211 0.020471302579963293 0 -0.0051128429113473867 0.020467415410507592 0 -0.005143413382194627 0.020154133224180026 0 -0.0074933271967244528 0.022436698234135403 0 -0.007667212604331103 0.023133052507020677 0 -0.009679152163170418 0.024622652386989373 0 -0.0097105234486775712 0.024624502823863022 0 -0.0096756865553767578 0.024586301471750008 0 -0.009679152163170418 0.024622652386989373 0 -0.009569327996086216 0.024553390500035351 0 -0.0096756865553767578 0.024586301471750008 0 -0.0098648336551612203 0.024798455291678428 0 -0.0098426525914081572 0.024749672646092794 0 -0.0097852739761388873 0.02481341156773444 0 -0.0098426525914081572 0.024749672646092794 0 -0.0097852739761388873 0.02481341156773444 0 -0.0097080284855032579 0.024668563822547156 0 -0.0097852739761388873 0.02481341156773444 0 -0.0097080284855032579 0.024668563822547156 0 -0.0096390129559479655 0.024867755586343909 0 -0.0097105234486775712 0.024624502823863022 0 -0.0096756865553767578 0.024586301471750008 0 -0.0097080284855032579 0.024668563822547156 0 -0.01018513690798901 0.02480775435949038 0 -0.009540639499098804 0.024628049179375281 0 -0.0096444588850676891 0.024701390944663996 0 -0.0097080284855032579 0.024668563822547156 0 -0.0096031431179423865 0.024797022326036974 0 -0.0097018060686459226 0.024616963364300842 0 -0.0096444588850676891 0.024701390944663996 0 -0.0097080284855032579 0.024668563822547156 0 -0.0097080284855032579 0.024668563822547156 0 -0.0096031431179423865 0.024797022326036974 0 -0.0096390129559479655 0.024867755586343909 0 -0.0095291054411461677 0.024919833388026582 0 -0.0096390129559479655 0.024867755586343909 0 -0.0094755790438408403 0.025061505366195197 0 -0.0095291054411461677 0.024919833388026582 0 -0.0096031431179423865 0.024797022326036974 0 -0.0096390129559479655 0.024867755586343909 0 -0.0094755790438408403 0.025061505366195197 0 -0.0093627315679595136 0.025344812837573002 0 -0.0098115576099595432 0.02500268462656265 0 -0.0094381812269601507 0.02517053932034162 0 -0.0094755790438408403 0.025061505366195197 0 -0.0093627315679595136 0.025344812837573002 0 -0.0093181527331970618 0.02536464710403746 0 -0.0091764308440272484 0.025619299405601946 0 -0.0093627315679595136 0.025344812837573002 0 -0.0084267933206402506 0.026149534048557029 0 -0.0085159010842953842 0.025484743916833804 0 -0.0096390129559479655 0.024867755586343909 0 -0.0094755790438408403 0.025061505366195197 0 -0.0098115576099595432 0.02500268462656265 0 -0.0097852739761388873 0.02481341156773444 0 -0.0096390129559479655 0.024867755586343909 0 -0.0098115576099595432 0.02500268462656265 0 -0.0098648336551612203 0.024798455291678428 0 -0.0097852739761388873 0.02481341156773444 0 -0.0098115576099595432 0.02500268462656265 0 -0.0091764308440272484 0.025619299405601946 0 -0.0083449853072267901 0.025316963741301487 0 -0.0098648336551612203 0.024798455291678428 0 -0.0098115576099595432 0.02500268462656265 0 -0.0099146224713368633 0.024855423710705992 0 -0.0084267933206402506 0.026149534048557029 0 -0.007581923120122281 0.025886310981106452 0 -0.0080271977431140909 0.025541775192698249 0 -0.0084267933206402506 0.026149534048557029 0 -0.0080271977431140909 0.025541775192698249 0 -0.0085159010842953842 0.025484743916833804 0 -0.0070174713001276397 0.026075835977651673 0 -0.007581923120122281 0.025886310981106452 0 -0.0075872458515578575 0.026611280930599817 0 -0.0084267933206402506 0.026149534048557029 0 -0.007581923120122281 0.025886310981106452 0 -0.0075872458515578575 0.026611280930599817 0 -0.0068132186598407005 0.025533881670819429 0 -0.0071579383709656479 0.025470316798248935 0 -0.0070078819192385764 0.025394758892373009 0 -0.0069683555100019121 0.025318640012117213 0 -0.0077592408704256037 0.025368985955555687 0 -0.0068132186598407005 0.025533881670819429 0 -0.0071579383709656479 0.025470316798248935 0 -0.0073783573736919718 0.02568434228013897 0 -0.0071043463176167455 0.025098891702735493 0 -0.0075523260116521843 0.02544546341168754 0 -0.0080995263950102859 0.025105930099171499 0 -0.0070720352143948508 0.025610341816551651 0 -0.007581923120122281 0.025886310981106452 0 -0.0075523260116521843 0.02544546341168754 0 -0.007581923120122281 0.025886310981106452 0 -0.0075523260116521843 0.02544546341168754 0 -0.0080271977431140909 0.025541775192698249 0 -0.0075523260116521843 0.02544546341168754 0 -0.0080271977431140909 0.025541775192698249 0 -0.0080995263950102859 0.025105930099171499 0 -0.0080271977431140909 0.025541775192698249 0 -0.0080995263950102859 0.025105930099171499 0 -0.0085159010842953842 0.025484743916833804 0 -0.0071579383709656479 0.025470316798248935 0 -0.0073783573736919718 0.02568434228013897 0 -0.0074979200760522582 0.025350472511048185 0 -0.0073783573736919718 0.02568434228013897 0 -0.0074979200760522582 0.025350472511048185 0 -0.0078736642654165453 0.025270405917424542 0 -0.0078736642654165453 0.025270405917424542 0 -0.0090142421007407859 0.025292033155182306 0 -0.008974431661550545 0.024962614654180731 0 -0.0074979200760522582 0.025350472511048185 0 -0.0080973035949887147 0.025145131225867864 0 -0.0078736642654165453 0.025270405917424542 0 -0.0080973035949887147 0.025145131225867864 0 -0.0078736642654165453 0.025270405917424542 0 -0.0082590272315466815 0.0253411219159578 0 -0.0073783573736919718 0.02568434228013897 0 -0.0078736642654165453 0.025270405917424542 0 -0.0090142421007407859 0.025292033155182306 0 -0.0080075241246533695 0.025213222637526171 0 -0.0086072896572784267 0.025182935983135857 0 -0.0080995263950102859 0.025105930099171499 0 -0.0085159010842953842 0.025484743916833804 0 -0.0090142421007407859 0.025292033155182306 0 -0.0077592408704256037 0.025368985955555687 0 -0.008902555428424835 0.025332602301216655 0 -0.0090142421007407859 0.025292033155182306 0 -0.0092442229398544736 0.025129050341915312 0 -0.008974431661550545 0.024962614654180731 0 -0.0093627315679595136 0.025344812837573002 0 -0.0085159010842953842 0.025484743916833804 0 -0.0090142421007407859 0.025292033155182306 0 -0.0094381812269601507 0.02517053932034162 0 -0.0093627315679595136 0.025344812837573002 0 -0.0092986080483342722 0.025250202671907942 0 -0.0093627315679595136 0.025344812837573002 0 -0.0090142421007407859 0.025292033155182306 0 -0.0092986080483342722 0.025250202671907942 0 -0.0092986080483342722 0.025250202671907942 0 -0.0092442229398544736 0.025129050341915312 0 -0.009396093004784117 0.025114293151580709 0 -0.0090142421007407859 0.025292033155182306 0 -0.0092986080483342722 0.025250202671907942 0 -0.0092442229398544736 0.025129050341915312 0 -0.0080973035949887147 0.025145131225867864 0 -0.0082590272315466815 0.0253411219159578 0 -0.0086757454009008632 0.025420106330943628 0 -0.0086072896572784267 0.025182935983135857 0 -0.0089702875887132209 0.025621830562095049 0 -0.007951819135806424 0.025369198694205942 0 -0.0089702875887132209 0.025621830562095049 0 -0.0079558408938234862 0.025532882452820451 0 -0.0082600819865701579 0.025508963519743487 0 -0.0087061473820897878 0.02588508572283554 0 -0.0092442229398544736 0.025129050341915312 0 -0.008974431661550545 0.024962614654180731 0 -0.0094757628588661904 0.025022145353039118 0 -0.0089844944857551869 0.026523861277397066 0 -0.0091745292563272345 0.026010470339886026 0 -0.0087700281235977649 0.025621437507108328 0 -0.0089844944857551869 0.026523861277397066 0 -0.0091745292563272345 0.026010470339886026 0 -0.0096812618773326649 0.026230570066757018 0 -0.0087700281235977649 0.025621437507108328 0 -0.00803789359725165 0.024999897093777711 0 -0.0094283623562012257 0.024999960908290923 0 -0.0091745292563272345 0.026010470339886026 0 -0.0087700281235977649 0.025621437507108328 0 -0.0094283623562012257 0.024999960908290923 0 -0.0087700281235977649 0.025621437507108328 0 -0.00803789359725165 0.024999897093777711 0 -0.0081391283105817936 0.025543596981217331 0 -0.00803789359725165 0.024999897093777711 0 -0.0081391283105817936 0.025543596981217331 0 -0.0076550871676996984 0.025445878969884483 0 -0.007951819135806424 0.025369198694205942 0 -0.0073589433337205943 0.025354265219013357 0 -0.0089844944857551869 0.026523861277397066 0 -0.0087700281235977649 0.025621437507108328 0 -0.0079786804207065305 0.02608082355226328 0 -0.0079558408938234862 0.025532882452820451 0 -0.0082600819865701579 0.025508963519743487 0 -0.007674026629602833 0.025360439389205094 0 -0.0087700281235977649 0.025621437507108328 0 -0.0081391283105817936 0.025543596981217331 0 -0.0079786804207065305 0.02608082355226328 0 -0.0085563301006242824 0.025997585055745294 0 -0.0078488306888261881 0.025729087517683123 0 -0.0081391283105817936 0.025543596981217331 0 -0.0079786804207065305 0.02608082355226328 0 -0.0076550871676996984 0.025445878969884483 0 -0.0079558408938234862 0.025532882452820451 0 -0.007674026629602833 0.025360439389205094 0 -0.007251147633416534 0.025389197596384975 0 -0.0078488306888261881 0.025729087517683123 0 -0.0071736953981039898 0.025473950984894269 0 -0.0079786804207065305 0.02608082355226328 0 -0.0076550871676996984 0.025445878969884483 0 -0.0070840056964480572 0.025442966981377012 0 -0.0074979200760522582 0.025350472511048185 0 -0.0080973035949887147 0.025145131225867864 0 -0.007251147633416534 0.025389197596384975 0 -0.007674026629602833 0.025360439389205094 0 -0.007251147633416534 0.025389197596384975 0 -0.0070840056964480572 0.025442966981377012 0 -0.0071579383709656479 0.025470316798248935 0 -0.0074979200760522582 0.025350472511048185 0 -0.0071654840766841024 0.02540798458573373 0 -0.0074979200760522582 0.025350472511048185 0 -0.007251147633416534 0.025389197596384975 0 -0.0071654840766841024 0.02540798458573373 0 -0.007251147633416534 0.025389197596384975 0 -0.0071379821782712131 0.025425899306719828 0 -0.0071654840766841024 0.02540798458573373 0 -0.007251147633416534 0.025389197596384975 0 -0.0070840056964480572 0.025442966981377012 0 -0.0071379821782712131 0.025425899306719828 0 -0.00803789359725165 0.024999897093777711 0 -0.0076550871676996984 0.025445878969884483 0 -0.0066480348903385509 0.024999746347125353 0 -0.0076550871676996984 0.025445878969884483 0 -0.0066480348903385509 0.024999746347125353 0 -0.0070840056964480572 0.025442966981377012 0 -0.0067154286354406132 0.025317809840846445 0 -0.0070299875646459651 0.025467453886455271 0 -0.0070840056964480572 0.025442966981377012 0 -0.0066480348903385509 0.024999746347125353 0 -0.0067154286354406132 0.025317809840846445 0 -0.0070840056964480572 0.025442966981377012 0 -0.006311938838827265 0.025338004923720965 0 -0.0066480348903385509 0.024999746347125353 0 -0.0067154286354406132 0.025317809840846445 0 -0.006311938838827265 0.025338004923720965 0 -0.0067154286354406132 0.025317809840846445 0 -0.0070299875646459651 0.025467453886455271 0 -0.0068539774833408004 0.025305570130202633 0 -0.0070299875646459651 0.025467453886455271 0 -0.0070078819192385764 0.025394758892373009 0 -0.0070299875646459651 0.025467453886455271 0 -0.0070840056964480572 0.025442966981377012 0 -0.0071379821782712131 0.025425899306719828 0 -0.0070299875646459651 0.025467453886455271 0 -0.0071379821782712131 0.025425899306719828 0 -0.0071654840766841024 0.02540798458573373 0 -0.0070299875646459651 0.025467453886455271 0 -0.0071654840766841024 0.02540798458573373 0 -0.0070078819192385764 0.025394758892373009 0 -0.0071579383709656479 0.025470316798248935 0 -0.0071654840766841024 0.02540798458573373 0 -0.0070078819192385764 0.025394758892373009 0 -0.011326815858786646 0.026818504850202665 0 -0.0116801490216774 0.026866348339326322 0 -0.011128823910673814 0.027110299729949563 0 -0.011059031537464627 0.026736118056654566 0 -0.011326815858786646 0.026818504850202665 0 -0.011128823910673814 0.027110299729949563 0 -0.011059031537464627 0.026736118056654566 0 -0.011326815858786646 0.026818504850202665 0 -0.011306709006498435 0.026301045458300285 0 -0.011059031537464627 0.026736118056654566 0 -0.010744166419929637 0.026470451924175315 0 -0.011306709006498435 0.026301045458300285 0 -0.011326815858786646 0.026818504850202665 0 -0.0116801490216774 0.026866348339326322 0 -0.011306709006498435 0.026301045458300285 0 -0.011972010208536653 0.026439327496794313 0 -0.0116801490216774 0.026866348339326322 0 -0.011306709006498435 0.026301045458300285 0 -0.011972010208536653 0.026439327496794313 0 -0.012265075715951514 0.026865636809225907 0 -0.012302465670001768 0.025984167911062464 0 -0.012480575786591562 0.027271296820827868 0 -0.012418363442793604 0.025910052950869782 0 -0.011972010208536653 0.026439327496794313 0 -0.011992033484899694 0.026892057776892461 0 -0.012265075715951514 0.026865636809225907 0 -0.011972010208536653 0.026439327496794313 0 -0.011992033484899694 0.026892057776892461 0 -0.0116801490216774 0.026866348339326322 0 -0.012480575786591562 0.027271296820827868 0 -0.012068613569302248 0.026009590218734491 0 -0.012114797841070932 0.027892520399031617 0 -0.012087964802598227 0.027252954736022097 0 -0.011010149833258735 0.027381191511737187 0 -0.012265075715951514 0.026865636809225907 0 -0.012087964802598227 0.027252954736022097 0 -0.012283112031340741 0.027754929529813014 0 -0.011992033484899694 0.026892057776892461 0 -0.0116801490216774 0.026866348339326322 0 -0.012087964802598227 0.027252954736022097 0 -0.011992033484899694 0.026892057776892461 0 -0.012265075715951514 0.026865636809225907 0 -0.012087964802598227 0.027252954736022097 0 -0.012087964802598227 0.027252954736022097 0 -0.011010149833258735 0.027381191511737187 0 -0.010994952234549547 0.0269953693670207 0 -0.011979618181498387 0.027217298880500458 0 -0.011153681009684927 0.027143926386347925 0 -0.0116801490216774 0.026866348339326322 0 -0.012087964802598227 0.027252954736022097 0 -0.011128823910673814 0.027110299729949563 0 -0.0095217378211578576 0.025045577029351528 0 -0.0095903509405509436 0.024953718269425478 0 -0.0094772849488779041 0.02505738692193438 0 -0.011153681009684927 0.027143926386347925 0 -0.0096524957231470844 0.026035617661745666 0 -0.011010149833258735 0.027381191511737187 0 -0.010994952234549547 0.0269953693670207 0 -0.0098204549877695061 0.026754522360880748 0 -0.010320502042728765 0.026270308199472823 0 -0.0096524957231470844 0.026035617661745666 0 -0.0095217378211578576 0.025045577029351528 0 -0.0094301214304553238 0.025141570141078415 0 -0.0094772849488779041 0.02505738692193438 0 -0.0094381812269601507 0.02517053932034162 0 -0.0092986080483342722 0.025250202671907942 0 -0.0094301214304553238 0.025141570141078415 0 -0.0094381812269601507 0.02517053932034162 0 -0.0095217378211578576 0.025045577029351528 0 -0.0094301214304553238 0.025141570141078415 0 -0.0096439146669923901 0.025028221978957932 0 -0.0096524957231470844 0.026035617661745666 0 -0.0092442229398544736 0.025129050341915312 0 -0.009396093004784117 0.025114293151580709 0 -0.0094757628588661904 0.025022145353039118 0 -0.0094301214304553238 0.025141570141078415 0 -0.009396093004784117 0.025114293151580709 0 -0.0095179922349963725 0.025043950971386741 0 -0.0092986080483342722 0.025250202671907942 0 -0.0094301214304553238 0.025141570141078415 0 -0.009396093004784117 0.025114293151580709 0 -0.0089844944857551869 0.026523861277397066 0 -0.0099686909226807292 0.026919381975564097 0 -0.0096812618773326649 0.026230570066757018 0 -0.0085563301006242824 0.025997585055745294 0 -0.0097786727332765128 0.026400110989637744 0 -0.0082600819865701579 0.025508963519743487 0 -0.0087061473820897878 0.02588508572283554 0 -0.0088747932492754863 0.025749088421243502 0 -0.009396093004784117 0.025114293151580709 0 -0.0094757628588661904 0.025022145353039118 0 -0.0095179922349963725 0.025043950971386741 0 -0.0096524957231470844 0.026035617661745666 0 -0.0097786727332765128 0.026400110989637744 0 -0.0089702875887132209 0.025621830562095049 0 -0.0096524957231470844 0.026035617661745666 0 -0.0087061473820897878 0.02588508572283554 0 -0.0088090474808104873 0.02590553306791147 0 -0.0088747932492754863 0.025749088421243502 0 -0.010208744631790993 0.026705320950168279 0 -0.010744166419929637 0.026470451924175315 0 -0.010535122368189433 0.025881663649582231 0 -0.011128823910673814 0.027110299729949563 0 -0.010078339918682616 0.026913270908015749 0 -0.010754144825755711 0.026920654357336021 0 -0.011059031537464627 0.026736118056654566 0 -0.011128823910673814 0.027110299729949563 0 -0.010754144825755711 0.026920654357336021 0 -0.011059031537464627 0.026736118056654566 0 -0.010754144825755711 0.026920654357336021 0 -0.010744166419929637 0.026470451924175315 0 -0.0097786727332765128 0.026400110989637744 0 -0.010791817440464091 0.026918367805136418 0 -0.010078339918682616 0.026913270908015749 0 -0.010171946506403051 0.026685557938558806 0 -0.010754144825755711 0.026920654357336021 0 -0.010208744631790993 0.026705320950168279 0 -0.010754144825755711 0.026920654357336021 0 -0.010744166419929637 0.026470451924175315 0 -0.0097786727332765128 0.026400110989637744 0 -0.010467215908608914 0.025971721552563661 0 -0.010744166419929637 0.026470451924175315 0 -0.010535122368189433 0.025881663649582231 0 -0.011306709006498435 0.026301045458300285 0 -0.0099686909226807292 0.026919381975564097 0 -0.010382631388965448 0.025958796445293943 0 -0.0096812618773326649 0.026230570066757018 0 -0.0091745292563272345 0.026010470339886026 0 -0.0096812618773326649 0.026230570066757018 0 -0.0094283623562012257 0.024999960908290923 0 -0.010382631388965448 0.025958796445293943 0 -0.0096812618773326649 0.026230570066757018 0 -0.0094283623562012257 0.024999960908290923 0 -0.010382631388965448 0.025958796445293943 0 -0.0094283623562012257 0.024999960908290923 0 -0.010818597977734098 0.024999991206995097 0 -0.010467215908608914 0.025971721552563661 0 -0.0108186120784141 0.025000136689373509 0 -0.010535122368189433 0.025881663649582231 0 -0.01081885407860232 0.024999997529987158 0 -0.011230322578732112 0.025619438994030984 0 -0.01081885407860232 0.024999997529987158 0 -0.011611393740740475 0.024999965639762586 0 -0.011230322578732112 0.025619438994030984 0 -0.011611393740740475 0.024999965639762586 0 -0.011230322578732112 0.025619438994030984 0 -0.011877980738008361 0.025577380922319086 0 -0.011230322578732112 0.025619438994030984 0 -0.011306709006498435 0.026301045458300285 0 -0.011877980738008361 0.025577380922319086 0 -0.010535122368189433 0.025881663649582231 0 -0.011230322578732112 0.025619438994030984 0 -0.011306709006498435 0.026301045458300285 0 -0.011972010208536653 0.026439327496794313 0 -0.011306709006498435 0.026301045458300285 0 -0.011877980738008361 0.025577380922319086 0 -0.011972010208536653 0.026439327496794313 0 -0.012302465670001768 0.025984167911062464 0 -0.011877980738008361 0.025577380922319086 0 -0.012302465670001768 0.025984167911062464 0 -0.012404042391925359 0.025000002337875783 0 -0.011877980738008361 0.025577380922319086 0 -0.011611393740740475 0.024999965639762586 0 -0.012404042391925359 0.025000002337875783 0 -0.011877980738008361 0.025577380922319086 0 -0.012418363442793604 0.025910052950869782 0 -0.012404203829349437 0.025000276275942628 0 -0.012404352117004632 0.024999984687177262 0 -0.013091175114714542 0.025626473898609607 0 -0.013421506919865709 0.02499998894312163 0 -0.012542627325826484 0.026013972135565961 0 -0.012404352117004632 0.024999984687177262 0 -0.013091175114714542 0.025626473898609607 0 -0.013421506919865709 0.02499998894312163 0 -0.013788214122930279 0.025832587791713092 0 -0.01443873626372077 0.024999902962870576 0 -0.013091175114714542 0.025626473898609607 0 -0.013421506919865709 0.02499998894312163 0 -0.013788214122930279 0.025832587791713092 0 -0.013501021888271529 0.026675531446284879 0 -0.01675994839018545 0.024060522932036005 0 -0.013788214122930279 0.025832587791713092 0 -0.013278887565132838 0.026447591076471249 0 -0.014169311904079711 0.026726635160293711 0 -0.013091175114714542 0.025626473898609607 0 -0.013788214122930279 0.025832587791713092 0 -0.013278887565132838 0.026447591076471249 0 -0.012542627325826484 0.026013972135565961 0 -0.013091175114714542 0.025626473898609607 0 -0.013278887565132838 0.026447591076471249 0 -0.012620512685092873 0.026947611322648866 0 -0.012542627325826484 0.026013972135565961 0 -0.013278887565132838 0.026447591076471249 0 -0.012620512685092873 0.026947611322648866 0 -0.013278887565132838 0.026447591076471249 0 -0.013391546292718628 0.027297652311180684 0 -0.013278887565132838 0.026447591076471249 0 -0.013391546292718628 0.027297652311180684 0 -0.014169311904079711 0.026726635160293711 0 -0.012751490064304467 0.025852074661014902 0 -0.01675994839018545 0.024060522932036005 0 -0.012620512685092873 0.026947611322648866 0 -0.013391546292718628 0.027297652311180684 0 -0.012653840632977498 0.027837736731560547 0 -0.012751490064304467 0.025852074661014902 0 -0.012068613569302248 0.026009590218734491 0 -0.026146606418877411 0.022080934929949933 0 -0.026464411875136852 0.021960478352797658 0 -0.026585025507451995 0.022155960586024044 0 -0.026146606418877411 0.022080934929949933 0 -0.026190963587333842 0.021705222348770196 0 -0.026464411875136852 0.021960478352797658 0 -0.026146606418877411 0.022080934929949933 0 -0.025817134614994318 0.021689952315667137 0 -0.026190963587333842 0.021705222348770196 0 -0.019941059171197779 0.02284405893444073 0 -0.01675994839018545 0.024060522932036005 0 -0.012974882979659586 0.023861745908300407 0 -0.013187174813465204 0.023920938112041268 0 -0.013137756685593575 0.02376008190358175 0 -0.01675994839018545 0.024060522932036005 0 -0.019106000392371054 0.024950748932722457 0 -0.025817134614994318 0.021689952315667137 0 -0.026190963587333842 0.021705222348770196 0 -0.026225549272742826 0.021375489688404255 0 -0.026190963587333842 0.021705222348770196 0 -0.026538008526434006 0.021670033126241831 0 -0.026464411875136852 0.021960478352797658 0 -0.019106000392371054 0.024950748932722457 0 -0.022649727233549913 0.02329935649992913 0 -0.026190963587333842 0.021705222348770196 0 -0.026225549272742826 0.021375489688404255 0 -0.026538008526434006 0.021670033126241831 0 -0.019106000392371054 0.024950748932722457 0 -0.015197343878606393 0.026671515942885329 0 -0.013788214122930279 0.025832587791713092 0 -0.014294303032416883 0.026848456182354395 0 -0.015302155153746106 0.026088162757115285 0 -0.013788214122930279 0.025832587791713092 0 -0.015302155153746106 0.026088162757115285 0 -0.01443873626372077 0.024999902962870576 0 -0.014438613654356766 0.025000135031345974 0 -0.015813769851322591 0.024999801660234539 0 -0.015822590006270978 0.025859023297666681 0 -0.019106000392371054 0.024950748932722457 0 -0.014435742992141244 0.024999823462044751 0 -0.015310400490122342 0.026251875777300447 0 -0.014438613654356766 0.025000135031345974 0 -0.015822590006270978 0.025859023297666681 0 -0.015813769851322591 0.024999801660234539 0 -0.015822590006270978 0.025859023297666681 0 -0.016605316190506876 0.026176026554813894 0 -0.015813769851322591 0.024999801660234539 0 -0.016605316190506876 0.026176026554813894 0 -0.017187340316021541 0.025001124400228333 0 -0.016605316190506876 0.026176026554813894 0 -0.017225957439259868 0.026873216041467647 0 -0.015944979772705717 0.027129054442041934 0 -0.01531903617526 0.026292480475007901 0 -0.015925255144987077 0.026367942553489225 0 -0.015944979772705717 0.027129054442041934 0 -0.015822590006270978 0.025859023297666681 0 -0.016605316190506876 0.026176026554813894 0 -0.015925255144987077 0.026367942553489225 0 -0.016605316190506876 0.026176026554813894 0 -0.015925255144987077 0.026367942553489225 0 -0.015944979772705717 0.027129054442041934 0 -0.01531903617526 0.026292480475007901 0 -0.015822590006270978 0.025859023297666681 0 -0.015925255144987077 0.026367942553489225 0 -0.018566521134908125 0.02499672461645424 0 -0.017883826319773671 0.02581211709976813 0 -0.019011633635863088 0.026917330857469585 0 -0.016605316190506876 0.026176026554813894 0 -0.017883826319773671 0.02581211709976813 0 -0.017187340316021541 0.025001124400228333 0 -0.018566521134908125 0.02499672461645424 0 -0.017883826319773671 0.02581211709976813 0 -0.017187340316021541 0.025001124400228333 0 -0.016605316190506876 0.026176026554813894 0 -0.017883826319773671 0.02581211709976813 0 -0.017225957439259868 0.026873216041467647 0 -0.017883826319773671 0.02581211709976813 0 -0.019011633635863088 0.026917330857469585 0 -0.017225957439259868 0.026873216041467647 0 -0.022642549470574268 0.025312520969875057 0 -0.021822983295094193 0.025282243070801444 0 -0.026148032872759443 0.02393416710807425 0 -0.026161985372537166 0.022714261244728508 0 -0.026906930945677868 0.023114427586657729 0 -0.026161985372537166 0.022714261244728508 0 -0.026906930945677868 0.023114427586657729 0 -0.02677904244273446 0.02234385625000988 0 -0.026161985372537166 0.022714261244728508 0 -0.02677904244273446 0.02234385625000988 0 -0.026758469493625956 0.021705553968300317 0 -0.026161985372537166 0.022714261244728508 0 -0.026758469493625956 0.021705553968300317 0 -0.025694960871186119 0.021713172193496763 0 -0.021822983295094193 0.025282243070801444 0 -0.022649727233549913 0.02329935649992913 0 -0.026906930945677868 0.023114427586657729 0 -0.027456913484606424 0.022726402226384525 0 -0.026997011596375041 0.022567463343775424 0 -0.026906930945677868 0.023114427586657729 0 -0.02677904244273446 0.02234385625000988 0 -0.026997011596375041 0.022567463343775424 0 -0.02677904244273446 0.02234385625000988 0 -0.02693695296355993 0.022132553083025992 0 -0.02681722260892851 0.021995627244052546 0 -0.02677904244273446 0.02234385625000988 0 -0.026997011596375041 0.022567463343775424 0 -0.02693695296355993 0.022132553083025992 0 -0.027456913484606424 0.022726402226384525 0 -0.026997011596375041 0.022567463343775424 0 -0.02693695296355993 0.022132553083025992 0 -0.02693695296355993 0.022132553083025992 0 -0.026464411875136852 0.021960478352797658 0 -0.026585025507451995 0.022155960586024044 0 -0.022649727233549913 0.02329935649992913 0 -0.027947410795870053 0.022252099422794651 0 -0.026538008526434006 0.021670033126241831 0 -0.02693695296355993 0.022132553083025992 0 -0.026464411875136852 0.021960478352797658 0 -0.02693695296355993 0.022132553083025992 0 -0.026585025507451995 0.022155960586024044 0 -0.026692811264211858 0.02214771186181895 0 -0.02693695296355993 0.022132553083025992 0 -0.026692811264211858 0.02214771186181895 0 -0.02681722260892851 0.021995627244052546 0 -0.026692811264211858 0.02214771186181895 0 -0.02681722260892851 0.021995627244052546 0 -0.026834827479243917 0.022117565785211651 0 -0.026692811264211858 0.02214771186181895 0 -0.026511148265260479 0.022329404742068164 0 -0.026433904320859888 0.022245219485401545 0 -0.026585025507451995 0.022155960586024044 0 -0.026692811264211858 0.02214771186181895 0 -0.026433904320859888 0.022245219485401545 0 -0.02677904244273446 0.02234385625000988 0 -0.026758469493625956 0.021705553968300317 0 -0.02681722260892851 0.021995627244052546 0 -0.026896125039023475 0.021623477971164401 0 -0.027207973146248472 0.021381960227064539 0 -0.026758469493625956 0.021705553968300317 0 -0.02681722260892851 0.021995627244052546 0 -0.026834827479243917 0.022117565785211651 0 -0.026758469493625956 0.021705553968300317 0 -0.026923452411172728 0.020481864430958428 0 -0.026022543646444248 0.020531275670880825 0 -0.026758469493625956 0.021705553968300317 0 -0.027985796047905638 0.020303472518838277 0 -0.026923452411172728 0.020481864430958428 0 -0.027806329490878169 0.019315455967263227 0 -0.027182935722884185 0.018731957006648009 0 -0.026626421736412092 0.019541190298098643 0 -0.026923452411172728 0.020481864430958428 0 -0.027806329490878169 0.019315455967263227 0 -0.026626421736412092 0.019541190298098643 0 -0.027985796047905638 0.020303472518838277 0 -0.027806329490878169 0.019315455967263227 0 -0.028701900416491944 0.019097927215335372 0 -0.027207973146248472 0.021381960227064539 0 -0.028592863200991237 0.020043982267529875 0 -0.027985796047905638 0.020303472518838277 0 -0.026923452411172728 0.020481864430958428 0 -0.027806329490878169 0.019315455967263227 0 -0.027806329490878169 0.019315455967263227 0 -0.028171461584683206 0.018505450211166955 0 -0.027182935722884185 0.018731957006648009 0 -0.027806329490878169 0.019315455967263227 0 -0.028171461584683206 0.018505450211166955 0 -0.028701900416491944 0.019097927215335372 0 -0.028171461584683206 0.018505450211166955 0 -0.027182935722884185 0.018731957006648009 0 -0.027586313081527852 0.018222886340739694 0 -0.026692811264211858 0.02214771186181895 0 -0.026834827479243917 0.022117565785211651 0 -0.026720177837832083 0.02232055342314735 0 -0.026692811264211858 0.02214771186181895 0 -0.026511148265260479 0.022329404742068164 0 -0.026720177837832083 0.02232055342314735 0 -0.028171461584683206 0.018505450211166955 0 -0.028701900416491944 0.019097927215335372 0 -0.028665667553008135 0.018222119140686704 0 -0.028592863200991237 0.020043982267529875 0 -0.021902038294090004 0.022241279606795943 0 -0.028701900416491944 0.019097927215335372 0 -0.029224326485982968 0.01815235803710542 0 -0.028665667553008135 0.018222119140686704 0 -0.013410399431113986 0.024462080270833245 0 -0.013323440692364939 0.025065618496145515 0 -0.014030209400574374 0.025523012972929863 0 -0.019852007835073363 0.023688384243001188 0 -0.021902038294090004 0.022241279606795943 0 -0.026511148265260479 0.022329404742068164 0 -0.026720177837832083 0.02232055342314735 0 -0.026559221261332443 0.022488819448767593 0 -0.013323440692364939 0.025065618496145515 0 -0.013002468709210619 0.025221005626123293 0 -0.012905629620743136 0.024727798805057506 0 -0.013323440692364939 0.025065618496145515 0 -0.013002468709210619 0.025221005626123293 0 -0.013317247659523818 0.025424381695552525 0 -0.013002468709210619 0.025221005626123293 0 -0.012438094755577426 0.025155448887898484 0 -0.012363215184835781 0.025840700234684152 0 -0.013002468709210619 0.025221005626123293 0 -0.012905629620743136 0.024727798805057506 0 -0.012438094755577426 0.025155448887898484 0 -0.012905629620743136 0.024727798805057506 0 -0.012178873937776421 0.024801071296826779 0 -0.012438094755577426 0.025155448887898484 0 -0.013410399431113986 0.024462080270833245 0 -0.013323440692364939 0.025065618496145515 0 -0.012905629620743136 0.024727798805057506 0 -0.013410399431113986 0.024462080270833245 0 -0.013239680450536685 0.024290627993926252 0 -0.013212124552240891 0.024021778709990536 0 -0.013239680450536685 0.024290627993926252 0 -0.012441036667505534 0.024390846531172662 0 -0.012033040771456043 0.023727348899468013 0 -0.013191914216902139 0.024252436265015654 0 -0.012580631678916508 0.02394316348260574 0 -0.019852007835073363 0.023688384243001188 0 -0.019789391112503184 0.023098984549869164 0 -0.013410399431113986 0.024462080270833245 0 -0.012905629620743136 0.024727798805057506 0 -0.013239680450536685 0.024290627993926252 0 -0.012905629620743136 0.024727798805057506 0 -0.012441036667505534 0.024390846531172662 0 -0.012178873937776421 0.024801071296826779 0 -0.012905629620743136 0.024727798805057506 0 -0.013239680450536685 0.024290627993926252 0 -0.012441036667505534 0.024390846531172662 0 -0.011663600061973945 0.024275323238757991 0 -0.012441036667505534 0.024390846531172662 0 -0.012033040771456043 0.023727348899468013 0 -0.011663600061973945 0.024275323238757991 0 -0.012441036667505534 0.024390846531172662 0 -0.012178873937776421 0.024801071296826779 0 -0.011663600061973945 0.024275323238757991 0 -0.012178873937776421 0.024801071296826779 0 -0.011504708179400001 0.024797050021257528 0 -0.012178873937776421 0.024801071296826779 0 -0.011720020150719671 0.025224381899053835 0 -0.011504708179400001 0.024797050021257528 0 -0.012438094755577426 0.025155448887898484 0 -0.011720020150719671 0.025224381899053835 0 -0.012363215184835781 0.025840700234684152 0 -0.012178873937776421 0.024801071296826779 0 -0.012438094755577426 0.025155448887898484 0 -0.011720020150719671 0.025224381899053835 0 -0.011720020150719671 0.025224381899053835 0 -0.011007261355955962 0.025029266768554801 0 -0.010671370722590898 0.025514276738697536 0 -0.011720020150719671 0.025224381899053835 0 -0.011007261355955962 0.025029266768554801 0 -0.011504708179400001 0.024797050021257528 0 -0.011007261355955962 0.025029266768554801 0 -0.011504708179400001 0.024797050021257528 0 -0.010869552982211164 0.024528335240569618 0 -0.0097233319867291688 0.024831539933633521 0 -0.010461717212822417 0.025075946210144369 0 -0.0096588966976096525 0.024796542323367535 0 -0.010214005207390008 0.024837074251124639 0 -0.010671370722590898 0.025514276738697536 0 -0.011007261355955962 0.025029266768554801 0 -0.010214005207390008 0.024837074251124639 0 -0.010869552982211164 0.024528335240569618 0 -0.011007261355955962 0.025029266768554801 0 -0.010214005207390008 0.024837074251124639 0 -0.010671370722590898 0.025514276738697536 0 -0.010214005207390008 0.024837074251124639 0 -0.0099310887500317722 0.024419412584224573 0 -0.010869552982211164 0.024528335240569618 0 -0.0099310887500317722 0.024419412584224573 0 -0.010869552982211164 0.024528335240569618 0 -0.010981842664816884 0.023357149538774723 0 -0.011663600061973945 0.024275323238757991 0 -0.010869552982211164 0.024528335240569618 0 -0.010981842664816884 0.023357149538774723 0 -0.011663600061973945 0.024275323238757991 0 -0.011504708179400001 0.024797050021257528 0 -0.010869552982211164 0.024528335240569618 0 -0.011989229998135344 0.023617628108541313 0 -0.012580631678916508 0.02394316348260574 0 -0.012981608865456728 0.024050985021296902 0 -0.01306935335334803 0.023995436590705962 0 -0.013084835567110084 0.024093529369031651 0 -0.011663600061973945 0.024275323238757991 0 -0.010981842664816884 0.023357149538774723 0 -0.012033040771456043 0.023727348899468013 0 -0.0099310887500317722 0.024419412584224573 0 -0.010981842664816884 0.023357149538774723 0 -0.0098651653980018437 0.022844467996836388 0 -0.0096123891773878499 0.024110250950810846 0 -0.010998354888356095 0.024437401317666547 0 -0.012974882979659586 0.023861745908300407 0 -0.012935575526934761 0.023971742734179999 0 -0.012819963856604145 0.023963034973028992 0 -0.011989229998135344 0.023617628108541313 0 -0.010998354888356095 0.024437401317666547 0 -0.012981608865456728 0.024050985021296902 0 -0.012820865014633465 0.02400176776426894 0 -0.012935575526934761 0.023971742734179999 0 -0.012820865014633465 0.02400176776426894 0 -0.012935575526934761 0.023971742734179999 0 -0.012819963856604145 0.023963034973028992 0 -0.010998354888356095 0.024437401317666547 0 -0.012068613569302248 0.026009590218734491 0 -0.012981608865456728 0.024050985021296902 0 -0.012935575526934761 0.023971742734179999 0 -0.01306935335334803 0.023995436590705962 0 -0.012974882979659586 0.023861745908300407 0 -0.012935575526934761 0.023971742734179999 0 -0.01306935335334803 0.023995436590705962 0 -0.013187174813465204 0.023920938112041268 0 -0.01306935335334803 0.023995436590705962 0 -0.013212124552240891 0.024021778709990536 0 -0.012974882979659586 0.023861745908300407 0 -0.013187174813465204 0.023920938112041268 0 -0.01306935335334803 0.023995436590705962 0 -0.026146606418877411 0.022080934929949933 0 -0.026585025507451995 0.022155960586024044 0 -0.026433904320859888 0.022245219485401545 0 -0.019941059171197779 0.02284405893444073 0 -0.019789391112503184 0.023098984549869164 0 -0.013239680450536685 0.024290627993926252 0 -0.013212124552240891 0.024021778709990536 0 -0.013084835567110084 0.024093529369031651 0 -0.01306935335334803 0.023995436590705962 0 -0.013212124552240891 0.024021778709990536 0 -0.013084835567110084 0.024093529369031651 0 -0.02499948934153878 0.021889277581585952 0 -0.025121565824775632 0.023208959563360634 0 -0.024896594032293533 0.02419025899862454 0 -0.024999809743773267 0.021886883607623111 0 -0.025254549917968886 0.0221459239486217 0 -0.02499948934153878 0.021889277581585952 0 -0.025178319831307739 0.022578280111037862 0 -0.025121565824775632 0.023208959563360634 0 -0.025525059095549054 0.0213901964640551 0 -0.025240652396029163 0.021657170993519489 0 -0.025656598432764917 0.021829854728927411 0 -0.025525059095549054 0.0213901964640551 0 -0.025240652396029163 0.021657170993519489 0 -0.025371933659862071 0.021047861846323269 0 -0.025178319831307739 0.022578280111037862 0 -0.025224175982306623 0.023121248039744604 0 -0.025454890643742952 0.023069037972024229 0 -0.025254549917968886 0.0221459239486217 0 -0.025086492798206128 0.022039133119278419 0 -0.025224175982306623 0.023121248039744604 0 -0.025121565824775632 0.023208959563360634 0 -0.025238780033196542 0.023394246991935517 0 -0.025178319831307739 0.022578280111037862 0 -0.025224175982306623 0.023121248039744604 0 -0.025121565824775632 0.023208959563360634 0 -0.025121565824775632 0.023208959563360634 0 -0.025238780033196542 0.023394246991935517 0 -0.024913214322659333 0.024016014580792881 0 -0.025011677184570046 0.023219723017623619 0 -0.025086492798206128 0.022039133119278419 0 -0.025224175982306623 0.023121248039744604 0 -0.025238780033196542 0.023394246991935517 0 -0.025454890643742952 0.023069037972024229 0 -0.02499948934153878 0.021889277581585952 0 -0.024896594032293533 0.02419025899862454 0 -0.024997506328668959 0.024999321593741301 0 -0.024896594032293533 0.02419025899862454 0 -0.024997506328668959 0.024999321593741301 0 -0.023518490496257056 0.024998981991707758 0 -0.023518490496257056 0.024998981991707758 0 -0.024913214322659333 0.024016014580792881 0 -0.025215269815861648 0.024117384813474176 0 -0.024896594032293533 0.02419025899862454 0 -0.023518490496257056 0.024998981991707758 0 -0.024913214322659333 0.024016014580792881 0 -0.025238780033196542 0.023394246991935517 0 -0.024913214322659333 0.024016014580792881 0 -0.025215269815861648 0.024117384813474176 0 -0.025121565824775632 0.023208959563360634 0 -0.024896594032293533 0.02419025899862454 0 -0.024913214322659333 0.024016014580792881 0 -0.024103802744212009 0.025276806978577579 0 -0.023483213232433908 0.023570681912117638 0 -0.023145460697627046 0.02601020545938711 0 -0.022286759835545022 0.026020842833597471 0 -0.022797191827675079 0.026953582975797395 0 -0.023512979753549119 0.024999977138975147 0 -0.023145460697627046 0.02601020545938711 0 -0.022186638926871251 0.024999983479164777 0 -0.023727153199182841 0.024852976690780623 0 -0.024103802744212009 0.025276806978577579 0 -0.022186638926871251 0.024999983479164777 0 -0.022286759835545022 0.026020842833597471 0 -0.021411287638637658 0.025707025668448742 0 -0.023145460697627046 0.02601020545938711 0 -0.022186638926871251 0.024999983479164777 0 -0.022286759835545022 0.026020842833597471 0 -0.022286759835545022 0.026020842833597471 0 -0.022797191827675079 0.026953582975797395 0 -0.021761204035962801 0.026487247272263804 0 -0.023483213232433908 0.023570681912117638 0 -0.022342931219981294 0.025216534199371522 0 -0.022111335784725593 0.023160064639273951 0 -0.023270516468388427 0.022599118698544054 0 -0.023174410160106029 0.023697710754716553 0 -0.025238780033196542 0.023394246991935517 0 -0.025215269815861648 0.024117384813474176 0 -0.025659872868845232 0.023343370725501959 0 -0.025238780033196542 0.023394246991935517 0 -0.025659872868845232 0.023343370725501959 0 -0.025317538764118172 0.02316190993079947 0 -0.023483213232433908 0.023570681912117638 0 -0.025086492798206128 0.022039133119278419 0 -0.024076516955828742 0.020553656608100549 0 -0.023674111022414943 0.0208432111715387 0 -0.024014056698791333 0.019953428233376692 0 -0.025525059095549054 0.0213901964640551 0 -0.025656598432764917 0.021829854728927411 0 -0.025844290438370329 0.021012040313046626 0 -0.024076516955828742 0.020553656608100549 0 -0.024413237322937209 0.020236489607287186 0 -0.024014056698791333 0.019953428233376692 0 -0.024158005043527071 0.021084218569505358 0 -0.024076516955828742 0.020553656608100549 0 -0.023674111022414943 0.0208432111715387 0 -0.025086492798206128 0.022039133119278419 0 -0.024887366069529824 0.020362866909345891 0 -0.024158005043527071 0.021084218569505358 0 -0.024076516955828742 0.020553656608100549 0 -0.024413237322937209 0.020236489607287186 0 -0.022111335784725593 0.023160064639273951 0 -0.022529720114372754 0.021969063749928602 0 -0.023270516468388427 0.022599118698544054 0 -0.022529720114372754 0.021969063749928602 0 -0.023270516468388427 0.022599118698544054 0 -0.023401695945752896 0.021605719518714643 0 -0.023483213232433908 0.023570681912117638 0 -0.023499107343166348 0.020842531985682696 0 -0.023270516468388427 0.022599118698544054 0 -0.02397691356386393 0.021811258707062822 0 -0.023401695945752896 0.021605719518714643 0 -0.023270516468388427 0.022599118698544054 0 -0.023986422669204147 0.02298419979307096 0 -0.02397691356386393 0.021811258707062822 0 -0.023986422669204147 0.02298419979307096 0 -0.024816679621826789 0.021794983959990015 0 -0.02397691356386393 0.021811258707062822 0 -0.023986422669204147 0.02298419979307096 0 -0.024034160169545224 0.02365129864458599 0 -0.023174410160106029 0.023697710754716553 0 -0.023986422669204147 0.02298419979307096 0 -0.024034160169545224 0.02365129864458599 0 -0.024368784287935361 0.023653094758747856 0 -0.023270516468388427 0.022599118698544054 0 -0.023986422669204147 0.02298419979307096 0 -0.023174410160106029 0.023697710754716553 0 -0.022186638926871251 0.024999983479164777 0 -0.021411287638637658 0.025707025668448742 0 -0.0201043200020442 0.024999987496002105 0 -0.021761204035962801 0.026487247272263804 0 -0.021411287638637658 0.025707025668448742 0 -0.020701008880127665 0.026008353377343359 0 -0.022286759835545022 0.026020842833597471 0 -0.021761204035962801 0.026487247272263804 0 -0.021411287638637658 0.025707025668448742 0 -0.022342931219981294 0.025216534199371522 0 -0.022376637778027775 0.025171994383352145 0 -0.021411287638637658 0.025707025668448742 0 -0.020701008880127665 0.026008353377343359 0 -0.0201043200020442 0.024999987496002105 0 -0.024034160169545224 0.02365129864458599 0 -0.023174410160106029 0.023697710754716553 0 -0.02404395139923882 0.024283707440416209 0 -0.024034160169545224 0.02365129864458599 0 -0.02404395139923882 0.024283707440416209 0 -0.02403979671673034 0.024181071193255441 0 -0.02404395139923882 0.024283707440416209 0 -0.02403979671673034 0.024181071193255441 0 -0.023579948875648894 0.02497124596400779 0 -0.024034160169545224 0.02365129864458599 0 -0.02403979671673034 0.024181071193255441 0 -0.024368784287935361 0.023653094758747856 0 -0.02403979671673034 0.024181071193255441 0 -0.024222906934379625 0.024188313459860181 0 -0.024368784287935361 0.023653094758747856 0 -0.024222906934379625 0.024188313459860181 0 -0.024949051270718878 0.023861502012009605 0 -0.024368784287935361 0.023653094758747856 0 -0.024222906934379625 0.024188313459860181 0 -0.023579948875648894 0.02497124596400779 0 -0.024949051270718878 0.023861502012009605 0 -0.02403979671673034 0.024181071193255441 0 -0.024222906934379625 0.024188313459860181 0 -0.023579948875648894 0.02497124596400779 0 -0.022376637778027775 0.025171994383352145 0 -0.021412737994688579 0.025281189317537877 0 -0.020701008880127665 0.026008353377343359 0 -0.0201043200020442 0.024999987496002105 0 -0.019630450778366282 0.02550971883366791 0 -0.02404395139923882 0.024283707440416209 0 -0.023150385131003991 0.024903025637016768 0 -0.023579948875648894 0.02497124596400779 0 -0.018562938822292863 0.025000001625329633 0 -0.0201043200020442 0.024999987496002105 0 -0.019630450778366282 0.02550971883366791 0 -0.018566521134908125 0.02499672461645424 0 -0.019011633635863088 0.026917330857469585 0 -0.023150385131003991 0.024903025637016768 0 -0.018564048538496091 0.025000018349938848 0 -0.021412737994688579 0.025281189317537877 0 -0.026148032872759443 0.02393416710807425 0 -0.023579948875648894 0.02497124596400779 0 -0.024949051270718878 0.023861502012009605 0 -0.019011633635863088 0.026917330857469585 0 -0.023150385131003991 0.024903025637016768 0 -0.023579948875648894 0.02497124596400779 0 -0.022642549470574268 0.025312520969875057 0 -0.023462631782750543 0.025054609475139475 0 -0.026161985372537166 0.022714261244728508 0 -0.024949051270718878 0.023861502012009605 0 -0.024992911757178833 0.022723876461005686 0 -0.026148032872759443 0.02393416710807425 0 -0.026161985372537166 0.022714261244728508 0 -0.024949051270718878 0.023861502012009605 0 -0.023986422669204147 0.02298419979307096 0 -0.024368784287935361 0.023653094758747856 0 -0.024992911757178833 0.022723876461005686 0 -0.024949051270718878 0.023861502012009605 0 -0.024368784287935361 0.023653094758747856 0 -0.024992911757178833 0.022723876461005686 0 -0.023986422669204147 0.02298419979307096 0 -0.024992911757178833 0.022723876461005686 0 -0.024816679621826789 0.021794983959990015 0 -0.024992911757178833 0.022723876461005686 0 -0.025694960871186119 0.021713172193496763 0 -0.024816679621826789 0.021794983959990015 0 -0.026161985372537166 0.022714261244728508 0 -0.024992911757178833 0.022723876461005686 0 -0.025694960871186119 0.021713172193496763 0 -0.026758469493625956 0.021705553968300317 0 -0.025694960871186119 0.021713172193496763 0 -0.026022543646444248 0.020531275670880825 0 -0.025694960871186119 0.021713172193496763 0 -0.024816679621826789 0.021794983959990015 0 -0.025078434644471525 0.020713595192237814 0 -0.025694960871186119 0.021713172193496763 0 -0.025078434644471525 0.020713595192237814 0 -0.026022543646444248 0.020531275670880825 0 -0.025078434644471525 0.020713595192237814 0 -0.026022543646444248 0.020531275670880825 0 -0.025340890540053354 0.01986152365197005 0 -0.026923452411172728 0.020481864430958428 0 -0.026022543646444248 0.020531275670880825 0 -0.026626421736412092 0.019541190298098643 0 -0.026022543646444248 0.020531275670880825 0 -0.026626421736412092 0.019541190298098643 0 -0.02590423572462756 0.019342418991965756 0 -0.027182935722884185 0.018731957006648009 0 -0.026626421736412092 0.019541190298098643 0 -0.026111586188272702 0.018531909115129138 0 -0.026626421736412092 0.019541190298098643 0 -0.026111586188272702 0.018531909115129138 0 -0.02590423572462756 0.019342418991965756 0 -0.027182935722884185 0.018731957006648009 0 -0.026111586188272702 0.018531909115129138 0 -0.026557103218339071 0.017875669860048262 0 -0.026111586188272702 0.018531909115129138 0 -0.02590423572462756 0.019342418991965756 0 -0.02544432914356488 0.018505925579084672 0 -0.026111586188272702 0.018531909115129138 0 -0.02544432914356488 0.018505925579084672 0 -0.025849383479140887 0.017966956152605986 0 -0.02590423572462756 0.019342418991965756 0 -0.025092735030869954 0.019160415294298731 0 -0.02544432914356488 0.018505925579084672 0 -0.026022543646444248 0.020531275670880825 0 -0.02590423572462756 0.019342418991965756 0 -0.025340890540053354 0.01986152365197005 0 -0.02590423572462756 0.019342418991965756 0 -0.025340890540053354 0.01986152365197005 0 -0.025092735030869954 0.019160415294298731 0 -0.025340890540053354 0.01986152365197005 0 -0.025092735030869954 0.019160415294298731 0 -0.024503760607279313 0.02016418275700085 0 -0.025092735030869954 0.019160415294298731 0 -0.02544432914356488 0.018505925579084672 0 -0.025113948960186983 0.018413023198088477 0 -0.025092735030869954 0.019160415294298731 0 -0.024815326247035283 0.018751180021437112 0 -0.02451759440072224 0.019133641585622353 0 -0.025092735030869954 0.019160415294298731 0 -0.025113948960186983 0.018413023198088477 0 -0.024815326247035283 0.018751180021437112 0 -0.024815326247035283 0.018751180021437112 0 -0.02451759440072224 0.019133641585622353 0 -0.0248544910794034 0.018856000425029738 0 -0.02441266320658169 0.019217783865727013 0 -0.023903124199950301 0.020125881436456765 0 -0.025092735030869954 0.019160415294298731 0 -0.02451759440072224 0.019133641585622353 0 -0.024503760607279313 0.02016418275700085 0 -0.024503760607279313 0.02016418275700085 0 -0.023969254787330072 0.021028017175605321 0 -0.023205101342750271 0.020576832931314723 0 -0.02451759440072224 0.019133641585622353 0 -0.024503760607279313 0.02016418275700085 0 -0.023205101342750271 0.020576832931314723 0 -0.025078434644471525 0.020713595192237814 0 -0.025340890540053354 0.01986152365197005 0 -0.024503760607279313 0.02016418275700085 0 -0.025078434644471525 0.020713595192237814 0 -0.024503760607279313 0.02016418275700085 0 -0.024493641653614364 0.021135815268536681 0 -0.024503760607279313 0.02016418275700085 0 -0.024493641653614364 0.021135815268536681 0 -0.023969254787330072 0.021028017175605321 0 -0.024816679621826789 0.021794983959990015 0 -0.025078434644471525 0.020713595192237814 0 -0.024493641653614364 0.021135815268536681 0 -0.024816679621826789 0.021794983959990015 0 -0.024493641653614364 0.021135815268536681 0 -0.02397691356386393 0.021811258707062822 0 -0.023401695945752896 0.021605719518714643 0 -0.023969254787330072 0.021028017175605321 0 -0.023205101342750271 0.020576832931314723 0 -0.02397691356386393 0.021811258707062822 0 -0.023401695945752896 0.021605719518714643 0 -0.023969254787330072 0.021028017175605321 0 -0.024493641653614364 0.021135815268536681 0 -0.02397691356386393 0.021811258707062822 0 -0.023969254787330072 0.021028017175605321 0 -0.023499107343166348 0.020842531985682696 0 -0.023903124199950301 0.020125881436456765 0 -0.024413237322937209 0.020236489607287186 0 -0.024014056698791333 0.019953428233376692 0 -0.024580531277088709 0.019504901363415619 0 -0.022529720114372754 0.021969063749928602 0 -0.023401695945752896 0.021605719518714643 0 -0.023205101342750271 0.020576832931314723 0 -0.025844290438370329 0.021012040313046626 0 -0.025511682008795035 0.020370160747831444 0 -0.025371933659862071 0.021047861846323269 0 -0.024887366069529824 0.020362866909345891 0 -0.024985640048199895 0.01962194315588894 0 -0.025844290438370329 0.021012040313046626 0 -0.025511682008795035 0.020370160747831444 0 -0.025714094979093518 0.01982179498656304 0 -0.025511682008795035 0.020370160747831444 0 -0.025714094979093518 0.01982179498656304 0 -0.025295278942915153 0.019708204254493409 0 -0.024014056698791333 0.019953428233376692 0 -0.024346946418740165 0.019278586205821631 0 -0.024580531277088709 0.019504901363415619 0 -0.025714094979093518 0.01982179498656304 0 -0.0248544910794034 0.018856000425029738 0 -0.025214045756489365 0.019230416867771299 0 -0.02451759440072224 0.019133641585622353 0 -0.024346946418740165 0.019278586205821631 0 -0.024580531277088709 0.019504901363415619 0 -0.02451759440072224 0.019133641585622353 0 -0.024346946418740165 0.019278586205821631 0 -0.0248544910794034 0.018856000425029738 0 -0.024985640048199895 0.01962194315588894 0 -0.024897315486090001 0.018984333262656618 0 -0.0248544910794034 0.018856000425029738 0 -0.024901279168065695 0.018633185082641113 0 -0.025214045756489365 0.019230416867771299 0 -0.024815326247035283 0.018751180021437112 0 -0.0248544910794034 0.018856000425029738 0 -0.024953565657141887 0.018144031417098701 0 -0.024901279168065695 0.018633185082641113 0 -0.025027240157927198 0.019065442489392664 0 -0.025214045756489365 0.019230416867771299 0 -0.024901279168065695 0.018633185082641113 0 -0.025027240157927198 0.019065442489392664 0 -0.024785455898600907 0.018576725763086905 0 -0.025027240157927198 0.019065442489392664 0 -0.025214045756489365 0.019230416867771299 0 -0.025295278942915153 0.019708204254493409 0 -0.025714094979093518 0.01982179498656304 0 -0.025214045756489365 0.019230416867771299 0 -0.025295278942915153 0.019708204254493409 0 -0.025060593560086424 0.019543373017530587 0 -0.025097939139040126 0.020147687717795765 0 -0.025288243880962916 0.020260952636746134 0 -0.025027240157927198 0.019065442489392664 0 -0.025295278942915153 0.019708204254493409 0 -0.025060593560086424 0.019543373017530587 0 -0.025295278942915153 0.019708204254493409 0 -0.025060593560086424 0.019543373017530587 0 -0.025288243880962916 0.020260952636746134 0 -0.025027240157927198 0.019065442489392664 0 -0.025060593560086424 0.019543373017530587 0 -0.024832457156114218 0.018758924320854138 0 -0.025027240157927198 0.019065442489392664 0 -0.024832457156114218 0.018758924320854138 0 -0.024785455898600907 0.018576725763086905 0 -0.025060593560086424 0.019543373017530587 0 -0.024832457156114218 0.018758924320854138 0 -0.024999549575251519 0.019643699488438578 0 -0.024832457156114218 0.018758924320854138 0 -0.024999549575251519 0.019643699488438578 0 -0.024999260455893336 0.01852487261672282 0 -0.025060593560086424 0.019543373017530587 0 -0.024999549575251519 0.019643699488438578 0 -0.025097939139040126 0.020147687717795765 0 -0.024999549575251519 0.019643699488438578 0 -0.025097939139040126 0.020147687717795765 0 -0.024999588130809242 0.020765793139213149 0 -0.025097939139040126 0.020147687717795765 0 -0.025288243880962916 0.020260952636746134 0 -0.02517451194511177 0.021098770203781932 0 -0.025097939139040126 0.020147687717795765 0 -0.024999588130809242 0.020765793139213149 0 -0.02517451194511177 0.021098770203781932 0 -0.025511682008795035 0.020370160747831444 0 -0.025288243880962916 0.020260952636746134 0 -0.025371933659862071 0.021047861846323269 0 -0.025288243880962916 0.020260952636746134 0 -0.025371933659862071 0.021047861846323269 0 -0.02517451194511177 0.021098770203781932 0 -0.025511682008795035 0.020370160747831444 0 -0.025295278942915153 0.019708204254493409 0 -0.025288243880962916 0.020260952636746134 0 -0.025240652396029163 0.021657170993519489 0 -0.025371933659862071 0.021047861846323269 0 -0.02517451194511177 0.021098770203781932 0 -0.025525059095549054 0.0213901964640551 0 -0.025844290438370329 0.021012040313046626 0 -0.025371933659862071 0.021047861846323269 0 -0.024999656730749401 0.021885315894262011 0 -0.025240652396029163 0.021657170993519489 0 -0.02517451194511177 0.021098770203781932 0 -0.024999656730749401 0.021885315894262011 0 -0.024999588130809242 0.020765793139213149 0 -0.02517451194511177 0.021098770203781932 0 -0.025718068205653876 0.016286409522518839 0 -0.024999982774223314 0.015655023530373499 0 -0.024999994372934601 0.017089182800741367 0 -0.023914672049687554 0.015442072117945654 0 -0.024483465208511627 0.015657862734665139 0 -0.024410100592241076 0.014885842123175452 0 -0.024614638706273409 0.017550486115501918 0 -0.024288521166329506 0.016108786737390808 0 -0.023914672049687554 0.015442072117945654 0 -0.023936276172083205 0.016319226006673605 0 -0.024483465208511627 0.015657862734665139 0 -0.024843491576693549 0.015737454477108306 0 -0.024614638706273409 0.017550486115501918 0 -0.025718068205653876 0.016286409522518839 0 -0.024999994372934601 0.017089182800741367 0 -0.025747195280236019 0.017664605503796196 0 -0.024999994372934601 0.017089182800741367 0 -0.025747195280236019 0.017664605503796196 0 -0.02499999391637717 0.018523321078053313 0 -0.024614638706273409 0.017550486115501918 0 -0.025000275612208585 0.01852349101779872 0 -0.024730601477371477 0.018959258636401938 0 -0.024614638706273409 0.017550486115501918 0 -0.024832457156114218 0.018758924320854138 0 -0.024880080340853393 0.018719164946955559 0 -0.024999260455893336 0.01852487261672282 0 -0.024832457156114218 0.018758924320854138 0 -0.024057034498863605 0.017864768528002787 0 -0.024523086100482077 0.018184511987021954 0 -0.024832457156114218 0.018758924320854138 0 -0.024523086100482077 0.018184511987021954 0 -0.024785455898600907 0.018576725763086905 0 -0.024057034498863605 0.017864768528002787 0 -0.024470723174143429 0.017641487385148071 0 -0.02418934637991476 0.016741104100365837 0 -0.024057034498863605 0.017864768528002787 0 -0.024523086100482077 0.018184511987021954 0 -0.024470723174143429 0.017641487385148071 0 -0.024470723174143429 0.017641487385148071 0 -0.024821957101556782 0.017383467946036735 0 -0.02418934637991476 0.016741104100365837 0 -0.024470723174143429 0.017641487385148071 0 -0.024737373100680568 0.018017174824055862 0 -0.024821957101556782 0.017383467946036735 0 -0.024523086100482077 0.018184511987021954 0 -0.024470723174143429 0.017641487385148071 0 -0.024737373100680568 0.018017174824055862 0 -0.024523086100482077 0.018184511987021954 0 -0.024737373100680568 0.018017174824055862 0 -0.024785455898600907 0.018576725763086905 0 -0.024901279168065695 0.018633185082641113 0 -0.024737373100680568 0.018017174824055862 0 -0.024785455898600907 0.018576725763086905 0 -0.0248544910794034 0.018856000425029738 0 -0.024901279168065695 0.018633185082641113 0 -0.024953565657141887 0.018144031417098701 0 -0.024901279168065695 0.018633185082641113 0 -0.024737373100680568 0.018017174824055862 0 -0.024953565657141887 0.018144031417098701 0 -0.024953565657141887 0.018144031417098701 0 -0.024821957101556782 0.017383467946036735 0 -0.025184940203278206 0.017103121324253491 0 -0.024737373100680568 0.018017174824055862 0 -0.024953565657141887 0.018144031417098701 0 -0.024821957101556782 0.017383467946036735 0 -0.024821957101556782 0.017383467946036735 0 -0.024949024659154283 0.016480921420450361 0 -0.025184940203278206 0.017103121324253491 0 -0.024821957101556782 0.017383467946036735 0 -0.024949024659154283 0.016480921420450361 0 -0.02418934637991476 0.016741104100365837 0 -0.024949024659154283 0.016480921420450361 0 -0.02418934637991476 0.016741104100365837 0 -0.024875444020768394 0.015186371902582919 0 -0.024288521166329506 0.016108786737390808 0 -0.024902284771901852 0.015259921329500409 0 -0.024483465208511627 0.015657862734665139 0 -0.024875444020768394 0.015186371902582919 0 -0.024410100592241076 0.014885842123175452 0 -0.024949024659154283 0.016480921420450361 0 -0.024875444020768394 0.015186371902582919 0 -0.025437705606422209 0.015855596733324123 0 -0.024875444020768394 0.015186371902582919 0 -0.025437705606422209 0.015855596733324123 0 -0.025686879958233114 0.014917565566026688 0 -0.025437705606422209 0.015855596733324123 0 -0.02555515726034591 0.0165139413329865 0 -0.026016570381559932 0.015382783282523535 0 -0.025437705606422209 0.015855596733324123 0 -0.026016570381559932 0.015382783282523535 0 -0.025686879958233114 0.014917565566026688 0 -0.02555515726034591 0.0165139413329865 0 -0.025931924467469145 0.016470696228822419 0 -0.026016570381559932 0.015382783282523535 0 -0.025437705606422209 0.015855596733324123 0 -0.02555515726034591 0.0165139413329865 0 -0.025184940203278206 0.017103121324253491 0 -0.024949024659154283 0.016480921420450361 0 -0.025437705606422209 0.015855596733324123 0 -0.025184940203278206 0.017103121324253491 0 -0.02555515726034591 0.0165139413329865 0 -0.025184940203278206 0.017103121324253491 0 -0.025458988365337533 0.017554401906534546 0 -0.024953565657141887 0.018144031417098701 0 -0.025184940203278206 0.017103121324253491 0 -0.025458988365337533 0.017554401906534546 0 -0.025113948960186983 0.018413023198088477 0 -0.024953565657141887 0.018144031417098701 0 -0.025458988365337533 0.017554401906534546 0 -0.025113948960186983 0.018413023198088477 0 -0.024815326247035283 0.018751180021437112 0 -0.024953565657141887 0.018144031417098701 0 -0.02544432914356488 0.018505925579084672 0 -0.025113948960186983 0.018413023198088477 0 -0.025458988365337533 0.017554401906534546 0 -0.02544432914356488 0.018505925579084672 0 -0.025458988365337533 0.017554401906534546 0 -0.025849383479140887 0.017966956152605986 0 -0.02555515726034591 0.0165139413329865 0 -0.025458988365337533 0.017554401906534546 0 -0.025931924467469145 0.016470696228822419 0 -0.025458988365337533 0.017554401906534546 0 -0.026266695088513193 0.01699580801752789 0 -0.025931924467469145 0.016470696228822419 0 -0.025458988365337533 0.017554401906534546 0 -0.026266695088513193 0.01699580801752789 0 -0.025849383479140887 0.017966956152605986 0 -0.026111586188272702 0.018531909115129138 0 -0.025849383479140887 0.017966956152605986 0 -0.026557103218339071 0.017875669860048262 0 -0.026266695088513193 0.01699580801752789 0 -0.025849383479140887 0.017966956152605986 0 -0.026557103218339071 0.017875669860048262 0 -0.026557103218339071 0.017875669860048262 0 -0.026885081891241003 0.017179976438205357 0 -0.027227950419266851 0.017860987803629245 0 -0.026266695088513193 0.01699580801752789 0 -0.026885081891241003 0.017179976438205357 0 -0.027016462651660592 0.016175233806641647 0 -0.026266695088513193 0.01699580801752789 0 -0.026557103218339071 0.017875669860048262 0 -0.026885081891241003 0.017179976438205357 0 -0.026266695088513193 0.01699580801752789 0 -0.026460868854658402 0.015833687662861733 0 -0.027016462651660592 0.016175233806641647 0 -0.026460868854658402 0.015833687662861733 0 -0.027016462651660592 0.016175233806641647 0 -0.026994157479293016 0.015407691241930751 0 -0.026460868854658402 0.015833687662861733 0 -0.025931924467469145 0.016470696228822419 0 -0.026016570381559932 0.015382783282523535 0 -0.026266695088513193 0.01699580801752789 0 -0.026460868854658402 0.015833687662861733 0 -0.025931924467469145 0.016470696228822419 0 -0.026460868854658402 0.015833687662861733 0 -0.026016570381559932 0.015382783282523535 0 -0.026594488198885154 0.014772746020274776 0 -0.026460868854658402 0.015833687662861733 0 -0.026594488198885154 0.014772746020274776 0 -0.026994157479293016 0.015407691241930751 0 -0.026594488198885154 0.014772746020274776 0 -0.026213657384166006 0.014577776450999129 0 -0.026489377334906323 0.013874620044808409 0 -0.026016570381559932 0.015382783282523535 0 -0.026594488198885154 0.014772746020274776 0 -0.026213657384166006 0.014577776450999129 0 -0.026213657384166006 0.014577776450999129 0 -0.026489377334906323 0.013874620044808409 0 -0.025956886823758525 0.014101267112244607 0 -0.026594488198885154 0.014772746020274776 0 -0.026489377334906323 0.013874620044808409 0 -0.026905975661723935 0.014142182201737139 0 -0.026489377334906323 0.013874620044808409 0 -0.026553758131665516 0.013142508476292905 0 -0.026841282472317526 0.013470227849502036 0 -0.026553758131665516 0.013142508476292905 0 -0.026124011940411897 0.013325250502537835 0 -0.026242639759605581 0.012728415529980304 0 -0.026489377334906323 0.013874620044808409 0 -0.026553758131665516 0.013142508476292905 0 -0.026124011940411897 0.013325250502537835 0 -0.026489377334906323 0.013874620044808409 0 -0.026124011940411897 0.013325250502537835 0 -0.025956886823758525 0.014101267112244607 0 -0.026124011940411897 0.013325250502537835 0 -0.025616422834529317 0.013545511230187381 0 -0.025956886823758525 0.014101267112244607 0 -0.026124011940411897 0.013325250502537835 0 -0.025778917935048412 0.012635956909677681 0 -0.026242639759605581 0.012728415529980304 0 -0.026124011940411897 0.013325250502537835 0 -0.025616422834529317 0.013545511230187381 0 -0.025778917935048412 0.012635956909677681 0 -0.025616422834529317 0.013545511230187381 0 -0.025264961775859147 0.013219045269483188 0 -0.025778917935048412 0.012635956909677681 0 -0.025616422834529317 0.013545511230187381 0 -0.025418469493443414 0.014337133329863819 0 -0.025956886823758525 0.014101267112244607 0 -0.025418469493443414 0.014337133329863819 0 -0.025956886823758525 0.014101267112244607 0 -0.025686879958233114 0.014917565566026688 0 -0.026016570381559932 0.015382783282523535 0 -0.026213657384166006 0.014577776450999129 0 -0.025686879958233114 0.014917565566026688 0 -0.026213657384166006 0.014577776450999129 0 -0.025956886823758525 0.014101267112244607 0 -0.025686879958233114 0.014917565566026688 0 -0.024875444020768394 0.015186371902582919 0 -0.025418469493443414 0.014337133329863819 0 -0.025686879958233114 0.014917565566026688 0 -0.024875444020768394 0.015186371902582919 0 -0.025418469493443414 0.014337133329863819 0 -0.024918040224153126 0.013968582004407544 0 -0.024875444020768394 0.015186371902582919 0 -0.024918040224153126 0.013968582004407544 0 -0.024410100592241076 0.014885842123175452 0 -0.024918040224153126 0.013968582004407544 0 -0.024790025403353653 0.013434351148189291 0 -0.024436400840769496 0.013965005202460752 0 -0.024918040224153126 0.013968582004407544 0 -0.024436400840769496 0.013965005202460752 0 -0.024410100592241076 0.014885842123175452 0 -0.025616422834529317 0.013545511230187381 0 -0.025418469493443414 0.014337133329863819 0 -0.024918040224153126 0.013968582004407544 0 -0.025616422834529317 0.013545511230187381 0 -0.024918040224153126 0.013968582004407544 0 -0.025264961775859147 0.013219045269483188 0 -0.025264961775859147 0.013219045269483188 0 -0.025351677236168088 0.012608315487424884 0 -0.025778917935048412 0.012635956909677681 0 -0.025351677236168088 0.012608315487424884 0 -0.025004375234017263 0.012802807343442982 0 -0.025037112451176839 0.012316860400307822 0 -0.025264961775859147 0.013219045269483188 0 -0.025351677236168088 0.012608315487424884 0 -0.025004375234017263 0.012802807343442982 0 -0.025264961775859147 0.013219045269483188 0 -0.025004375234017263 0.012802807343442982 0 -0.024790025403353653 0.013434351148189291 0 -0.024918040224153126 0.013968582004407544 0 -0.025264961775859147 0.013219045269483188 0 -0.024790025403353653 0.013434351148189291 0 -0.025004375234017263 0.012802807343442982 0 -0.024790025403353653 0.013434351148189291 0 -0.024229477682442761 0.013237294871663318 0 -0.024790025403353653 0.013434351148189291 0 -0.024229477682442761 0.013237294871663318 0 -0.024436400840769496 0.013965005202460752 0 -0.024229477682442761 0.013237294871663318 0 -0.02506045651777113 0.012227595141071336 0 -0.025037112451176839 0.012316860400307822 0 -0.025004375234017263 0.012802807343442982 0 -0.024229477682442761 0.013237294871663318 0 -0.025037112451176839 0.012316860400307822 0 -0.024999594593586874 0.012786228615327537 0 -0.025606606724882807 0.013485426405724308 0 -0.02506045651777113 0.012227595141071336 0 -0.024922767197952809 0.01338878758646289 0 -0.025034695234313807 0.012358444609466342 0 -0.024999594593586874 0.012786228615327537 0 -0.025606606724882807 0.013485426405724308 0 -0.025000035447642843 0.01422092564622913 0 -0.025606606724882807 0.013485426405724308 0 -0.025000035447642843 0.01422092564622913 0 -0.025688377178981973 0.014909680125586739 0 -0.024922767197952809 0.01338878758646289 0 -0.024805704143690877 0.014724490639464547 0 -0.024229477682442761 0.013237294871663318 0 -0.024436400840769496 0.013965005202460752 0 -0.023906717084200623 0.014477992299731842 0 -0.024436400840769496 0.013965005202460752 0 -0.024410100592241076 0.014885842123175452 0 -0.023906717084200623 0.014477992299731842 0 -0.023914672049687554 0.015442072117945654 0 -0.024410100592241076 0.014885842123175452 0 -0.023906717084200623 0.014477992299731842 0 -0.024999982774223314 0.015655023530373499 0 -0.025000035447642843 0.01422092564622913 0 -0.025688377178981973 0.014909680125586739 0 -0.024843491576693549 0.015737454477108306 0 -0.024805704143690877 0.014724490639464547 0 -0.025718068205653876 0.016286409522518839 0 -0.024999982774223314 0.015655023530373499 0 -0.025688377178981973 0.014909680125586739 0 -0.018465409432313649 0.015197848450733228 0 -0.017392120301674502 0.016207553565614586 0 -0.019668784756332533 0.016359124232872016 0 -0.018465409432313649 0.015197848450733228 0 -0.017392120301674502 0.016207553565614586 0 -0.016791725465234462 0.015143760237787553 0 -0.017392120301674502 0.016207553565614586 0 -0.016791725465234462 0.015143760237787553 0 -0.01514518842503435 0.016104436487413526 0 -0.017348649613402264 0.01416309950010837 0 -0.015805404617499963 0.014432695586061903 0 -0.016487939572005787 0.012717140394909381 0 -0.016791725465234462 0.015143760237787553 0 -0.017348649613402264 0.01416309950010837 0 -0.015805404617499963 0.014432695586061903 0 -0.017348649613402264 0.01416309950010837 0 -0.018333111573399452 0.013986940325039995 0 -0.017674508186323577 0.013476161564501887 0 -0.018465409432313649 0.015197848450733228 0 -0.016791725465234462 0.015143760237787553 0 -0.017348649613402264 0.01416309950010837 0 -0.018465409432313649 0.015197848450733228 0 -0.017348649613402264 0.01416309950010837 0 -0.018333111573399452 0.013986940325039995 0 -0.019468149226220279 0.014075125247460338 0 -0.019667934232230226 0.014037525565384132 0 -0.019668784756332533 0.016359124232872016 0 -0.015739616914316908 0.014639983032614875 0 -0.014581293286039 0.014855102679144427 0 -0.018465409432313649 0.015197848450733228 0 -0.018333111573399452 0.013986940325039995 0 -0.019468149226220279 0.014075125247460338 0 -0.011981083894416615 0.014618971640375485 0 -0.014581293286039 0.014855102679144427 0 -0.0098439295297842924 0.024389288629510789 0 -0.0098355398150560304 0.024339282619705783 0 -0.0098436640262012896 0.024443318689880266 0 -0.0098750576019501143 0.024571707262215508 0 -0.0098436640262012896 0.024443318689880266 0 -0.009814749823823455 0.024488389737710125 0 -0.0098355398150560304 0.024339282619705783 0 -0.0098436640262012896 0.024443318689880266 0 -0.009814749823823455 0.024488389737710125 0 -0.014581293286039 0.014855102679144427 0 -0.013871696068985331 0.02228621363798591 0 -0.018465409432313649 0.015197848450733228 0 -0.019468149226220279 0.014075125247460338 0 -0.019668784756332533 0.016359124232872016 0 -0.010917713635003648 0.024369468472798399 0 -0.010292564971524653 0.02396636829185424 0 -0.012269815991219259 0.023511598907250207 0 -0.010917178939775722 0.025179459184160174 0 -0.010917713635003648 0.024369468472798399 0 -0.012269815991219259 0.023511598907250207 0 -0.013871696068985331 0.02228621363798591 0 -0.012415528228274313 0.024538642547026448 0 -0.0098750576019501143 0.024571707262215508 0 -0.010917713635003648 0.024369468472798399 0 -0.010292564971524653 0.02396636829185424 0 -0.0086572278806604612 0.024767117374462706 0 -0.013871696068985331 0.02228621363798591 0 -0.0098750576019501143 0.024571707262215508 0 -0.010925519084209514 0.024759383761650298 0 -0.010917713635003648 0.024369468472798399 0 -0.0098330062054092747 0.024787197655067882 0 -0.0096588966976096525 0.024796542323367535 0 -0.010200287366989833 0.024644054334444974 0 -0.0098330062054092747 0.024787197655067882 0 -0.0099577254572541588 0.025010011774201216 0 -0.010200287366989833 0.024644054334444974 0 -0.010160509235814246 0.024492115630304675 0 -0.011976920832205263 0.024445486634029276 0 -0.0099577254572541588 0.025010011774201216 0 -0.010200287366989833 0.024644054334444974 0 -0.011168376029850982 0.025380056933153292 0 -0.010461717212822417 0.025075946210144369 0 -0.012164788894145954 0.025464931430259005 0 -0.010200287366989833 0.024644054334444974 0 -0.011168376029850982 0.025380056933153292 0 -0.011968811254455466 0.025089778228629782 0 -0.011976920832205263 0.024445486634029276 0 -0.012824537193804844 0.024760192773672661 0 -0.011168376029850982 0.025380056933153292 0 -0.011968811254455466 0.025089778228629782 0 -0.012756402964116691 0.025730592972715786 0 -0.011720020150719671 0.025224381899053835 0 -0.010671370722590898 0.025514276738697536 0 -0.012363215184835781 0.025840700234684152 0 -0.013913503029883494 0.025282271067420432 0 -0.012269815991219259 0.023511598907250207 0 -0.014862764042333323 0.023378084563202561 0 -0.015438224551541594 0.020827104819234443 0 -0.013871696068985331 0.02228621363798591 0 -0.013913503029883494 0.025282271067420432 0 -0.010917178939775722 0.025179459184160174 0 -0.012269815991219259 0.023511598907250207 0 -0.013913503029883494 0.025282271067420432 0 -0.014862764042333323 0.023378084563202561 0 -0.016208009702643286 0.024077307038439147 0 -0.013002468709210619 0.025221005626123293 0 -0.012363215184835781 0.025840700234684152 0 -0.013317247659523818 0.025424381695552525 0 -0.012363215184835781 0.025840700234684152 0 -0.013317247659523818 0.025424381695552525 0 -0.013874212422168125 0.02572582298406691 0 -0.012164788894145954 0.025464931430259005 0 -0.013893298418771979 0.025809238586023433 0 -0.011968811254455466 0.025089778228629782 0 -0.012756402964116691 0.025730592972715786 0 -0.014007061392956257 0.02583718194063973 0 -0.012824537193804844 0.024760192773672661 0 -0.020809197960132263 0.022397041279201182 0 -0.013317247659523818 0.025424381695552525 0 -0.013874212422168125 0.02572582298406691 0 -0.014030209400574374 0.025523012972929863 0 -0.012363215184835781 0.025840700234684152 0 -0.014007061392956257 0.02583718194063973 0 -0.013874212422168125 0.02572582298406691 0 -0.012756402964116691 0.025730592972715786 0 -0.014007061392956257 0.02583718194063973 0 -0.014423404780749998 0.026063915785645115 0 -0.013323440692364939 0.025065618496145515 0 -0.013317247659523818 0.025424381695552525 0 -0.014030209400574374 0.025523012972929863 0 -0.014007061392956257 0.02583718194063973 0 -0.014117995199917494 0.025342769186872997 0 -0.014423404780749998 0.026063915785645115 0 -0.021902038294090004 0.022241279606795943 0 -0.020809197960132263 0.022397041279201182 0 -0.014007061392956257 0.02583718194063973 0 -0.013874212422168125 0.02572582298406691 0 -0.014117995199917494 0.025342769186872997 0 -0.01757430118902242 0.025990425681583992 0 -0.021902038294090004 0.022241279606795943 0 -0.020809197960132263 0.022397041279201182 0 -0.028105859455052843 0.017890954352008579 0 -0.029224326485982968 0.01815235803710542 0 -0.028665667553008135 0.018222119140686704 0 -0.029000651057071419 0.01768475117537548 0 -0.028483305566095057 0.017898752526079829 0 -0.029000651057071419 0.01768475117537548 0 -0.028237401147812799 0.017625233279865437 0 -0.028665667553008135 0.018222119140686704 0 -0.028483305566095057 0.017898752526079829 0 -0.028297623457774541 0.018118031544239112 0 -0.028665667553008135 0.018222119140686704 0 -0.028483305566095057 0.017898752526079829 0 -0.029000651057071419 0.01768475117537548 0 -0.024088765484858915 0.019049534634246711 0 -0.02498235089444192 0.01905980217742078 0 -0.02450166960525671 0.01992702904461589 0 -0.02498235089444192 0.01905980217742078 0 -0.02468970551888661 0.019931981914656307 0 -0.02450166960525671 0.01992702904461589 0 -0.020809197960132263 0.022397041279201182 0 -0.023192988977203649 0.019332535799760086 0 -0.017597513563356475 0.02336019269073614 0 -0.01759619614182165 0.024709242138384609 0 -0.018508480716945826 0.025339652959953586 0 -0.017597513563356475 0.02336019269073614 0 -0.01759619614182165 0.024709242138384609 0 -0.017118799326504019 0.024166368187779865 0 -0.01759619614182165 0.024709242138384609 0 -0.017358697551818812 0.025280156055896494 0 -0.018508480716945826 0.025339652959953586 0 -0.017235394503829698 0.023039094328940826 0 -0.01865628939958492 0.018610605619322932 0 -0.016208009702643286 0.024077307038439147 0 -0.017118799326504019 0.024166368187779865 0 -0.017323068959082148 0.025349082332895199 0 -0.01759619614182165 0.024709242138384609 0 -0.017118799326504019 0.024166368187779865 0 -0.017323068959082148 0.025349082332895199 0 -0.013913503029883494 0.025282271067420432 0 -0.016208009702643286 0.024077307038439147 0 -0.017323068959082148 0.025349082332895199 0 -0.014862764042333323 0.023378084563202561 0 -0.017597513563356475 0.02336019269073614 0 -0.016208009702643286 0.024077307038439147 0 -0.017597513563356475 0.02336019269073614 0 -0.016208009702643286 0.024077307038439147 0 -0.017118799326504019 0.024166368187779865 0 -0.027182935722884185 0.018731957006648009 0 -0.026557103218339071 0.017875669860048262 0 -0.027227950419266851 0.017860987803629245 0 -0.027182935722884185 0.018731957006648009 0 -0.027227950419266851 0.017860987803629245 0 -0.027586313081527852 0.018222886340739694 0 -0.026885081891241003 0.017179976438205357 0 -0.027227950419266851 0.017860987803629245 0 -0.027634214508934503 0.017442355486582614 0 -0.027227950419266851 0.017860987803629245 0 -0.027586313081527852 0.018222886340739694 0 -0.027814984763460848 0.017807725868451609 0 -0.027227950419266851 0.017860987803629245 0 -0.027814984763460848 0.017807725868451609 0 -0.027634214508934503 0.017442355486582614 0 -0.027814984763460848 0.017807725868451609 0 -0.028260422414614107 0.017553816116630306 0 -0.027634214508934503 0.017442355486582614 0 -0.027814984763460848 0.017807725868451609 0 -0.028170701387380846 0.017827045634216856 0 -0.028260422414614107 0.017553816116630306 0 -0.027814984763460848 0.017807725868451609 0 -0.02801381547157112 0.018093815020808351 0 -0.028170701387380846 0.017827045634216856 0 -0.028171461584683206 0.018505450211166955 0 -0.027586313081527852 0.018222886340739694 0 -0.02801381547157112 0.018093815020808351 0 -0.027586313081527852 0.018222886340739694 0 -0.027814984763460848 0.017807725868451609 0 -0.02801381547157112 0.018093815020808351 0 -0.028171461584683206 0.018505450211166955 0 -0.028665667553008135 0.018222119140686704 0 -0.028297623457774541 0.018118031544239112 0 -0.028171461584683206 0.018505450211166955 0 -0.02801381547157112 0.018093815020808351 0 -0.028297623457774541 0.018118031544239112 0 -0.02801381547157112 0.018093815020808351 0 -0.028297623457774541 0.018118031544239112 0 -0.028170701387380846 0.017827045634216856 0 -0.028483305566095057 0.017898752526079829 0 -0.028297623457774541 0.018118031544239112 0 -0.028170701387380846 0.017827045634216856 0 -0.028150343342948171 0.017788734780625235 0 -0.028105859455052843 0.017890954352008579 0 -0.028483305566095057 0.017898752526079829 0 -0.028170701387380846 0.017827045634216856 0 -0.028237401147812799 0.017625233279865437 0 -0.02799483094943072 0.016847703871360437 0 -0.027016462651660592 0.016175233806641647 0 -0.028832398313490434 0.016326294368432068 0 -0.02848083438332431 0.017449185253625533 0 -0.02799483094943072 0.016847703871360437 0 -0.028832398313490434 0.016326294368432068 0 -0.028105859455052843 0.017890954352008579 0 -0.026152863489409772 0.017801868858485771 0 -0.028105859455052843 0.017890954352008579 0 -0.027807789143585008 0.017540113923414282 0 -0.02848083438332431 0.017449185253625533 0 -0.02799483094943072 0.016847703871360437 0 -0.027634214508934503 0.017442355486582614 0 -0.02799483094943072 0.016847703871360437 0 -0.027634214508934503 0.017442355486582614 0 -0.027016462651660592 0.016175233806641647 0 -0.026885081891241003 0.017179976438205357 0 -0.027634214508934503 0.017442355486582614 0 -0.027016462651660592 0.016175233806641647 0 -0.027016462651660592 0.016175233806641647 0 -0.027355810019273528 0.015651234494400333 0 -0.026994157479293016 0.015407691241930751 0 -0.027016462651660592 0.016175233806641647 0 -0.027355810019273528 0.015651234494400333 0 -0.027677149835149732 0.015790322968115406 0 -0.027945694081042218 0.015682614117120627 0 -0.026152863489409772 0.017801868858485771 0 -0.027355810019273528 0.015651234494400333 0 -0.027490620441073314 0.015470960320652568 0 -0.02734180224031026 0.015243032944591516 0 -0.027355810019273528 0.015651234494400333 0 -0.027578005312027531 0.015640768878672332 0 -0.027677149835149732 0.015790322968115406 0 -0.027355810019273528 0.015651234494400333 0 -0.027578005312027531 0.015640768878672332 0 -0.027490620441073314 0.015470960320652568 0 -0.027578005312027531 0.015640768878672332 0 -0.027490620441073314 0.015470960320652568 0 -0.027601586492439566 0.015479366841374107 0 -0.027490620441073314 0.015470960320652568 0 -0.027601586492439566 0.015479366841374107 0 -0.027549216177587668 0.015284897953422336 0 -0.027549216177587668 0.015284897953422336 0 -0.02752739566982489 0.015044081557683778 0 -0.02734180224031026 0.015243032944591516 0 -0.027490620441073314 0.015470960320652568 0 -0.027549216177587668 0.015284897953422336 0 -0.02734180224031026 0.015243032944591516 0 -0.027549216177587668 0.015284897953422336 0 -0.02752739566982489 0.015044081557683778 0 -0.027605499708173831 0.015154170034383026 0 -0.02752739566982489 0.015044081557683778 0 -0.027356606666522381 0.014834908918151781 0 -0.02734180224031026 0.015243032944591516 0 -0.02752739566982489 0.015044081557683778 0 -0.027356606666522381 0.014834908918151781 0 -0.02755151290080975 0.014714877568852791 0 -0.027356606666522381 0.014834908918151781 0 -0.02734180224031026 0.015243032944591516 0 -0.027099924495194671 0.014819001758540323 0 -0.027355810019273528 0.015651234494400333 0 -0.02734180224031026 0.015243032944591516 0 -0.026994157479293016 0.015407691241930751 0 -0.026594488198885154 0.014772746020274776 0 -0.027099924495194671 0.014819001758540323 0 -0.026994157479293016 0.015407691241930751 0 -0.02734180224031026 0.015243032944591516 0 -0.027099924495194671 0.014819001758540323 0 -0.026994157479293016 0.015407691241930751 0 -0.015438224551541594 0.020827104819234443 0 -0.01865628939958492 0.018610605619322932 0 -0.016791725465234462 0.015143760237787553 0 -0.01514518842503435 0.016104436487413526 0 -0.015805404617499963 0.014432695586061903 0 -0.024973553631696236 0.013684128371951258 0 -0.024901160985498938 0.012621532488395724 0 -0.025512796221755937 0.012271655347480129 0 -0.01865628939958492 0.018610605619322932 0 -0.020734856430513926 0.012896797251531349 0 -0.024973553631696236 0.013684128371951258 0 -0.024287027219588288 0.013664491023896521 0 -0.024454818678688553 0.013413190765459753 0 -0.01865628939958492 0.018610605619322932 0 -0.023192988977203649 0.019332535799760086 0 -0.024973553631696236 0.013684128371951258 0 -0.024619578983474295 0.013214713477985704 0 -0.024901160985498938 0.012621532488395724 0 -0.024973553631696236 0.013684128371951258 0 -0.024454818678688553 0.013413190765459753 0 -0.024619578983474295 0.013214713477985704 0 -0.024170425957434592 0.01869517161196654 0 -0.025142974081766696 0.018737542589241998 0 -0.024572519825858036 0.017446454978813565 0 -0.026152863489409772 0.017801868858485771 0 -0.023192988977203649 0.019332535799760086 0 -0.024287027219588288 0.013664491023896521 0 -0.024454818678688553 0.013413190765459753 0 -0.024135847837554111 0.013304098169853402 0 -0.023192988977203649 0.019332535799760086 0 -0.025198274927743444 0.015723807273985944 0 -0.024454818678688553 0.013413190765459753 0 -0.024135847837554111 0.013304098169853402 0 -0.024445312609153468 0.013179823103368307 0 -0.027578005312027531 0.015640768878672332 0 -0.027677149835149732 0.015790322968115406 0 -0.027738632608601859 0.015696474313740199 0 -0.026152863489409772 0.017801868858485771 0 -0.025198274927743444 0.015723807273985944 0 -0.027601586492439566 0.015479366841374107 0 -0.027738632608601859 0.015696474313740199 0 -0.027697243415845459 0.015324261488154297 0 -0.024135847837554111 0.013304098169853402 0 -0.024445312609153468 0.013179823103368307 0 -0.024571080450056074 0.012795907724508499 0 -0.027578005312027531 0.015640768878672332 0 -0.027601586492439566 0.015479366841374107 0 -0.027738632608601859 0.015696474313740199 0 -0.024619578983474295 0.013214713477985704 0 -0.024571080450056074 0.012795907724508499 0 -0.024901160985498938 0.012621532488395724 0 -0.024445312609153468 0.013179823103368307 0 -0.024619578983474295 0.013214713477985704 0 -0.024571080450056074 0.012795907724508499 0 -0.024454818678688553 0.013413190765459753 0 -0.024445312609153468 0.013179823103368307 0 -0.024619578983474295 0.013214713477985704 0 -0.027697243415845459 0.015324261488154297 0 -0.027646256501017055 0.014962636438103607 0 -0.027830697658159615 0.014562708927709353 0 -0.024571080450056074 0.012795907724508499 0 -0.024901160985498938 0.012621532488395724 0 -0.024896799616107954 0.011668844759180116 0 -0.024135847837554111 0.013304098169853402 0 -0.024571080450056074 0.012795907724508499 0 -0.024896799616107954 0.011668844759180116 0 -0.027738632608601859 0.015696474313740199 0 -0.027697243415845459 0.015324261488154297 0 -0.027830697658159615 0.014562708927709353 0 -0.024901160985498938 0.012621532488395724 0 -0.02508497145276635 0.011943350675130936 0 -0.024896799616107954 0.011668844759180116 0 -0.025198274927743444 0.015723807273985944 0 -0.026478595039602062 0.012862376571564079 0 -0.027697243415845459 0.015324261488154297 0 -0.027605499708173831 0.015154170034383026 0 -0.027646256501017055 0.014962636438103607 0 -0.027601586492439566 0.015479366841374107 0 -0.027549216177587668 0.015284897953422336 0 -0.027697243415845459 0.015324261488154297 0 -0.027549216177587668 0.015284897953422336 0 -0.027697243415845459 0.015324261488154297 0 -0.027605499708173831 0.015154170034383026 0 -0.02752739566982489 0.015044081557683778 0 -0.027605499708173831 0.015154170034383026 0 -0.027646256501017055 0.014962636438103607 0 -0.027646256501017055 0.014962636438103607 0 -0.02755151290080975 0.014714877568852791 0 -0.027830697658159615 0.014562708927709353 0 -0.02752739566982489 0.015044081557683778 0 -0.027646256501017055 0.014962636438103607 0 -0.02755151290080975 0.014714877568852791 0 -0.024901160985498938 0.012621532488395724 0 -0.02508497145276635 0.011943350675130936 0 -0.025512796221755937 0.012271655347480129 0 -0.02508497145276635 0.011943350675130936 0 -0.025512796221755937 0.012271655347480129 0 -0.025900561130371813 0.011148785783365003 0 -0.02508497145276635 0.011943350675130936 0 -0.024896799616107954 0.011668844759180116 0 -0.025495884815289277 0.011274764803468883 0 -0.024896799616107954 0.011668844759180116 0 -0.025508026321560281 0.011076491314909049 0 -0.025495884815289277 0.011274764803468883 0 -0.020734856430513926 0.012896797251531349 0 -0.022861056484814728 0.010792288760477102 0 -0.025889108895090954 0.011678296361144577 0 -0.022861056484814728 0.010792288760477102 0 -0.02755151290080975 0.014714877568852791 0 -0.027505390577633345 0.014382909917146592 0 -0.027279478026862456 0.014354530169066694 0 -0.02755151290080975 0.014714877568852791 0 -0.027830697658159615 0.014562708927709353 0 -0.027505390577633345 0.014382909917146592 0 -0.027830697658159615 0.014562708927709353 0 -0.027505390577633345 0.014382909917146592 0 -0.02740595965875316 0.013918604442010324 0 -0.027505390577633345 0.014382909917146592 0 -0.02740595965875316 0.013918604442010324 0 -0.027279478026862456 0.014354530169066694 0 -0.027830697658159615 0.014562708927709353 0 -0.02740595965875316 0.013918604442010324 0 -0.027398076985563687 0.013301124713727618 0 -0.02740595965875316 0.013918604442010324 0 -0.027109176223212975 0.013728084591595241 0 -0.027140765834944219 0.013343290501041938 0 -0.02740595965875316 0.013918604442010324 0 -0.027398076985563687 0.013301124713727618 0 -0.027140765834944219 0.013343290501041938 0 -0.026478595039602062 0.012862376571564079 0 -0.026371025381270924 0.01236503277310427 0 -0.026594488198885154 0.014772746020274776 0 -0.027099924495194671 0.014819001758540323 0 -0.026905975661723935 0.014142182201737139 0 -0.027099924495194671 0.014819001758540323 0 -0.027279478026862456 0.014354530169066694 0 -0.026905975661723935 0.014142182201737139 0 -0.027356606666522381 0.014834908918151781 0 -0.027099924495194671 0.014819001758540323 0 -0.027279478026862456 0.014354530169066694 0 -0.027356606666522381 0.014834908918151781 0 -0.02755151290080975 0.014714877568852791 0 -0.027279478026862456 0.014354530169066694 0 -0.027279478026862456 0.014354530169066694 0 -0.027109176223212975 0.013728084591595241 0 -0.026905975661723935 0.014142182201737139 0 -0.02740595965875316 0.013918604442010324 0 -0.027279478026862456 0.014354530169066694 0 -0.027109176223212975 0.013728084591595241 0 -0.027109176223212975 0.013728084591595241 0 -0.026905975661723935 0.014142182201737139 0 -0.026841282472317526 0.013470227849502036 0 -0.026489377334906323 0.013874620044808409 0 -0.026905975661723935 0.014142182201737139 0 -0.026841282472317526 0.013470227849502036 0 -0.026841282472317526 0.013470227849502036 0 -0.026991260844790973 0.013143808534636923 0 -0.026831801445556865 0.012995711287817898 0 -0.027109176223212975 0.013728084591595241 0 -0.026841282472317526 0.013470227849502036 0 -0.026991260844790973 0.013143808534636923 0 -0.027109176223212975 0.013728084591595241 0 -0.026991260844790973 0.013143808534636923 0 -0.027140765834944219 0.013343290501041938 0 -0.026991260844790973 0.013143808534636923 0 -0.026831801445556865 0.012995711287817898 0 -0.026891445608098075 0.012907979928709385 0 -0.026553758131665516 0.013142508476292905 0 -0.026841282472317526 0.013470227849502036 0 -0.026831801445556865 0.012995711287817898 0 -0.026553758131665516 0.013142508476292905 0 -0.026831801445556865 0.012995711287817898 0 -0.026594795415988349 0.012616784289344537 0 -0.026371025381270924 0.01236503277310427 0 -0.026055037690482279 0.012492249686216619 0 -0.025508026321560281 0.011076491314909049 0 -0.026014622296308878 0.012417235652863264 0 -0.025186892181055149 0.011662150789347256 0 -0.027398076985563687 0.013301124713727618 0 -0.026829395210016403 0.012846455987512457 0 -0.026014622296308878 0.012417235652863264 0 -0.026991260844790973 0.013143808534636923 0 -0.026829395210016403 0.012846455987512457 0 -0.027140765834944219 0.013343290501041938 0 -0.027398076985563687 0.013301124713727618 0 -0.026829395210016403 0.012846455987512457 0 -0.027140765834944219 0.013343290501041938 0 -0.026991260844790973 0.013143808534636923 0 -0.026829395210016403 0.012846455987512457 0 -0.026891445608098075 0.012907979928709385 0 -0.026829395210016403 0.012846455987512457 0 -0.026891445608098075 0.012907979928709385 0 -0.026014622296308878 0.012417235652863264 0 -0.024163859405096022 0.011833191718313749 0 -0.025186892181055149 0.011662150789347256 0 -0.024854185141427083 0.01284661576846274 0 -0.026014622296308878 0.012417235652863264 0 -0.025186892181055149 0.011662150789347256 0 -0.024854185141427083 0.01284661576846274 0 -0.023080466802361723 0.01032297508584795 0 -0.021422146624826322 0.011648294791461459 0 -0.020166068535719707 0.0099465127098562617 0 -0.023080466802361723 0.01032297508584795 0 -0.021422146624826322 0.011648294791461459 0 -0.022403465423562426 0.013249549862468185 0 -0.023510104848296583 0.011306870786584853 0 -0.022530352957090719 0.013131910243001969 0 -0.023080466802361723 0.01032297508584795 0 -0.02264482779777862 0.0079993896633871291 0 -0.020166068535719707 0.0099465127098562617 0 -0.023080466802361723 0.01032297508584795 0 -0.023778908854834167 0.0081768727578014795 0 -0.02264482779777862 0.0079993896633871291 0 -0.024163859405096022 0.011833191718313749 0 -0.025186892181055149 0.011662150789347256 0 -0.025159721314232608 0.011186788484601707 0 -0.023510104848296583 0.011306870786584853 0 -0.024722929731853374 0.0092699541111089107 0 -0.025508026321560281 0.011076491314909049 0 -0.025186892181055149 0.011662150789347256 0 -0.025159721314232608 0.011186788484601707 0 -0.024722929731853374 0.0092699541111089107 0 -0.022861056484814728 0.010792288760477102 0 -0.020128548403612796 0.0095256965936307159 0 -0.022861056484814728 0.010792288760477102 0 -0.023778908854834167 0.0081768727578014795 0 -0.02264482779777862 0.0079993896633871291 0 -0.024524032415635111 0.0064778745370139444 0 -0.025508026321560281 0.011076491314909049 0 -0.025159721314232608 0.011186788484601707 0 -0.025495884815289277 0.011274764803468883 0 -0.01803231206134559 0.011218385825315135 0 -0.018527794004253674 0.013035862385141397 0 -0.016487939572005787 0.012717140394909381 0 -0.018527794004253674 0.013035862385141397 0 -0.017674508186323577 0.013476161564501887 0 -0.016487939572005787 0.012717140394909381 0 -0.018333111573399452 0.013986940325039995 0 -0.018527794004253674 0.013035862385141397 0 -0.017674508186323577 0.013476161564501887 0 -0.017348649613402264 0.01416309950010837 0 -0.017674508186323577 0.013476161564501887 0 -0.016487939572005787 0.012717140394909381 0 -0.01471420978263928 0.0048361061987143503 0 -0.016553581741059982 0.0045738184321165712 0 -0.015458064481270054 0.0060162148652942076 0 -0.016553581741059982 0.0045738184321165712 0 -0.015458064481270054 0.0060162148652942076 0 -0.016716686852820465 0.0066401966152869231 0 -0.014581293286039 0.014855102679144427 0 -0.018552845554773056 0.0080238928628086088 0 -0.019676965412824276 0.014031525938529724 0 -0.018527794004253674 0.013035862385141397 0 -0.019672435665987337 0.01185928356133208 0 -0.018333111573399452 0.013986940325039995 0 -0.019468149226220279 0.014075125247460338 0 -0.018527794004253674 0.013035862385141397 0 -0.019468149226220279 0.014075125247460338 0 -0.019676965412824276 0.014031525938529724 0 -0.018527794004253674 0.013035862385141397 0 -0.01803231206134559 0.011218385825315135 0 -0.018527794004253674 0.013035862385141397 0 -0.019672435665987337 0.01185928356133208 0 -0.014023406599960703 0.0064497095093882031 0 -0.015458064481270054 0.0060162148652942076 0 -0.01554104997916933 0.0073797926041447486 0 -0.015458064481270054 0.0060162148652942076 0 -0.016716686852820465 0.0066401966152869231 0 -0.01554104997916933 0.0073797926041447486 0 -0.01554104997916933 0.0073797926041447486 0 -0.017279030617767876 0.0087353951990851442 0 -0.015580059727894236 0.0086491272325249242 0 -0.016716686852820465 0.0066401966152869231 0 -0.01554104997916933 0.0073797926041447486 0 -0.017279030617767876 0.0087353951990851442 0 -0.014292366619195323 0.0079889743905769955 0 -0.01554104997916933 0.0073797926041447486 0 -0.015580059727894236 0.0086491272325249242 0 -0.018552845554773056 0.0080238928628086088 0 -0.01892620506403864 0.009595641074824926 0 -0.01803231206134559 0.011218385825315135 0 -0.019672435665987337 0.01185928356133208 0 -0.01962228740561597 0.0097164512729105493 0 -0.020128548403612796 0.0095256965936307159 0 -0.01892620506403864 0.009595641074824926 0 -0.017727360194885411 0.0082761678836668004 0 -0.017039393644694423 0.009025175826935598 0 -0.019489006218379224 0.014138327578549629 0 -0.01892620506403864 0.009595641074824926 0 -0.018252363532467109 0.009622171465293778 0 -0.015580059727894236 0.0086491272325249242 0 -0.016283534594692707 0.0091629689885450866 0 -0.015310524941648687 0.0095987082789207763 0 -0.017279030617767876 0.0087353951990851442 0 -0.017039393644694423 0.009025175826935598 0 -0.016283534594692707 0.0091629689885450866 0 -0.017279030617767876 0.0087353951990851442 0 -0.015580059727894236 0.0086491272325249242 0 -0.016283534594692707 0.0091629689885450866 0 -0.017039393644694423 0.009025175826935598 0 -0.016283534594692707 0.0091629689885450866 0 -0.016234299526153993 0.01013025811125402 0 -0.016234299526153993 0.01013025811125402 0 -0.015310524941648687 0.0095987082789207763 0 -0.01519873449866793 0.010460514022959772 0 -0.016283534594692707 0.0091629689885450866 0 -0.016234299526153993 0.01013025811125402 0 -0.015310524941648687 0.0095987082789207763 0 -0.016234299526153993 0.01013025811125402 0 -0.01616351781897939 0.013294691885296842 0 -0.019489006218379224 0.014138327578549629 0 -0.016234299526153993 0.01013025811125402 0 -0.01519873449866793 0.010460514022959772 0 -0.015499061610412795 0.011115594680106805 0 -0.016247856125771263 0.010198000994840428 0 -0.015870779208322274 0.012558020469205979 0 -0.01519873449866793 0.010460514022959772 0 -0.015499061610412795 0.011115594680106805 0 -0.014153038549713219 0.01100624956023203 0 -0.01892620506403864 0.009595641074824926 0 -0.019432005881139105 0.013866239252154539 0 -0.021422146624826322 0.011648294791461459 0 -0.019489006218379224 0.014138327578549629 0 -0.022403465423562426 0.013249549862468185 0 -0.017039393644694423 0.009025175826935598 0 -0.016234299526153993 0.01013025811125402 0 -0.019489006218379224 0.014138327578549629 0 -0.021422146624826322 0.011648294791461459 0 -0.020166068535719707 0.0099465127098562617 0 -0.019489006218379224 0.014138327578549629 0 -0.019489006218379224 0.014138327578549629 0 -0.021865954649505841 0.015760260837135092 0 -0.022403465423562426 0.013249549862468185 0 -0.019489006218379224 0.014138327578549629 0 -0.015645935549509753 0.016614677640902464 0 -0.021865954649505841 0.015760260837135092 0 -0.027205256057275265 0.011871241575497864 0 -0.027109137109583015 0.011827454288038115 0 -0.02708752230879264 0.011911461373078403 0 -0.019111715241220129 0.012491676180333842 0 -0.024945083918380715 0.014058534876524687 0 -0.01616351781897939 0.013294691885296842 0 -0.019489006218379224 0.014138327578549629 0 -0.015645935549509753 0.016614677640902464 0 -0.015499061610412795 0.011115594680106805 0 -0.015158423469778762 0.012282268636079752 0 -0.014153038549713219 0.01100624956023203 0 -0.015870779208322274 0.012558020469205979 0 -0.019111715241220129 0.012491676180333842 0 -0.027205256057275265 0.011871241575497864 0 -0.027202136139495119 0.011662268241591096 0 -0.027287821060128795 0.011664160397640596 0 -0.019111715241220129 0.012491676180333842 0 -0.021600094388433206 0.013285755943694763 0 -0.027205256057275265 0.011871241575497864 0 -0.027161480276322422 0.011756826482230205 0 -0.027202136139495119 0.011662268241591096 0 -0.027205256057275265 0.011871241575497864 0 -0.027109137109583015 0.011827454288038115 0 -0.027161480276322422 0.011756826482230205 0 -0.027109137109583015 0.011827454288038115 0 -0.027140826402996691 0.011657083032079598 0 -0.027085544798872634 0.011796661923172528 0 -0.027109137109583015 0.011827454288038115 0 -0.027161480276322422 0.011756826482230205 0 -0.027140826402996691 0.011657083032079598 0 -0.027161480276322422 0.011756826482230205 0 -0.027140826402996691 0.011657083032079598 0 -0.027202136139495119 0.011662268241591096 0 -0.027140826402996691 0.011657083032079598 0 -0.027202136139495119 0.011662268241591096 0 -0.027193520790134956 0.011520734933664257 0 -0.027202136139495119 0.011662268241591096 0 -0.027193520790134956 0.011520734933664257 0 -0.027287821060128795 0.011664160397640596 0 -0.027193520790134956 0.011520734933664257 0 -0.027245049594436334 0.011452554748417807 0 -0.027287821060128795 0.011664160397640596 0 -0.026968682673360694 0.011819934794618535 0 -0.027085544798872634 0.011796661923172528 0 -0.026978876153183822 0.011559233004826901 0 -0.027085544798872634 0.011796661923172528 0 -0.027076218678383526 0.011538508155905802 0 -0.026978876153183822 0.011559233004826901 0 -0.027140826402996691 0.011657083032079598 0 -0.027085544798872634 0.011796661923172528 0 -0.027076218678383526 0.011538508155905802 0 -0.027109137109583015 0.011827454288038115 0 -0.027085544798872634 0.011796661923172528 0 -0.02708752230879264 0.011911461373078403 0 -0.027085544798872634 0.011796661923172528 0 -0.02703775775729261 0.011932133336422134 0 -0.02708752230879264 0.011911461373078403 0 -0.026968682673360694 0.011819934794618535 0 -0.027085544798872634 0.011796661923172528 0 -0.02703775775729261 0.011932133336422134 0 -0.02618445183583365 0.013272494166683435 0 -0.024945083918380715 0.014058534876524687 0 -0.02703775775729261 0.011932133336422134 0 -0.027031293021525359 0.012108424579294922 0 -0.02708752230879264 0.011911461373078403 0 -0.025790109125919194 0.014516253055872659 0 -0.021865954649505841 0.015760260837135092 0 -0.022403465423562426 0.013249549862468185 0 -0.024163859405096022 0.011833191718313749 0 -0.022403465423562426 0.013249549862468185 0 -0.024854185141427083 0.01284661576846274 0 -0.025790109125919194 0.014516253055872659 0 -0.022403465423562426 0.013249549862468185 0 -0.024854185141427083 0.01284661576846274 0 -0.025790109125919194 0.014516253055872659 0 -0.024854185141427083 0.01284661576846274 0 -0.026359551285502752 0.013156996504612021 0 -0.026891445608098075 0.012907979928709385 0 -0.026014622296308878 0.012417235652863264 0 -0.026359551285502752 0.013156996504612021 0 -0.026014622296308878 0.012417235652863264 0 -0.024854185141427083 0.01284661576846274 0 -0.026359551285502752 0.013156996504612021 0 -0.026891445608098075 0.012907979928709385 0 -0.026359551285502752 0.013156996504612021 0 -0.026874799984408927 0.012782933618601387 0 -0.025790109125919194 0.014516253055872659 0 -0.026359551285502752 0.013156996504612021 0 -0.026874799984408927 0.012782933618601387 0 -0.027031293021525359 0.012108424579294922 0 -0.026874799984408927 0.012782933618601387 0 -0.026947486726500977 0.012101139035801419 0 -0.02618445183583365 0.013272494166683435 0 -0.02681374670207257 0.012877237451962157 0 -0.026831801445556865 0.012995711287817898 0 -0.026794753739641249 0.012775382852773824 0 -0.026594795415988349 0.012616784289344537 0 -0.026891445608098075 0.012907979928709385 0 -0.026874799984408927 0.012782933618601387 0 -0.026794753739641249 0.012775382852773824 0 -0.026831801445556865 0.012995711287817898 0 -0.026891445608098075 0.012907979928709385 0 -0.026794753739641249 0.012775382852773824 0 -0.026874799984408927 0.012782933618601387 0 -0.026794753739641249 0.012775382852773824 0 -0.026624578228817548 0.012409608801153426 0 -0.026874799984408927 0.012782933618601387 0 -0.026624578228817548 0.012409608801153426 0 -0.026773533842241921 0.012218909104057107 0 -0.026794753739641249 0.012775382852773824 0 -0.026624578228817548 0.012409608801153426 0 -0.026594795415988349 0.012616784289344537 0 -0.026625611060408175 0.012368657834486043 0 -0.026348721039249089 0.012110667451140419 0 -0.026624578228817548 0.012409608801153426 0 -0.026594795415988349 0.012616784289344537 0 -0.026530813591836944 0.012255646101560736 0 -0.026624578228817548 0.012409608801153426 0 -0.026426227545609471 0.011765559421144565 0 -0.026219463029254549 0.011755914450716085 0 -0.026624578228817548 0.012409608801153426 0 -0.026145203489230905 0.011961428341075277 0 -0.026219463029254549 0.011755914450716085 0 -0.026624578228817548 0.012409608801153426 0 -0.026637881731893333 0.011983369902111667 0 -0.026773533842241921 0.012218909104057107 0 -0.026624578228817548 0.012409608801153426 0 -0.026637881731893333 0.011983369902111667 0 -0.026426227545609471 0.011765559421144565 0 -0.026637881731893333 0.011983369902111667 0 -0.026590088919055618 0.01169458900243109 0 -0.026745344562028716 0.011878944162251884 0 -0.026590088919055618 0.01169458900243109 0 -0.026426227545609471 0.011765559421144565 0 -0.026436674157737244 0.011589264326422245 0 -0.026590088919055618 0.01169458900243109 0 -0.026436674157737244 0.011589264326422245 0 -0.026558828411169674 0.011585155155756956 0 -0.026637881731893333 0.011983369902111667 0 -0.026590088919055618 0.01169458900243109 0 -0.026426227545609471 0.011765559421144565 0 -0.026426227545609471 0.011765559421144565 0 -0.026279050414831587 0.011606844010894421 0 -0.026436674157737244 0.011589264326422245 0 -0.026426227545609471 0.011765559421144565 0 -0.026279050414831587 0.011606844010894421 0 -0.026219463029254549 0.011755914450716085 0 -0.026968682673360694 0.011819934794618535 0 -0.02703775775729261 0.011932133336422134 0 -0.026947486726500977 0.012101139035801419 0 -0.02703775775729261 0.011932133336422134 0 -0.027031293021525359 0.012108424579294922 0 -0.026947486726500977 0.012101139035801419 0 -0.026874799984408927 0.012782933618601387 0 -0.026947486726500977 0.012101139035801419 0 -0.026773533842241921 0.012218909104057107 0 -0.026947486726500977 0.012101139035801419 0 -0.026773533842241921 0.012218909104057107 0 -0.026745344562028716 0.011878944162251884 0 -0.026637881731893333 0.011983369902111667 0 -0.026773533842241921 0.012218909104057107 0 -0.026745344562028716 0.011878944162251884 0 -0.026590088919055618 0.01169458900243109 0 -0.026745344562028716 0.011878944162251884 0 -0.026682298481075055 0.011547163471821735 0 -0.026745344562028716 0.011878944162251884 0 -0.026822741843466575 0.011709985579427399 0 -0.026682298481075055 0.011547163471821735 0 -0.026947486726500977 0.012101139035801419 0 -0.026745344562028716 0.011878944162251884 0 -0.026822741843466575 0.011709985579427399 0 -0.026968682673360694 0.011819934794618535 0 -0.026947486726500977 0.012101139035801419 0 -0.026822741843466575 0.011709985579427399 0 -0.026968682673360694 0.011819934794618535 0 -0.026822741843466575 0.011709985579427399 0 -0.026978876153183822 0.011559233004826901 0 -0.026822741843466575 0.011709985579427399 0 -0.026738251735443173 0.011342530971818102 0 -0.026682298481075055 0.011547163471821735 0 -0.026822741843466575 0.011709985579427399 0 -0.026738251735443173 0.011342530971818102 0 -0.026978876153183822 0.011559233004826901 0 -0.026738251735443173 0.011342530971818102 0 -0.026682298481075055 0.011547163471821735 0 -0.026574921030633917 0.011511296023154122 0 -0.026738251735443173 0.011342530971818102 0 -0.026318836229954925 0.01094132565120939 0 -0.026066499604006702 0.011010969921975228 0 -0.026743316708707807 0.011330987661281253 0 -0.026341284889193892 0.011248297995812249 0 -0.026318836229954925 0.01094132565120939 0 -0.026553178836267458 0.010853889374297678 0 -0.026115622530584241 0.010619098532865716 0 -0.026738251735443173 0.011342530971818102 0 -0.026318836229954925 0.01094132565120939 0 -0.026553178836267458 0.010853889374297678 0 -0.026738251735443173 0.011342530971818102 0 -0.026553178836267458 0.010853889374297678 0 -0.02699241992194653 0.011217248541072377 0 -0.026279050414831587 0.011606844010894421 0 -0.026436674157737244 0.011589264326422245 0 -0.026199368291286992 0.011434958047142519 0 -0.026066499604006702 0.011010969921975228 0 -0.026011757824427186 0.010837485911538852 0 -0.025458459878256727 0.010569870655909561 0 -0.026341284889193892 0.011248297995812249 0 -0.025844531336263528 0.01100443729865367 0 -0.026436674157737244 0.011589264326422245 0 -0.026574921030633917 0.011511296023154122 0 -0.026199368291286992 0.011434958047142519 0 -0.026436674157737244 0.011589264326422245 0 -0.026558828411169674 0.011585155155756956 0 -0.026574921030633917 0.011511296023154122 0 -0.026558828411169674 0.011585155155756956 0 -0.026602301799910421 0.011579734187263321 0 -0.026574921030633917 0.011511296023154122 0 -0.026590088919055618 0.01169458900243109 0 -0.026682298481075055 0.011547163471821735 0 -0.026602301799910421 0.011579734187263321 0 -0.026682298481075055 0.011547163471821735 0 -0.026602301799910421 0.011579734187263321 0 -0.026574921030633917 0.011511296023154122 0 -0.026590088919055618 0.01169458900243109 0 -0.026558828411169674 0.011585155155756956 0 -0.026602301799910421 0.011579734187263321 0 -0.026318836229954925 0.01094132565120939 0 -0.026011757824427186 0.010837485911538852 0 -0.026115622530584241 0.010619098532865716 0 -0.026011757824427186 0.010837485911538852 0 -0.025792284789519167 0.010527511942963691 0 -0.026115622530584241 0.010619098532865716 0 -0.026318836229954925 0.01094132565120939 0 -0.026066499604006702 0.011010969921975228 0 -0.026011757824427186 0.010837485911538852 0 -0.026011757824427186 0.010837485911538852 0 -0.025792284789519167 0.010527511942963691 0 -0.025527127076164433 0.010616023663925785 0 -0.026011757824427186 0.010837485911538852 0 -0.025458459878256727 0.010569870655909561 0 -0.025484140462521281 0.01035255791329851 0 -0.02597087345124505 0.010776577208949043 0 -0.025507501000079567 0.010495543277100831 0 -0.025792284789519167 0.010527511942963691 0 -0.026115622530584241 0.010619098532865716 0 -0.025701002352692761 0.010171227005264929 0 -0.025792284789519167 0.010527511942963691 0 -0.025701002352692761 0.010171227005264929 0 -0.025505851583314022 0.010319652793280704 0 -0.026115622530584241 0.010619098532865716 0 -0.025701002352692761 0.010171227005264929 0 -0.02623709187371764 0.010378584918735299 0 -0.024044883118615506 0.0054339947289883794 0 -0.023927311330387318 0.0055180583041233681 0 -0.024005503245950941 0.0054609566782752106 0 -0.024763750710489314 0.0079048158581867672 0 -0.025093243227955839 0.0079027680950804358 0 -0.023840825395665281 0.0056439653935176888 0 -0.024044883118615506 0.0054339947289883794 0 -0.023927311330387318 0.0055180583041233681 0 -0.023840825395665281 0.0056439653935176888 0 -0.02376451144556083 0.0056556265506640677 0 -0.023927311330387318 0.0055180583041233681 0 -0.026553178836267458 0.010853889374297678 0 -0.026718606874861873 0.010648078339449319 0 -0.02699241992194653 0.011217248541072377 0 -0.026553178836267458 0.010853889374297678 0 -0.026115622530584241 0.010619098532865716 0 -0.02623709187371764 0.010378584918735299 0 -0.026553178836267458 0.010853889374297678 0 -0.02623709187371764 0.010378584918735299 0 -0.026718606874861873 0.010648078339449319 0 -0.025093243227955839 0.0079027680950804358 0 -0.025214543070651893 0.0078659653025803973 0 -0.024044883118615506 0.0054339947289883794 0 -0.023970004903188277 0.0054428745014673367 0 -0.023821703928639668 0.0053650531749717028 0 -0.024044883118615506 0.0054339947289883794 0 -0.023970004903188277 0.0054428745014673367 0 -0.024005503245950941 0.0054609566782752106 0 -0.023653906746909065 0.0050750488265155708 0 -0.023821703928639668 0.0053650531749717028 0 -0.023516674401638203 0.0055440517901194104 0 -0.024044883118615506 0.0054339947289883794 0 -0.023653906746909065 0.0050750488265155708 0 -0.023821703928639668 0.0053650531749717028 0 -0.023653906746909065 0.0050750488265155708 0 -0.02263568015127097 0.0049057464669283552 0 -0.023516674401638203 0.0055440517901194104 0 -0.025214543070651893 0.0078659653025803973 0 -0.024535612082582672 0.0079062400547993319 0 -0.026718606874861873 0.010648078339449319 0 -0.027026115701379565 0.010875864286377842 0 -0.02699241992194653 0.011217248541072377 0 -0.027026115701379565 0.010875864286377842 0 -0.027134405047925754 0.011191393197057429 0 -0.02699241992194653 0.011217248541072377 0 -0.024535612082582672 0.0079062400547993319 0 -0.025488659820929453 0.0077814776803766294 0 -0.02263568015127097 0.0049057464669283552 0 -0.021369937859324416 0.0047894737457266625 0 -0.021885774098359522 0.005556489834177546 0 -0.027165973365581551 0.011015867656195045 0 -0.027203064016850412 0.011200376526573953 0 -0.027261198260451314 0.011175097267013304 0 -0.027165973365581551 0.011015867656195045 0 -0.027134405047925754 0.011191393197057429 0 -0.027203064016850412 0.011200376526573953 0 -0.027026115701379565 0.010875864286377842 0 -0.027165973365581551 0.011015867656195045 0 -0.027134405047925754 0.011191393197057429 0 -0.027134405047925754 0.011191393197057429 0 -0.027189658388563808 0.011340371460721328 0 -0.0271453980567864 0.011429388235643897 0 -0.027134405047925754 0.011191393197057429 0 -0.027203064016850412 0.011200376526573953 0 -0.027189658388563808 0.011340371460721328 0 -0.027203064016850412 0.011200376526573953 0 -0.027189658388563808 0.011340371460721328 0 -0.027257226814264856 0.011352742050102666 0 -0.027189658388563808 0.011340371460721328 0 -0.027245049594436334 0.011452554748417807 0 -0.027257226814264856 0.011352742050102666 0 -0.027189658388563808 0.011340371460721328 0 -0.027193520790134956 0.011520734933664257 0 -0.027245049594436334 0.011452554748417807 0 -0.027140826402996691 0.011657083032079598 0 -0.0271453980567864 0.011429388235643897 0 -0.027076218678383526 0.011538508155905802 0 -0.027140826402996691 0.011657083032079598 0 -0.027193520790134956 0.011520734933664257 0 -0.0271453980567864 0.011429388235643897 0 -0.027189658388563808 0.011340371460721328 0 -0.027193520790134956 0.011520734933664257 0 -0.0271453980567864 0.011429388235643897 0 -0.0271453980567864 0.011429388235643897 0 -0.027076218678383526 0.011538508155905802 0 -0.02699241992194653 0.011217248541072377 0 -0.027076218678383526 0.011538508155905802 0 -0.026978876153183822 0.011559233004826901 0 -0.02699241992194653 0.011217248541072377 0 -0.026738251735443173 0.011342530971818102 0 -0.026978876153183822 0.011559233004826901 0 -0.02699241992194653 0.011217248541072377 0 -0.027134405047925754 0.011191393197057429 0 -0.0271453980567864 0.011429388235643897 0 -0.02699241992194653 0.011217248541072377 0 -0.025337009615898003 0.010268841552523332 0 -0.025539116453280393 0.010423294783823546 0 -0.024999913896092595 0.009197403963502486 0 -0.025337009615898003 0.010268841552523332 0 -0.02499967300374056 0.010274709064866135 0 -0.024999913896092595 0.009197403963502486 0 -0.025337009615898003 0.010268841552523332 0 -0.025492989237320907 0.010707380015850658 0 -0.025539116453280393 0.010423294783823546 0 -0.025337009615898003 0.010268841552523332 0 -0.025492989237320907 0.010707380015850658 0 -0.02536921983300822 0.010859103278567612 0 -0.025492989237320907 0.010707380015850658 0 -0.02536921983300822 0.010859103278567612 0 -0.025515362948346353 0.011186747130984441 0 -0.02536921983300822 0.010859103278567612 0 -0.025367458570144788 0.011453289061991832 0 -0.025515362948346353 0.011186747130984441 0 -0.025337009615898003 0.010268841552523332 0 -0.02536921983300822 0.010859103278567612 0 -0.02499967300374056 0.010274709064866135 0 -0.02536921983300822 0.010859103278567612 0 -0.02499967300374056 0.010274709064866135 0 -0.024999852249659713 0.011352018432015691 0 -0.02536921983300822 0.010859103278567612 0 -0.024999852249659713 0.011352018432015691 0 -0.025367458570144788 0.011453289061991832 0 -0.024999481918728399 0.011354082304743706 0 -0.02506045651777113 0.012227595141071336 0 -0.025106900074709233 0.012024586198342744 0 -0.024999898300600919 0.01135273410536331 0 -0.025230731916853821 0.011729685761039988 0 -0.024999594593586874 0.012786228615327537 0 -0.024999481918728399 0.011354082304743706 0 -0.02506045651777113 0.012227595141071336 0 -0.02506045651777113 0.012227595141071336 0 -0.025037112451176839 0.012316860400307822 0 -0.025106900074709233 0.012024586198342744 0 -0.025230731916853821 0.011729685761039988 0 -0.025490689460603021 0.011959845573880971 0 -0.025367458570144788 0.011453289061991832 0 -0.025452142964826237 0.01199948566564347 0 -0.025515362948346353 0.011186747130984441 0 -0.025037112451176839 0.012316860400307822 0 -0.025106900074709233 0.012024586198342744 0 -0.025452142964826237 0.01199948566564347 0 -0.025351677236168088 0.012608315487424884 0 -0.025037112451176839 0.012316860400307822 0 -0.025452142964826237 0.01199948566564347 0 -0.025351677236168088 0.012608315487424884 0 -0.025452142964826237 0.01199948566564347 0 -0.025778917935048412 0.012635956909677681 0 -0.025452142964826237 0.01199948566564347 0 -0.025791671763515545 0.01134342327575861 0 -0.025970057326111962 0.012108144562758745 0 -0.025452142964826237 0.01199948566564347 0 -0.025515362948346353 0.011186747130984441 0 -0.025791671763515545 0.01134342327575861 0 -0.025515362948346353 0.011186747130984441 0 -0.025637934736291588 0.010920876590793008 0 -0.025791671763515545 0.01134342327575861 0 -0.025492989237320907 0.010707380015850658 0 -0.025637934736291588 0.010920876590793008 0 -0.025539116453280393 0.010423294783823546 0 -0.025492989237320907 0.010707380015850658 0 -0.025515362948346353 0.011186747130984441 0 -0.025637934736291588 0.010920876590793008 0 -0.025637934736291588 0.010920876590793008 0 -0.025791671763515545 0.01134342327575861 0 -0.02575732496040169 0.010983029206079185 0 -0.025867263118869218 0.011275415714488824 0 -0.025791671763515545 0.01134342327575861 0 -0.02575732496040169 0.010983029206079185 0 -0.025867263118869218 0.011275415714488824 0 -0.025949101077259985 0.01143473301933985 0 -0.025938384638518063 0.01160419987018837 0 -0.025867263118869218 0.011275415714488824 0 -0.025949101077259985 0.01143473301933985 0 -0.025947585747431598 0.01130186709443883 0 -0.025867263118869218 0.011275415714488824 0 -0.025938384638518063 0.01160419987018837 0 -0.025791671763515545 0.01134342327575861 0 -0.026203330393225185 0.011870116329788856 0 -0.025791671763515545 0.01134342327575861 0 -0.025970057326111962 0.012108144562758745 0 -0.026061289250073699 0.01172627103249997 0 -0.025788350466090432 0.011401887917758461 0 -0.025452142964826237 0.01199948566564347 0 -0.025970057326111962 0.012108144562758745 0 -0.025778917935048412 0.012635956909677681 0 -0.025970057326111962 0.012108144562758745 0 -0.025778917935048412 0.012635956909677681 0 -0.026242639759605581 0.012728415529980304 0 -0.025970057326111962 0.012108144562758745 0 -0.026333847743449278 0.012312364005552844 0 -0.026242639759605581 0.012728415529980304 0 -0.026203330393225185 0.011870116329788856 0 -0.025970057326111962 0.012108144562758745 0 -0.026333847743449278 0.012312364005552844 0 -0.026333847743449278 0.012312364005552844 0 -0.026242639759605581 0.012728415529980304 0 -0.026594795415988349 0.012616784289344537 0 -0.026553758131665516 0.013142508476292905 0 -0.026242639759605581 0.012728415529980304 0 -0.026594795415988349 0.012616784289344537 0 -0.026333847743449278 0.012312364005552844 0 -0.026594795415988349 0.012616784289344537 0 -0.026530813591836944 0.012255646101560736 0 -0.026145203489230905 0.011961428341075277 0 -0.026045208888698258 0.01157770144927019 0 -0.026219463029254549 0.011755914450716085 0 -0.026203330393225185 0.011870116329788856 0 -0.026333847743449278 0.012312364005552844 0 -0.026530813591836944 0.012255646101560736 0 -0.026061289250073699 0.01172627103249997 0 -0.026348721039249089 0.012110667451140419 0 -0.025938384638518063 0.01160419987018837 0 -0.026145203489230905 0.011961428341075277 0 -0.026045208888698258 0.01157770144927019 0 -0.025949101077259985 0.01143473301933985 0 -0.025938384638518063 0.01160419987018837 0 -0.026045208888698258 0.01157770144927019 0 -0.025949101077259985 0.01143473301933985 0 -0.026045208888698258 0.01157770144927019 0 -0.025947585747431598 0.01130186709443883 0 -0.026045208888698258 0.01157770144927019 0 -0.026128197308839449 0.011527461754628172 0 -0.025947585747431598 0.01130186709443883 0 -0.026045208888698258 0.01157770144927019 0 -0.026128197308839449 0.011527461754628172 0 -0.026219463029254549 0.011755914450716085 0 -0.026279050414831587 0.011606844010894421 0 -0.026128197308839449 0.011527461754628172 0 -0.026219463029254549 0.011755914450716085 0 -0.026279050414831587 0.011606844010894421 0 -0.026128197308839449 0.011527461754628172 0 -0.026199368291286992 0.011434958047142519 0 -0.025844531336263528 0.01100443729865367 0 -0.025482487795280975 0.01073887659044164 0 -0.026128197308839449 0.011527461754628172 0 -0.026199368291286992 0.011434958047142519 0 -0.025947585747431598 0.01130186709443883 0 -0.025458459878256727 0.010569870655909561 0 -0.025260972949635835 0.010296986159395966 0 -0.025001302048879018 0.010185452551246029 0 -0.025099858215042865 0.010297918244300512 0 -0.025527127076164433 0.010616023663925785 0 -0.025323414174194019 0.01029934675934111 0 -0.025260972949635835 0.010296986159395966 0 -0.025072640813425192 0.010075360261647003 0 -0.025484140462521281 0.01035255791329851 0 -0.025260972949635835 0.010296986159395966 0 -0.025072640813425192 0.010075360261647003 0 -0.025001302048879018 0.010185452551246029 0 -0.025095787432968607 0.010181704234380827 0 -0.025507501000079567 0.010495543277100831 0 -0.025527127076164433 0.010616023663925785 0 -0.025505851583314022 0.010319652793280704 0 -0.025323414174194019 0.01029934675934111 0 -0.025458459878256727 0.010569870655909561 0 -0.025260972949635835 0.010296986159395966 0 -0.025484140462521281 0.01035255791329851 0 -0.025792284789519167 0.010527511942963691 0 -0.025527127076164433 0.010616023663925785 0 -0.025505851583314022 0.010319652793280704 0 -0.025505851583314022 0.010319652793280704 0 -0.025212355875301275 0.010016145068894006 0 -0.025323414174194019 0.01029934675934111 0 -0.025701002352692761 0.010171227005264929 0 -0.025505851583314022 0.010319652793280704 0 -0.025212355875301275 0.010016145068894006 0 -0.023840825395665281 0.0056439653935176888 0 -0.02376451144556083 0.0056556265506640677 0 -0.023899883699637629 0.005733154028709944 0 -0.024763750710489314 0.0079048158581867672 0 -0.024550068725557865 0.0078816965675655628 0 -0.02376451144556083 0.0056556265506640677 0 -0.023899883699637629 0.005733154028709944 0 -0.024126041870063664 0.0061659891560133821 0 -0.025099858215042865 0.010297918244300512 0 -0.025212355875301275 0.010016145068894006 0 -0.024986890127144695 0.010049646179442605 0 -0.025099858215042865 0.010297918244300512 0 -0.025212355875301275 0.010016145068894006 0 -0.025323414174194019 0.01029934675934111 0 -0.025212355875301275 0.010016145068894006 0 -0.024986890127144695 0.010049646179442605 0 -0.024909612001657949 0.009901588103074099 0 -0.024550068725557865 0.0078816965675655628 0 -0.024686664464600792 0.0079055924793566858 0 -0.023899883699637629 0.005733154028709944 0 -0.024486383280674054 0.0059141495889256882 0 -0.024126041870063664 0.0061659891560133821 0 -0.024521640304314144 0.0061962912062175158 0 -0.024486383280674054 0.0059141495889256882 0 -0.024126041870063664 0.0061659891560133821 0 -0.024767863853147169 0.0062225299757152812 0 -0.024486383280674054 0.0059141495889256882 0 -0.025074403091478358 0.0061735949789336764 0 -0.024767863853147169 0.0062225299757152812 0 -0.024521640304314144 0.0061962912062175158 0 -0.024486383280674054 0.0059141495889256882 0 -0.024986890127144695 0.010049646179442605 0 -0.024909612001657949 0.009901588103074099 0 -0.024879921394716873 0.0099184658915866669 0 -0.024909612001657949 0.009901588103074099 0 -0.024879921394716873 0.0099184658915866669 0 -0.024861319056700366 0.0097903882553989369 0 -0.025072640813425192 0.010075360261647003 0 -0.024879921394716873 0.0099184658915866669 0 -0.025001302048879018 0.010185452551246029 0 -0.025095787432968607 0.010181704234380827 0 -0.024897995468956432 0.0099667396543849755 0 -0.025099858215042865 0.010297918244300512 0 -0.024986890127144695 0.010049646179442605 0 -0.024879921394716873 0.0099184658915866669 0 -0.024879921394716873 0.0099184658915866669 0 -0.025001302048879018 0.010185452551246029 0 -0.024865077046586557 0.0098304159514579596 0 -0.025482487795280975 0.01073887659044164 0 -0.025316087966962175 0.010399640065921357 0 -0.025867263118869218 0.011275415714488824 0 -0.025947585747431598 0.01130186709443883 0 -0.02575732496040169 0.010983029206079185 0 -0.024865077046586557 0.0098304159514579596 0 -0.024881036519538848 0.00972977058138811 0 -0.024971001281346446 0.0094287579474827635 0 -0.025316087966962175 0.010399640065921357 0 -0.02521346496395848 0.0099102411944839569 0 -0.025637934736291588 0.010920876590793008 0 -0.02575732496040169 0.010983029206079185 0 -0.025539116453280393 0.010423294783823546 0 -0.024881036519538848 0.00972977058138811 0 -0.024938775537224546 0.0095983220045283441 0 -0.024971001281346446 0.0094287579474827635 0 -0.024879921394716873 0.0099184658915866669 0 -0.024865077046586557 0.0098304159514579596 0 -0.024881036519538848 0.00972977058138811 0 -0.024879921394716873 0.0099184658915866669 0 -0.024881036519538848 0.00972977058138811 0 -0.024861319056700366 0.0097903882553989369 0 -0.024686664464600792 0.0079055924793566858 0 -0.0249346208586953 0.0080264766285651039 0 -0.025074403091478358 0.0061735949789336764 0 -0.024975103904811533 0.0063722807198638137 0 -0.02515204820198157 0.0064294063824993173 0 -0.024767863853147169 0.0062225299757152812 0 -0.025074403091478358 0.0061735949789336764 0 -0.024975103904811533 0.0063722807198638137 0 -0.025074403091478358 0.0061735949789336764 0 -0.025248454759703526 0.0064609179623608647 0 -0.025291548531215839 0.00648777849544611 0 -0.025074403091478358 0.0061735949789336764 0 -0.025350756174451199 0.0065614746821556482 0 -0.025291548531215839 0.00648777849544611 0 -0.025248454759703526 0.0064609179623608647 0 -0.02515204820198157 0.0064294063824993173 0 -0.025229013562214263 0.0064787755138470205 0 -0.025248454759703526 0.0064609179623608647 0 -0.025278731267218253 0.0064964009397860453 0 -0.025258501550985461 0.0064909908536795622 0 -0.025074403091478358 0.0061735949789336764 0 -0.025248454759703526 0.0064609179623608647 0 -0.02515204820198157 0.0064294063824993173 0 -0.024881036519538848 0.00972977058138811 0 -0.024861319056700366 0.0097903882553989369 0 -0.024938775537224546 0.0095983220045283441 0 -0.0249346208586953 0.0080264766285651039 0 -0.025203635977656968 0.007839432651370843 0 -0.024861319056700366 0.0097903882553989369 0 -0.025002791975719488 0.0097156164373915829 0 -0.024938775537224546 0.0095983220045283441 0 -0.025002791975719488 0.0097156164373915829 0 -0.025084544305529047 0.0095076944377160133 0 -0.024938775537224546 0.0095983220045283441 0 -0.025203635977656968 0.007839432651370843 0 -0.025292023002675499 0.0087988836476222167 0 -0.025350756174451199 0.0065614746821556482 0 -0.025291548531215839 0.00648777849544611 0 -0.025324015271703658 0.0065599762670351166 0 -0.025350756174451199 0.0065614746821556482 0 -0.025324015271703658 0.0065599762670351166 0 -0.025291586193797632 0.0066279875417589547 0 -0.025291548531215839 0.00648777849544611 0 -0.025324015271703658 0.0065599762670351166 0 -0.025314447453098955 0.0065387955323163898 0 -0.025324015271703658 0.0065599762670351166 0 -0.025314447453098955 0.0065387955323163898 0 -0.025291586193797632 0.0066279875417589547 0 -0.025248454759703526 0.0064609179623608647 0 -0.025297283919793381 0.0065071987357467444 0 -0.025278731267218253 0.0064964009397860453 0 -0.025248454759703526 0.0064609179623608647 0 -0.025291548531215839 0.00648777849544611 0 -0.025297283919793381 0.0065071987357467444 0 -0.025291548531215839 0.00648777849544611 0 -0.025314447453098955 0.0065387955323163898 0 -0.025297283919793381 0.0065071987357467444 0 -0.025314447453098955 0.0065387955323163898 0 -0.025297283919793381 0.0065071987357467444 0 -0.02529777314920861 0.0065071732061631644 0 -0.025350756174451199 0.0065614746821556482 0 -0.025291586193797632 0.0066279875417589547 0 -0.025187946408415214 0.0070132743795208044 0 -0.025000147429550753 0.0066253254472201295 0 -0.025431707780248881 0.0062588246595751233 0 -0.025000045787624527 0.0066253457234578548 0 -0.025291586193797632 0.0066279875417589547 0 -0.025283592749558235 0.0064705249598915777 0 -0.025314447453098955 0.0065387955323163898 0 -0.025291586193797632 0.0066279875417589547 0 -0.025283592749558235 0.0064705249598915777 0 -0.025000045787624527 0.0066253457234578548 0 -0.025291586193797632 0.0066279875417589547 0 -0.025187946408415214 0.0070132743795208044 0 -0.025000045787624527 0.0066253457234578548 0 -0.025187946408415214 0.0070132743795208044 0 -0.024999898761546128 0.0077476952320487853 0 -0.02612439964437499 0.0070171721565488081 0 -0.025458259734859396 0.0074403502437094676 0 -0.025542385767521762 0.0079708275487910679 0 -0.025203635977656968 0.007839432651370843 0 -0.025387383892320474 0.0069418553829588194 0 -0.02612439964437499 0.0070171721565488081 0 -0.025187946408415214 0.0070132743795208044 0 -0.025458259734859396 0.0074403502437094676 0 -0.025187946408415214 0.0070132743795208044 0 -0.025458259734859396 0.0074403502437094676 0 -0.024999898761546128 0.0077476952320487853 0 -0.025458259734859396 0.0074403502437094676 0 -0.024999898761546128 0.0077476952320487853 0 -0.025542385767521762 0.0079708275487910679 0 -0.025084544305529047 0.0095076944377160133 0 -0.025013049196885136 0.0092829278374935709 0 -0.024999842338269442 0.008872848553523955 0 -0.025292023002675499 0.0087988836476222167 0 -0.025000096039733136 0.0088702356434126727 0 -0.024999898761546128 0.0077476952320487853 0 -0.025542385767521762 0.0079708275487910679 0 -0.025000047399170361 0.0088702820123109441 0 -0.025084544305529047 0.0095076944377160133 0 -0.024938775537224546 0.0095983220045283441 0 -0.025013049196885136 0.0092829278374935709 0 -0.024938775537224546 0.0095983220045283441 0 -0.025013049196885136 0.0092829278374935709 0 -0.024971001281346446 0.0094287579474827635 0 -0.02521346496395848 0.0099102411944839569 0 -0.024999868574793912 0.0091961399652731538 0 -0.025013049196885136 0.0092829278374935709 0 -0.024971001281346446 0.0094287579474827635 0 -0.025000217047564954 0.0091938820144206457 0 -0.025013049196885136 0.0092829278374935709 0 -0.025000217047564954 0.0091938820144206457 0 -0.024999842338269442 0.008872848553523955 0 -0.025529928074764691 0.0032992198531406466 0 -0.025750348619365652 0.0040179302764734044 0 -0.024999977269570036 0.0042377888373182192 0 -0.025529928074764691 0.0032992198531406466 0 -0.024999977269570036 0.0042377888373182192 0 -0.024999972514173924 0.0027864935642351305 0 -0.025529928074764691 0.0032992198531406466 0 -0.026396181874421415 0.003457519663154782 0 -0.025750348619365652 0.0040179302764734044 0 -0.025529928074764691 0.0032992198531406466 0 -0.026396181874421415 0.003457519663154782 0 -0.025789168035248465 0.0028929664185585484 0 -0.026396181874421415 0.003457519663154782 0 -0.025750348619365652 0.0040179302764734044 0 -0.026171180738426874 0.0043963350411093506 0 -0.026396181874421415 0.003457519663154782 0 -0.026171180738426874 0.0043963350411093506 0 -0.026718706196509432 0.0046909391178090983 0 -0.025750348619365652 0.0040179302764734044 0 -0.026171180738426874 0.0043963350411093506 0 -0.025644447807903266 0.0046781178710412373 0 -0.025750348619365652 0.0040179302764734044 0 -0.024999977269570036 0.0042377888373182192 0 -0.025644447807903266 0.0046781178710412373 0 -0.024999993587860224 0.0042379660378389977 0 -0.024999993683997933 0.0050494727951576647 0 -0.025662109144965747 0.0047448181380412716 0 -0.025000109601828632 0.0042379951314620848 0 -0.025737457176095258 0.0047783532667657501 0 -0.025001211041256608 0.0050496157344494946 0 -0.025587076712112591 0.0054924602162628169 0 -0.024999993683997933 0.0050494727951576647 0 -0.025662109144965747 0.0047448181380412716 0 -0.026236579760972045 0.0052995267757956497 0 -0.02499999952121457 0.005049548047788917 0 -0.025639034241197779 0.0059717159975410704 0 -0.026271978384835866 0.0053287163159029842 0 -0.025000001416601077 0.0066254392779611145 0 -0.024999991366890562 0.0058374730341978782 0 -0.025639034241197779 0.0059717159975410704 0 -0.02499999952121457 0.005049548047788917 0 -0.024999991366890562 0.0058374730341978782 0 -0.025639034241197779 0.0059717159975410704 0 -0.025273739421876096 0.0065044191820291383 0 -0.02529777314920861 0.0065071732061631644 0 -0.025281090031850889 0.0065147590588109745 0 -0.025273739421876096 0.0065044191820291383 0 -0.025281090031850889 0.0065147590588109745 0 -0.025247667625616393 0.0065082778003498513 0 -0.025273739421876096 0.0065044191820291383 0 -0.025278731267218253 0.0064964009397860453 0 -0.02529777314920861 0.0065071732061631644 0 -0.025273739421876096 0.0065044191820291383 0 -0.025278731267218253 0.0064964009397860453 0 -0.025258501550985461 0.0064909908536795622 0 -0.025297283919793381 0.0065071987357467444 0 -0.025278731267218253 0.0064964009397860453 0 -0.02529777314920861 0.0065071732061631644 0 -0.025314447453098955 0.0065387955323163898 0 -0.025283592749558235 0.0064705249598915777 0 -0.02529777314920861 0.0065071732061631644 0 -0.025283592749558235 0.0064705249598915777 0 -0.02529777314920861 0.0065071732061631644 0 -0.025281090031850889 0.0065147590588109745 0 -0.025431707780248881 0.0062588246595751233 0 -0.025587076712112591 0.0054924602162628169 0 -0.025283592749558235 0.0064705249598915777 0 -0.025281090031850889 0.0065147590588109745 0 -0.025282612642518611 0.0065393341608545527 0 -0.025281090031850889 0.0065147590588109745 0 -0.025282612642518611 0.0065393341608545527 0 -0.025255878145881094 0.0065369324166347298 0 -0.025274057535944031 0.0055439677026728282 0 -0.025091086462948116 0.0057273947175894143 0 -0.024660317038531211 0.005415493435593984 0 -0.025282612642518611 0.0065393341608545527 0 -0.025259104374902211 0.0065450966603221496 0 -0.025255878145881094 0.0065369324166347298 0 -0.026171180738426874 0.0043963350411093506 0 -0.025644447807903266 0.0046781178710412373 0 -0.0262728022729177 0.0051390156352091529 0 -0.025587076712112591 0.0054924602162628169 0 -0.0241787339291335 0.0053943489925668258 0 -0.026171180738426874 0.0043963350411093506 0 -0.0262728022729177 0.0051390156352091529 0 -0.026718706196509432 0.0046909391178090983 0 -0.025349429943135778 0.0053347616760466305 0 -0.0241787339291335 0.0053943489925668258 0 -0.025587076712112591 0.0054924602162628169 0 -0.025349429943135778 0.0053347616760466305 0 -0.025662109144965747 0.0047448181380412716 0 -0.026236579760972045 0.0052995267757956497 0 -0.026312700599851815 0.0052223934691750804 0 -0.025737457176095258 0.0047783532667657501 0 -0.025349429943135778 0.0053347616760466305 0 -0.025349429943135778 0.0053347616760466305 0 -0.023677185693136326 0.0047108651689593065 0 -0.023153558518120714 0.0051897594205300452 0 -0.022734071808139852 0.0052473442709372728 0 -0.023430532748271542 0.0053291515928024459 0 -0.022797053145138392 0.0047986643866761367 0 -0.023197629183429248 0.0049979309430140473 0 -0.02347154803393945 0.0046305158489889763 0 -0.023677185693136326 0.0047108651689593065 0 -0.023283085362719322 0.0049238735550946773 0 -0.022797053145138392 0.0047986643866761367 0 -0.022962287344679547 0.0051310200600161006 0 -0.023197629183429248 0.0049979309430140473 0 -0.022962287344679547 0.0051310200600161006 0 -0.023153558518120714 0.0051897594205300452 0 -0.023197629183429248 0.0049979309430140473 0 -0.022962287344679547 0.0051310200600161006 0 -0.023153558518120714 0.0051897594205300452 0 -0.022734071808139852 0.0052473442709372728 0 -0.022631439806309387 0.0051689470583661436 0 -0.022898546243181241 0.0048879214890197543 0 -0.022734071808139852 0.0052473442709372728 0 -0.022898546243181241 0.0048879214890197543 0 -0.022962287344679547 0.0051310200600161006 0 -0.022734071808139852 0.0052473442709372728 0 -0.023451762797610954 0.0054734806880542795 0 -0.023447560373701722 0.0054737119705236866 0 -0.023441413989143432 0.0054777153736972903 0 -0.0241787339291335 0.0053943489925668258 0 -0.024636279872513635 0.0061710642423265542 0 -0.025259104374902211 0.0065450966603221496 0 -0.025255878145881094 0.0065369324166347298 0 -0.02522961733052537 0.0065338349127568064 0 -0.0241787339291335 0.0053943489925668258 0 -0.023190907388471356 0.0053761869674388797 0 -0.025099070816792798 0.0063294093607778983 0 -0.024636279872513635 0.0061710642423265542 0 -0.025255878145881094 0.0065369324166347298 0 -0.02524100138798566 0.0065302212269365677 0 -0.025211736629045571 0.0065562514149752442 0 -0.025281090031850889 0.0065147590588109745 0 -0.02524100138798566 0.0065302212269365677 0 -0.025247667625616393 0.0065082778003498513 0 -0.025281090031850889 0.0065147590588109745 0 -0.025255878145881094 0.0065369324166347298 0 -0.02524100138798566 0.0065302212269365677 0 -0.02524100138798566 0.0065302212269365677 0 -0.025211736629045571 0.0065562514149752442 0 -0.025210126179747213 0.0065111765956081162 0 -0.025211736629045571 0.0065562514149752442 0 -0.025143995839999905 0.0065375079080903006 0 -0.025210126179747213 0.0065111765956081162 0 -0.024636279872513635 0.0061710642423265542 0 -0.025075412743950334 0.0064880865595738513 0 -0.02515204820198157 0.0064294063824993173 0 -0.025143995839999905 0.0065375079080903006 0 -0.025210126179747213 0.0065111765956081162 0 -0.024975103904811533 0.0063722807198638137 0 -0.02515204820198157 0.0064294063824993173 0 -0.025143995839999905 0.0065375079080903006 0 -0.02515204820198157 0.0064294063824993173 0 -0.025229013562214263 0.0064787755138470205 0 -0.025210126179747213 0.0065111765956081162 0 -0.025229013562214263 0.0064787755138470205 0 -0.025258501550985461 0.0064909908536795622 0 -0.025247667625616393 0.0065082778003498513 0 -0.025248454759703526 0.0064609179623608647 0 -0.025229013562214263 0.0064787755138470205 0 -0.025258501550985461 0.0064909908536795622 0 -0.025273739421876096 0.0065044191820291383 0 -0.025258501550985461 0.0064909908536795622 0 -0.025247667625616393 0.0065082778003498513 0 -0.02524100138798566 0.0065302212269365677 0 -0.025247667625616393 0.0065082778003498513 0 -0.025210126179747213 0.0065111765956081162 0 -0.025229013562214263 0.0064787755138470205 0 -0.025247667625616393 0.0065082778003498513 0 -0.025210126179747213 0.0065111765956081162 0 -0.024636279872513635 0.0061710642423265542 0 -0.024034894079278581 0.0059627120384811933 0 -0.023447560373701722 0.0054737119705236866 0 -0.023441413989143432 0.0054777153736972903 0 -0.023447906395088453 0.0054851924738532377 0 -0.025246261471090572 0.0066197408274195199 0 -0.025143995839999905 0.0065375079080903006 0 -0.024744775360452567 0.0064910850998737783 0 -0.024975103904811533 0.0063722807198638137 0 -0.025143995839999905 0.0065375079080903006 0 -0.024744775360452567 0.0064910850998737783 0 -0.024767863853147169 0.0062225299757152812 0 -0.024975103904811533 0.0063722807198638137 0 -0.024744775360452567 0.0064910850998737783 0 -0.023515350477224025 0.005136951452279815 0 -0.023701965228132636 0.0049400836678478765 0 -0.02344790937551965 0.0052431412312283401 0 -0.02347154803393945 0.0046305158489889763 0 -0.024174449331822646 0.0042890113441329441 0 -0.023430532748271542 0.0053291515928024459 0 -0.02344790937551965 0.0052431412312283401 0 -0.023422289953871089 0.0053050254881887391 0 -0.023153558518120714 0.0051897594205300452 0 -0.02344790937551965 0.0052431412312283401 0 -0.023197629183429248 0.0049979309430140473 0 -0.023153558518120714 0.0051897594205300452 0 -0.023430532748271542 0.0053291515928024459 0 -0.02344790937551965 0.0052431412312283401 0 -0.02344790937551965 0.0052431412312283401 0 -0.023197629183429248 0.0049979309430140473 0 -0.02347154803393945 0.0046305158489889763 0 -0.023677185693136326 0.0047108651689593065 0 -0.023386090185867417 0.003947093904007418 0 -0.022797053145138392 0.0047986643866761367 0 -0.02347154803393945 0.0046305158489889763 0 -0.023709460883951622 0.0038501258080018016 0 -0.02347154803393945 0.0046305158489889763 0 -0.023709460883951622 0.0038501258080018016 0 -0.024174449331822646 0.0042890113441329441 0 -0.024580792131971327 0.0036442617608398544 0 -0.023677185693136326 0.0047108651689593065 0 -0.022941153072225252 0.0046184899570813525 0 -0.023145101613152266 0.0039059662625971323 0 -0.023709460883951622 0.0038501258080018016 0 -0.022644596434741978 0.0036389437197423321 0 -0.022941153072225252 0.0046184899570813525 0 -0.023145101613152266 0.0039059662625971323 0 -0.022644596434741978 0.0036389437197423321 0 -0.023145101613152266 0.0039059662625971323 0 -0.023322791494626911 0.0034493263531589569 0 -0.023322791494626911 0.0034493263531589569 0 -0.023709460883951622 0.0038501258080018016 0 -0.024051047464492773 0.0033201756516974355 0 -0.023145101613152266 0.0039059662625971323 0 -0.023322791494626911 0.0034493263531589569 0 -0.023709460883951622 0.0038501258080018016 0 -0.024174449331822646 0.0042890113441329441 0 -0.024749328506241602 0.0033475738404197355 0 -0.024051047464492773 0.0033201756516974355 0 -0.023709460883951622 0.0038501258080018016 0 -0.024174449331822646 0.0042890113441329441 0 -0.024051047464492773 0.0033201756516974355 0 -0.023701965228132636 0.0049400836678478765 0 -0.024328745776104114 0.0034329652804279882 0 -0.023399561126784457 0.0051982259105091116 0 -0.023376635081840926 0.0047281845354271278 0 -0.022647841748484644 0.0044646063276154091 0 -0.023043240521347944 0.0056477076580533679 0 -0.024328745776104114 0.0034329652804279882 0 -0.02340548740224015 0.005227816032043738 0 -0.023399561126784457 0.0051982259105091116 0 -0.02341490758795383 0.0051873299550874268 0 -0.02340548740224015 0.005227816032043738 0 -0.023399384357025755 0.0052325017469003797 0 -0.02341490758795383 0.0051873299550874268 0 -0.02340548740224015 0.005227816032043738 0 -0.023399384357025755 0.0052325017469003797 0 -0.023411541949442942 0.0052681988918759368 0 -0.02344790937551965 0.0052431412312283401 0 -0.023399384357025755 0.0052325017469003797 0 -0.023411541949442942 0.0052681988918759368 0 -0.02344790937551965 0.0052431412312283401 0 -0.023411541949442942 0.0052681988918759368 0 -0.023422289953871089 0.0053050254881887391 0 -0.023411541949442942 0.0052681988918759368 0 -0.023422289953871089 0.0053050254881887391 0 -0.023421228025939832 0.005309233630815949 0 -0.023441413989143432 0.0054777153736972903 0 -0.023447906395088453 0.0054851924738532377 0 -0.02348523829931835 0.0054951429650828641 0 -0.024034894079278581 0.0059627120384811933 0 -0.023871393958987124 0.0058454429491352463 0 -0.023190907388471356 0.0053761869674388797 0 -0.023510607147472641 0.00545009581562967 0 -0.023430532748271542 0.0053291515928024459 0 -0.023422289953871089 0.0053050254881887391 0 -0.023405903157840326 0.0053644506683966572 0 -0.024521640304314144 0.0061962912062175158 0 -0.024744775360452567 0.0064910850998737783 0 -0.024126041870063664 0.0061659891560133821 0 -0.023422289953871089 0.0053050254881887391 0 -0.023405903157840326 0.0053644506683966572 0 -0.023421228025939832 0.005309233630815949 0 -0.024767863853147169 0.0062225299757152812 0 -0.024521640304314144 0.0061962912062175158 0 -0.024744775360452567 0.0064910850998737783 0 -0.02353751137564343 0.0055300871289121842 0 -0.02348523829931835 0.0054951429650828641 0 -0.023625648851435348 0.0055627174471870947 0 -0.023405903157840326 0.0053644506683966572 0 -0.023477767513561232 0.0053368105647936719 0 -0.023625648851435348 0.0055627174471870947 0 -0.023447906395088453 0.0054851924738532377 0 -0.02353751137564343 0.0055300871289121842 0 -0.02348523829931835 0.0054951429650828641 0 -0.023510607147472641 0.00545009581562967 0 -0.023598558662218088 0.0055367431802249897 0 -0.023405903157840326 0.0053644506683966572 0 -0.023421228025939832 0.005309233630815949 0 -0.023477767513561232 0.0053368105647936719 0 -0.02340548740224015 0.005227816032043738 0 -0.023477767513561232 0.0053368105647936719 0 -0.023399561126784457 0.0051982259105091116 0 -0.02340548740224015 0.005227816032043738 0 -0.023421228025939832 0.005309233630815949 0 -0.023477767513561232 0.0053368105647936719 0 -0.02340548740224015 0.005227816032043738 0 -0.023411541949442942 0.0052681988918759368 0 -0.023421228025939832 0.005309233630815949 0 -0.023477767513561232 0.0053368105647936719 0 -0.023673576649348809 0.0054488195457040077 0 -0.023663266522988925 0.0052652110093107767 0 -0.023477767513561232 0.0053368105647936719 0 -0.023663266522988925 0.0052652110093107767 0 -0.023399561126784457 0.0051982259105091116 0 -0.02378115287066529 0.005691529400329934 0 -0.023871393958987124 0.0058454429491352463 0 -0.023477767513561232 0.0053368105647936719 0 -0.023625648851435348 0.0055627174471870947 0 -0.023673576649348809 0.0054488195457040077 0 -0.02376451144556083 0.0056556265506640677 0 -0.02353751137564343 0.0055300871289121842 0 -0.023625648851435348 0.0055627174471870947 0 -0.02376451144556083 0.0056556265506640677 0 -0.023673576649348809 0.0054488195457040077 0 -0.023853675906037292 0.005395162773969139 0 -0.02376451144556083 0.0056556265506640677 0 -0.023625648851435348 0.0055627174471870947 0 -0.023673576649348809 0.0054488195457040077 0 -0.023673576649348809 0.0054488195457040077 0 -0.023663266522988925 0.0052652110093107767 0 -0.023853675906037292 0.005395162773969139 0 -0.023663266522988925 0.0052652110093107767 0 -0.023654045522827263 0.0049536600330417234 0 -0.023901666561701132 0.0051027790186215557 0 -0.023663266522988925 0.0052652110093107767 0 -0.023654045522827263 0.0049536600330417234 0 -0.023399561126784457 0.0051982259105091116 0 -0.023654045522827263 0.0049536600330417234 0 -0.023399561126784457 0.0051982259105091116 0 -0.023376635081840926 0.0047281845354271278 0 -0.023654045522827263 0.0049536600330417234 0 -0.023376635081840926 0.0047281845354271278 0 -0.023585599348719389 0.0045996757457147791 0 -0.023376635081840926 0.0047281845354271278 0 -0.023331472684625165 0.0043064574015046313 0 -0.022647841748484644 0.0044646063276154091 0 -0.023376635081840926 0.0047281845354271278 0 -0.023585599348719389 0.0045996757457147791 0 -0.023331472684625165 0.0043064574015046313 0 -0.023654045522827263 0.0049536600330417234 0 -0.023585599348719389 0.0045996757457147791 0 -0.023795774626562381 0.004687232350933393 0 -0.023654045522827263 0.0049536600330417234 0 -0.023795774626562381 0.004687232350933393 0 -0.023901666561701132 0.0051027790186215557 0 -0.023795774626562381 0.004687232350933393 0 -0.023632207972911434 0.0043926774802542411 0 -0.023874362925949206 0.0043160919428325561 0 -0.023849195529248812 0.0040917026724724744 0 -0.024078344647488259 0.0039636835916032368 0 -0.023585599348719389 0.0045996757457147791 0 -0.023795774626562381 0.004687232350933393 0 -0.023632207972911434 0.0043926774802542411 0 -0.023585599348719389 0.0045996757457147791 0 -0.023632207972911434 0.0043926774802542411 0 -0.023331472684625165 0.0043064574015046313 0 -0.023849195529248812 0.0040917026724724744 0 -0.023361366742225706 0.0043088751689163785 0 -0.024037205063064511 0.0038235777606568239 0 -0.023331472684625165 0.0043064574015046313 0 -0.023816012240586042 0.0031595034050423739 0 -0.023331472684625165 0.0043064574015046313 0 -0.023156845265289383 0.0031733978005307321 0 -0.023816012240586042 0.0031595034050423739 0 -0.023816012240586042 0.0031595034050423739 0 -0.024236736312626225 0.002653420353499648 0 -0.024794667395456837 0.0034031526686421993 0 -0.024037205063064511 0.0038235777606568239 0 -0.023816012240586042 0.0031595034050423739 0 -0.024794667395456837 0.0034031526686421993 0 -0.02417841958562493 0.0026165119827230737 0 -0.024078344647488259 0.0039636835916032368 0 -0.024236736312626225 0.002653420353499648 0 -0.024298440159772488 0.0019662240104366289 0 -0.023837754573532349 0.0020130138258684558 0 -0.023816012240586042 0.0031595034050423739 0 -0.024236736312626225 0.002653420353499648 0 -0.023837754573532349 0.0020130138258684558 0 -0.024236736312626225 0.002653420353499648 0 -0.024298440159772488 0.0019662240104366289 0 -0.024475933386144188 0.0023064500591850638 0 -0.026780817988045522 -0.00092823808983846952 0 -0.026477382417367697 -0.0008634805760195203 0 -0.026610925701723017 -0.00058620425049220597 0 -0.025745647310005733 -0.00012868956087421001 0 -0.02516663981768346 0.00082262893175314095 0 -0.024356342979762944 0.0011828689089535881 0 -0.024298440159772488 0.0019662240104366289 0 -0.023837754573532349 0.0020130138258684558 0 -0.026477382417367697 -0.0008634805760195203 0 -0.026345841538283288 -0.00087792888962713817 0 -0.026358139527556449 -0.00065222242229576188 0 -0.026477382417367697 -0.0008634805760195203 0 -0.026610925701723017 -0.00058620425049220597 0 -0.026358139527556449 -0.00065222242229576188 0 -0.023156845265289383 0.0031733978005307321 0 -0.023816012240586042 0.0031595034050423739 0 -0.023837754573532349 0.0020130138258684558 0 -0.026452134532379087 -0.00016447137304412697 0 -0.026610925701723017 -0.00058620425049220597 0 -0.026287144504244186 -0.00039565371718555388 0 -0.026610925701723017 -0.00058620425049220597 0 -0.026287144504244186 -0.00039565371718555388 0 -0.026358139527556449 -0.00065222242229576188 0 -0.024878420484630494 0.0012849865205646299 0 -0.02516663981768346 0.00082262893175314095 0 -0.026287144504244186 -0.00039565371718555388 0 -0.026358139527556449 -0.00065222242229576188 0 -0.026119152514914572 -0.00057974547213046265 0 -0.026287144504244186 -0.00039565371718555388 0 -0.026119152514914572 -0.00057974547213046265 0 -0.026063415513983699 -0.00037103644007570005 0 -0.026358139527556449 -0.00065222242229576188 0 -0.026232667295989023 -0.00075969271887560777 0 -0.026119152514914572 -0.00057974547213046265 0 -0.026345841538283288 -0.00087792888962713817 0 -0.026358139527556449 -0.00065222242229576188 0 -0.026232667295989023 -0.00075969271887560777 0 -0.026232667295989023 -0.00075969271887560777 0 -0.026107818606110333 -0.00074805325858228031 0 -0.026119152514914572 -0.00057974547213046265 0 -0.026107818606110333 -0.00074805325858228031 0 -0.026063187478585683 -0.00062975570112582013 0 -0.026119152514914572 -0.00057974547213046265 0 -0.026107818606110333 -0.00074805325858228031 0 -0.026063187478585683 -0.00062975570112582013 0 -0.025988155795918979 -0.00065655342084556558 0 -0.026268270733584585 -0.00062390978538672567 0 -0.025408406828897473 8.8344057335716541e-06 0 -0.026063187478585683 -0.00062975570112582013 0 -0.026119152514914572 -0.00057974547213046265 0 -0.02603791449243115 -0.00055709370632746487 0 -0.026119152514914572 -0.00057974547213046265 0 -0.026063415513983699 -0.00037103644007570005 0 -0.025821302417289967 -0.00044874188685564193 0 -0.026287144504244186 -0.00039565371718555388 0 -0.026063415513983699 -0.00037103644007570005 0 -0.02600014586224764 -6.5154792978294011e-05 0 -0.025175630472415961 0.0011299609802941175 0 -0.025408406828897473 8.8344057335716541e-06 0 -0.026063415513983699 -0.00037103644007570005 0 -0.02600014586224764 -6.5154792978294011e-05 0 -0.025821302417289967 -0.00044874188685564193 0 -0.024329652115675855 0.0025629269556145385 0 -0.023750985199324483 0.0023884196328666919 0 -0.023931419089599122 0.0017900036579322791 0 -0.026452134532379087 -0.00016447137304412697 0 -0.026287144504244186 -0.00039565371718555388 0 -0.02600014586224764 -6.5154792978294011e-05 0 -0.026452134532379087 -0.00016447137304412697 0 -0.02600014586224764 -6.5154792978294011e-05 0 -0.026177410847778918 0.00034905213816008101 0 -0.024878420484630494 0.0012849865205646299 0 -0.024328745776104114 0.0034329652804279882 0 -0.023331472684625165 0.0043064574015046313 0 -0.023156845265289383 0.0031733978005307321 0 -0.022647841748484644 0.0044646063276154091 0 -0.024329652115675855 0.0025629269556145385 0 -0.024749328506241602 0.0033475738404197355 0 -0.024051047464492773 0.0033201756516974355 0 -0.025175630472415961 0.0011299609802941175 0 -0.024328745776104114 0.0034329652804279882 0 -0.024329652115675855 0.0025629269556145385 0 -0.024051047464492773 0.0033201756516974355 0 -0.023537190612647668 0.0029762285232699404 0 -0.023322791494626911 0.0034493263531589569 0 -0.024051047464492773 0.0033201756516974355 0 -0.023537190612647668 0.0029762285232699404 0 -0.022644596434741978 0.0036389437197423321 0 -0.023322791494626911 0.0034493263531589569 0 -0.022942318271429309 0.0029753242489465172 0 -0.023322791494626911 0.0034493263531589569 0 -0.023537190612647668 0.0029762285232699404 0 -0.022942318271429309 0.0029753242489465172 0 -0.025814836435550381 -0.0003214017882334887 0 -0.025654968926978924 -0.00044742472523157301 0 -0.02552769588829127 -0.0001586070073133836 0 -0.023537190612647668 0.0029762285232699404 0 -0.022942318271429309 0.0029753242489465172 0 -0.023131905368034354 0.0021973548756846518 0 -0.022942318271429309 0.0029753242489465172 0 -0.023131905368034354 0.0021973548756846518 0 -0.022353368425215594 0.0025943636955111627 0 -0.024228650575072039 0.0010021783003017458 0 -0.024961350201990556 0.0019100054186157707 0 -0.024329652115675855 0.0025629269556145385 0 -0.023537190612647668 0.0029762285232699404 0 -0.023750985199324483 0.0023884196328666919 0 -0.023131905368034354 0.0021973548756846518 0 -0.023750985199324483 0.0023884196328666919 0 -0.023931419089599122 0.0017900036579322791 0 -0.023537190612647668 0.0029762285232699404 0 -0.023131905368034354 0.0021973548756846518 0 -0.023750985199324483 0.0023884196328666919 0 -0.026084463160389305 -0.00047492168899862882 0 -0.025988155795918979 -0.00065655342084556558 0 -0.025848683893574257 -0.00055900364728084034 0 -0.024228650575072039 0.0010021783003017458 0 -0.025408406828897473 8.8344057335716541e-06 0 -0.025814836435550381 -0.0003214017882334887 0 -0.026084463160389305 -0.00047492168899862882 0 -0.025848683893574257 -0.00055900364728084034 0 -0.025408406828897473 8.8344057335716541e-06 0 -0.025870926730538726 -0.00060849841048805247 0 -0.026063187478585683 -0.00062975570112582013 0 -0.02603791449243115 -0.00055709370632746487 0 -0.025988155795918979 -0.00065655342084556558 0 -0.025988955562348901 -0.0009511032318346523 0 -0.025988155795918979 -0.00065655342084556558 0 -0.025840912340462093 -0.00077458479429913063 0 -0.025988955562348901 -0.0009511032318346523 0 -0.026107818606110333 -0.00074805325858228031 0 -0.025988155795918979 -0.00065655342084556558 0 -0.025988155795918979 -0.00065655342084556558 0 -0.025840912340462093 -0.00077458479429913063 0 -0.025848683893574257 -0.00055900364728084034 0 -0.025663394705201428 -0.00083603487358047601 0 -0.025840912340462093 -0.00077458479429913063 0 -0.025708898049338895 -0.0006653076493666315 0 -0.025840912340462093 -0.00077458479429913063 0 -0.025708898049338895 -0.0006653076493666315 0 -0.025848683893574257 -0.00055900364728084034 0 -0.025708898049338895 -0.0006653076493666315 0 -0.025848683893574257 -0.00055900364728084034 0 -0.025654968926978924 -0.00044742472523157301 0 -0.025814836435550381 -0.0003214017882334887 0 -0.025848683893574257 -0.00055900364728084034 0 -0.025654968926978924 -0.00044742472523157301 0 -0.025654968926978924 -0.00044742472523157301 0 -0.025444119644565878 -0.0005232198755502006 0 -0.02552769588829127 -0.0001586070073133836 0 -0.025708898049338895 -0.0006653076493666315 0 -0.025654968926978924 -0.00044742472523157301 0 -0.025444119644565878 -0.0005232198755502006 0 -0.025708898049338895 -0.0006653076493666315 0 -0.025511595946586384 -0.00072952349565626564 0 -0.025444119644565878 -0.0005232198755502006 0 -0.02552680902898934 -0.00088317458071914012 0 -0.025663394705201428 -0.00083603487358047601 0 -0.025511595946586384 -0.00072952349565626564 0 -0.025663394705201428 -0.00083603487358047601 0 -0.025708898049338895 -0.0006653076493666315 0 -0.025511595946586384 -0.00072952349565626564 0 -0.02500001203098141 -0.00011657808246415778 0 -0.025413940582294268 -0.00022008055657848425 0 -0.025755797282675835 0.00096683493229656435 0 -0.025365500766707183 -0.00052348462598617864 0 -0.025668762139417111 6.2856223662200058e-05 0 -0.025346050915446477 -0.00085872040870227915 0 -0.025511595946586384 -0.00072952349565626564 0 -0.025444119644565878 -0.0005232198755502006 0 -0.02500001203098141 -0.00011657808246415778 0 -0.025755797282675835 0.00096683493229656435 0 -0.024999991753373561 0.001334925389767825 0 -0.025755797282675835 0.00096683493229656435 0 -0.024999991753373561 0.001334925389767825 0 -0.025507517826998515 0.0017670411420173009 0 -0.025507517826998515 0.0017670411420173009 0 -0.026095201586306831 0.0021556397416468572 0 -0.025178325019063582 0.0026117320684551385 0 -0.024999991753373561 0.001334925389767825 0 -0.024999972514173924 0.0027864935642351305 0 -0.025178325019063582 0.0026117320684551385 0 -0.024999991753373561 0.001334925389767825 0 -0.025507517826998515 0.0017670411420173009 0 -0.025178325019063582 0.0026117320684551385 0 -0.025755797282675835 0.00096683493229656435 0 -0.025507517826998515 0.0017670411420173009 0 -0.026095201586306831 0.0021556397416468572 0 -0.025668762139417111 6.2856223662200058e-05 0 -0.024961350201990556 0.0019100054186157707 0 -0.022644596434741978 0.0036389437197423321 0 -0.022942318271429309 0.0029753242489465172 0 -0.022353368425215594 0.0025943636955111627 0 -0.026396181874421415 0.003457519663154782 0 -0.026044957393564636 0.002201602820710595 0 -0.025789168035248465 0.0028929664185585484 0 -0.024580792131971327 0.0036442617608398544 0 -0.024961350201990556 0.0019100054186157707 0 -0.026044957393564636 0.002201602820710595 0 -0.025789168035248465 0.0028929664185585484 0 -0.025178325019063582 0.0026117320684551385 0 -0.025529928074764691 0.0032992198531406466 0 -0.025789168035248465 0.0028929664185585484 0 -0.025178325019063582 0.0026117320684551385 0 -0.024961350201990556 0.0019100054186157707 0 -0.025582007140532857 0.0025014874841542052 0 -0.025529928074764691 0.0032992198531406466 0 -0.024999972514173924 0.0027864935642351305 0 -0.025178325019063582 0.0026117320684551385 0 -0.023875339817840801 0.0051492551526410761 0 -0.023805016743222815 0.005193979291510155 0 -0.023682463293280099 0.0051363503720225035 0 -0.023875339817840801 0.0051492551526410761 0 -0.023932324599498414 0.0051744116490248671 0 -0.023805016743222815 0.005193979291510155 0 -0.023875339817840801 0.0051492551526410761 0 -0.023934916337478556 0.0052114842874271183 0 -0.023932324599498414 0.0051744116490248671 0 -0.023932324599498414 0.0051744116490248671 0 -0.023867416523976726 0.0051434028745704343 0 -0.023911119640850319 0.005035366484308669 0 -0.023934916337478556 0.0052114842874271183 0 -0.023932324599498414 0.0051744116490248671 0 -0.023867416523976726 0.0051434028745704343 0 -0.023932324599498414 0.0051744116490248671 0 -0.023805016743222815 0.005193979291510155 0 -0.023821154566416168 0.0053026960983351612 0 -0.023805016743222815 0.005193979291510155 0 -0.023682463293280099 0.0051363503720225035 0 -0.02368999579823991 0.0052479953735158798 0 -0.020815379300927396 0.0078223113428072984 0 -0.02169159881269718 0.0073423394699664831 0 -0.020545187723078985 0.0071530782092901661 0 -0.018382680351539369 0.0046614875721328435 0 -0.023249165376968729 0.0062470863584756708 0 -0.023505324152153426 0.005188158262356986 0 -0.023682463293280099 0.0051363503720225035 0 -0.02368999579823991 0.0052479953735158798 0 -0.02169159881269718 0.0073423394699664831 0 -0.021049759520295423 0.0065957972142187743 0 -0.020545187723078985 0.0071530782092901661 0 -0.02169159881269718 0.0073423394699664831 0 -0.021764085676801135 0.0063316384332242105 0 -0.021049759520295423 0.0065957972142187743 0 -0.023123162357554083 0.0060137983039463411 0 -0.023249165376968729 0.0062470863584756708 0 -0.022592679353558312 0.0068070212604101187 0 -0.02169159881269718 0.0073423394699664831 0 -0.021764085676801135 0.0063316384332242105 0 -0.021764085676801135 0.0063316384332242105 0 -0.021049759520295423 0.0065957972142187743 0 -0.02086292242305738 0.0059203588277537663 0 -0.021369937859324416 0.0047894737457266625 0 -0.02086292242305738 0.0059203588277537663 0 -0.020069947216642778 0.0055239774681774909 0 -0.021764085676801135 0.0063316384332242105 0 -0.02086292242305738 0.0059203588277537663 0 -0.021885774098359522 0.005556489834177546 0 -0.021369937859324416 0.0047894737457266625 0 -0.02086292242305738 0.0059203588277537663 0 -0.021885774098359522 0.005556489834177546 0 -0.021764085676801135 0.0063316384332242105 0 -0.021885774098359522 0.005556489834177546 0 -0.022658171502959974 0.0058487730943416793 0 -0.02263568015127097 0.0049057464669283552 0 -0.021885774098359522 0.005556489834177546 0 -0.022658171502959974 0.0058487730943416793 0 -0.022592679353558312 0.0068070212604101187 0 -0.022658171502959974 0.0058487730943416793 0 -0.023413987499635674 0.0062024841132389159 0 -0.022592679353558312 0.0068070212604101187 0 -0.021764085676801135 0.0063316384332242105 0 -0.022658171502959974 0.0058487730943416793 0 -0.023123162357554083 0.0060137983039463411 0 -0.023685309234448015 0.0057404934734232209 0 -0.023875339817840801 0.0051492551526410761 0 -0.023934916337478556 0.0052114842874271183 0 -0.0239641155798056 0.0052921960710784451 0 -0.022658171502959974 0.0058487730943416793 0 -0.023413987499635674 0.0062024841132389159 0 -0.023516674401638203 0.0055440517901194104 0 -0.02263568015127097 0.0049057464669283552 0 -0.022658171502959974 0.0058487730943416793 0 -0.023516674401638203 0.0055440517901194104 0 -0.0239641155798056 0.0052921960710784451 0 -0.023963666334809789 0.0054463142952506797 0 -0.023968190285368597 0.0055275431269899327 0 -0.023413987499635674 0.0062024841132389159 0 -0.023516674401638203 0.0055440517901194104 0 -0.023968190285368597 0.0055275431269899327 0 -0.023821703928639668 0.0053650531749717028 0 -0.023516674401638203 0.0055440517901194104 0 -0.023968190285368597 0.0055275431269899327 0 -0.023970004903188277 0.0054428745014673367 0 -0.023821703928639668 0.0053650531749717028 0 -0.023968190285368597 0.0055275431269899327 0 -0.023963666334809789 0.0054463142952506797 0 -0.023968190285368597 0.0055275431269899327 0 -0.02401795587184025 0.0054038742222290853 0 -0.023970004903188277 0.0054428745014673367 0 -0.023968190285368597 0.0055275431269899327 0 -0.024005503245950941 0.0054609566782752106 0 -0.023968190285368597 0.0055275431269899327 0 -0.02401795587184025 0.0054038742222290853 0 -0.024005503245950941 0.0054609566782752106 0 -0.023963666334809789 0.0054463142952506797 0 -0.02401795587184025 0.0054038742222290853 0 -0.024128913261981608 0.0052166665053150311 0 -0.023966994841015787 0.0054224932632625303 0 -0.023931525459656822 0.0051963627515855069 0 -0.023963666334809789 0.0054463142952506797 0 -0.023910565407400386 0.0052622402288610088 0 -0.023754279384752858 0.0052331805163070531 0 -0.0239641155798056 0.0052921960710784451 0 -0.023963666334809789 0.0054463142952506797 0 -0.023910565407400386 0.0052622402288610088 0 -0.023934916337478556 0.0052114842874271183 0 -0.0239641155798056 0.0052921960710784451 0 -0.023910565407400386 0.0052622402288610088 0 -0.023685309234448015 0.0057404934734232209 0 -0.023920643126642552 0.0055693578130501277 0 -0.023927311330387318 0.0055180583041233681 0 -0.02396266546584299 0.0054184891825381064 0 -0.023853675906037292 0.005395162773969139 0 -0.02376451144556083 0.0056556265506640677 0 -0.023927311330387318 0.0055180583041233681 0 -0.023853675906037292 0.005395162773969139 0 -0.023927311330387318 0.0055180583041233681 0 -0.02396266546584299 0.0054184891825381064 0 -0.024005503245950941 0.0054609566782752106 0 -0.02401795587184025 0.0054038742222290853 0 -0.02396266546584299 0.0054184891825381064 0 -0.024005503245950941 0.0054609566782752106 0 -0.02401795587184025 0.0054038742222290853 0 -0.023989458444596753 0.0052962817492303105 0 -0.024128913261981608 0.0052166665053150311 0 -0.02401795587184025 0.0054038742222290853 0 -0.02396266546584299 0.0054184891825381064 0 -0.023989458444596753 0.0052962817492303105 0 -0.023663266522988925 0.0052652110093107767 0 -0.023853675906037292 0.005395162773969139 0 -0.023901666561701132 0.0051027790186215557 0 -0.02396266546584299 0.0054184891825381064 0 -0.023989458444596753 0.0052962817492303105 0 -0.023853675906037292 0.005395162773969139 0 -0.023989458444596753 0.0052962817492303105 0 -0.023853675906037292 0.005395162773969139 0 -0.023901666561701132 0.0051027790186215557 0 -0.023901666561701132 0.0051027790186215557 0 -0.024073491667384459 0.0047749044046444845 0 -0.024128913261981608 0.0052166665053150311 0 -0.023989458444596753 0.0052962817492303105 0 -0.023901666561701132 0.0051027790186215557 0 -0.024128913261981608 0.0052166665053150311 0 -0.023818092158774156 0.0050293428154665589 0 -0.023931525459656822 0.0051963627515855069 0 -0.023795774626562381 0.004687232350933393 0 -0.023901666561701132 0.0051027790186215557 0 -0.024073491667384459 0.0047749044046444845 0 -0.023638068693738801 0.0050801806645497426 0 -0.023754279384752858 0.0052331805163070531 0 -0.023867416523976726 0.0051434028745704343 0 -0.023638068693738801 0.0050801806645497426 0 -0.023867416523976726 0.0051434028745704343 0 -0.023783947707561801 0.0049593385111494541 0 -0.023910565407400386 0.0052622402288610088 0 -0.023754279384752858 0.0052331805163070531 0 -0.023867416523976726 0.0051434028745704343 0 -0.023934916337478556 0.0052114842874271183 0 -0.023910565407400386 0.0052622402288610088 0 -0.023867416523976726 0.0051434028745704343 0 -0.023867416523976726 0.0051434028745704343 0 -0.023911119640850319 0.005035366484308669 0 -0.023783947707561801 0.0049593385111494541 0 -0.023911119640850319 0.005035366484308669 0 -0.023783947707561801 0.0049593385111494541 0 -0.023935390394168296 0.0048695727799463878 0 -0.023783947707561801 0.0049593385111494541 0 -0.023670734275656326 0.0048421047391402332 0 -0.023811804280818617 0.0047592264394477005 0 -0.023783947707561801 0.0049593385111494541 0 -0.023811804280818617 0.0047592264394477005 0 -0.023935390394168296 0.0048695727799463878 0 -0.023638068693738801 0.0050801806645497426 0 -0.023649644534495549 0.0049517601335790857 0 -0.023527746485821219 0.0049131369658025155 0 -0.023818092158774156 0.0050293428154665589 0 -0.024078344647488259 0.0039636835916032368 0 -0.023795774626562381 0.004687232350933393 0 -0.024073491667384459 0.0047749044046444845 0 -0.023874362925949206 0.0043160919428325561 0 -0.023638068693738801 0.0050801806645497426 0 -0.023783947707561801 0.0049593385111494541 0 -0.023649644534495549 0.0049517601335790857 0 -0.023783947707561801 0.0049593385111494541 0 -0.023649644534495549 0.0049517601335790857 0 -0.023670734275656326 0.0048421047391402332 0 -0.023649644534495549 0.0049517601335790857 0 -0.023670734275656326 0.0048421047391402332 0 -0.023527746485821219 0.0049131369658025155 0 -0.02474249924971348 0.0024888959352345461 0 -0.024459380628602079 0.0025686970517272336 0 -0.024425204668431767 0.0027559401481568736 0 -0.024195181247657932 0.003654124703739119 0 -0.024078344647488259 0.0039636835916032368 0 -0.024236736312626225 0.002653420353499648 0 -0.024459380628602079 0.0025686970517272336 0 -0.024425204668431767 0.0027559401481568736 0 -0.02474249924971348 0.0024888959352345461 0 -0.024459380628602079 0.0025686970517272336 0 -0.024475933386144188 0.0023064500591850638 0 -0.024236736312626225 0.002653420353499648 0 -0.024459380628602079 0.0025686970517272336 0 -0.024475933386144188 0.0023064500591850638 0 -0.02474249924971348 0.0024888959352345461 0 -0.024475933386144188 0.0023064500591850638 0 -0.02464801336927985 0.0021359012051044464 0 -0.02474249924971348 0.0024888959352345461 0 -0.02464801336927985 0.0021359012051044464 0 -0.024864406393433586 0.0020301374705122108 0 -0.024697930726015744 0.0018598233701025619 0 -0.02464801336927985 0.0021359012051044464 0 -0.024864406393433586 0.0020301374705122108 0 -0.024697930726015744 0.0018598233701025619 0 -0.02464801336927985 0.0021359012051044464 0 -0.024450120358985798 0.0019816097967808055 0 -0.024475933386144188 0.0023064500591850638 0 -0.02464801336927985 0.0021359012051044464 0 -0.024450120358985798 0.0019816097967808055 0 -0.024491837675918008 0.0021932984372360145 0 -0.02453027580915694 0.0019713557602395655 0 -0.024298440159772488 0.0019662240104366289 0 -0.024475933386144188 0.0023064500591850638 0 -0.024631645717149424 0.0016942571456755287 0 -0.024356342979762944 0.0011828689089535881 0 -0.024298440159772488 0.0019662240104366289 0 -0.024631645717149424 0.0016942571456755287 0 -0.024370551171044613 0.0035170939571634867 0 -0.024842244931356453 0.0032677503653031231 0 -0.023811804280818617 0.0047592264394477005 0 -0.023971488292422006 0.0046552147549945213 0 -0.023935390394168296 0.0048695727799463878 0 -0.02474249924971348 0.0024888959352345461 0 -0.025016104121427435 0.0022324298884044899 0 -0.024864406393433586 0.0020301374705122108 0 -0.024195181247657932 0.003654124703739119 0 -0.024370551171044613 0.0035170939571634867 0 -0.025016104121427435 0.0022324298884044899 0 -0.024864406393433586 0.0020301374705122108 0 -0.025008422139857 0.0018202877763836812 0 -0.024697930726015744 0.0018598233701025619 0 -0.024864406393433586 0.0020301374705122108 0 -0.025008422139857 0.0018202877763836812 0 -0.025243278294192956 0.0016636787301949226 0 -0.025008422139857 0.0018202877763836812 0 -0.025292640983930428 0.0020155782035848144 0 -0.025016104121427435 0.0022324298884044899 0 -0.025008422139857 0.0018202877763836812 0 -0.025292640983930428 0.0020155782035848144 0 -0.024842244931356453 0.0032677503653031231 0 -0.023814348421273161 0.0033395026883077934 0 -0.023814348421273161 0.0033395026883077934 0 -0.023897947994974706 0.0054179249258284792 0 -0.023651653633619939 0.0054501695137730956 0 -0.023686340978679055 0.0054371576421750794 0 -0.023683300441581696 0.0054091266923922384 0 -0.023971488292422006 0.0046552147549945213 0 -0.024161937879024445 0.0045440945877092591 0 -0.024111052902536415 0.0047769377719645767 0 -0.023686340978679055 0.0054371576421750794 0 -0.023737669611610394 0.0053843281745880201 0 -0.023683300441581696 0.0054091266923922384 0 -0.025492913962119595 0.0016111186711179064 0 -0.025292640983930428 0.0020155782035848144 0 -0.025630350317520281 0.0018159460595955457 0 -0.020401283946630225 0.0052345413916193269 0 -0.023814348421273161 0.0033395026883077934 0 -0.023737669611610394 0.0053843281745880201 0 -0.023683300441581696 0.0054091266923922384 0 -0.023693002337743376 0.0053506415884561377 0 -0.023971488292422006 0.0046552147549945213 0 -0.024111052902536415 0.0047769377719645767 0 -0.023935390394168296 0.0048695727799463878 0 -0.024111052902536415 0.0047769377719645767 0 -0.023935390394168296 0.0048695727799463878 0 -0.024045989809071092 0.0049832813537660321 0 -0.023737669611610394 0.0053843281745880201 0 -0.023821154566416168 0.0053026960983351612 0 -0.023693002337743376 0.0053506415884561377 0 -0.023897947994974706 0.0054179249258284792 0 -0.023944572401338727 0.0050612484469140387 0 -0.023821154566416168 0.0053026960983351612 0 -0.02368999579823991 0.0052479953735158798 0 -0.023693002337743376 0.0053506415884561377 0 -0.023805016743222815 0.005193979291510155 0 -0.023821154566416168 0.0053026960983351612 0 -0.02368999579823991 0.0052479953735158798 0 -0.023928293778125283 0.0051940325629561274 0 -0.023944572401338727 0.0050612484469140387 0 -0.023911119640850319 0.005035366484308669 0 -0.023935390394168296 0.0048695727799463878 0 -0.024045989809071092 0.0049832813537660321 0 -0.023932324599498414 0.0051744116490248671 0 -0.023911119640850319 0.005035366484308669 0 -0.024045989809071092 0.0049832813537660321 0 -0.013570256979867705 0.00016828491680297451 0 -0.01453489994096345 0.002591614692636151 0 -0.012677338547471063 0.0023327585734990402 0 -0.023505324152153426 0.005188158262356986 0 -0.02368999579823991 0.0052479953735158798 0 -0.023582292360053062 0.0053122582213098674 0 -0.018382680351539369 0.0046614875721328435 0 -0.018993290986050439 0.0035093392505737802 0 -0.02368999579823991 0.0052479953735158798 0 -0.023693002337743376 0.0053506415884561377 0 -0.023582292360053062 0.0053122582213098674 0 -0.023693002337743376 0.0053506415884561377 0 -0.023582292360053062 0.0053122582213098674 0 -0.023632941550340653 0.0053965054384106596 0 -0.018993290986050439 0.0035093392505737802 0 -0.019601440304855004 0.0055214868258035774 0 -0.01453489994096345 0.002591614692636151 0 -0.013582884746665802 0.0041524512706757194 0 -0.015515276550781273 0.0050210494928970431 0 -0.01453489994096345 0.002591614692636151 0 -0.013582884746665802 0.0041524512706757194 0 -0.012677338547471063 0.0023327585734990402 0 -0.013582884746665802 0.0041524512706757194 0 -0.013953631028165166 0.0056132040029644144 0 -0.015515276550781273 0.0050210494928970431 0 -0.023683300441581696 0.0054091266923922384 0 -0.023693002337743376 0.0053506415884561377 0 -0.023632941550340653 0.0053965054384106596 0 -0.023651653633619939 0.0054501695137730956 0 -0.023683300441581696 0.0054091266923922384 0 -0.023632941550340653 0.0053965054384106596 0 -0.020401283946630225 0.0052345413916193269 0 -0.019601440304855004 0.0055214868258035774 0 -0.0165106203326882 0.0074423046862057522 0 -0.015515276550781273 0.0050210494928970431 0 -0.014819911808973569 0.0066712913456183345 0 -0.013953631028165166 0.0056132040029644144 0 -0.015515276550781273 0.0050210494928970431 0 -0.014819911808973569 0.0066712913456183345 0 -0.013953631028165166 0.0056132040029644144 0 -0.014819911808973569 0.0066712913456183345 0 -0.013473998380733276 0.0070097271486419888 0 -0.012246311356588655 0.0071635577505683133 0 -0.011093415778139373 0.0062023666300276628 0 -0.012491530879226513 0.0054922113989403325 0 -0.012246311356588655 0.0071635577505683133 0 -0.013473998380733276 0.0070097271486419888 0 -0.012491530879226513 0.0054922113989403325 0 -0.013953631028165166 0.0056132040029644144 0 -0.013473998380733276 0.0070097271486419888 0 -0.012491530879226513 0.0054922113989403325 0 -0.011352108102682454 0.0079050042164097011 0 -0.012246311356588655 0.0071635577505683133 0 -0.011093415778139373 0.0062023666300276628 0 -0.011352108102682454 0.0079050042164097011 0 -0.011093415778139373 0.0062023666300276628 0 -0.0098948556431131922 0.0066133938750010685 0 -0.0097604634634080242 0.0042098941066350259 0 -0.0081144260940325917 0.0045134161030842331 0 -0.011093415778139373 0.0062023666300276628 0 -0.0098014598015929155 0.0066913039038534487 0 -0.0097842836558868704 0.0050596682963709406 0 -0.010794892004952107 0.0056263211427630012 0 -0.0081144260940325917 0.0045134161030842331 0 -0.011093415778139373 0.0062023666300276628 0 -0.011200187139130102 0.0049684395636516981 0 -0.012491530879226513 0.0054922113989403325 0 -0.011093415778139373 0.0062023666300276628 0 -0.011200187139130102 0.0049684395636516981 0 -0.0097842836558868704 0.0050596682963709406 0 -0.011200187139130102 0.0049684395636516981 0 -0.010407743472960989 0.0042009814406902199 0 -0.0097842836558868704 0.0050596682963709406 0 -0.011200187139130102 0.0049684395636516981 0 -0.010407743472960989 0.0042009814406902199 0 -0.01193349977351461 0.0039528732340027095 0 -0.013582884746665802 0.0041524512706757194 0 -0.012491530879226513 0.0054922113989403325 0 -0.01193349977351461 0.0039528732340027095 0 -0.011200187139130102 0.0049684395636516981 0 -0.012491530879226513 0.0054922113989403325 0 -0.01193349977351461 0.0039528732340027095 0 -0.013582884746665802 0.0041524512706757194 0 -0.013953631028165166 0.0056132040029644144 0 -0.012491530879226513 0.0054922113989403325 0 -0.0020823721732909539 0.0057710726587244859 0 -0.0036095192328548078 0.0020454841003232768 0 0.00022044509264397983 0.003817763328971662 0 -0.0020823721732909539 0.0057710726587244859 0 -0.0061592752092101645 0.0043275943764190207 0 -0.0036095192328548078 0.0020454841003232768 0 -0.0024721286770790787 0.00056370074584619198 0 -0.0081144260940325917 0.0045134161030842331 0 -0.0081144260940325917 0.0045134161030842331 0 -0.0062652707471853976 0.0038996896338943329 0 -0.0098014598015929155 0.0066913039038534487 0 -0.0097842836558868704 0.0050596682963709406 0 -0.0082404958376452713 0.0053559751986881872 0 -0.010407743472960989 0.0042009814406902199 0 -0.0097842836558868704 0.0050596682963709406 0 -0.0093768811191976553 0.0037534419007062493 0 -0.0097842836558868704 0.0050596682963709406 0 -0.0083100437508579275 0.004221620564091747 0 -0.0093768811191976553 0.0037534419007062493 0 -0.0097842836558868704 0.0050596682963709406 0 -0.0082404958376452713 0.0053559751986881872 0 -0.0083100437508579275 0.004221620564091747 0 -0.0036095192328548078 0.0020454841003232768 0 -0.0010562951895949067 -0.00023395999401097976 0 0.00022044509264397983 0.003817763328971662 0 -0.0082404958376452713 0.0053559751986881872 0 -0.0083100437508579275 0.004221620564091747 0 -0.0066208250980561772 0.0039694691695725389 0 -0.0062652707471853976 0.0038996896338943329 0 0.00015751838080075103 0.0038403153772443421 0 -0.0010629433609356319 0.0076500094580853606 0 -0.0018464343862217144 0.0079573843864389395 0 -0.0012595664633575797 0.0069301400623558223 0 -0.0010629433609356319 0.0076500094580853606 0 -0.00094393382394473274 0.0083665508528779752 0 -0.0018464343862217144 0.0079573843864389395 0 0.00015751838080075103 0.0038403153772443421 0 -0.0050715663729006986 0.0053664894824103394 0 -0.0083100437508579275 0.004221620564091747 0 -0.0066208250980561772 0.0039694691695725389 0 -0.0081849974999472028 0.0030822394203937728 0 -0.0081849974999472028 0.0030822394203937728 0 -0.0093768811191976553 0.0037534419007062493 0 -0.0096910715665876525 0.0022239802004856671 0 -0.0050715663729006986 0.0053664894824103394 0 -0.0080592818257583902 0.0050443723188488034 0 -0.0083100437508579275 0.004221620564091747 0 -0.0081849974999472028 0.0030822394203937728 0 -0.0093768811191976553 0.0037534419007062493 0 -0.0094726830662315263 0.0026981591742189885 0 -0.0080592818257583902 0.0050443723188488034 0 -0.0093768811191976553 0.0037534419007062493 0 -0.0097508672207465927 0.0022939380011254757 0 -0.010804760019506547 0.0031350275279762555 0 -0.0018464343862217144 0.0079573843864389395 0 -0.0028659066812069412 0.0074547595079968547 0 -0.0022825234703191567 0.0069154020230524542 0 -0.0028659066812069412 0.0074547595079968547 0 -0.0022825234703191567 0.0069154020230524542 0 -0.0031974659504598536 0.0062420587469703337 0 -0.0080592818257583902 0.0050443723188488034 0 -0.006607246885045456 0.0060304603121610423 0 -0.0018464343862217144 0.0079573843864389395 0 -0.0022825234703191567 0.0069154020230524542 0 -0.0012595664633575797 0.0069301400623558223 0 -0.0022825234703191567 0.0069154020230524542 0 -0.0012595664633575797 0.0069301400623558223 0 -0.0022847052193227229 0.005856113777651821 0 -0.0014601265792097528 0.0067364052106069624 0 -0.0016807234958076953 0.0063110486263502517 0 -0.013582884746665802 0.0041524512706757194 0 -0.01193349977351461 0.0039528732340027095 0 -0.012677338547471063 0.0023327585734990402 0 -0.01193349977351461 0.0039528732340027095 0 -0.010804760019506547 0.0031350275279762555 0 -0.012677338547471063 0.0023327585734990402 0 -0.010407743472960989 0.0042009814406902199 0 -0.01193349977351461 0.0039528732340027095 0 -0.010804760019506547 0.0031350275279762555 0 -0.010407743472960989 0.0042009814406902199 0 -0.0093768811191976553 0.0037534419007062493 0 -0.010804760019506547 0.0031350275279762555 0 -0.0098686407913394104 0.006246822484233504 0 -0.010581049873968743 0.0058433193291371295 0 -0.010074626291935533 0.0053888140033965118 0 -0.010581049873968743 0.0058433193291371295 0 -0.011284974045621189 0.0054298629511321528 0 -0.010074626291935533 0.0053888140033965118 0 -0.010804760019506547 0.0031350275279762555 0 -0.011203561724607144 0.0014827121808537274 0 -0.012677338547471063 0.0023327585734990402 0 -0.0097508672207465927 0.0022939380011254757 0 -0.010804760019506547 0.0031350275279762555 0 -0.011203561724607144 0.0014827121808537274 0 -0.0080592818257583902 0.0050443723188488034 0 -0.011071102113782304 0.0036593156977661732 0 -0.011071102113782304 0.0036593156977661732 0 -0.013939028225520799 0.0047710909806218619 0 -0.013570256979867705 0.00016828491680297451 0 -0.012677338547471063 0.0023327585734990402 0 -0.012639299612623481 0.00067899246503074677 0 -0.011203561724607144 0.0014827121808537274 0 -0.012677338547471063 0.0023327585734990402 0 -0.012639299612623481 0.00067899246503074677 0 -0.018382680351539369 0.0046614875721328435 0 -0.018121189371449589 0.006738435661116004 0 -0.018382680351539369 0.0046614875721328435 0 -0.013939028225520799 0.0047710909806218619 0 -0.015427338482923863 0.0061642787993456327 0 -0.015444587115386033 0.0059905414347468681 0 -0.015290657371884713 0.0058835203180821567 0 -0.015580462627143805 0.0060803222559568043 0 -0.015427338482923863 0.0061642787993456327 0 -0.015444587115386033 0.0059905414347468681 0 -0.015580462627143805 0.0060803222559568043 0 -0.015444587115386033 0.0059905414347468681 0 -0.01547758685929191 0.0058331783360825 0 -0.01547758685929191 0.0058331783360825 0 -0.015290657371884713 0.0058835203180821567 0 -0.015385180752567661 0.005573601846728748 0 -0.018121189371449589 0.006738435661116004 0 -0.01883247395489614 0.006097782771608655 0 -0.015444587115386033 0.0059905414347468681 0 -0.01547758685929191 0.0058331783360825 0 -0.015290657371884713 0.0058835203180821567 0 -0.015290657371884713 0.0058835203180821567 0 -0.015115212450217226 0.0058072714231075977 0 -0.015385180752567661 0.005573601846728748 0 -0.009429685286656166 0.010381538284852408 0 -0.009157129400219342 0.010650815576002759 0 -0.0090305719214108463 0.0093085267651138223 0 -0.012581851365760142 0.0073698993535840406 0 -0.01883247395489614 0.006097782771608655 0 -0.015290657371884713 0.0058835203180821567 0 -0.015115212450217226 0.0058072714231075977 0 -0.015092121046070628 0.0058891635635051568 0 -0.012581851365760142 0.0073698993535840406 0 -0.010220981725860393 0.0062727376424716883 0 -0.011117593183102285 0.0076951476345152444 0 -0.01187195421369331 0.0069293965820602186 0 -0.011380182277529703 0.0064757662886590541 0 -0.012581851365760142 0.0073698993535840406 0 -0.0077893936915311253 0.0067783322580245928 0 -0.0077893936915311253 0.0067783322580245928 0 -0.010220981725860393 0.0062727376424716883 0 -0.013939028225520799 0.0047710909806218619 0 -0.010220981725860393 0.0062727376424716883 0 -0.011284974045621189 0.0054298629511321528 0 -0.010271636295403792 0.0045318103628069172 0 -0.010074626291935533 0.0053888140033965118 0 -0.010220981725860393 0.0062727376424716883 0 -0.006607246885045456 0.0060304603121610423 0 -0.015427338482923863 0.0061642787993456327 0 -0.015290657371884713 0.0058835203180821567 0 -0.015092121046070628 0.0058891635635051568 0 -0.0035324920925493466 0.0049592133690145356 0 -0.0031974659504598536 0.0062420587469703337 0 -0.0022847052193227229 0.005856113777651821 0 -0.0022825234703191567 0.0069154020230524542 0 -0.0031974659504598536 0.0062420587469703337 0 -0.0022847052193227229 0.005856113777651821 0 -0.0077893936915311253 0.0067783322580245928 0 -0.0016807234958076953 0.0063110486263502517 0 -0.0033777739070989048 0.0048161217282557808 0 -0.0035324920925493466 0.0049592133690145356 0 -0.0022847052193227229 0.005856113777651821 0 -0.0012595664633575797 0.0069301400623558223 0 -0.0019015509712551058 0.0063049395126411906 0 -0.0011111917641520592 0.0062084127741202939 0 -0.0019015509712551058 0.0063049395126411906 0 -0.0011111917641520592 0.0062084127741202939 0 -0.0015025805826815307 0.00562452751372048 0 -0.0011111917641520592 0.0062084127741202939 0 -0.0015025805826815307 0.00562452751372048 0 -0.00059039035103482327 0.0056657976135865255 0 -0.0015025805826815307 0.00562452751372048 0 -0.0018040612265524363 0.0049081384589337819 0 -0.00095817486874788711 0.0049916164038979263 0 -0.0015025805826815307 0.00562452751372048 0 -0.00095817486874788711 0.0049916164038979263 0 -0.00059039035103482327 0.0056657976135865255 0 -0.0026254687958522176 0.0056365673890012569 0 -0.0015025805826815307 0.00562452751372048 0 -0.0018040612265524363 0.0049081384589337819 0 -0.0026254687958522176 0.0056365673890012569 0 -0.0019015509712551058 0.0063049395126411906 0 -0.0015025805826815307 0.00562452751372048 0 -0.009157129400219342 0.010650815576002759 0 -0.0077460663206372453 0.0094364197308602522 0 -0.0090305719214108463 0.0093085267651138223 0 -0.0077893936915311253 0.0067783322580245928 0 -0.0045995196104150204 0.0072249776951817963 0 -0.0077460663206372453 0.0094364197308602522 0 -0.008864845244999045 0.007873408364615397 0 -0.0090305719214108463 0.0093085267651138223 0 -0.0018040612265524363 0.0049081384589337819 0 -0.00095817486874788711 0.0049916164038979263 0 -0.00097417092198266481 0.0041929716135692919 0 -0.0045995196104150204 0.0072249776951817963 0 -0.0037684676828395663 0.0060016741787764392 0 -0.0077460663206372453 0.0094364197308602522 0 -0.0074231113297134818 0.0072904007712909233 0 -0.0062621033632127504 0.0081685066693224177 0 -0.0074231113297134818 0.0072904007712909233 0 -0.0062621033632127504 0.0081685066693224177 0 -0.0056345558752968622 0.0059882676007872023 0 -0.0074231113297134818 0.0072904007712909233 0 -0.008864845244999045 0.007873408364615397 0 -0.0083598163187710919 0.0059308199096204757 0 -0.0077460663206372453 0.0094364197308602522 0 -0.0074231113297134818 0.0072904007712909233 0 -0.008864845244999045 0.007873408364615397 0 -0.0099487766394737425 0.008187913825447141 0 -0.0094590129979708112 0.0069458989525723767 0 -0.010464297703746156 0.0060880661097128079 0 -0.019324989856783052 0.0061983383401375573 0 -0.020069947216642778 0.0055239774681774909 0 -0.019796108312231102 0.0047306109109779932 0 -0.014504397463295279 0.0069335083678817846 0 -0.018002939520637348 0.0087618887864187537 0 -0.008864845244999045 0.007873408364615397 0 -0.0099487766394737425 0.008187913825447141 0 -0.0094590129979708112 0.0069458989525723767 0 -0.019324989856783052 0.0061983383401375573 0 -0.020069947216642778 0.0055239774681774909 0 -0.019700981593749868 0.0063889140659420191 0 -0.02086292242305738 0.0059203588277537663 0 -0.020069947216642778 0.0055239774681774909 0 -0.019700981593749868 0.0063889140659420191 0 -0.021049759520295423 0.0065957972142187743 0 -0.02086292242305738 0.0059203588277537663 0 -0.020287902842854245 0.0064959821213771158 0 -0.02086292242305738 0.0059203588277537663 0 -0.019915687622915915 0.0069345284663992895 0 -0.019700981593749868 0.0063889140659420191 0 -0.021049759520295423 0.0065957972142187743 0 -0.020545187723078985 0.0071530782092901661 0 -0.020287902842854245 0.0064959821213771158 0 -0.01883247395489614 0.006097782771608655 0 -0.019474237308491689 0.0067234675223771297 0 -0.021027684388227653 0.0059706167757954216 0 -0.01883247395489614 0.006097782771608655 0 -0.012581851365760142 0.0073698993535840406 0 -0.014504397463295279 0.0069335083678817846 0 -0.008864845244999045 0.007873408364615397 0 -0.0099487766394737425 0.008187913825447141 0 -0.0090305719214108463 0.0093085267651138223 0 -0.009429685286656166 0.010381538284852408 0 -0.0099487766394737425 0.008187913825447141 0 -0.0090305719214108463 0.0093085267651138223 0 -0.018744346790112509 0.0081242673428893308 0 -0.019324989856783052 0.0061983383401375573 0 -0.019924637031503975 0.007028908358945412 0 -0.019324989856783052 0.0061983383401375573 0 -0.019924637031503975 0.007028908358945412 0 -0.019700981593749868 0.0063889140659420191 0 0.0046192247680643941 0.0097068884991812175 0 0.0043370882160583954 0.0096023233091998457 0 0.0043443023261410399 0.0099789896609145615 0 0.0043370882160583954 0.0096023233091998457 0 0.0043443023261410399 0.0099789896609145615 0 0.0041481632007348062 0.0097298789389906638 0 0.0046192247680643941 0.0097068884991812175 0 0.0043370882160583954 0.0096023233091998457 0 0.0043200879096310461 0.0092215287248882897 0 0.0043443023261410399 0.0099789896609145615 0 0.0039714253858737451 0.010050476046112696 0 0.0041419063624760152 0.010295856434497014 0 0.0043443023261410399 0.0099789896609145615 0 0.0041481632007348062 0.0097298789389906638 0 0.0039714253858737451 0.010050476046112696 0 0.0046192247680643941 0.0097068884991812175 0 0.0043443023261410399 0.0099789896609145615 0 0.0045974633805573881 0.010051789082691099 0 0.0043443023261410399 0.0099789896609145615 0 0.0045974633805573881 0.010051789082691099 0 0.0044546383293435753 0.010249900029709455 0 0.0028773764458626555 0.0070677689787453047 0 -0.00012793073202491299 0.0079165343271741743 0 0.0009434511423156857 0.0045595052368296238 0 -0.00020381899641365371 0.0047497785796566947 0 -0.00015994017327391682 0.0034895501788336112 0 0.0046192247680643941 0.0097068884991812175 0 0.0045974633805573881 0.010051789082691099 0 0.0048301348907613586 0.010084475297704587 0 -0.00097417092198266481 0.0041929716135692919 0 -0.00020381899641365371 0.0047497785796566947 0 -0.00015994017327391682 0.0034895501788336112 0 -0.0062621033632127504 0.0081685066693224177 0 -0.0047682320009005477 0.0068650562272962899 0 -0.0056345558752968622 0.0059882676007872023 0 -0.0037684676828395663 0.0060016741787764392 0 -0.00012793073202491299 0.0079165343271741743 0 -0.00095817486874788711 0.0049916164038979263 0 -0.00097417092198266481 0.0041929716135692919 0 -0.00020381899641365371 0.0047497785796566947 0 0.0009434511423156857 0.0045595052368296238 0 -0.00020381899641365371 0.0047497785796566947 0 0.00050801544980560824 0.0056060568640305649 0 -0.00095817486874788711 0.0049916164038979263 0 -0.00020381899641365371 0.0047497785796566947 0 -0.00059039035103482327 0.0056657976135865255 0 -0.00020381899641365371 0.0047497785796566947 0 0.00050801544980560824 0.0056060568640305649 0 -0.00059039035103482327 0.0056657976135865255 0 0.00050801544980560824 0.0056060568640305649 0 -0.00059039035103482327 0.0056657976135865255 0 -0.00021392825887249137 0.0064125133010239799 0 -0.0011111917641520592 0.0062084127741202939 0 -0.00059039035103482327 0.0056657976135865255 0 -0.00021392825887249137 0.0064125133010239799 0 -0.0012595664633575797 0.0069301400623558223 0 -0.0011111917641520592 0.0062084127741202939 0 -0.00021392825887249137 0.0064125133010239799 0 0.00050801544980560824 0.0056060568640305649 0 -0.00021392825887249137 0.0064125133010239799 0 0.001084220988965463 0.0065003255491175912 0 0.0047525958994895619 0.0051145114581371545 0 0.0050022082438421741 0.0067826505940264178 0 0.00050801544980560824 0.0056060568640305649 0 0.001084220988965463 0.0065003255491175912 0 0.0020624450996495668 0.0056555974142985686 0 0.0009434511423156857 0.0045595052368296238 0 0.00050801544980560824 0.0056060568640305649 0 0.0020624450996495668 0.0056555974142985686 0 0.0028773764458626555 0.0070677689787453047 0 0.0050022082438421741 0.0067826505940264178 0 0.0043370882160583954 0.0096023233091998457 0 0.0043200879096310461 0.0092215287248882897 0 0.0040657690894460039 0.0093569509143381982 0 0.0074467901722818875 0.005962307667695713 0 0.0074540585166954897 0.0046601592105964809 0 0.0054667983023492352 0.0051293752262335781 0 0.0086282853131796535 0.0038777129595540527 0 0.0074467901722818875 0.005962307667695713 0 0.0074540585166954897 0.0046601592105964809 0 0.0050022082438421741 0.0067826505940264178 0 0.005966104840777941 0.0055420097038355199 0 0.0086282853131796535 0.0038777129595540527 0 0.0074540585166954897 0.0046601592105964809 0 0.0074885950067571901 0.0034308106596049729 0 0.0074540585166954897 0.0046601592105964809 0 0.0074885950067571901 0.0034308106596049729 0 0.0054667983023492352 0.0051293752262335781 0 0.0086282853131796535 0.0038777129595540527 0 0.0074885950067571901 0.0034308106596049729 0 0.0081432689918740607 0.0032620130336449408 0 0.0074885950067571901 0.0034308106596049729 0 0.0078490733611529615 0.0031304363618567411 0 0.0078987315283763158 0.00308803004953009 0 0.0078490733611529615 0.0031304363618567411 0 0.0081432689918740607 0.0032620130336449408 0 0.008021977669052674 0.0029894404894470297 0 0.0074885950067571901 0.0034308106596049729 0 0.0078490733611529615 0.0031304363618567411 0 0.0081432689918740607 0.0032620130336449408 0 0.0086282853131796535 0.0038777129595540527 0 0.0081432689918740607 0.0032620130336449408 0 0.0087721744397411365 0.0031882659112914729 0 0.0081432689918740607 0.0032620130336449408 0 0.0082540172422030326 0.0029899570327217039 0 0.0087721744397411365 0.0031882659112914729 0 0.0082540172422030326 0.0029899570327217039 0 0.0081566870249122052 0.0027915577467681882 0 0.0085557139798354623 0.0026751503106541242 0 0.0082283691552502182 0.0030138624089816497 0 0.0086359320275299651 0.0025671772826119711 0 0.0082540172422030326 0.0029899570327217039 0 0.0081566870249122052 0.0027915577467681882 0 0.008021977669052674 0.0029894404894470297 0 0.0081566870249122052 0.0027915577467681882 0 0.008021977669052674 0.0029894404894470297 0 0.0080574289812786262 0.0025303755237163928 0 0.008021977669052674 0.0029894404894470297 0 0.0080013759020460262 0.0029806564179752876 0 0.0081957307428314162 0.0027560947727239995 0 0.0078490733611529615 0.0031304363618567411 0 0.008021977669052674 0.0029894404894470297 0 0.0080013759020460262 0.0029806564179752876 0 0.0081432689918740607 0.0032620130336449408 0 0.0082540172422030326 0.0029899570327217039 0 0.008021977669052674 0.0029894404894470297 0 -0.0012595664633575797 0.0069301400623558223 0 -0.00021392825887249137 0.0064125133010239799 0 0.00012416618043941714 0.0073609442022323779 0 -0.0010629433609356319 0.0076500094580853606 0 -0.0012595664633575797 0.0069301400623558223 0 0.00012416618043941714 0.0073609442022323779 0 -0.00021392825887249137 0.0064125133010239799 0 0.001084220988965463 0.0065003255491175912 0 0.00012416618043941714 0.0073609442022323779 0 0.0047525958994895619 0.0051145114581371545 0 0.0049623673188044998 0.0054016870826661071 0 0.0082540172422030326 0.0029899570327217039 0 0.0087721744397411365 0.0031882659112914729 0 0.0084974873847349797 0.0028867694770091813 0 0.0087721744397411365 0.0031882659112914729 0 0.0086863081499504273 0.0029767418950513726 0 0.0084974873847349797 0.0028867694770091813 0 -0.0010629433609356319 0.0076500094580853606 0 -0.00094393382394473274 0.0083665508528779752 0 0.00012416618043941714 0.0073609442022323779 0 0.00015751838080075103 0.0038403153772443421 0 0.0049623673188044998 0.0054016870826661071 0 0.0087321146040239099 0.0029739694990764134 0 0.0087721744397411365 0.0031882659112914729 0 0.0086863081499504273 0.0029767418950513726 0 0.0087321146040239099 0.0029739694990764134 0 0.0086863081499504273 0.0029767418950513726 0 0.0086466125791860495 0.0028450877592952964 0 0.00015751838080075103 0.0038403153772443421 0 0.0057564667906398574 0.0015046047862361817 0 -0.0010562951895949067 -0.00023395999401097976 0 0.0025279572296916376 0.0018607422024670469 0 0.00022044509264397983 0.003817763328971662 0 0.0088407153147502856 0.0023952718027364854 0 0.0085557139798354623 0.0026751503106541242 0 0.0083680449585582829 0.0020963776334784624 0 0.0086863081499504273 0.0029767418950513726 0 0.0086466125791860495 0.0028450877592952964 0 0.0084974873847349797 0.0028867694770091813 0 0.0057564667906398574 0.0015046047862361817 0 0.0086359320275299651 0.0025671772826119711 0 0.0027552459158188157 -0.00050290915972362989 0 0.0022608929053985196 -0.0011891480553257612 0 0.0036320474709303657 -0.0013801960219961603 0 0.0057564667906398574 0.0015046047862361817 0 0.0059161153942729784 0.00021729580303383778 0 0.0022405387567986522 -0.0021577225088620757 0 0.0022608929053985196 -0.0011891480553257612 0 0.0036320474709303657 -0.0013801960219961603 0 0.0017951432317409024 -5.7953863817734226e-05 0 0.0022608929053985196 -0.0011891480553257612 0 0.0012822873739669251 -0.0013682922039386415 0 0.0057564667906398574 0.0015046047862361817 0 0.00056699774956991543 0.0014036983795018391 0 0.0022405387567986522 -0.0021577225088620757 0 0.0022608929053985196 -0.0011891480553257612 0 0.0012822873739669251 -0.0013682922039386415 0 -0.0024721286770790787 0.00056370074584619198 0 0.00056699774956991543 0.0014036983795018391 0 0.008021977669052674 0.0029894404894470297 0 0.0085395462989287154 0.0024095102973424741 0 0.0081957307428314162 0.0027560947727239995 0 0.008021977669052674 0.0029894404894470297 0 0.0080574289812786262 0.0025303755237163928 0 0.0076438966615760551 0.0022459299137756951 0 0.0080237819223425971 0.0028840029818711969 0 0.008129281254905963 0.0023769278563862497 0 0.0080574289812786262 0.0025303755237163928 0 0.0079854715200162272 0.0021612043925786271 0 0.0076438966615760551 0.0022459299137756951 0 0.0081566870249122052 0.0027915577467681882 0 0.0085557139798354623 0.0026751503106541242 0 0.0080574289812786262 0.0025303755237163928 0 0.0085557139798354623 0.0026751503106541242 0 0.0080574289812786262 0.0025303755237163928 0 0.0083680449585582829 0.0020963776334784624 0 0.0080574289812786262 0.0025303755237163928 0 0.0083680449585582829 0.0020963776334784624 0 0.0079854715200162272 0.0021612043925786271 0 0.0051980922689337048 -0.00053344132769479529 0 0.0038515891524325769 -0.00045825107420508404 0 0.0036320474709303657 -0.0013801960219961603 0 0.0038515891524325769 -0.00045825107420508404 0 0.0027552459158188157 -0.00050290915972362989 0 0.0036320474709303657 -0.0013801960219961603 0 0.0064133699278531289 0.0005701187298769217 0 0.0059161153942729784 0.00021729580303383778 0 0.0078615151162589585 0.0017707401956634972 0 0.0079854715200162272 0.0021612043925786271 0 0.0076438966615760551 0.0022459299137756951 0 0.0078615151162589585 0.0017707401956634972 0 0.0083680449585582829 0.0020963776334784624 0 0.0079854715200162272 0.0021612043925786271 0 0.0078176011121226015 0.001242992514463883 0 0.008129281254905963 0.0023769278563862497 0 0.0085395462989287154 0.0024095102973424741 0 0.0082858137303096022 0.0024978439177734111 0 0.0085379423805361059 0.0021047315021453213 0 0.0088881092395745286 0.0016274605837931844 0 0.0085395462989287154 0.0024095102973424741 0 0.0085379423805361059 0.0021047315021453213 0 0.0085395462989287154 0.0024095102973424741 0 0.0082858137303096022 0.0024978439177734111 0 0.0081957307428314162 0.0027560947727239995 0 0.0082858137303096022 0.0024978439177734111 0 0.0081957307428314162 0.0027560947727239995 0 0.0080494249235838131 0.0028651175493688568 0 0.0082858137303096022 0.0024978439177734111 0 0.0080492779440735213 0.0025813304500234852 0 0.0080494249235838131 0.0028651175493688568 0 0.0082858137303096022 0.0024978439177734111 0 0.0082968213436600009 0.0021304774687812525 0 0.0080492779440735213 0.0025813304500234852 0 0.0086602205270464756 0.0017744443911036644 0 0.0085379423805361059 0.0021047315021453213 0 0.0082968213436600009 0.0021304774687812525 0 0.0082858137303096022 0.0024978439177734111 0 0.0085379423805361059 0.0021047315021453213 0 0.0082968213436600009 0.0021304774687812525 0 0.0082968213436600009 0.0021304774687812525 0 0.008027738785004011 0.0020385277712490321 0 0.0079801450474926081 0.00234850824262276 0 0.0082862496617269951 0.001763239923986377 0 0.0082968213436600009 0.0021304774687812525 0 0.008027738785004011 0.0020385277712490321 0 0.008027738785004011 0.0020385277712490321 0 0.0077889944197169795 0.0023149537827180534 0 0.0076599525435104886 0.0019561973685822205 0 0.0080284711902895989 0.0016958929870550701 0 0.008027738785004011 0.0020385277712490321 0 0.0076599525435104886 0.0019561973685822205 0 0.008027738785004011 0.0020385277712490321 0 0.0077889944197169795 0.0023149537827180534 0 0.0079801450474926081 0.00234850824262276 0 0.0079801450474926081 0.00234850824262276 0 0.0080492779440735213 0.0025813304500234852 0 0.007762129451329083 0.0026160749353913342 0 0.0077889944197169795 0.0023149537827180534 0 0.0079801450474926081 0.00234850824262276 0 0.007762129451329083 0.0026160749353913342 0 0.0082968213436600009 0.0021304774687812525 0 0.0079801450474926081 0.00234850824262276 0 0.0080492779440735213 0.0025813304500234852 0 0.0080492779440735213 0.0025813304500234852 0 0.0079486634987823608 0.0028479212047836807 0 0.0080494249235838131 0.0028651175493688568 0 0.0080492779440735213 0.0025813304500234852 0 0.0079486634987823608 0.0028479212047836807 0 0.007762129451329083 0.0026160749353913342 0 0.0079486634987823608 0.0028479212047836807 0 0.007762129451329083 0.0026160749353913342 0 0.0076478140849866585 0.0028989377800075003 0 0.0076478140849866585 0.0028989377800075003 0 0.0078124207825391867 0.0029812798443398115 0 0.0076661181828878416 0.0031099850336053381 0 0.0079486634987823608 0.0028479212047836807 0 0.0076478140849866585 0.0028989377800075003 0 0.0078124207825391867 0.0029812798443398115 0 0.0079486634987823608 0.0028479212047836807 0 0.0078124207825391867 0.0029812798443398115 0 0.0078931989690323272 0.0030544197179259423 0 0.0079595020463637516 0.0030816736375679863 0 0.0078987315283763158 0.00308803004953009 0 0.0080494249235838131 0.0028651175493688568 0 0.0079486634987823608 0.0028479212047836807 0 0.0079595020463637516 0.0030816736375679863 0 0.0078931989690323272 0.0030544197179259423 0 0.0074885950067571901 0.0034308106596049729 0 0.0079595020463637516 0.0030816736375679863 0 0.0078987315283763158 0.00308803004953009 0 0.0078987315283763158 0.00308803004953009 0 0.0080013759020460262 0.0029806564179752876 0 0.0081957307428314162 0.0027560947727239995 0 0.0078987315283763158 0.00308803004953009 0 0.0081957307428314162 0.0027560947727239995 0 0.0080494249235838131 0.0028651175493688568 0 0.0078490733611529615 0.0031304363618567411 0 0.0078987315283763158 0.00308803004953009 0 0.0080013759020460262 0.0029806564179752876 0 0.0079486634987823608 0.0028479212047836807 0 0.0079595020463637516 0.0030816736375679863 0 0.0080494249235838131 0.0028651175493688568 0 0.0065815617233505102 0.0022183380510064485 0 0.0068546520775429548 0.0022500006932584219 0 0.006817919462192696 0.0026719548382124815 0 0.0068546520775429548 0.0022500006932584219 0 0.0066473471330010855 0.001881282331684957 0 0.0069485937836420387 0.0018683335005725279 0 0.0065815617233505102 0.0022183380510064485 0 0.0068546520775429548 0.0022500006932584219 0 0.0066473471330010855 0.001881282331684957 0 0.0068546520775429548 0.0022500006932584219 0 0.0069485937836420387 0.0018683335005725279 0 0.0071656357201477167 0.0022397150897838771 0 0.0069485937836420387 0.0018683335005725279 0 0.0071656357201477167 0.0022397150897838771 0 0.0072310961841594336 0.0018571710189820812 0 0.0071656357201477167 0.0022397150897838771 0 0.0072710876504354875 0.0025368935254869514 0 0.0070471936290887891 0.0025597791245937059 0 0.0068546520775429548 0.0022500006932584219 0 0.0071656357201477167 0.0022397150897838771 0 0.0070471936290887891 0.0025597791245937059 0 0.0071656357201477167 0.0022397150897838771 0 0.0074118515116621897 0.0021050398385997538 0 0.0075013865024697096 0.0023718098688491605 0 0.0071656357201477167 0.0022397150897838771 0 0.0075013865024697096 0.0023718098688491605 0 0.0072710876504354875 0.0025368935254869514 0 0.0074118515116621897 0.0021050398385997538 0 0.0072310961841594336 0.0018571710189820812 0 0.0076599525435104886 0.0019561973685822205 0 0.0071656357201477167 0.0022397150897838771 0 0.0074118515116621897 0.0021050398385997538 0 0.0072310961841594336 0.0018571710189820812 0 0.0077889944197169795 0.0023149537827180534 0 0.0076599525435104886 0.0019561973685822205 0 0.0075013865024697096 0.0023718098688491605 0 0.0074118515116621897 0.0021050398385997538 0 0.0076599525435104886 0.0019561973685822205 0 0.0075013865024697096 0.0023718098688491605 0 0.0077889944197169795 0.0023149537827180534 0 0.007762129451329083 0.0026160749353913342 0 0.0075013865024697096 0.0023718098688491605 0 0.007762129451329083 0.0026160749353913342 0 0.0075013865024697096 0.0023718098688491605 0 0.0074525140814655387 0.0026987636605276988 0 0.007762129451329083 0.0026160749353913342 0 0.0076478140849866585 0.0028989377800075003 0 0.0074525140814655387 0.0026987636605276988 0 0.0076478140849866585 0.0028989377800075003 0 0.0074525140814655387 0.0026987636605276988 0 0.0073475369484452078 0.0029326326483220012 0 0.0076478140849866585 0.0028989377800075003 0 0.0073475369484452078 0.0029326326483220012 0 0.0074291377611413667 0.0031097246550962588 0 0.0074525140814655387 0.0026987636605276988 0 0.0073475369484452078 0.0029326326483220012 0 0.0071912264964064518 0.0027806546089412542 0 0.0073475369484452078 0.0029326326483220012 0 0.0071912264964064518 0.0027806546089412542 0 0.0070677721666092975 0.0030355325301755342 0 0.0074525140814655387 0.0026987636605276988 0 0.0071912264964064518 0.0027806546089412542 0 0.0072710876504354875 0.0025368935254869514 0 0.0075013865024697096 0.0023718098688491605 0 0.0074525140814655387 0.0026987636605276988 0 0.0072710876504354875 0.0025368935254869514 0 0.0071912264964064518 0.0027806546089412542 0 0.0072710876504354875 0.0025368935254869514 0 0.0070471936290887891 0.0025597791245937059 0 0.0071912264964064518 0.0027806546089412542 0 0.0070471936290887891 0.0025597791245937059 0 0.00700628985198367 0.0028217292381650374 0 0.0070677721666092975 0.0030355325301755342 0 0.00700628985198367 0.0028217292381650374 0 0.0068929287474145786 0.0030236345327916119 0 0.0071912264964064518 0.0027806546089412542 0 0.0070677721666092975 0.0030355325301755342 0 0.00700628985198367 0.0028217292381650374 0 0.0067459993296767589 0.0029826810771939245 0 0.0068929287474145786 0.0030236345327916119 0 0.006817919462192696 0.0026719548382124815 0 0.00700628985198367 0.0028217292381650374 0 0.0068929287474145786 0.0030236345327916119 0 0.006817919462192696 0.0026719548382124815 0 0.0067459993296767589 0.0029826810771939245 0 0.0067934363341091916 0.0031847260471206977 0 0.0068929287474145786 0.0030236345327916119 0 0.0068546520775429548 0.0022500006932584219 0 0.0070471936290887891 0.0025597791245937059 0 0.006817919462192696 0.0026719548382124815 0 0.0070471936290887891 0.0025597791245937059 0 0.00700628985198367 0.0028217292381650374 0 0.006817919462192696 0.0026719548382124815 0 0.0067883335725860703 0.0033367423709018693 0 0.006866077098105299 0.0033318966531716405 0 0.0068916267367111509 0.003236708326599769 0 0.0067883335725860703 0.0033367423709018693 0 0.006866077098105299 0.0033318966531716405 0 0.0068545469726499844 0.0033692199005803097 0 0.0068840154397027545 0.0033795717561701921 0 0.006866077098105299 0.0033318966531716405 0 0.0068545469726499844 0.0033692199005803097 0 0.0068840154397027545 0.0033795717561701921 0 0.006866077098105299 0.0033318966531716405 0 0.0069243932656677335 0.0033134644096568014 0 0.006866077098105299 0.0033318966531716405 0 0.0068916267367111509 0.003236708326599769 0 0.0069243932656677335 0.0033134644096568014 0 0.0070677721666092975 0.0030355325301755342 0 0.0068929287474145786 0.0030236345327916119 0 0.0068916267367111509 0.003236708326599769 0 0.0067934363341091916 0.0031847260471206977 0 0.0068929287474145786 0.0030236345327916119 0 0.0068916267367111509 0.003236708326599769 0 0.0070677721666092975 0.0030355325301755342 0 0.0070206132259237226 0.0032418196469207474 0 0.0072000045595134333 0.0031583754759544076 0 0.0070677721666092975 0.0030355325301755342 0 0.0068916267367111509 0.003236708326599769 0 0.0070206132259237226 0.0032418196469207474 0 0.0070206132259237226 0.0032418196469207474 0 0.0069795001214611411 0.0033502926582718714 0 0.0071110588517203036 0.0033145368227757602 0 0.0070206132259237226 0.0032418196469207474 0 0.0069243932656677335 0.0033134644096568014 0 0.0069795001214611411 0.0033502926582718714 0 0.0068916267367111509 0.003236708326599769 0 0.0070206132259237226 0.0032418196469207474 0 0.0069243932656677335 0.0033134644096568014 0 0.0068840154397027545 0.0033795717561701921 0 0.0069243932656677335 0.0033134644096568014 0 0.0069795001214611411 0.0033502926582718714 0 0.0068840154397027545 0.0033795717561701921 0 0.0069795001214611411 0.0033502926582718714 0 0.0069216046770320836 0.0034158420323847191 0 0.0069795001214611411 0.0033502926582718714 0 0.0070497546246540334 0.0034204823911073287 0 0.0069216046770320836 0.0034158420323847191 0 0.0069795001214611411 0.0033502926582718714 0 0.0071110588517203036 0.0033145368227757602 0 0.0070497546246540334 0.0034204823911073287 0 0.007172225610647379 0.0033861307271295773 0 0.0072735215610404804 0.003520520072398134 0 0.0070497546246540334 0.0034204823911073287 0 0.007172225610647379 0.0033861307271295773 0 0.0071110588517203036 0.0033145368227757602 0 0.0070497546246540334 0.0034204823911073287 0 0.007172225610647379 0.0033861307271295773 0 0.0072709320538586475 0.0032913802560967523 0 0.0072735215610404804 0.003520520072398134 0 0.007172225610647379 0.0033861307271295773 0 0.0072709320538586475 0.0032913802560967523 0 0.0071110588517203036 0.0033145368227757602 0 0.0072709320538586475 0.0032913802560967523 0 0.0071110588517203036 0.0033145368227757602 0 0.0072000045595134333 0.0031583754759544076 0 0.0073475369484452078 0.0029326326483220012 0 0.0070677721666092975 0.0030355325301755342 0 0.0072000045595134333 0.0031583754759544076 0 0.0073475369484452078 0.0029326326483220012 0 0.0072000045595134333 0.0031583754759544076 0 0.0074291377611413667 0.0031097246550962588 0 0.0070206132259237226 0.0032418196469207474 0 0.0071110588517203036 0.0033145368227757602 0 0.0072000045595134333 0.0031583754759544076 0 0.0072709320538586475 0.0032913802560967523 0 0.0072000045595134333 0.0031583754759544076 0 0.0074291377611413667 0.0031097246550962588 0 0.0072709320538586475 0.0032913802560967523 0 0.0074291377611413667 0.0031097246550962588 0 0.0074774671079119023 0.0032624272627819425 0 0.0074291377611413667 0.0031097246550962588 0 0.0074774671079119023 0.0032624272627819425 0 0.0076661181828878416 0.0031099850336053381 0 0.0074774671079119023 0.0032624272627819425 0 0.0072735215610404804 0.003520520072398134 0 0.0077443698601181721 0.0033140601452199222 0 0.0072709320538586475 0.0032913802560967523 0 0.0074774671079119023 0.0032624272627819425 0 0.0072735215610404804 0.003520520072398134 0 -0.00119755812848654 0.0098846241589336924 0 -0.00092785259306779892 0.010317100679243336 0 -0.00029240420084588014 0.0098132737677256183 0 -0.00119755812848654 0.0098846241589336924 0 -0.00092785259306779892 0.010317100679243336 0 -0.0011543453312631714 0.010081774138721166 0 -0.00092785259306779892 0.010317100679243336 0 -0.00077095475244593219 0.010973304212486872 0 -0.00030652057750702187 0.010580774473710898 0 -0.00077095475244593219 0.010973304212486872 0 -0.0012098988089695693 0.010721791039722024 0 -0.0011475639312732381 0.0119258792867532 0 -0.00092785259306779892 0.010317100679243336 0 -0.00077095475244593219 0.010973304212486872 0 -0.0012098988089695693 0.010721791039722024 0 -0.00092785259306779892 0.010317100679243336 0 -0.0012098988089695693 0.010721791039722024 0 -0.0011543453312631714 0.010081774138721166 0 -0.0012098988089695693 0.010721791039722024 0 -0.0014377379016070749 0.010626814099991009 0 -0.0011543453312631714 0.010081774138721166 0 -0.00091221050690664448 0.010020830370941734 0 -0.0018646071184864308 0.010388817335530435 0 -0.0014377379016070749 0.010626814099991009 0 -0.0011543453312631714 0.010081774138721166 0 -0.0018076298274718849 0.010567676345694162 0 -0.0012098988089695693 0.010721791039722024 0 -0.0014377379016070749 0.010626814099991009 0 -0.0012945877455981646 0.010928855043031802 0 -0.00119755812848654 0.0098846241589336924 0 -0.0011543453312631714 0.010081774138721166 0 -0.00080921043071203785 0.010132433361257354 0 0.0072735215610404804 0.003520520072398134 0 0.0070497546246540334 0.0034204823911073287 0 0.0068659243189811182 0.003500738579714465 0 0.0030977981951864587 0.0066882696043091792 0 0.0029194482442596341 0.0066138960160954142 0 -0.0011543453312631714 0.010081774138721166 0 -0.00080921043071203785 0.010132433361257354 0 -0.00070916266525751363 0.0099116558516127509 0 0.0070497546246540334 0.0034204823911073287 0 0.0069216046770320836 0.0034158420323847191 0 0.0068659243189811182 0.003500738579714465 0 0.0068840154397027545 0.0033795717561701921 0 0.0069216046770320836 0.0034158420323847191 0 0.0068661934136468603 0.0034180545741118733 0 0.0069216046770320836 0.0034158420323847191 0 0.0068661934136468603 0.0034180545741118733 0 0.0068659243189811182 0.003500738579714465 0 0.0068661934136468603 0.0034180545741118733 0 0.0068659243189811182 0.003500738579714465 0 0.0068458310851005006 0.0033641714869819105 0 -0.0014377379016070749 0.010626814099991009 0 -0.0016753199310317267 0.010750237212063234 0 -0.0015246845530742675 0.010957053886849939 0 -0.0014377379016070749 0.010626814099991009 0 -0.0016753199310317267 0.010750237212063234 0 -0.0018076298274718849 0.010567676345694162 0 -0.0016753199310317267 0.010750237212063234 0 -0.0018076298274718849 0.010567676345694162 0 -0.0019056990792594855 0.010832429825861486 0 0.00047261771700106908 0.0096982238062945942 0 -0.00080921043071203785 0.010132433361257354 0 -0.00070916266525751363 0.0099116558516127509 0 0.00047261771700106908 0.0096982238062945942 0 -0.00070916266525751363 0.0099116558516127509 0 0.00031085091246112916 0.0095175005161364547 0 0.0068198040543664944 0.0032045046575271824 0 0.0068659243189811182 0.003500738579714465 0 0.0068458310851005006 0.0033641714869819105 0 -0.0018076298274718849 0.010567676345694162 0 -0.0019056990792594855 0.010832429825861486 0 -0.0021832654708331435 0.010789267013170071 0 -0.0018646071184864308 0.010388817335530435 0 0.0022654913855521615 0.010063128205326337 0 0.0044928486952183965 0.0077935292231036393 0 0.0029194482442596341 0.0066138960160954142 0 0.0068198040543664944 0.0032045046575271824 0 0.0068456616366599889 0.0033067684330347949 0 0.0068458310851005006 0.0033641714869819105 0 0.0068658701020537956 0.003313375921357256 0 0.0068456616366599889 0.0033067684330347949 0 0.0068515241466792802 0.0033527183835519161 0 0.0068515241466792802 0.0033527183835519161 0 0.0068458310851005006 0.0033641714869819105 0 0.0068553915535248134 0.0033851390761594166 0 0.0068456616366599889 0.0033067684330347949 0 0.0068515241466792802 0.0033527183835519161 0 0.0068458310851005006 0.0033641714869819105 0 0.0068661934136468603 0.0034180545741118733 0 0.0068458310851005006 0.0033641714869819105 0 0.0068553915535248134 0.0033851390761594166 0 0.0068840154397027545 0.0033795717561701921 0 0.0068553915535248134 0.0033851390761594166 0 0.0068545469726499844 0.0033692199005803097 0 0.0068840154397027545 0.0033795717561701921 0 0.0068661934136468603 0.0034180545741118733 0 0.0068553915535248134 0.0033851390761594166 0 0.0068515241466792802 0.0033527183835519161 0 0.0068553915535248134 0.0033851390761594166 0 0.0068545469726499844 0.0033692199005803097 0 0.0026286636195175556 0.0083458009630222197 0 0.0024002191467225472 0.0060631903139101674 0 0.0013964618607395706 0.0085200717420005657 0 0.0026286636195175556 0.0083458009630222197 0 0.0037848112107071717 0.0072139656634941903 0 0.0024002191467225472 0.0060631903139101674 0 0.0026286636195175556 0.0083458009630222197 0 0.0013964618607395706 0.0085200717420005657 0 0.0016162417237797074 0.0097590428088757068 0 0.0026286636195175556 0.0083458009630222197 0 0.0036447828193191516 0.0084713932485087854 0 0.0031286033049613238 0.0094551986577479513 0 0.0026286636195175556 0.0083458009630222197 0 0.0036447828193191516 0.0084713932485087854 0 0.0037848112107071717 0.0072139656634941903 0 0.0036447828193191516 0.0084713932485087854 0 0.0049441706645464304 0.0074962537602460627 0 0.0040657690894460039 0.0093569509143381982 0 0.0070876999795889571 0.0074264162753565994 0 0.0049441706645464304 0.0074962537602460627 0 0.0040657690894460039 0.0093569509143381982 0 0.0050022082438421741 0.0067826505940264178 0 0.0042349745895237682 0.0095063311713576015 0 0.0070876999795889571 0.0074264162753565994 0 0.0049441706645464304 0.0074962537602460627 0 0.0054667983023492352 0.0051293752262335781 0 0.0036447828193191516 0.0084713932485087854 0 0.0049441706645464304 0.0074962537602460627 0 0.0037848112107071717 0.0072139656634941903 0 0.0037848112107071717 0.0072139656634941903 0 0.0054667983023492352 0.0051293752262335781 0 0.0024002191467225472 0.0060631903139101674 0 0.0073860953573276419 0.0034794773106716511 0 0.0052717845315122941 0.0045696302512266661 0 0.0074885950067571901 0.0034308106596049729 0 0.0054667983023492352 0.0051293752262335781 0 0.0024002191467225472 0.0060631903139101674 0 0.0074885950067571901 0.0034308106596049729 0 0.0079595020463637516 0.0030816736375679863 0 0.0079530037834720617 0.0030560180797917103 0 0.0049441706645464304 0.0074962537602460627 0 0.0037848112107071717 0.0072139656634941903 0 0.0054667983023492352 0.0051293752262335781 0 0.0079595020463637516 0.0030816736375679863 0 0.0079530037834720617 0.0030560180797917103 0 0.0078931989690323272 0.0030544197179259423 0 0.0078124207825391867 0.0029812798443398115 0 0.0078931989690323272 0.0030544197179259423 0 0.0076661181828878416 0.0031099850336053381 0 0.0078931989690323272 0.0030544197179259423 0 0.0076661181828878416 0.0031099850336053381 0 0.0077443698601181721 0.0033140601452199222 0 0.0079530037834720617 0.0030560180797917103 0 0.0078931989690323272 0.0030544197179259423 0 0.0077443698601181721 0.0033140601452199222 0 0.0076478140849866585 0.0028989377800075003 0 0.0074291377611413667 0.0031097246550962588 0 0.0076661181828878416 0.0031099850336053381 0 0.0074774671079119023 0.0032624272627819425 0 0.0076661181828878416 0.0031099850336053381 0 0.0077443698601181721 0.0033140601452199222 0 -0.00119755812848654 0.0098846241589336924 0 -1.4122095121905557e-05 0.0084518775482919344 0 -0.00029240420084588014 0.0098132737677256183 0 0.0030977981951864587 0.0066882696043091792 0 0.0038919432511904909 0.0058404374822512012 0 -1.4122095121905557e-05 0.0084518775482919344 0 0.00062729816166293573 0.0093427233243088582 0 -0.00029240420084588014 0.0098132737677256183 0 0.0052717845315122941 0.0045696302512266661 0 0.0038919432511904909 0.0058404374822512012 0 0.0024002191467225472 0.0060631903139101674 0 -1.4122095121905557e-05 0.0084518775482919344 0 0.0013964618607395706 0.0085200717420005657 0 -1.4122095121905557e-05 0.0084518775482919344 0 0.0013964618607395706 0.0085200717420005657 0 0.00062729816166293573 0.0093427233243088582 0 0.0013964618607395706 0.0085200717420005657 0 0.00062729816166293573 0.0093427233243088582 0 0.0016162417237797074 0.0097590428088757068 0 0.00062729816166293573 0.0093427233243088582 0 0.00051313796258256345 0.010224742341261093 0 0.0016162417237797074 0.0097590428088757068 0 0.00062729816166293573 0.0093427233243088582 0 0.00051313796258256345 0.010224742341261093 0 -0.00029240420084588014 0.0098132737677256183 0 0.00051313796258256345 0.010224742341261093 0 0.0012836088013759121 0.010983331349087952 0 0.0016162417237797074 0.0097590428088757068 0 0.00051313796258256345 0.010224742341261093 0 -0.00029240420084588014 0.0098132737677256183 0 -0.00030652057750702187 0.010580774473710898 0 -0.00092785259306779892 0.010317100679243336 0 -0.00029240420084588014 0.0098132737677256183 0 -0.00030652057750702187 0.010580774473710898 0 0.00051313796258256345 0.010224742341261093 0 -0.00030652057750702187 0.010580774473710898 0 0.00034360454493256707 0.010985227689356289 0 0.00034360454493256707 0.010985227689356289 0 0.00037721208940388873 0.011718114508592177 0 -0.00022984695799205601 0.01151213823780807 0 -0.00030652057750702187 0.010580774473710898 0 0.00034360454493256707 0.010985227689356289 0 -0.00022984695799205601 0.01151213823780807 0 -0.00077095475244593219 0.010973304212486872 0 -0.00030652057750702187 0.010580774473710898 0 -0.00022984695799205601 0.01151213823780807 0 0.00051313796258256345 0.010224742341261093 0 0.0012836088013759121 0.010983331349087952 0 0.00034360454493256707 0.010985227689356289 0 0.00034360454493256707 0.010985227689356289 0 0.0010647621182544903 0.011853466829208731 0 0.00037721208940388873 0.011718114508592177 0 0.0012836088013759121 0.010983331349087952 0 0.00034360454493256707 0.010985227689356289 0 0.0010647621182544903 0.011853466829208731 0 0.0012836088013759121 0.010983331349087952 0 0.0014839487877749337 0.011541359975534548 0 0.0010647621182544903 0.011853466829208731 0 0.0012836088013759121 0.010983331349087952 0 0.0014839487877749337 0.011541359975534548 0 0.0020305103359561151 0.011357284770192407 0 0.0014839487877749337 0.011541359975534548 0 0.0020305103359561151 0.011357284770192407 0 0.0016873571878273687 0.011981394301764176 0 0.0020305103359561151 0.011357284770192407 0 0.0021961977741841009 0.010599047992636175 0 0.0027406409299555656 0.011115207717890971 0 0.0012836088013759121 0.010983331349087952 0 0.0020305103359561151 0.011357284770192407 0 0.0021961977741841009 0.010599047992636175 0 0.0012836088013759121 0.010983331349087952 0 0.0021961977741841009 0.010599047992636175 0 0.0016162417237797074 0.0097590428088757068 0 0.0021961977741841009 0.010599047992636175 0 0.0031286033049613238 0.0094551986577479513 0 0.0016162417237797074 0.0097590428088757068 0 0.0026286636195175556 0.0083458009630222197 0 0.0031286033049613238 0.0094551986577479513 0 0.0016162417237797074 0.0097590428088757068 0 0.0031286033049613238 0.0094551986577479513 0 0.0041481632007348062 0.0097298789389906638 0 0.0039714253858737451 0.010050476046112696 0 0.0030830343514584471 0.0095521833476631766 0 0.0033373820394939188 0.010274300096926821 0 0.0043370882160583954 0.0096023233091998457 0 0.0040657690894460039 0.0093569509143381982 0 0.0041481632007348062 0.0097298789389906638 0 0.0021961977741841009 0.010599047992636175 0 0.0031286033049613238 0.0094551986577479513 0 0.0027406409299555656 0.011115207717890971 0 0.0036447828193191516 0.0084713932485087854 0 0.0031286033049613238 0.0094551986577479513 0 0.0040657690894460039 0.0093569509143381982 0 0.0031286033049613238 0.0094551986577479513 0 0.0040657690894460039 0.0093569509143381982 0 0.0041481632007348062 0.0097298789389906638 0 0.0033373820394939188 0.010274300096926821 0 0.0019405899574699832 0.013033171590465301 0 0.0020305103359561151 0.011357284770192407 0 0.0027406409299555656 0.011115207717890971 0 0.0021143893645546048 0.011885575064481823 0 0.0027406409299555656 0.011115207717890971 0 0.0021143893645546048 0.011885575064481823 0 0.0022871638759421054 0.012430228894276545 0 0.0027406409299555656 0.011115207717890971 0 0.0022871638759421054 0.012430228894276545 0 0.0027105310211918464 0.012443370329200518 0 0.0021143893645546048 0.011885575064481823 0 0.001853247579571566 0.012464915739411015 0 0.0022871638759421054 0.012430228894276545 0 0.001853247579571566 0.012464915739411015 0 0.0019730786073036488 0.012745345412350709 0 0.0022871638759421054 0.012430228894276545 0 0.001853247579571566 0.012464915739411015 0 0.0019730786073036488 0.012745345412350709 0 0.0016300686495118724 0.012830175676895756 0 0.0021684462357786571 0.012652145226793836 0 0.002041153770032392 0.012918914534236501 0 0.0023091799812438654 0.012542548284224473 0 0.0022871638759421054 0.012430228894276545 0 0.0021684462357786571 0.012652145226793836 0 0.0023091799812438654 0.012542548284224473 0 0.0022611569249422711 0.012836879988295618 0 0.0019405899574699832 0.013033171590465301 0 0.0019730786073036488 0.012745345412350709 0 0.0021684462357786571 0.012652145226793836 0 0.002041153770032392 0.012918914534236501 0 0.0019730786073036488 0.012745345412350709 0 0.0022871638759421054 0.012430228894276545 0 0.0021684462357786571 0.012652145226793836 0 0.002041153770032392 0.012918914534236501 0 0.0018085133704675166 0.013359311118057647 0 0.0019514991335327376 0.013281003976110295 0 0.002041153770032392 0.012918914534236501 0 0.001761694093843211 0.013080433976440417 0 0.0018085133704675166 0.013359311118057647 0 0.0019730786073036488 0.012745345412350709 0 0.002041153770032392 0.012918914534236501 0 0.001761694093843211 0.013080433976440417 0 0.001761694093843211 0.013080433976440417 0 0.0014635019587104941 0.013211144587193422 0 0.0016300686495118724 0.012830175676895756 0 0.0019730786073036488 0.012745345412350709 0 0.001761694093843211 0.013080433976440417 0 0.0016300686495118724 0.012830175676895756 0 0.001761694093843211 0.013080433976440417 0 0.0016236661813169089 0.013370582197287781 0 0.0014635019587104941 0.013211144587193422 0 0.0016236661813169089 0.013370582197287781 0 0.0014635019587104941 0.013211144587193422 0 0.0014586853655549942 0.013516974771560334 0 0.0016236661813169089 0.013370582197287781 0 0.0018085133704675166 0.013359311118057647 0 0.0015814355177210249 0.013659470136436416 0 0.001761694093843211 0.013080433976440417 0 0.0016236661813169089 0.013370582197287781 0 0.0018085133704675166 0.013359311118057647 0 0.0011336302697361256 0.013204378145331378 0 0.0014635019587104941 0.013211144587193422 0 0.0012654170596151251 0.012882758507785934 0 0.0011336302697361256 0.013204378145331378 0 0.0012654170596151251 0.012882758507785934 0 0.00083059263502110981 0.012935501065004226 0 0.0011336302697361256 0.013204378145331378 0 0.0014635019587104941 0.013211144587193422 0 0.0012427670847266613 0.01348284042017632 0 0.0016300686495118724 0.012830175676895756 0 0.0012654170596151251 0.012882758507785934 0 0.0014467313507356677 0.012482150855224489 0 0.0014635019587104941 0.013211144587193422 0 0.0016300686495118724 0.012830175676895756 0 0.0012654170596151251 0.012882758507785934 0 0.0012654170596151251 0.012882758507785934 0 0.0014467313507356677 0.012482150855224489 0 0.0010349198080320916 0.012563286273877745 0 0.0014467313507356677 0.012482150855224489 0 0.0010647621182544903 0.011853466829208731 0 0.0010349198080320916 0.012563286273877745 0 0.001853247579571566 0.012464915739411015 0 0.0014467313507356677 0.012482150855224489 0 0.0016873571878273687 0.011981394301764176 0 0.001853247579571566 0.012464915739411015 0 0.0016300686495118724 0.012830175676895756 0 0.0014467313507356677 0.012482150855224489 0 0.0020305103359561151 0.011357284770192407 0 0.0021143893645546048 0.011885575064481823 0 0.0016873571878273687 0.011981394301764176 0 0.0021143893645546048 0.011885575064481823 0 0.001853247579571566 0.012464915739411015 0 0.0016873571878273687 0.011981394301764176 0 0.0014839487877749337 0.011541359975534548 0 0.0016873571878273687 0.011981394301764176 0 0.0010647621182544903 0.011853466829208731 0 0.0014467313507356677 0.012482150855224489 0 0.0016873571878273687 0.011981394301764176 0 0.0010647621182544903 0.011853466829208731 0 0.0010647621182544903 0.011853466829208731 0 0.00037721208940388873 0.011718114508592177 0 0.0006515175988052504 0.012304597699377536 0 0.0006515175988052504 0.012304597699377536 0 0.00013696764755806933 0.01217718580397655 0 0.00041517341006188925 0.012690528238250662 0 0.00037721208940388873 0.011718114508592177 0 0.0006515175988052504 0.012304597699377536 0 0.00013696764755806933 0.01217718580397655 0 0.0010647621182544903 0.011853466829208731 0 0.0006515175988052504 0.012304597699377536 0 0.0010349198080320916 0.012563286273877745 0 0.00037721208940388873 0.011718114508592177 0 -0.00022984695799205601 0.01151213823780807 0 0.00013696764755806933 0.01217718580397655 0 -0.00022984695799205601 0.01151213823780807 0 0.00013696764755806933 0.01217718580397655 0 -0.00028919759667474812 0.012390234125461712 0 0.00013696764755806933 0.01217718580397655 0 -0.00028919759667474812 0.012390234125461712 0 2.7721567808765847e-05 0.012869253900675988 0 -0.00028919759667474812 0.012390234125461712 0 2.7721567808765847e-05 0.012869253900675988 0 -0.00057588780874240342 0.012974380440484131 0 0.00013696764755806933 0.01217718580397655 0 2.7721567808765847e-05 0.012869253900675988 0 0.00041517341006188925 0.012690528238250662 0 2.7721567808765847e-05 0.012869253900675988 0 0.00041517341006188925 0.012690528238250662 0 0.00048116420636543479 0.01328798302203479 0 2.7721567808765847e-05 0.012869253900675988 0 0.00048116420636543479 0.01328798302203479 0 5.1167974964936489e-05 0.013337991230127629 0 2.7721567808765847e-05 0.012869253900675988 0 5.1167974964936489e-05 0.013337991230127629 0 -0.00057588780874240342 0.012974380440484131 0 0.0006515175988052504 0.012304597699377536 0 0.0010349198080320916 0.012563286273877745 0 0.00083059263502110981 0.012935501065004226 0 0.0012654170596151251 0.012882758507785934 0 0.0010349198080320916 0.012563286273877745 0 0.00083059263502110981 0.012935501065004226 0 0.0006515175988052504 0.012304597699377536 0 0.00041517341006188925 0.012690528238250662 0 0.00083059263502110981 0.012935501065004226 0 0.00041517341006188925 0.012690528238250662 0 0.00083059263502110981 0.012935501065004226 0 0.00048116420636543479 0.01328798302203479 0 0.0011336302697361256 0.013204378145331378 0 0.00083059263502110981 0.012935501065004226 0 0.00091062511417141882 0.013387551997588114 0 0.00083059263502110981 0.012935501065004226 0 0.00091062511417141882 0.013387551997588114 0 0.00048116420636543479 0.01328798302203479 0 0.00091062511417141882 0.013387551997588114 0 0.00048116420636543479 0.01328798302203479 0 0.00074434469334619445 0.013675229463737826 0 0.00048116420636543479 0.01328798302203479 0 0.00074434469334619445 0.013675229463737826 0 0.00036210207898746495 0.01368275824323489 0 0.00074434469334619445 0.013675229463737826 0 0.00093134916382557815 0.013943273872225411 0 0.0010772900378958612 0.013715319777405971 0 0.00091062511417141882 0.013387551997588114 0 0.00074434469334619445 0.013675229463737826 0 0.0010772900378958612 0.013715319777405971 0 0.00048116420636543479 0.01328798302203479 0 5.1167974964936489e-05 0.013337991230127629 0 0.00036210207898746495 0.01368275824323489 0 5.1167974964936489e-05 0.013337991230127629 0 0.00036210207898746495 0.01368275824323489 0 -0.00012297028927011017 0.013774951043910209 0 0.00032753866362203991 0.013977974493535765 0 -0.00012297028927011017 0.013774951043910209 0 0.00031551773882793034 0.014262003196765764 0 0.00014448253178928465 0.014021131606802194 0 0.0002592358979738818 0.014172385772691705 0 0.00036210207898746495 0.01368275824323489 0 0.00032753866362203991 0.013977974493535765 0 -0.00012297028927011017 0.013774951043910209 0 0.00036210207898746495 0.01368275824323489 0 0.00032753866362203991 0.013977974493535765 0 0.00062936843096121566 0.013938468277442363 0 0.00032753866362203991 0.013977974493535765 0 0.00050187917858921384 0.014132371993752084 0 0.00031551773882793034 0.014262003196765764 0 0.00074434469334619445 0.013675229463737826 0 0.00062936843096121566 0.013938468277442363 0 0.00093134916382557815 0.013943273872225411 0 0.00074434469334619445 0.013675229463737826 0 0.00036210207898746495 0.01368275824323489 0 0.00062936843096121566 0.013938468277442363 0 0.00062936843096121566 0.013938468277442363 0 0.00050187917858921384 0.014132371993752084 0 0.00080756397906589928 0.014144286637330196 0 0.00032753866362203991 0.013977974493535765 0 0.00062936843096121566 0.013938468277442363 0 0.00050187917858921384 0.014132371993752084 0 0.00062936843096121566 0.013938468277442363 0 0.00080756397906589928 0.014144286637330196 0 0.00093134916382557815 0.013943273872225411 0 0.00093134916382557815 0.013943273872225411 0 0.001153510815547869 0.013930518485330935 0 0.0010709690371934109 0.014147820541699651 0 0.00080756397906589928 0.014144286637330196 0 0.00093134916382557815 0.013943273872225411 0 0.0010709690371934109 0.014147820541699651 0 0.00093134916382557815 0.013943273872225411 0 0.001153510815547869 0.013930518485330935 0 0.0010772900378958612 0.013715319777405971 0 0.001153510815547869 0.013930518485330935 0 0.001295063124288526 0.014012983948290317 0 0.0013467903455023026 0.013779416008031802 0 0.001153510815547869 0.013930518485330935 0 0.0010709690371934109 0.014147820541699651 0 0.001295063124288526 0.014012983948290317 0 0.0010709690371934109 0.014147820541699651 0 0.001298353028604457 0.014144111758128351 0 0.001295063124288526 0.014012983948290317 0 0.001298353028604457 0.014144111758128351 0 0.0014268226110130235 0.014015358318285239 0 0.0013427671733002302 0.014155086833101264 0 0.001298353028604457 0.014144111758128351 0 0.0014268226110130235 0.014015358318285239 0 0.001295063124288526 0.014012983948290317 0 0.0014268226110130235 0.014015358318285239 0 0.001295063124288526 0.014012983948290317 0 0.0013467903455023026 0.013779416008031802 0 0.0014268226110130235 0.014015358318285239 0 0.0013467903455023026 0.013779416008031802 0 0.0015814355177210249 0.013659470136436416 0 0.0014268226110130235 0.014015358318285239 0 0.0015814355177210249 0.013659470136436416 0 0.0015891858470278406 0.013868648830612536 0 0.0018085133704675166 0.013359311118057647 0 0.0015814355177210249 0.013659470136436416 0 0.0016959084995715203 0.013671793712135913 0 0.0015814355177210249 0.013659470136436416 0 0.0016959084995715203 0.013671793712135913 0 0.0015891858470278406 0.013868648830612536 0 0.0016236661813169089 0.013370582197287781 0 0.0015814355177210249 0.013659470136436416 0 0.0014586853655549942 0.013516974771560334 0 0.0013467903455023026 0.013779416008031802 0 0.0015814355177210249 0.013659470136436416 0 0.0014586853655549942 0.013516974771560334 0 0.0014635019587104941 0.013211144587193422 0 0.0014586853655549942 0.013516974771560334 0 0.0012427670847266613 0.01348284042017632 0 0.0013467903455023026 0.013779416008031802 0 0.0014586853655549942 0.013516974771560334 0 0.0012427670847266613 0.01348284042017632 0 0.00091062511417141882 0.013387551997588114 0 0.0012427670847266613 0.01348284042017632 0 0.0010772900378958612 0.013715319777405971 0 0.0011336302697361256 0.013204378145331378 0 0.00091062511417141882 0.013387551997588114 0 0.0012427670847266613 0.01348284042017632 0 0.001153510815547869 0.013930518485330935 0 0.0013467903455023026 0.013779416008031802 0 0.0010772900378958612 0.013715319777405971 0 0.0013467903455023026 0.013779416008031802 0 0.0012427670847266613 0.01348284042017632 0 0.0010772900378958612 0.013715319777405971 0 0.0044214130641920899 0.010563972878226909 0 0.0042935326392384782 0.010737490976271882 0 0.0042777255444284177 0.010525155091857525 0 0.0044930433169315057 0.010690987256943113 0 0.0044214130641920899 0.010563972878226909 0 0.0042935326392384782 0.010737490976271882 0 0.0044930433169315057 0.010690987256943113 0 0.0044442231829393839 0.010894332068248247 0 0.0042935326392384782 0.010737490976271882 0 0.0022654913855521615 0.010063128205326337 0 0.0011197482158131554 0.010980820176762111 0 -0.0019056990792594855 0.010832429825861486 0 -0.0021832654708331435 0.010789267013170071 0 -0.0019091114863599222 0.011145160837922599 0 -0.0019091114863599222 0.011145160837922599 0 -0.0013513971417155619 0.011248692872131314 0 -0.0015246845530742675 0.010957053886849939 0 -0.0016753199310317267 0.010750237212063234 0 -0.0019056990792594855 0.010832429825861486 0 -0.0015246845530742675 0.010957053886849939 0 -0.0019056990792594855 0.010832429825861486 0 -0.0019091114863599222 0.011145160837922599 0 -0.0015246845530742675 0.010957053886849939 0 -0.0019091114863599222 0.011145160837922599 0 -0.0015676589415588942 0.011540126202050605 0 -0.0013513971417155619 0.011248692872131314 0 0.0042935326392384782 0.010737490976271882 0 0.0041364009179041964 0.010608069700337702 0 0.0042777255444284177 0.010525155091857525 0 0.0011197482158131554 0.010980820176762111 0 0.0013051529225730056 0.010956249871084565 0 -0.0012392856867564233 0.011570744144269861 0 -0.0013513971417155619 0.011248692872131314 0 -0.00089650746862163287 0.011513909833681587 0 -0.0015676589415588942 0.011540126202050605 0 -0.0012392856867564233 0.011570744144269861 0 -0.0013513971417155619 0.011248692872131314 0 -0.0012098988089695693 0.010721791039722024 0 -0.0012945877455981646 0.010928855043031802 0 -0.0010419784610801773 0.011088338213919248 0 -0.0013513971417155619 0.011248692872131314 0 -0.0015246845530742675 0.010957053886849939 0 -0.0012945877455981646 0.010928855043031802 0 -0.0014377379016070749 0.010626814099991009 0 -0.0015246845530742675 0.010957053886849939 0 -0.0012945877455981646 0.010928855043031802 0 -0.0013513971417155619 0.011248692872131314 0 -0.0012945877455981646 0.010928855043031802 0 -0.0010419784610801773 0.011088338213919248 0 -0.0012022213964911082 0.010879599000459301 0 -0.0011100527080576328 0.011400037402688523 0 -0.00077095475244593219 0.010973304212486872 0 -0.00022984695799205601 0.01151213823780807 0 -0.0011475639312732381 0.0119258792867532 0 -0.00022984695799205601 0.01151213823780807 0 -0.00028919759667474812 0.012390234125461712 0 -0.0011475639312732381 0.0119258792867532 0 -0.0003789535073496965 0.012557754587311858 0 -0.00047699155250074807 0.012791445727302064 0 -0.0013513971417155619 0.011248692872131314 0 -0.0010419784610801773 0.011088338213919248 0 -0.00089650746862163287 0.011513909833681587 0 -0.0011100527080576328 0.011400037402688523 0 -0.00047699155250074807 0.012791445727302064 0 -0.00028919759667474812 0.012390234125461712 0 -0.0011475639312732381 0.0119258792867532 0 -0.00084117260723868192 0.01305864182208747 0 -0.00047699155250074807 0.012791445727302064 0 0.00041608255346192513 0.012594575310524738 0 -0.0012392856867564233 0.011570744144269861 0 -0.00089650746862163287 0.011513909833681587 0 -0.0012181952733038019 0.011928109065527244 0 5.1167974964936489e-05 0.013337991230127629 0 -0.00057588780874240342 0.012974380440484131 0 -0.00012297028927011017 0.013774951043910209 0 0.00024812741661385881 0.013765977675330618 0 0.00021659355609545831 0.013957202576729855 0 0.0003284897094307907 0.014061634933319042 0 0.00024812741661385881 0.013765977675330618 0 0.00021659355609545831 0.013957202576729855 0 6.655310533303606e-05 0.014002219103552644 0 -0.00047699155250074807 0.012791445727302064 0 0.00014448253178928465 0.014021131606802194 0 0.00021659355609545831 0.013957202576729855 0 0.0003284897094307907 0.014061634933319042 0 0.00026300257122917261 0.014198752294700355 0 0.00021659355609545831 0.013957202576729855 0 0.00026300257122917261 0.014198752294700355 0 6.655310533303606e-05 0.014002219103552644 0 0.0003284897094307907 0.014061634933319042 0 0.00026300257122917261 0.014198752294700355 0 0.00031551773882793034 0.014262003196765764 0 0.00026300257122917261 0.014198752294700355 0 0.00027820805698851314 0.014203604395849582 0 0.00026509722874674848 0.014214812225600497 0 0.00026300257122917261 0.014198752294700355 0 0.00027820805698851314 0.014203604395849582 0 0.00027802291366798383 0.014212720678374778 0 0.0004095467942050941 0.014529545550500244 0 0.00041608255346192513 0.012594575310524738 0 0.00026509722874674848 0.014214812225600497 0 0.00028264487288801287 0.014213767336436946 0 0.0003130184705852198 0.014204955609786799 0 0.00027820805698851314 0.014203604395849582 0 0.00026509722874674848 0.014214812225600497 0 0.00028264487288801287 0.014213767336436946 0 0.00027820805698851314 0.014203604395849582 0 0.00033252343830880558 0.01417733997184782 0 0.00027802291366798383 0.014212720678374778 0 0.0020392067588033583 0.012689158473173425 0 0.00041608255346192513 0.012594575310524738 0 4.6082053938196612e-05 0.014066751776304733 0 0.0020392067588033583 0.012689158473173425 0 0.0040543976032435518 0.010347598632603197 0 0.0039521720533235456 0.010464853159973756 0 0.0041383354115439169 0.010469060383576758 0 0.0041364009179041964 0.010608069700337702 0 0.0039521720533235456 0.010464853159973756 0 0.0041383354115439169 0.010469060383576758 0 -0.0015676589415588942 0.011540126202050605 0 -0.0012392856867564233 0.011570744144269861 0 -0.0012181952733038019 0.011928109065527244 0 0.0013051529225730056 0.010956249871084565 0 0.00041608255346192513 0.012594575310524738 0 0.0041364009179041964 0.010608069700337702 0 0.0042777255444284177 0.010525155091857525 0 0.0041383354115439169 0.010469060383576758 0 0.0042777255444284177 0.010525155091857525 0 0.0041383354115439169 0.010469060383576758 0 0.0042611113461575147 0.010389754457026735 0 0.0040543976032435518 0.010347598632603197 0 0.0042611113461575147 0.010389754457026735 0 0.0044031812110243464 0.010206457788850312 0 0.0040543976032435518 0.010347598632603197 0 0.0041383354115439169 0.010469060383576758 0 0.0042611113461575147 0.010389754457026735 0 0.0020392067588033583 0.012689158473173425 0 0.0045043968583882302 0.01179454643152574 0 0.0020392067588033583 0.012689158473173425 0 0.0026415083200967298 0.014382395164723749 0 0.0042611113461575147 0.010389754457026735 0 0.0044002507456953142 0.010334741670468543 0 0.0044031812110243464 0.010206457788850312 0 0.0042611113461575147 0.010389754457026735 0 0.0044002507456953142 0.010334741670468543 0 0.0043981634651374495 0.010422401858872514 0 0.0044002507456953142 0.010334741670468543 0 0.0044886736460326209 0.010285319684082552 0 0.0044745135760093343 0.01035209877187809 0 0.0044002507456953142 0.010334741670468543 0 0.0044886736460326209 0.010285319684082552 0 0.0044031812110243464 0.010206457788850312 0 0.0044002507456953142 0.010334741670468543 0 0.0044745135760093343 0.01035209877187809 0 0.0043981634651374495 0.010422401858872514 0 0.0044977924055178828 0.010402228048240795 0 0.0044745135760093343 0.01035209877187809 0 0.0043981634651374495 0.010422401858872514 0 0.0044977924055178828 0.010402228048240795 0 0.0045033496879825514 0.010462466329230844 0 0.0043981634651374495 0.010422401858872514 0 0.0042777255444284177 0.010525155091857525 0 0.0042611113461575147 0.010389754457026735 0 0.0043981634651374495 0.010422401858872514 0 0.0044214130641920899 0.010563972878226909 0 0.0042777255444284177 0.010525155091857525 0 0.0043981634651374495 0.010422401858872514 0 0.0045111843149355079 0.010526965466842075 0 0.0045033496879825514 0.010462466329230844 0 0.0044214130641920899 0.010563972878226909 0 0.0045033496879825514 0.010462466329230844 0 0.0044214130641920899 0.010563972878226909 0 0.0043981634651374495 0.010422401858872514 0 0.0044458361581486139 0.014275415138086727 0 0.0044217039070384642 0.014745956344913123 0 0.0038583754026517156 0.015015733566123216 0 0.0044458361581486139 0.014275415138086727 0 0.0033915620099399142 0.015651915406995544 0 0.0035510037626390878 0.014720123797596818 0 0.0044458361581486139 0.014275415138086727 0 0.0035510037626390878 0.014720123797596818 0 0.0032617392402354978 0.013592753218334081 0 0.0046658580616024377 0.014597931156647559 0 0.0026415083200967298 0.014382395164723749 0 0.0046974093642025705 0.014506082734201066 0 0.0044458361581486139 0.014275415138086727 0 0.0044217039070384642 0.014745956344913123 0 0.0048621528622217105 0.014841648877684636 0 0.0044217039070384642 0.014745956344913123 0 0.0043056597361026709 0.01509490888488905 0 0.0045669548182142887 0.012748999438448436 0 0.0045043968583882302 0.01179454643152574 0 0.0044217039070384642 0.014745956344913123 0 0.0043056597361026709 0.01509490888488905 0 0.0038583754026517156 0.015015733566123216 0 0.0045629884085429664 0.010310533333479461 0 0.0044886736460326209 0.010285319684082552 0 0.0044031812110243464 0.010206457788850312 0 0.004494795452778289 0.010467632142778372 0 0.0045043968583882302 0.01179454643152574 0 0.0045043968583882302 0.01179454643152574 0 0.0026415083200967298 0.014382395164723749 0 0.0022623279128751125 0.013311544030934425 0 0.0038113163130661328 0.012522806357255716 0 0.0030217117655575048 0.012391213447585972 0 0.0033915620099399142 0.015651915406995544 0 0.0028994683947104064 0.015124119101040496 0 0.0035510037626390878 0.014720123797596818 0 0.0035510037626390878 0.014720123797596818 0 0.0027176303733567899 0.014674660592546119 0 0.0032617392402354978 0.013592753218334081 0 0.0028994683947104064 0.015124119101040496 0 0.0035510037626390878 0.014720123797596818 0 0.0027176303733567899 0.014674660592546119 0 0.0023842337160772625 0.014194621390597472 0 0.0027176303733567899 0.014674660592546119 0 0.0016784004266780198 0.014726092788634034 0 0.0027176303733567899 0.014674660592546119 0 0.0019235628498163171 0.015458294369919476 0 0.0016784004266780198 0.014726092788634034 0 0.0028994683947104064 0.015124119101040496 0 0.0027176303733567899 0.014674660592546119 0 0.0019235628498163171 0.015458294369919476 0 0.0023842337160772625 0.014194621390597472 0 0.0016784004266780198 0.014726092788634034 0 0.0016323149567132201 0.014233953907810223 0 0.0033915620099399142 0.015651915406995544 0 0.0028994683947104064 0.015124119101040496 0 0.0019235628498163171 0.015458294369919476 0 0.00026509722874674848 0.014214812225600497 0 0.0003130184705852198 0.014204955609786799 0 0.00025029561552041203 0.014235670634098467 0 0.0026415083200967298 0.014382395164723749 0 0.00092814292624376015 0.014896914443227119 0 0.00025029561552041203 0.014235670634098467 0 0.00031551773882793034 0.014262003196765764 0 0.00035566739130988163 0.014385598287641282 0 0.00092814292624376015 0.014896914443227119 0 0.00041651686456494315 0.014842544700889772 0 0.00026300257122917261 0.014198752294700355 0 0.00025029561552041203 0.014235670634098467 0 0.00031551773882793034 0.014262003196765764 0 0.00026300257122917261 0.014198752294700355 0 0.00026509722874674848 0.014214812225600497 0 0.00025029561552041203 0.014235670634098467 0 0.0016784004266780198 0.014726092788634034 0 0.00095681948966288666 0.014529559875648093 0 0.00038976160639489981 0.015306911859972393 0 0.0019235628498163171 0.015458294369919476 0 0.0016784004266780198 0.014726092788634034 0 0.00038976160639489981 0.015306911859972393 0 0.0016784004266780198 0.014726092788634034 0 0.0016323149567132201 0.014233953907810223 0 0.00095681948966288666 0.014529559875648093 0 0.0012524910412618519 0.013761888562412953 0 0.0017149138117548827 0.013083596934712267 0 0.00069449458120431258 0.013351156822006965 0 0.00095681948966288666 0.014529559875648093 0 0.0012524910412618519 0.013761888562412953 0 0.00050845021588006851 0.013995296389564022 0 0.0016323149567132201 0.014233953907810223 0 0.00095681948966288666 0.014529559875648093 0 0.0012524910412618519 0.013761888562412953 0 0.0016323149567132201 0.014233953907810223 0 0.0012524910412618519 0.013761888562412953 0 0.0020557099919914614 0.01377043032691143 0 0.0012524910412618519 0.013761888562412953 0 0.0017149138117548827 0.013083596934712267 0 0.0020557099919914614 0.01377043032691143 0 0.00096094648226354394 0.012404979744844594 0 0.001262112533851456 0.012945023770316614 0 0.00018944865548207852 0.012476909201167953 0 0.0015003478873583912 0.013020056084677482 0 9.0146331862818625e-05 0.012469384631672574 0 0.0011218121750882946 0.012268145776552275 0 0.00096094648226354394 0.012404979744844594 0 0.0013575114205355793 0.01252091127195272 0 0.00096094648226354394 0.012404979744844594 0 0.0013575114205355793 0.01252091127195272 0 0.001262112533851456 0.012945023770316614 0 0.0011218121750882946 0.012268145776552275 0 0.0012813031128856799 0.012266947405813874 0 0.0013575114205355793 0.01252091127195272 0 0.0013575114205355793 0.01252091127195272 0 0.001262112533851456 0.012945023770316614 0 0.0022057406614844222 0.012582833209510204 0 0.0025687491040380177 0.011928459258591878 0 0.0013575114205355793 0.01252091127195272 0 0.0022057406614844222 0.012582833209510204 0 0.001262112533851456 0.012945023770316614 0 0.0022057406614844222 0.012582833209510204 0 0.0027207419202519368 0.013595321990320904 0 0.0023842337160772625 0.014194621390597472 0 0.0027176303733567899 0.014674660592546119 0 0.0032617392402354978 0.013592753218334081 0 0.0015003478873583912 0.013020056084677482 0 0.0030216390535903826 0.013592077343127408 0 0.0023842337160772625 0.014194621390597472 0 0.0020557099919914614 0.01377043032691143 0 0.0032617392402354978 0.013592753218334081 0 0.0017149138117548827 0.013083596934712267 0 0.0020557099919914614 0.01377043032691143 0 0.0032617392402354978 0.013592753218334081 0 0.0023842337160772625 0.014194621390597472 0 0.0016323149567132201 0.014233953907810223 0 0.0020557099919914614 0.01377043032691143 0 0.0027207419202519368 0.013595321990320904 0 0.0029856558797356917 0.012706643178457086 0 0.0035806223237632075 0.013418984529064247 0 0.0022057406614844222 0.012582833209510204 0 0.0027207419202519368 0.013595321990320904 0 0.0029856558797356917 0.012706643178457086 0 0.0026845766525579748 0.012368493488667132 0 0.0022057406614844222 0.012582833209510204 0 0.0029856558797356917 0.012706643178457086 0 0.00298338029355279 0.012267968703563293 0 0.0034241004723588441 0.012427510430504692 0 0.0029856558797356917 0.012706643178457086 0 0.0026845766525579748 0.012368493488667132 0 0.00298338029355279 0.012267968703563293 0 0.0029856558797356917 0.012706643178457086 0 0.0029856558797356917 0.012706643178457086 0 0.0035839051045776153 0.01282396700785478 0 0.0035806223237632075 0.013418984529064247 0 0.0034241004723588441 0.012427510430504692 0 0.0035839051045776153 0.01282396700785478 0 0.003975572475189839 0.012571130973637252 0 0.0034241004723588441 0.012427510430504692 0 0.0029856558797356917 0.012706643178457086 0 0.0035839051045776153 0.01282396700785478 0 0.0042503422166577818 0.012861089202888948 0 0.003975572475189839 0.012571130973637252 0 0.0039498391064695616 0.013007142705118361 0 0.0035839051045776153 0.01282396700785478 0 0.003975572475189839 0.012571130973637252 0 0.0039498391064695616 0.013007142705118361 0 0.0043992090363881384 0.013299294070061094 0 0.0039498391064695616 0.013007142705118361 0 0.0035806223237632075 0.013418984529064247 0 0.0035839051045776153 0.01282396700785478 0 0.0039498391064695616 0.013007142705118361 0 0.0035806223237632075 0.013418984529064247 0 0.0041755609271133644 0.014106576347912741 0 0.0027207419202519368 0.013595321990320904 0 0.0035806223237632075 0.013418984529064247 0 0.0043992090363881384 0.013299294070061094 0 0.0041755609271133644 0.014106576347912741 0 0.0035806223237632075 0.013418984529064247 0 0.0046840807835524263 0.014052140411036321 0 0.0044458361581486139 0.014275415138086727 0 0.0032617392402354978 0.013592753218334081 0 0.0042989634515717369 0.014075790676910588 0 0.0030216390535903826 0.013592077343127408 0 -0.00027256602757232563 0.014788066019432774 0 -0.00084396896171395756 0.014861590366070798 0 -0.0013058914991309722 0.015185003196829434 0 -0.00096346981602780956 0.013728388002681655 0 -0.0021772733927655484 0.013978075702716525 0 -0.0013058914991309722 0.015185003196829434 0 -0.0032197872632580651 0.015034105817827315 0 -0.0021772733927655484 0.013978075702716525 0 0.0010709690371934109 0.014147820541699651 0 0.001298353028604457 0.014144111758128351 0 0.0012275041489707024 0.01436868549009866 0 0.001298353028604457 0.014144111758128351 0 0.0012275041489707024 0.01436868549009866 0 0.001297518039404217 0.014175954927407856 0 0.00080756397906589928 0.014144286637330196 0 0.0010709690371934109 0.014147820541699651 0 0.00089221082710128693 0.014448249707793726 0 0.0010709690371934109 0.014147820541699651 0 0.00089221082710128693 0.014448249707793726 0 0.0012275041489707024 0.01436868549009866 0 0.00080756397906589928 0.014144286637330196 0 0.00089221082710128693 0.014448249707793726 0 0.00060910418680118386 0.014266765429223076 0 0.00089221082710128693 0.014448249707793726 0 0.00060910418680118386 0.014266765429223076 0 0.00035566739130988163 0.014385598287641282 0 0.00050187917858921384 0.014132371993752084 0 0.00080756397906589928 0.014144286637330196 0 0.00060910418680118386 0.014266765429223076 0 0.00050187917858921384 0.014132371993752084 0 0.00060910418680118386 0.014266765429223076 0 0.00031551773882793034 0.014262003196765764 0 0.00060910418680118386 0.014266765429223076 0 0.00031551773882793034 0.014262003196765764 0 0.00035566739130988163 0.014385598287641282 0 0.00095681948966288666 0.014529559875648093 0 0.00038976160639489981 0.015306911859972393 0 0.00037486002081035623 0.014645908568642755 0 0.00038976160639489981 0.015306911859972393 0 0.00037486002081035623 0.014645908568642755 0 -0.00025455517725110578 0.014536474892379799 0 0.00037486002081035623 0.014645908568642755 0 -0.00025455517725110578 0.014536474892379799 0 0.00050845021588006851 0.013995296389564022 0 0.00095681948966288666 0.014529559875648093 0 0.00037486002081035623 0.014645908568642755 0 0.00050845021588006851 0.013995296389564022 0 -0.0013058914991309722 0.015185003196829434 0 0.00038976160639489981 0.015306911859972393 0 -0.00025455517725110578 0.014536474892379799 0 -0.0013058914991309722 0.015185003196829434 0 -0.00025455517725110578 0.014536474892379799 0 -0.00096346981602780956 0.013728388002681655 0 -0.00027256602757232563 0.014788066019432774 0 0.00041651686456494315 0.014842544700889772 0 -0.00025455517725110578 0.014536474892379799 0 -0.00096346981602780956 0.013728388002681655 0 -0.0001022627690059015 0.013427700947885653 0 -0.00096346981602780956 0.013728388002681655 0 -0.0001022627690059015 0.013427700947885653 0 -0.00089310399582023434 0.012878821709776177 0 -0.00096346981602780956 0.013728388002681655 0 -0.00089310399582023434 0.012878821709776177 0 -0.0018423199195686864 0.012910207941093451 0 -0.00025455517725110578 0.014536474892379799 0 0.00050845021588006851 0.013995296389564022 0 -0.0001022627690059015 0.013427700947885653 0 0.0012524910412618519 0.013761888562412953 0 0.00050845021588006851 0.013995296389564022 0 0.00069449458120431258 0.013351156822006965 0 0.00050845021588006851 0.013995296389564022 0 -0.0001022627690059015 0.013427700947885653 0 0.00069449458120431258 0.013351156822006965 0 0.00078662169479146637 0.012013892624062258 0 0.00096094648226354394 0.012404979744844594 0 0.00018944865548207852 0.012476909201167953 0 0.0017149138117548827 0.013083596934712267 0 0.00069449458120431258 0.013351156822006965 0 6.498462435702783e-05 0.01248967864115753 0 -0.0001022627690059015 0.013427700947885653 0 0.00069449458120431258 0.013351156822006965 0 6.498462435702783e-05 0.01248967864115753 0 -0.0016181318212213467 0.011860026615997148 0 9.0146331862818625e-05 0.012469384631672574 0 -0.0017198729641526025 0.011807501898931228 0 6.498462435702783e-05 0.01248967864115753 0 -0.00089310399582023434 0.012878821709776177 0 -0.0001022627690059015 0.013427700947885653 0 6.498462435702783e-05 0.01248967864115753 0 -0.00089310399582023434 0.012878821709776177 0 -0.0017198729641526025 0.011807501898931228 0 -0.0018423199195686864 0.012910207941093451 0 -0.0027497911692783176 0.011883880032910969 0 -0.0017198729641526025 0.011807501898931228 0 -0.00089310399582023434 0.012878821709776177 0 -0.0018423199195686864 0.012910207941093451 0 -0.0018423199195686864 0.012910207941093451 0 -0.0021772733927655484 0.013978075702716525 0 -0.0033079337563032387 0.01302819161434263 0 -0.00096346981602780956 0.013728388002681655 0 -0.0018423199195686864 0.012910207941093451 0 -0.0021772733927655484 0.013978075702716525 0 -0.0032197872632580651 0.015034105817827315 0 -0.0021772733927655484 0.013978075702716525 0 -0.0033079337563032387 0.01302819161434263 0 -0.0042869326975146305 0.011109596886077024 0 -0.0033079337563032387 0.01302819161434263 0 -0.0027497911692783176 0.011883880032910969 0 -0.0018423199195686864 0.012910207941093451 0 -0.0033079337563032387 0.01302819161434263 0 -0.0027497911692783176 0.011883880032910969 0 -0.0042869326975146305 0.011109596886077024 0 -0.0059110860982916763 0.011310370435244537 0 -0.0048527076496441696 0.013322301060217938 0 -0.0042869326975146305 0.011109596886077024 0 -0.0033079337563032387 0.01302819161434263 0 -0.0048527076496441696 0.013322301060217938 0 -0.0059110860982916763 0.011310370435244537 0 -0.006429312654673394 0.012822071720871889 0 -0.0048527076496441696 0.013322301060217938 0 -0.0073943332226800787 0.011600518646538565 0 -0.0026572415744413737 0.013135375810269264 0 -0.0074723036698447149 0.010572237146771093 0 -0.0067176881940975734 0.011977411501995694 0 -0.0084798938147947357 0.011630896430671252 0 -0.006429312654673394 0.012822071720871889 0 -0.0048527076496441696 0.013322301060217938 0 -0.0053182896699634505 0.014770025314425323 0 -0.0032197872632580651 0.015034105817827315 0 -0.0033079337563032387 0.01302819161434263 0 -0.0048527076496441696 0.013322301060217938 0 -0.0032197872632580651 0.015034105817827315 0 -0.0048527076496441696 0.013322301060217938 0 -0.0053182896699634505 0.014770025314425323 0 -0.0026572415744413737 0.013135375810269264 0 0.0021420513011395845 0.014310256609861188 0 0.0012275041489707024 0.01436868549009866 0 0.0013349020719756798 0.01434386875744466 0 0.001297518039404217 0.014175954927407856 0 -0.00084396896171395756 0.014861590366070798 0 -0.0026572415744413737 0.013135375810269264 0 0.00047586162854717194 0.011633023421598878 0 -0.0015497087901608249 0.012919248392047148 0 8.0605440656740757e-05 0.013876632137207757 0 -0.0015497087901608249 0.012919248392047148 0 8.0605440656740757e-05 0.013876632137207757 0 -0.00064264618813791657 0.014461661432703535 0 8.0605440656740757e-05 0.013876632137207757 0 -0.00064264618813791657 0.014461661432703535 0 -0.00022606936748109738 0.014587332301240499 0 -0.00064264618813791657 0.014461661432703535 0 -0.00022606936748109738 0.014587332301240499 0 -0.00055434050896825519 0.014694820085158627 0 8.0605440656740757e-05 0.013876632137207757 0 -0.00022606936748109738 0.014587332301240499 0 0.00058620420551187813 0.014289389713617319 0 0.00047586162854717194 0.011633023421598878 0 8.0605440656740757e-05 0.013876632137207757 0 0.001297518039404217 0.014175954927407856 0 8.0605440656740757e-05 0.013876632137207757 0 0.00058620420551187813 0.014289389713617319 0 0.001297518039404217 0.014175954927407856 0 -0.00539507738435619 0.016288534436793057 0 -0.0036682305666873721 0.013452827023819572 0 -0.0073433260502578828 0.013373412330612636 0 -0.00539507738435619 0.016288534436793057 0 -0.0073433260502578828 0.013373412330612636 0 -0.009117184114695729 0.015007615005211123 0 -0.0010497653474232859 0.014585187434379069 0 -0.0028179704369626747 0.015498389078516625 0 -0.00064264618813791657 0.014461661432703535 0 -0.00539507738435619 0.016288534436793057 0 -0.0036682305666873721 0.013452827023819572 0 -0.00064264618813791657 0.014461661432703535 0 -0.0012236095753581627 0.014503815547217899 0 -0.00082893417658060629 0.014739551397077192 0 -0.0015497087901608249 0.012919248392047148 0 -0.00064264618813791657 0.014461661432703535 0 -0.0036682305666873721 0.013452827023819572 0 -0.0015497087901608249 0.012919248392047148 0 -0.0036682305666873721 0.013452827023819572 0 -0.004387362990259552 0.010783787948358875 0 -0.0026572415744413737 0.013135375810269264 0 -0.0065843427044068878 0.011079453231975771 0 0.00047586162854717194 0.011633023421598878 0 -0.0015497087901608249 0.012919248392047148 0 -0.004387362990259552 0.010783787948358875 0 -0.0073433260502578828 0.013373412330612636 0 -0.004387362990259552 0.010783787948358875 0 -0.0099260361061788184 0.011294768768560306 0 -0.0036682305666873721 0.013452827023819572 0 -0.0073433260502578828 0.013373412330612636 0 -0.004387362990259552 0.010783787948358875 0 -0.0084798938147947357 0.011630896430671252 0 -0.0091457668914970997 0.01024899102987983 0 -0.0099260361061788184 0.011294768768560306 0 -0.0065843427044068878 0.011079453231975771 0 -0.009599099947071402 0.011272691759045083 0 -0.0074723036698447149 0.010572237146771093 0 -0.0084798938147947357 0.011630896430671252 0 -0.0091457668914970997 0.01024899102987983 0 -0.0078709321765982575 0.0099434279574348323 0 -0.0073943332226800787 0.011600518646538565 0 -0.0082037664889497482 0.0091942706123357941 0 -0.0074723036698447149 0.010572237146771093 0 -0.0091457668914970997 0.01024899102987983 0 -0.0091457668914970997 0.01024899102987983 0 -0.010738170786208513 0.010275557840661458 0 -0.0099260361061788184 0.011294768768560306 0 -0.010294664994357846 0.0092521584378150289 0 -0.0091457668914970997 0.01024899102987983 0 -0.010738170786208513 0.010275557840661458 0 -0.0099260361061788184 0.011294768768560306 0 -0.012239448389910982 0.0110195972223041 0 -0.011880416651660439 0.012590210314745382 0 -0.010738170786208513 0.010275557840661458 0 -0.0099260361061788184 0.011294768768560306 0 -0.012239448389910982 0.0110195972223041 0 -0.01519873449866793 0.010460514022959772 0 -0.014381601209324215 0.010048796005521308 0 -0.014153038549713219 0.01100624956023203 0 -0.012946004840243788 0.0098221106227621459 0 -0.014381601209324215 0.010048796005521308 0 -0.014153038549713219 0.01100624956023203 0 -0.012946004840243788 0.0098221106227621459 0 -0.010738170786208513 0.010275557840661458 0 -0.012239448389910982 0.0110195972223041 0 -0.012946004840243788 0.0098221106227621459 0 -0.014153038549713219 0.01100624956023203 0 -0.012239448389910982 0.0110195972223041 0 -0.014153038549713219 0.01100624956023203 0 -0.013374006251150081 0.012239331016493953 0 -0.012239448389910982 0.0110195972223041 0 -0.013374006251150081 0.012239331016493953 0 -0.012239448389910982 0.0110195972223041 0 -0.011880416651660439 0.012590210314745382 0 -0.015158423469778762 0.012282268636079752 0 -0.014153038549713219 0.01100624956023203 0 -0.013374006251150081 0.012239331016493953 0 -0.019111715241220129 0.012491676180333842 0 -0.012168984733495959 0.012272269602887072 0 -0.015688662948645536 0.012045236115173394 0 -0.013374006251150081 0.012239331016493953 0 -0.013624007902574304 0.013776706803938749 0 -0.015688662948645536 0.012045236115173394 0 -0.013624007902574304 0.013776706803938749 0 -0.015163844989165667 0.014606423926928042 0 -0.013374006251150081 0.012239331016493953 0 -0.013624007902574304 0.013776706803938749 0 -0.011880416651660439 0.012590210314745382 0 -0.013624007902574304 0.013776706803938749 0 -0.012099946142827384 0.014615059990075176 0 -0.011880416651660439 0.012590210314745382 0 -0.013624007902574304 0.013776706803938749 0 -0.012099946142827384 0.014615059990075176 0 -0.013692439532725597 0.015675171132694943 0 -0.012099946142827384 0.014615059990075176 0 -0.013692439532725597 0.015675171132694943 0 -0.01219337936046864 0.016827847925086622 0 -0.013624007902574304 0.013776706803938749 0 -0.013692439532725597 0.015675171132694943 0 -0.015163844989165667 0.014606423926928042 0 -0.0073433260502578828 0.013373412330612636 0 -0.0099260361061788184 0.011294768768560306 0 -0.010304249014773047 0.013630316368724575 0 -0.0099260361061788184 0.011294768768560306 0 -0.011880416651660439 0.012590210314745382 0 -0.010304249014773047 0.013630316368724575 0 -0.012099946142827384 0.014615059990075176 0 -0.011880416651660439 0.012590210314745382 0 -0.010304249014773047 0.013630316368724575 0 -0.012099946142827384 0.014615059990075176 0 -0.010826327361099702 0.015324410050721698 0 -0.01219337936046864 0.016827847925086622 0 -0.010304249014773047 0.013630316368724575 0 -0.010826327361099702 0.015324410050721698 0 -0.009117184114695729 0.015007615005211123 0 -0.012099946142827384 0.014615059990075176 0 -0.010304249014773047 0.013630316368724575 0 -0.010826327361099702 0.015324410050721698 0 -0.00539507738435619 0.016288534436793057 0 -0.009117184114695729 0.015007615005211123 0 -0.009637078982221655 0.017187216195433366 0 -0.010826327361099702 0.015324410050721698 0 -0.009117184114695729 0.015007615005211123 0 -0.0095826398268247254 0.016424230341893484 0 -0.0092698568930491328 0.016036494103679182 0 -0.008326472977638992 0.013779235851481185 0 -0.0073433260502578828 0.013373412330612636 0 -0.010304249014773047 0.013630316368724575 0 -0.009117184114695729 0.015007615005211123 0 -0.0028179704369626747 0.015498389078516625 0 -0.008326472977638992 0.013779235851481185 0 -0.0020939340561503942 0.014612374301840583 0 -0.0017991430470822879 0.015108223807565381 0 -0.0014552186959923238 0.014903432185645349 0 -0.010826327361099702 0.015324410050721698 0 -0.0095826398268247254 0.016424230341893484 0 -0.01219337936046864 0.016827847925086622 0 -0.008326472977638992 0.013779235851481185 0 -0.012126746481497299 0.013688663716366144 0 -0.011553879309451892 0.010236825271579575 0 -0.012431876968730585 0.011371393329660428 0 -0.013034597751480564 0.010528888490864604 0 -0.012431876968730585 0.011371393329660428 0 -0.012019962262932926 0.011793863964251914 0 -0.013058689736791121 0.012183442660791213 0 -0.011553879309451892 0.010236825271579575 0 -0.012431876968730585 0.011371393329660428 0 -0.011960860628068466 0.011852536515669452 0 -0.011843303981135153 0.010735385118392532 0 -0.008021187692300152 0.013072188220839309 0 -0.0022841656394578008 0.01540707353408965 0 -0.0016843370498879021 0.01546792626364794 0 -0.0017991430470822879 0.015108223807565381 0 -0.008326472977638992 0.013779235851481185 0 -0.008021187692300152 0.013072188220839309 0 -0.0020939340561503942 0.014612374301840583 0 -0.0022841656394578008 0.01540707353408965 0 -0.0017991430470822879 0.015108223807565381 0 -0.027245049594436334 0.011452554748417807 0 -0.027287821060128795 0.011664160397640596 0 -0.027315321053947034 0.011379983195621465 0 -0.021600094388433206 0.013285755943694763 0 -0.019426999561640887 0.012612644290636738 0 -0.013692439532725597 0.015675171132694943 0 -0.015163844989165667 0.014606423926928042 0 -0.014638361372710526 0.017249500091010787 0 -0.027245049594436334 0.011452554748417807 0 -0.027257226814264856 0.011352742050102666 0 -0.027315321053947034 0.011379983195621465 0 -0.025168443415597892 0.012918963530587307 0 -0.019426999561640887 0.012612644290636738 0 -0.013692439532725597 0.015675171132694943 0 -0.014638361372710526 0.017249500091010787 0 -0.01219337936046864 0.016827847925086622 0 -0.019426999561640887 0.012612644290636738 0 -0.012126746481497299 0.013688663716366144 0 -0.014482816698576133 0.010826350363763603 0 -0.013034597751480564 0.010528888490864604 0 -0.013434634220317579 0.011421808031766508 0 -0.013434634220317579 0.011421808031766508 0 -0.014180692875997372 0.012038160995144223 0 -0.013058689736791121 0.012183442660791213 0 -0.012431876968730585 0.011371393329660428 0 -0.013034597751480564 0.010528888490864604 0 -0.013434634220317579 0.011421808031766508 0 -0.012431876968730585 0.011371393329660428 0 -0.013434634220317579 0.011421808031766508 0 -0.013058689736791121 0.012183442660791213 0 -0.027257226814264856 0.011352742050102666 0 -0.027275099015689846 0.011359546776178659 0 -0.027261198260451314 0.011175097267013304 0 -0.027203064016850412 0.011200376526573953 0 -0.027257226814264856 0.011352742050102666 0 -0.027261198260451314 0.011175097267013304 0 -0.014482816698576133 0.010826350363763603 0 -0.013434634220317579 0.011421808031766508 0 -0.014180692875997372 0.012038160995144223 0 -0.019426999561640887 0.012612644290636738 0 -0.020840040189582052 0.011814407750023804 0 -0.020840040189582052 0.011814407750023804 0 -0.018002939520637348 0.0087618887864187537 0 -0.027165973365581551 0.011015867656195045 0 -0.027261198260451314 0.011175097267013304 0 -0.027216249623714342 0.01105540756580119 0 -0.014180692875997372 0.012038160995144223 0 -0.013058689736791121 0.012183442660791213 0 -0.013902446522511869 0.013218707229289531 0 -0.013058689736791121 0.012183442660791213 0 -0.013902446522511869 0.013218707229289531 0 -0.012394713335689487 0.013249762305226617 0 -0.0094590129979708112 0.0069458989525723767 0 -0.010464297703746156 0.0060880661097128079 0 -0.0085080909160313127 0.0061396375328944229 0 -0.018002939520637348 0.0087618887864187537 0 -0.0086111205755530894 0.0097309645020450565 0 -0.025488659820929453 0.0077814776803766294 0 -0.018002939520637348 0.0087618887864187537 0 -0.021369937859324416 0.0047894737457266625 0 -0.020069947216642778 0.0055239774681774909 0 -0.019796108312231102 0.0047306109109779932 0 -0.0022841656394578008 0.01540707353408965 0 -0.0016843370498879021 0.01546792626364794 0 -0.0018692125651282956 0.015801339123504923 0 -0.0032075478044606702 0.014458392945257538 0 -0.0036656801427195577 0.01118385023529034 0 -0.008021187692300152 0.013072188220839309 0 -0.0032075478044606702 0.014458392945257538 0 -0.0063150926013444608 0.011276506626281256 0 -0.0057164853738323716 0.01187431128021391 0 -0.0066072163567189304 0.01243910035481806 0 -0.008021187692300152 0.013072188220839309 0 -0.0086111205755530894 0.0097309645020450565 0 -0.012019962262932926 0.011793863964251914 0 -0.013058689736791121 0.012183442660791213 0 -0.012394713335689487 0.013249762305226617 0 -0.008864845244999045 0.007873408364615397 0 -0.0094590129979708112 0.0069458989525723767 0 -0.0085080909160313127 0.0061396375328944229 0 -0.0085977506820426094 0.0063458838331334694 0 -0.0086111205755530894 0.0097309645020450565 0 -0.0086111205755530894 0.0097309645020450565 0 -0.0036656801427195577 0.01118385023529034 0 -0.0074231113297134818 0.0072904007712909233 0 -0.0083598163187710919 0.0059308199096204757 0 -0.0056345558752968622 0.0059882676007872023 0 -0.0057164853738323716 0.01187431128021391 0 -0.0066072163567189304 0.01243910035481806 0 -0.0051163110550575455 0.012476334894720218 0 -0.0036656801427195577 0.01118385023529034 0 0.00097420468342214179 0.013288916153320056 0 -0.0014682884176345163 0.01618777400657791 0 -0.0012482605719961704 0.015722679769927181 0 -0.00079892521596601485 0.016201405064658721 0 -0.0010102970051039325 0.011879505131264477 0 -0.0020350634336821455 0.010826298899724649 0 9.5082192169019381e-05 0.010881050342725927 0 -0.00012793073202491299 0.0079165343271741743 0 -0.0036656801427195577 0.01118385023529034 0 -0.0016843370498879021 0.01546792626364794 0 -0.0018692125651282956 0.015801339123504923 0 -0.0012482605719961704 0.015722679769927181 0 -0.0018692125651282956 0.015801339123504923 0 -0.0014682884176345163 0.01618777400657791 0 -0.0012482605719961704 0.015722679769927181 0 -0.0016843370498879021 0.01546792626364794 0 -0.0012482605719961704 0.015722679769927181 0 -0.0012894760944418512 0.015375915893991395 0 -0.0012482605719961704 0.015722679769927181 0 -0.00074573527695146651 0.01565597492195964 0 -0.00079892521596601485 0.016201405064658721 0 -0.00074573527695146651 0.01565597492195964 0 -0.00079892521596601485 0.016201405064658721 0 -0.00050962059746864109 0.015589421294449514 0 -0.00074573527695146651 0.01565597492195964 0 -0.00050962059746864109 0.015589421294449514 0 -0.00057942741361120906 0.015398746245121567 0 -0.0012482605719961704 0.015722679769927181 0 -0.00074573527695146651 0.01565597492195964 0 -0.00091728527930772343 0.015391487485879207 0 0.0045974633805573881 0.010051789082691099 0 0.0048301348907613586 0.010084475297704587 0 0.0047035641747476516 0.010221740367803099 0 -0.00012793073202491299 0.0079165343271741743 0 0.00097420468342214179 0.013288916153320056 0 0.00023443477106852248 0.01522577769600285 0 -2.1081223466436521e-05 0.015241247401512057 0 -2.7952570122720649e-05 0.015336848849767911 0 0.0045974633805573881 0.010051789082691099 0 0.0047035641747476516 0.010221740367803099 0 0.0044546383293435753 0.010249900029709455 0 0.00097420468342214179 0.013288916153320056 0 0.002490664243183993 0.01273269804004438 0 -2.1081223466436521e-05 0.015241247401512057 0 -0.00010822595263474365 0.015352867161798135 0 -2.7952570122720649e-05 0.015336848849767911 0 0.002490664243183993 0.01273269804004438 0 0.0019405899574699832 0.013033171590465301 0 -2.1081223466436521e-05 0.015241247401512057 0 -0.00016019707132809024 0.015296736748893591 0 -0.00010822595263474365 0.015352867161798135 0 0.0043443023261410399 0.0099789896609145615 0 0.0044546383293435753 0.010249900029709455 0 0.0041419063624760152 0.010295856434497014 0 0.0023091799812438654 0.012542548284224473 0 0.0019514991335327376 0.013281003976110295 0 0.0017903973605699461 0.013979975002679897 0 0.0019405899574699832 0.013033171590465301 0 0.00065816329287289523 0.014789349707246775 0 -0.00016019707132809024 0.015296736748893591 0 -0.00010822595263474365 0.015352867161798135 0 -6.7580290549589108e-05 0.015422921353255277 0 -0.00010822595263474365 0.015352867161798135 0 -9.2609989631851639e-05 0.015412051536245227 0 -6.7580290549589108e-05 0.015422921353255277 0 0.002041153770032392 0.012918914534236501 0 0.0023091799812438654 0.012542548284224473 0 0.0019514991335327376 0.013281003976110295 0 -0.00010822595263474365 0.015352867161798135 0 -9.2609989631851639e-05 0.015412051536245227 0 -2.7952570122720649e-05 0.015336848849767911 0 -9.2609989631851639e-05 0.015412051536245227 0 -9.6767233003902932e-05 0.015471364261277057 0 -6.7580290549589108e-05 0.015422921353255277 0 0.0018096787426776914 0.013604543272581079 0 0.0019514991335327376 0.013281003976110295 0 0.0017903973605699461 0.013979975002679897 0 0.0018085133704675166 0.013359311118057647 0 0.0018096787426776914 0.013604543272581079 0 0.0016959084995715203 0.013671793712135913 0 0.0018085133704675166 0.013359311118057647 0 0.0018096787426776914 0.013604543272581079 0 0.0019514991335327376 0.013281003976110295 0 0.00097420468342214179 0.013288916153320056 0 -0.00075218998658489191 0.016436716594471476 0 0.00023443477106852248 0.01522577769600285 0 -2.7952570122720649e-05 0.015336848849767911 0 -9.6767233003902932e-05 0.015471364261277057 0 -0.00079892521596601485 0.016201405064658721 0 -9.6767233003902932e-05 0.015471364261277057 0 -0.00050962059746864109 0.015589421294449514 0 -9.2609989631851639e-05 0.015412051536245227 0 -2.7952570122720649e-05 0.015336848849767911 0 -9.6767233003902932e-05 0.015471364261277057 0 -0.00050962059746864109 0.015589421294449514 0 -0.00035279355342676341 0.015321838446786641 0 -0.00057942741361120906 0.015398746245121567 0 -0.00035279355342676341 0.015321838446786641 0 -0.00057942741361120906 0.015398746245121567 0 -0.00065082457119268683 0.015151795756920564 0 -9.6767233003902932e-05 0.015471364261277057 0 -0.00050962059746864109 0.015589421294449514 0 -0.00035279355342676341 0.015321838446786641 0 -9.6767233003902932e-05 0.015471364261277057 0 -0.00035279355342676341 0.015321838446786641 0 -6.7580290549589108e-05 0.015422921353255277 0 -0.00035279355342676341 0.015321838446786641 0 -6.7580290549589108e-05 0.015422921353255277 0 -0.00043270812469435496 0.015005090048382966 0 -0.00035279355342676341 0.015321838446786641 0 -0.00043270812469435496 0.015005090048382966 0 -0.00065082457119268683 0.015151795756920564 0 0.0017903973605699461 0.013979975002679897 0 0.0014833210277905007 0.014079482648542717 0 0.0010422532877977187 0.014285923296066521 0 0.0016959084995715203 0.013671793712135913 0 0.0016811463863222174 0.013842976701334962 0 0.0015891858470278406 0.013868648830612536 0 0.0018096787426776914 0.013604543272581079 0 0.0016959084995715203 0.013671793712135913 0 0.0016811463863222174 0.013842976701334962 0 0.0018096787426776914 0.013604543272581079 0 0.0016811463863222174 0.013842976701334962 0 0.0017903973605699461 0.013979975002679897 0 0.0016811463863222174 0.013842976701334962 0 0.0017903973605699461 0.013979975002679897 0 0.0014833210277905007 0.014079482648542717 0 0.0014268226110130235 0.014015358318285239 0 0.0014833210277905007 0.014079482648542717 0 0.0015891858470278406 0.013868648830612536 0 0.0016811463863222174 0.013842976701334962 0 0.0014833210277905007 0.014079482648542717 0 0.0015891858470278406 0.013868648830612536 0 0.0014268226110130235 0.014015358318285239 0 0.0014833210277905007 0.014079482648542717 0 0.0013427671733002302 0.014155086833101264 0 0.0014833210277905007 0.014079482648542717 0 0.0010422532877977187 0.014285923296066521 0 0.0013427671733002302 0.014155086833101264 0 0.00058620420551187813 0.014289389713617319 0 0.001297518039404217 0.014175954927407856 0 0.0010422532877977187 0.014285923296066521 0 0.001297518039404217 0.014175954927407856 0 0.0010422532877977187 0.014285923296066521 0 0.0013427671733002302 0.014155086833101264 0 0.001298353028604457 0.014144111758128351 0 0.001297518039404217 0.014175954927407856 0 0.0013427671733002302 0.014155086833101264 0 -0.00022606936748109738 0.014587332301240499 0 -6.7580290549589108e-05 0.015422921353255277 0 -0.00043270812469435496 0.015005090048382966 0 -9.300892301917982e-05 0.014400536820600513 0 0.00065816329287289523 0.014789349707246775 0 -0.00022606936748109738 0.014587332301240499 0 0.0017903973605699461 0.013979975002679897 0 0.0010422532877977187 0.014285923296066521 0 -0.00022606936748109738 0.014587332301240499 0 0.00058620420551187813 0.014289389713617319 0 0.0010422532877977187 0.014285923296066521 0 -0.00022606936748109738 0.014587332301240499 0 -0.00043270812469435496 0.015005090048382966 0 -0.00055434050896825519 0.014694820085158627 0 -0.00043270812469435496 0.015005090048382966 0 -0.00055434050896825519 0.014694820085158627 0 -0.00082893417658060629 0.014739551397077192 0 -0.00064264618813791657 0.014461661432703535 0 -0.00055434050896825519 0.014694820085158627 0 -0.00082893417658060629 0.014739551397077192 0 -0.0012236095753581627 0.014503815547217899 0 -0.00082893417658060629 0.014739551397077192 0 -0.0010341866604360042 0.015063803111512437 0 -0.00043270812469435496 0.015005090048382966 0 -0.00082893417658060629 0.014739551397077192 0 -0.00065082457119268683 0.015151795756920564 0 -0.00082893417658060629 0.014739551397077192 0 -0.00065082457119268683 0.015151795756920564 0 -0.0010341866604360042 0.015063803111512437 0 -0.0012236095753581627 0.014503815547217899 0 -0.0020939340561503942 0.014612374301840583 0 -0.0014552186959923238 0.014903432185645349 0 -0.0012236095753581627 0.014503815547217899 0 -0.0014552186959923238 0.014903432185645349 0 -0.0010341866604360042 0.015063803111512437 0 -0.0014552186959923238 0.014903432185645349 0 -0.0012894760944418512 0.015375915893991395 0 -0.0010341866604360042 0.015063803111512437 0 -0.0017991430470822879 0.015108223807565381 0 -0.0014552186959923238 0.014903432185645349 0 -0.0012894760944418512 0.015375915893991395 0 -0.0016843370498879021 0.01546792626364794 0 -0.0017991430470822879 0.015108223807565381 0 -0.0012894760944418512 0.015375915893991395 0 -0.0012482605719961704 0.015722679769927181 0 -0.0012894760944418512 0.015375915893991395 0 -0.00091728527930772343 0.015391487485879207 0 -0.0012894760944418512 0.015375915893991395 0 -0.00091728527930772343 0.015391487485879207 0 -0.0010341866604360042 0.015063803111512437 0 -0.00091728527930772343 0.015391487485879207 0 -0.00057942741361120906 0.015398746245121567 0 -0.00065082457119268683 0.015151795756920564 0 -0.00074573527695146651 0.01565597492195964 0 -0.00091728527930772343 0.015391487485879207 0 -0.00057942741361120906 0.015398746245121567 0 -0.00091728527930772343 0.015391487485879207 0 -0.00065082457119268683 0.015151795756920564 0 -0.0010341866604360042 0.015063803111512437 0 
</DataArray>
</PointData>
<CellData Scalars="region_id,cross_section_updated," Vectors="" Tensors="stress,">
<DataArray type="Float64" Name="region_id" format="ascii">
5 5 5 5 5 5 6 5 5 5 6 5 5 5 6 5 5 5 5 5 5 6 6 5 5 5 5 6 6 5 6 6 5 6 5 5 5 6 5 5 6 5 5 5 5 5 5 5 6 5 5 5 5 5 5 5 5 6 5 5 6 5 6 5 6 5 6 5 5 5 5 5 5 5 5 5 5 5 5 5 5 5 5 6 5 5 5 5 5 5 5 5 6 5 5 6 6 5 5 5 5 5 5 5 5 5 5 5 5 6 5 5 5 5 5 6 5 5 6 5 5 5 5 5 5 5 5 5 5 5 5 5 5 5 5 5 5 5 6 5 5 5 5 5 6 5 5 5 5 5 5 5 5 5 5 5 5 5 5 5 5 5 5 5 5 5 5 5 5 6 5 6 5 5 5 6 5 5 5 6 5 5 5 6 6 5 5 6 5 5 5 5 6 5 5 5 5 5 6 5 5 5 5 6 5 6 5 5 6 5 5 5 6 5 5 6 5 5 5 5 5 5 5 5 5 5 6 5 5 6 5 5 5 5 5 5 5 6 5 5 5 5 5 5 5 5 5 5 5 5 5 5 5 5 5 5 5 5 5 6 5 6 5 5 5 5 5 6 5 5 5 5 5 5 5 5 6 5 5 5 6 5 5 6 5 5 5 5 6 5 5 6 5 5 5 5 5 6 5 6 5 5 5 5 5 5 5 5 5 5 5 5 5 5 5 5 5 5 6 5 5 5 5 5 6 6 5 5 5 5 5 5 5 5 5 5 6 5 5 5 5 5 5 5 5 5 6 5 5 6 6 5 5 5 6 5 5 6 5 5 5 5 5 5 5 5 5 5 5 5 5 5 5 6 5 5 5 5 5 5 5 5 6 5 5 6 5 5 5 5 6 5 5 5 5 5 5 5 5 5 5 5 5 5 5 6 6 5 5 6 6 5 6 5 6 5 6 5 5 6 5 5 5 5 5 5 5 5 5 6 6 5 5 6 5 5 5 5 5 6 5 5 6 5 5 5 5 6 5 5 5 6 5 5 5 6 5 6 5 5 6 5 5 5 5 5 5 5 5 5 5 5 6 5 5 5 5 5 5 6 5 5 5 6 5 5 5 5 5 5 5 6 5 5 5 5 5 6 5 6 5 5 5 5 5 6 6 5 5 5 6 6 5 6 5 5 5 5 5 5 5 6 5 5 5 5 5 5 5 5 5 5 5 5 5 5 6 5 5 6 5 6 5 5 5 5 5 5 5 5 5 5 5 5 5 5 6 5 5 5 5 5 5 5 5 5 5 5 5 5 5 5 5 6 5 5 5 5 5 5 5 5 5 5 5 6 6 5 5 5 5 5 5 5 5 5 5 5 5 5 5 5 5 6 5 5 5 5 5 5 5 6 5 5 5 5 5 5 5 5 6 5 5 5 6 5 5 5 5 5 5 5 5 5 5 5 5 5 5 5 5 5 5 5 5 5 5 5 5 5 5 5 5 6 5 6 5 5 5 5 5 5 5 5 5 5 5 5 5 6 5 5 5 6 5 5 5 5 5 5 5 5 5 5 5 5 5 6 6 5 5 5 5 5 5 5 6 5 5 5 5 5 5 5 5 5 5 5 6 5 5 5 5 5 5 5 6 5 5 5 5 5 5 5 5 5 5 5 5 5 5 5 5 5 6 5 5 5 5 5 5 5 5 5 5 6 5 5 5 5 5 6 5 5 5 6 5 5 5 5 6 5 5 5 5 5 5 5 6 5 6 5 5 6 5 6 5 5 5 5 5 5 5 5 5 5 5 5 5 5 5 5 5 5 5 5 5 5 5 5 5 5 5 5 5 5 5 5 5 5 5 6 5 6 6 5 5 5 5 5 5 5 5 5 5 5 6 5 5 5 5 5 5 5 6 5 6 5 6 5 5 5 5 5 5 6 5 6 6 5 5 5 5 5 5 5 5 5 5 5 5 5 5 5 5 5 6 5 5 5 5 5 5 5 5 5 5 5 5 5 5 6 5 5 5 5 5 5 5 5 5 5 5 5 5 6 5 5 5 5 5 5 5 5 5 6 5 5 5 5 5 6 6 5 5 5 5 6 6 5 5 5 5 5 5 5 5 5 5 5 6 5 5 5 5 6 5 5 5 5 5 5 6 5 5 6 5 6 5 5 5 6 5 5 5 5 5 5 5 6 5 5 5 5 6 6 5 5 6 5 5 5 6 6 6 6 5 5 6 5 5 5 5 5 5 5 5 6 6 5 5 5 5 5 5 6 5 6 5 5 5 6 5 5 5 5 5 5 5 5 5 5 5 5 5 5 5 5 5 5 5 5 5 5 5 5 5 5 5 5 6 5 5 5 5 5 5 5 5 5 5 5 5 5 5 5 5 5 5 5 5 5 6 5 5 5 5 5 5 5 5 5 6 5 5 5 5 5 5 6 5 5 5 5 5 6 5 5 5 5 5 6 5 5 5 5 5 5 5 5 5 5 6 5 5 5 5 6 6 5 5 6 5 5 5 5 6 5 5 6 5 5 5 5 5 6 6 5 5 5 5 5 5 6 5 5 5 5 5 5 5 6 6 5 5 5 6 5 5 5 6 5 5 6 5 6 5 5 5 6 5 5 6 6 5 5 5 5 5 5 6 5 6 5 6 5 5 5 6 6 5 6 5 5 5 5 5 5 5 5 5 5 5 5 5 5 5 5 6 5 5 5 5 5 5 5 6 5 5 5 5 5 6 5 5 5 6 5 5 5 5 6 5 6 5 6 5 5 5 5 6 5 5 6 5 5 5 5 5 5 5 5 5 5 5 6 5 5 5 5 6 5 5 5 5 6 5 5 5 5 5 5 6 5 5 5 6 5 6 6 5 5 5 5 5 5 5 5 5 5 5 5 5 5 5 5 5 5 5 5 5 5 5 5 5 5 5 5 6 5 5 6 6 5 6 5 5 5 5 6 5 5 6 5 5 5 5 5 5 5 5 5 5 5 5 5 5 5 5 5 5 5 5 5 5 5 5 5 5 5 5 6 5 5 5 5 5 5 5 5 6 5 5 5 5 5 5 5 6 5 6 5 5 5 6 5 5 5 5 5 5 5 6 5 6 5 5 5 5 5 6 5 5 5 5 5 5 5 5 5 5 5 5 5 5 5 5 5 5 5 5 5 5 5 5 5 5 5 5 5 5 5 5 5 5 5 5 5 5 5 6 6 5 5 6 5 5 5 6 5 5 5 6 6 5 5 6 5 5 5 5 5 5 5 5 5 5 5 5 5 5 5 5 5 5 5 5 5 6 5 6 5 5 5 5 5 5 5 5 5 5 5 5 5 5 5 5 5 5 5 5 5 5 5 5 5 5 5 5 5 5 5 5 5 5 5 5 5 5 5 5 5 5 5 5 5 6 5 6 5 6 5 5 6 5 5 5 5 5 5 5 5 5 5 5 5 5 5 5 5 5 5 5 5 5 5 5 5 5 5 5 6 5 5 5 5 5 5 5 5 5 5 5 5 5 5 5 5 5 5 5 5 5 5 5 5 5 5 5 5 5 5 5 5 5 5 5 5 5 5 5 5 5 5 5 5 5 5 5 5 5 6 5 5 5 5 6 5 5 5 5 5 5 5 5 6 5 5 5 5 5 6 6 6 5 5 5 5 6 6 5 5 6 5 5 5 5 5 5 5 5 5 5 5 5 5 5 6 6 5 6 5 5 5 5 5 5 5 5 5 5 5 5 5 5 5 5 5 5 6 5 5 5 5 5 5 6 5 5 5 5 5 5 5 5 5 5 5 5 5 5 5 5 5 5 6 5 5 5 5 5 5 5 5 5 6 5 5 6 5 5 5 5 5 5 5 5 5 5 5 5 5 5 5 5 6 5 6 5 5 5 5 6 5 6 5 5 6 6 5 5 6 5 5 5 6 5 5 5 5 5 5 6 5 5 5 6 5 5 5 5 6 5 5 5 5 5 5 5 6 5 5 5 5 5 6 5 5 6 5 5 5 5 5 5 5 6 5 5 5 6 6 5 5 5 6 5 5 5 5 5 6 6 6 5 5 5 5 5 5 5 5 5 6 6 5 6 5 5 5 5 5 6 5 5 6 5 6 5 5 5 6 5 5 6 5 5 5 5 5 5 5 6 5 5 6 6 5 5 6 5 6 5 5 6 5 5 6 5 6 5 5 5 6 5 5 6 5 6 5 5 6 5 6 5 5 5 5 6 6 5 5 5 5 5 5 5 5 5 6 5 5 5 5 5 5 5 5 5 5 5 5 5 5 5 5 5 5 6 6 5 5 5 6 5 5 5 5 6 5 5 6 5 5 5 6 5 5 6 5 5 5 5 6 5 5 5 5 5 6 5 5 5 6 6 5 5 6 5 5 5 5 5 6 6 5 5 5 5 6 5 5 5 5 6 5 5 5 5 5 5 5 5 5 5 5 5 5 5 5 5 5 5 5 5 5 5 5 5 5 5 5 5 6 5 5 5 5 5 5 5 5 5 5 5 6 5 5 5 5 6 5 5 5 6 5 5 6 5 5 5 5 5 6 5 5 5 5 5 5 5 5 5 5 5 5 5 5 5 5 5 5 5 5 6 5 5 5 5 5 6 5 5 5 5 5 5 5 6 5 5 5 5 5 5 5 5 5 5 5 5 5 6 5 5 5 5 5 6 6 5 5 5 5 6 5 6 5 5 5 6 6 5 5 6 5 5 5 6 5 5 5 5 6 5 5 6 6 5 5 5 5 5 5 6 5 5 6 5 5 5 5 6 5 5 5 5 5 5 5 5 5 5 5 5 5 5 5 5 5 5 5 6 5 6 5 5 5 6 5 6 5 6 5 5 6 5 5 6 6 6 5 5 5 6 5 5 5 5 5 5 6 5 5 5 5 5 5 5 6 5 6 5 5 5 5 5 5 5 6 5 5 5 5 5 5 5 5 5 5 5 6 5 5 6 5 5 5 5 5 5 5 5 5 5 5 5 5 5 5 5 6 5 5 5 5 5 5 5 5 5 5 5 5 5 5 5 5 5 5 5 5 5 6 5 5 5 6 5 5 5 5 5 5 5 5 5 5 6 5 5 5 5 5 5 5 5 5 5 6 5 5 5 5 5 5 6 5 5 5 6 5 5 5 5 5 5 5 5 5 5 5 5 5 5 5 5 5 5 5 5 5 6 5 5 5 5 5 6 5 5 6 5 5 5 5 5 5 6 5 5 5 5 6 5 5 5 5 5 5 5 5 5 5 5 5 5 5 5 5 5 5 6 5 5 5 5 5 6 5 5 5 6 5 6 5 5 5 5 5 5 5 6 5 5 5 6 6 5 5 5 5 5 6 5 5 5 6 5 5 5 5 5 5 5 5 5 5 5 5 5 5 5 6 5 5 5 5 5 5 6 5 5 5 5 5 5 5 5 5 5 5 6 5 5 5 5 5 5 5 5 5 6 5 5 5 5 6 6 5 5 5 5 5 5 5 5 6 6 5 6 5 5 5 5 5 6 5 5 5 5 5 5 6 5 6 5 5 5 5 5 5 5 5 5 5 6 5 5 5 5 5 5 6 5 5 5 5 5 5 5 5 6 5 5 5 5 5 6 5 5 6 5 5 5 5 5 5 6 5 5 5 5 5 5 5 5 6 5 5 5 5 6 5 5 5 5 5 5 5 5 5 5 6 5 5 5 5 5 5 5 5 5 6 5 5 5 5 6 5 5 5 5 5 5 5 5 6 5 6 5 5 5 6 5 5 5 5 5 5 5 5 6 5 5 5 6 5 5 5 6 5 5 6 5 5 5 5 5 5 5 5 5 5 5 5 5 5 5 5 5 5 5 5 5 5 5 5 5 5 5 5 5 5 5 5 5 5 5 5 5 5 5 5 5 5 5 5 5 5 5 5 5 5 5 5 5 6 5 5 5 6 5 5 5 5 5 5 6 5 6 5 5 5 5 6 6 5 5 5 5 5 5 5 5 5 5 5 5 5 5 5 5 5 5 5 5 5 5 6 5 5 6 5 5 5 6 5 5 5 5 5 5 5 5 5 5 5 5 5 5 6 5 6 5 6 5 5 5 5 5 5 5 5 5 5 5 5 5 5 5 5 5 6 5 5 5 5 5 5 5 5 5 5 5 5 5 5 5 5 5 5 5 5 5 5 5 5 5 5 5 5 5 5 5 5 5 6 5 5 5 5 5 5 6 5 5 6 5 6 5 5 6 5 5 5 6 5 5 5 5 5 5 5 5 5 5 5 5 5 5 5 5 5 5 5 5 5 5 5 5 5 6 5 5 5 5 6 5 5 6 5 5 5 5 5 5 5 5 5 5 5 5 5 5 5 5 5 5 5 5 5 5 5 5 5 5 5 5 5 5 6 5 5 5 6 5 5 5 5 6 5 5 5 5 5 6 5 5 5 5 6 5 5 5 5 5 5 5 5 5 5 5 5 5 5 6 6 5 6 5 6 5 5 5 5 5 5 5 5 5 5 5 5 5 5 5 5 5 5 5 5 5 5 5 5 5 6 6 5 5 6 5 5 6 5 5 5 5 5 5 5 5 5 5 5 6 5 5 6 5 5 5 5 5 5 5 5 5 5 5 5 5 5 6 6 5 6 6 5 5 5 5 6 5 5 5 6 6 5 5 5 5 5 5 5 6 5 5 5 5 5 5 5 5 5 5 5 5 5 5 5 5 6 5 5 5 5 6 5 5 5 5 5 5 5 6 5 5 5 5 5 5 5 6 5 5 6 5 5 5 5 5 5 5 5 5 5 5 5 5 5 5 6 5 5 5 5 5 5 5 5 6 5 5 5 5 5 5 5 6 5 5 5 5 5 6 5 5 5 5 6 5 5 5 5 5 5 5 5 5 5 5 5 6 5 5 5 5 5 5 5 5 5 5 5 5 5 5 6 5 5 5 5 5 5 5 5 5 5 5 5 5 6 6 5 5 6 5 5 5 5 6 5 5 5 6 5 5 6 5 5 5 5 6 5 5 5 5 5 5 5 5 5 5 5 5 5 5 5 5 5 5 5 5 5 5 5 5 5 5 5 5 5 5 5 5 5 5 6 5 5 5 6 5 6 5 5 5 5 5 5 5 5 5 5 5 5 5 5 6 5 5 5 5 5 5 5 5 6 5 5 5 6 5 5 5 5 5 5 5 6 5 6 5 5 5 5 5 5 5 5 5 5 5 5 5 5 6 5 5 6 5 5 5 5 5 5 5 6 5 5 5 5 5 5 5 5 5 5 5 5 5 5 5 5 5 5 5 5 5 5 5 5 5 5 5 6 5 5 6 5 5 5 6 5 5 6 5 5 5 5 5 5 5 5 5 5 5 5 5 5 5 5 5 5 5 6 5 5 5 5 5 5 5 5 5 5 5 5 5 6 5 5 5 5 5 5 5 5 5 5 5 5 5 5 5 5 5 5 5 6 5 5 5 5 5 5 5 5 5 5 5 5 5 5 5 5 6 5 5 6 5 5 5 6 5 5 6 5 5 5 5 5 5 5 5 5 5 5 5 5 5 6 5 5 6 5 5 5 5 5 5 5 5 5 5 5 5 5 5 5 5 5 5 5 5 5 5 5 5 5 5 5 5 5 5 5 5 5 5 5 5 6 5 5 5 5 6 5 5 5 5 5 5 5 5 5 5 5 5 5 5 5 6 5 6 6 5 5 6 5 6 5 5 5 5 5 5 5 5 6 5 5 6 5 5 5 5 6 6 5 6 5 5 5 5 5 5 5 5 5 5 5 5 5 5 5 5 5 5 5 5 5 6 5 5 5 5 5 5 5 5 5 5 5 5 5 5 5 5 5 5 5 5 5 5 5 5 5 6 5 5 5 5 5 6 5 5 5 5 5 5 5 5 5 6 5 5 5 5 5 5 5 5 5 5 5 5 5 5 5 5 5 6 6 5 5 6 5 5 5 6 5 5 5 5 5 5 5 5 5 5 6 5 5 6 5 6 5 5 5 5 6 5 5 5 6 5 5 5 5 5 5 6 5 5 5 5 5 5 6 5 5 5 5 5 5 5 5 5 5 5 5 5 5 6 5 5 6 5 5 5 6 6 5 5 5 5 5 5 5 5 5 5 6 5 5 5 6 5 5 5 5 6 5 5 5 5 5 5 5 5 6 5 5 5 5 5 6 6 5 5 5 6 5 6 6 5 5 5 5 5 6 5 5 5 5 5 5 6 5 5 5 5 5 5 5 6 5 5 6 5 5 6 5 5 5 5 5 5 5 5 5 5 5 5 5 5 6 5 5 5 6 5 5 6 5 5 5 5 6 5 5 5 5 5 5 5 5 6 5 5 5 5 6 5 5 5 5 5 5 5 5 6 5 5 5 5 5 5 5 5 5 6 5 5 5 6 5 5 6 5 5 6 5 5 5 5 5 5 5 5 5 6 5 5 5 5 5 5 5 5 5 5 5 5 5 5 5 5 6 5 5 5 5 5 5 5 5 5 5 5 5 5 5 5 5 5 5 5 5 5 5 5 5 5 5 6 5 6 5 5 5 5 5 5 5 5 5 5 6 5 5 6 5 5 5 5 5 5 5 5 5 5 5 5 5 5 5 5 5 5 5 5 5 6 5 5 5 5 5 5 5 5 5 6 5 6 5 5 5 5 5 5 5 6 5 6 5 5 5 5 5 5 5 5 5 5 5 6 5 5 5 5 6 5 6 5 5 5 5 5 5 6 5 5 6 5 5 6 5 5 5 6 6 6 5 5 5 5 5 5 5 5 5 5 5 5 5 6 5 5 5 5 5 5 5 6 5 6 5 6 5 5 6 6 5 5 5 5 5 5 6 5 5 5 5 6 5 6 5 6 5 6 5 5 5 5 6 5 5 5 5 5 6 5 5 5 5 5 5 5 5 5 5 5 5 5 5 6 5 5 5 5 5 6 5 5 5 6 5 5 5 5 5 5 5 5 5 5 5 5 5 5 5 5 5 6 5 5 5 5 6 5 5 5 5 5 5 6 5 5 5 5 5 5 5 5 5 5 6 5 5 6 5 6 5 5 5 5 5 5 5 5 5 5 5 6 5 5 5 5 5 5 6 5 6 6 5 6 5 5 5 5 5 5 5 6 5 5 5 5 5 5 5 5 5 5 5 5 5 5 5 5 6 5 5 5 5 5 5 5 5 5 5 6 5 5 5 5 5 5 5 5 5 5 6 5 5 5 5 6 5 5 5 5 5 6 5 5 5 5 6 5 5 5 5 5 5 5 5 5 5 5 5 5 5 5 5 5 5 6 5 5 5 5 5 5 5 5 6 5 6 6 5 5 5 5 5 6 5 5 5 5 5 5 5 5 5 5 5 5 5 5 6 5 5 6 5 6 6 5 5 5 5 5 5 6 5 5 5 5 6 5 6 5 5 6 5 5 5 5 5 5 6 6 5 5 5 5 5 5 5 5 5 5 5 5 5 5 5 6 5 5 5 5 5 5 5 6 5 6 5 5 5 6 5 6 5 5 5 5 5 5 5 5 6 5 5 5 5 5 6 5 6 5 5 5 5 6 5 5 5 5 5 6 5 5 5 5 5 5 5 5 5 5 5 5 5 5 5 5 5 5 5 5 5 5 5 5 6 5 5 5 6 5 6 5 5 5 6 5 5 5 5 5 5 5 5 5 5 5 5 5 5 5 5 5 6 6 6 6 5 5 5 5 5 5 6 5 5 5 6 5 5 5 5 5 5 5 5 5 5 6 6 6 5 5 6 6 5 5 5 5 5 5 5 5 5 6 5 5 5 5 5 5 5 5 6 6 5 5 5 6 5 5 5 5 5 5 5 5 5 5 5 6 5 6 5 5 5 5 5 6 6 5 5 6 6 5 5 5 5 5 5 5 5 5 5 5 5 5 5 5 5 5 5 5 5 5 5 5 5 5 5 5 5 5 5 5 5 5 5 5 5 5 5 5 5 5 5 6 6 5 5 5 5 5 5 5 5 5 5 5 5 5 5 5 5 5 5 5 5 6 5 5 5 5 5 5 5 5 5 5 5 5 5 5 5 5 6 5 6 5 5 5 5 5 5 5 5 6 5 5 5 5 5 5 5 5 5 5 5 6 5 5 6 5 5 6 5 5 5 5 6 5 5 5 5 6 5 5 6 5 6 5 5 5 5 5 6 5 5 5 5 5 5 5 6 5 5 5 5 5 5 5 5 5 5 5 5 5 5 5 5 5 5 5 5 5 5 5 5 6 5 5 5 6 5 5 6 5 5 5 6 5 5 5 5 6 5 6 5 5 5 5 5 5 5 5 6 5 5 5 5 5 5 5 5 5 5 6 5 5 6 5 5 6 5 5 6 6 5 5 5 5 5 5 5 6 6 5 5 5 6 5 5 6 6 5 5 5 6 6 5 6 5 5 6 5 5 5 5 6 5 6 6 5 5 5 6 5 6 6 5 6 6 6 6 5 6 5 6 5 6 5 5 5 6 5 5 6 5 6 6 5 5 5 5 6 5 6 6 5 5 5 6 6 5 5 6 6 5 5 5 5 6 5 5 5 5 6 5 5 5 5 6 5 6 5 6 5 6 5 6 5 6 5 5 5 5 5 6 5 5 6 6 6 5 5 6 6 5 6 5 5 6 5 5 5 5 5 5 6 5 5 6 5 6 5 5 5 5 6 5 6 5 6 5 5 5 6 5 5 6 5 6 5 6 5 5 5 5 5 6 5 5 5 5 5 5 5 5 5 5 6 5 5 5 5 6 5 5 6 5 5 5 5 5 6 5 5 6 5 5 5 6 5 6 5 5 5 6 5 5 5 5 6 5 5 5 5 6 6 5 5 5 5 5 5 6 5 5 6 5 5 5 5 5 5 5 5 5 5 5 5 5 5 5 5 5 5 5 5 5 5 5 5 5 5 5 5 5 5 5 5 5 5 5 5 5 5 5 5 5 5 5 5 5 5 5 5 5 5 5 5 5 5 5 5 5 5 6 5 5 5 5 5 5 5 5 5 5 5 5 6 5 5 6 5 5 5 6 5 5 5 5 5 5 5 5 5 5 5 5 5 5 5 6 5 5 5 5 5 5 5 5 5 5 5 5 5 5 5 5 6 5 5 5 5 5 5 5 5 5 5 5 5 5 6 5 5 6 5 5 6 5 6 5 5 5 5 5 5 5 6 5 5 5 5 5 5 5 5 5 5 5 5 6 5 5 5 6 5 5 5 5 5 5 5 5 5 6 5 5 5 5 5 5 6 5 5 5 5 5 5 6 5 5 5 6 5 5 5 5 5 5 5 6 5 5 5 5 5 5 5 5 5 5 6 5 5 5 5 5 5 5 5 5 5 5 5 5 5 5 5 6 5 6 5 5 5 5 5 5 5 5 5 5 6 5 6 5 5 5 5 5 5 5 5 5 5 5 6 5 5 5 5 5 5 5 5 5 5 5 6 5 5 5 5 5 5 5 6 5 5 5 5 5 5 5 6 5 5 5 5 5 5 5 5 5 5 5 6 5 5 5 5 5 5 5 5 6 5 6 5 5 5 5 5 5 5 5 5 5 6 5 5 5 6 5 5 5 5 5 5 5 5 5 6 5 5 5 5 5 5 5 5 5 5 5 5 5 5 5 5 6 5 5 5 5 5 5 5 5 5 5 5 5 5 5 5 5 5 5 6 5 5 6 5 5 6 5 5 5 5 5 6 5 5 5 5 5 5 5 5 5 5 5 5 5 5 5 5 5 5 5 5 5 5 5 5 5 5 5 5 5 5 5 5 5 5 5 5 5 5 5 5 5 5 5 5 5 5 5 5 5 5 5 5 5 5 5 5 5 5 5 6 5 5 6 5 5 5 5 5 5 5 5 5 5 5 5 5 5 5 5 5 5 5 5 5 5 5 5 6 6 5 5 5 5 5 5 5 5 5 5 5 5 5 5 5 5 6 6 5 5 5 5 5 5 5 6 5 6 5 5 6 6 5 5 5 5 5 5 5 5 5 5 5 6 5 6 5 5 5 6 5 5 5 6 5 6 5 5 5 5 5 6 6 5 5 5 5 5 5 5 5 5 5 5 5 5 5 5 5 5 5 5 5 5 5 5 5 5 5 5 5 5 5 5 5 5 5 5 5 5 5 5 5 5 5 5 5 5 5 5 5 5 5 5 5 5 5 5 5 5 5 5 5 5 5 5 5 5 5 5 5 5 5 5 5 5 5 5 5 5 5 5 5 5 5 5 5 5 5 5 5 5 5 5 5 5 5 5 5 5 5 5 5 5 5 5 5 6 6 5 6 5 6 5 5 6 5 5 5 5 6 5 5 5 5 5 5 5 6 6 6 5 5 5 5 5 6 6 5 5 5 5 5 5 5 5 5 5 5 5 5 5 5 5 5 5 5 5 5 5 5 5 5 5 5 5 5 5 5 5 5 5 6 5 5 6 5 5 5 5 5 5 5 5 5 5 5 6 5 5 5 5 5 5 5 6 5 5 5 5 5 5 5 5 5 5 5 5 5 5 5 5 6 5 5 6 5 5 5 5 5 5 5 5 5 5 5 5 5 5 5 5 5 5 5 5 5 5 5 6 5 5 6 5 5 6 5 5 5 5 5 5 5 6 5 5 5 5 5 5 6 5 5 6 5 5 5 5 6 5 6 5 5 6 5 5 5 5 6 5 6 5 5 6 5 5 5 5 5 5 5 5 5 5 5 5 6 5 5 5 6 5 5 6 5 5 5 5 6 5 5 5 5 5 5 5 5 5 5 6 5 5 5 5 5 5 5 5 5 5 6 5 5 5 5 5 5 5 5 5 5 5 5 6 5 5 6 5 5 5 5 5 5 5 5 5 5 6 5 5 5 5 5 6 5 6 6 5 5 6 5 5 5 5 5 5 5 5 5 6 6 5 5 5 5 5 5 6 5 5 5 5 5 5 5 5 5 5 5 5 5 5 5 5 5 5 5 5 5 5 5 5 5 6 5 5 5 5 5 5 5 5 5 5 5 5 5 5 5 5 5 5 5 5 5 5 5 5 5 5 5 5 5 5 5 5 5 5 5 5 5 5 5 5 6 5 5 5 5 5 5 5 5 5 5 6 5 5 5 6 5 6 5 5 5 6 5 5 5 6 5 6 5 6 5 6 6 5 5 6 5 5 5 6 5 5 5 5 5 6 5 5 5 5 6 5 5 5 6 5 5 5 5 6 5 6 5 5 5 5 5 5 5 5 5 5 5 5 5 5 6 5 5 5 5 6 5 5 6 5 5 6 6 5 5 6 5 6 5 5 5 6 6 6 6 5 5 6 5 5 5 5 6 5 6 5 5 6 6 6 5 6 5 5 6 6 6 5 5 5 5 5 5 5 5 5 6 6 5 5 5 5 6 6 5 5 5 6 5 6 5 5 5 5 5 5 5 5 5 5 5 6 5 5 5 5 5 5 5 5 5 5 5 5 5 5 5 5 5 5 5 5 5 5 5 6 5 5 5 5 5 5 5 5 5 5 5 5 5 5 5 5 6 5 5 6 5 5 5 5 5 5 5 5 5 6 5 5 5 6 6 5 5 6 5 5 5 5 5 6 5 6 5 5 5 6 5 5 5 5 5 5 5 6 5 5 6 5 5 5 5 6 5 5 5 6 6 5 5 6 5 5 5 6 5 5 5 5 5 5 5 6 5 5 6 5 6 6 6 5 6 5 6 6 5 5 5 5 5 5 6 5 5 6 5 5 5 5 5 5 5 5 5 5 5 5 5 5 5 5 5 5 5 5 5 5 5 5 5 5 5 5 5 5 5 5 5 5 5 6 6 5 5 5 5 5 5 5 5 6 6 6 6 5 5 6 5 5 5 5 5 5 5 5 6 5 5 6 5 5 5 6 5 5 5 5 6 5 5 5 5 5 5 5 5 5 5 5 5 5 5 6 5 5 5 5 5 6 5 5 5 5 5 5 5 5 6 5 5 5 6 6 5 5 6 6 5 5 5 5 5 6 5 5 5 5 5 5 6 5 6 5 5 5 5 5 5 5 5 6 6 5 6 6 6 5 6 5 5 5 5 5 5 6 5 5 5 5 5 5 5 6 5 5 5 5 5 5 5 5 5 5 5 5 5 5 5 5 5 5 5 5 5 5 5 5 5 5 5 5 5 5 5 5 5 5 5 5 5 5 5 5 5 5 5 5 5 5 5 5 5 5 5 5 5 5 5 5 5 6 5 5 5 5 5 5 5 6 5 5 6 5 5 5 6 5 6 5 5 6 5 5 5 5 5 5 5 6 5 5 5 6 5 5 5 5 5 5 5 6 5 6 5 5 5 5 5 5 5 5 5 5 5 5 5 5 5 5 5 5 5 5 5 5 5 5 5 6 6 5 6 5 5 5 5 5 5 5 6 5 6 5 6 6 6 5 5 6 5 5 6 5 5 5 6 5 5 5 5 5 5 5 6 6 5 5 6 5 5 5 6 5 5 5 5 6 5 6 5 5 5 5 5 5 6 5 6 5 5 5 5 5 6 5 5 6 5 5 5 5 5 5 5 5 5 5 5 5 5 5 5 5 6 5 5 6 6 5 6 5 5 5 5 5 5 5 5 6 5 5 5 5 5 5 5 5 5 5 5 5 5 5 5 5 6 5 5 5 6 5 5 6 5 5 5 5 5 5 6 5 5 5 5 5 5 5 5 5 5 5 5 5 5 5 5 5 5 5 6 6 5 5 5 5 5 5 5 6 5 5 5 6 5 5 6 5 6 5 5 6 5 6 6 5 6 5 6 5 6 5 5 5 5 5 5 5 5 5 5 5 5 5 5 5 6 6 5 5 5 5 5 5 5 6 5 5 5 5 5 5 5 5 5 5 5 5 5 5 5 6 5 6 5 5 5 5 5 5 6 5 5 5 6 5 5 5 6 5 5 5 5 5 5 5 5 5 5 5 5 5 5 5 5 5 5 5 5 5 6 5 5 5 5 6 5 5 5 5 5 6 5 5 5 6 5 5 5 5 5 5 5 5 5 5 5 5 6 5 5 5 5 6 5 5 5 5 5 5 5 5 6 5 5 5 5 5 5 5 6 5 5 5 5 6 5 5 5 5 5 5 5 5 6 5 5 5 5 5 5 5 5 5 6 5 5 5 5 5 5 5 5 5 5 5 5 5 5 5 5 5 5 5 5 5 5 5 5 5 5 5 5 6 5 5 5 5 5 5 5 6 5 5 5 5 5 5 5 5 5 5 5 5 5 5 5 5 5 5 5 5 5 5 5 5 5 5 5 5 5 6 5 5 5 5 5 5 5 5 5 5 5 5 5 5 5 5 5 5 5 5 5 5 5 5 5 5 5 5 5 5 5 5 6 5 5 6 5 5 5 5 6 5 5 6 5 5 5 5 6 5 5 5 6 5 5 5 6 5 5 5 5 5 5 5 5 5 5 6 5 5 6 5 5 5 5 5 5 6 5 5 5 5 5 6 5 5 5 5 6 5 5 5 5 5 5 5 5 5 5 6 5 5 5 5 5 5 5 5 5 6 5 5 5 5 5 5 5 5 5 5 5 5 5 6 5 5 5 5 5 5 5 6 5 5 5 5 5 6 5 5 5 5 5 5 5 5 5 5 5 5 5 5 6 5 5 5 5 5 5 5 5 6 5 5 5 5 5 5 5 5 5 5 5 5 5 5 5 5 5 5 5 5 5 5 5 5 5 5 5 5 5 5 5 5 5 6 5 5 5 5 6 6 5 5 6 5 5 6 5 5 6 5 5 5 5 5 5 5 5 5 5 5 5 5 5 5 5 5 5 5 6 5 5 5 5 6 5 5 5 5 5 5 5 5 5 5 5 5 5 5 5 5 5 5 5 5 5 5 5 5 5 5 5 5 5 5 5 5 5 5 5 5 5 5 5 5 5 5 5 5 5 5 5 5 5 5 5 5 5 5 5 5 5 5 5 5 5 5 5 5 5 5 5 5 5 5 5 6 5 5 5 5 6 5 6 5 5 6 5 5 5 5 6 5 5 6 5 5 5 5 5 5 5 5 5 5 5 5 5 5 5 5 5 5 5 5 5 5 5 5 5 5 5 5 5 5 5 5 5 5 5 5 5 5 5 5 5 5 5 5 5 5 5 5 5 5 5 5 5 5 5 5 5 5 5 5 6 5 5 5 5 5 5 5 5 5 6 5 5 5 5 5 5 5 6 5 5 5 5 5 5 5 5 5 5 5 5 5 5 5 5 5 5 5 6 6 5 5 6 5 6 5 5 5 5 5 5 5 5 5 5 5 5 5 5 5 5 5 5 5 5 5 5 5 5 5 5 5 5 5 5 5 5 5 5 5 5 5 5 5 5 5 5 5 5 5 5 5 5 5 5 5 5 5 5 5 6 6 5 5 5 5 5 5 5 5 5 5 5 5 5 5 5 5 5 5 5 5 6 5 5 5 5 5 5 5 5 5 5 6 5 5 5 6 5 5 5 5 5 5 6 5 5 5 5 5 5 5 5 5 5 5 5 5 6 5 5 5 5 5 5 6 6 5 6 5 5 6 5 5 5 6 5 5 5 6 5 5 5 5 5 6 5 6 5 5 5 5 6 5 5 5 5 6 5 6 5 5 6 6 5 5 5 5 5 6 5 5 5 5 5 6 6 6 5 6 5 6 5 5 5 5 5 6 5 5 5 5 5 5 5 5 6 6 5 5 6 5 5 5 5 6 5 5 6 5 5 6 5 5 5 5 5 5 5 5 5 6 5 5 5 5 5 5 5 5 6 5 5 5 5 5 5 5 5 5 6 6 5 5 5 5 5 5 5 5 5 5 5 5 5 5 5 5 5 5 5 5 5 5 5 5 5 5 5 5 5 5 5 5 5 5 5 6 5 5 5 5 6 5 5 5 5 5 5 5 5 5 5 5 5 5 5 5 5 6 6 5 5 5 5 5 5 5 5 5 6 5 5 5 5 6 5 5 6 5 5 5 5 5 5 5 5 5 5 5 5 5 6 5 5 5 5 5 5 5 5 5 5 5 5 5 5 5 5 5 5 5 5 5 5 5 5 5 6 5 5 5 5 5 6 5 5 5 6 5 5 5 6 6 5 5 5 5 5 5 5 5 5 5 5 5 5 5 6 5 5 5 6 5 5 5 5 6 6 5 5 5 5 5 5 5 5 5 5 5 5 5 5 5 5 5 5 5 5 5 5 5 6 5 5 5 5 5 5 5 5 5 6 5 5 5 5 6 5 6 5 5 5 5 6 5 5 5 5 5 5 5 5 5 5 5 5 5 5 5 6 5 5 6 5 5 5 5 5 5 5 5 5 5 6 6 5 5 5 5 6 5 5 5 6 5 5 5 5 6 6 5 6 5 6 5 6 5 5 6 5 5 6 5 5 6 5 5 5 6 5 5 6 5 6 5 6 5 5 6 5 5 5 5 5 5 5 5 5 5 5 5 5 6 5 5 5 5 5 5 5 5 5 5 5 5 5 5 5 5 6 6 5 5 5 5 5 6 5 5 5 5 6 5 5 6 5 5 5 5 6 5 5 5 5 5 5 5 5 5 5 5 5 5 5 5 5 5 5 5 5 5 5 5 5 5 5 5 5 5 5 5 5 5 5 5 5 5 5 6 5 5 5 5 5 5 5 5 5 5 5 5 5 6 5 6 5 5 5 5 6 5 5 5 5 5 5 5 5 5 5 5 5 5 5 5 5 5 5 6 5 6 5 5 6 5 5 5 6 5 5 5 5 5 5 5 5 5 5 5 5 5 5 5 5 5 5 5 5 5 5 5 5 5 5 5 6 5 5 6 5 5 5 5 5 5 5 5 5 5 5 5 5 5 5 5 5 5 5 5 5 5 5 5 5 5 5 5 5 5 5 5 5 5 5 6 5 6 5 5 5 5 5 5 5 5 5 5 5 5 5 5 5 5 5 6 6 5 5 5 5 5 6 5 5 5 5 6 5 5 5 5 6 5 5 5 5 5 5 5 5 5 5 5 5 5 5 5 5 5 5 6 5 5 5 5 5 5 6 5 5 6 5 5 5 5 5 5 5 5 5 5 5 5 6 5 5 6 5 5 5 5 5 5 5 5 6 5 5 5 5 5 5 6 5 5 6 5 5 5 5 5 5 5 5 5 5 5 5 5 5 5 5 5 5 5 5 5 5 5 5 5 5 5 5 5 5 5 5 5 5 5 5 6 5 5 5 6 5 5 6 5 5 5 5 5 5 6 5 5 5 5 5 6 5 5 5 5 5 5 6 5 5 5 5 6 5 6 5 5 6 5 5 5 6 5 5 5 5 5 5 5 5 5 5 5 5 5 6 5 5 5 5 5 5 5 5 5 5 5 5 5 5 5 5 5 5 5 5 5 5 5 5 6 5 6 5 6 5 6 5 5 5 5 6 5 5 5 5 6 5 5 5 5 5 5 5 5 5 5 5 5 5 5 6 5 5 5 6 5 5 5 6 5 5 6 5 5 5 6 5 5 5 5 6 5 5 5 5 6 5 5 5 5 5 5 5 5 5 5 6 5 5 5 5 5 6 5 6 5 5 5 5 5 6 6 5 5 6 5 6 5 5 6 5 5 5 5 5 5 5 5 5 5 5 5 5 6 5 5 5 5 5 6 5 5 5 5 5 5 5 5 5 5 6 5 6 5 5 6 5 5 6 5 6 5 6 5 5 5 5 5 6 6 5 5 5 5 5 5 5 5 5 5 5 6 5 5 5 5 5 6 5 5 5 6 5 6 5 5 5 5 5 5 5 5 5 5 5 5 5 5 5 6 5 5 5 5 6 5 5 5 5 5 5 5 5 5 5 5 5 5 5 5 5 5 5 5 5 5 5 5 6 5 5 6 5 5 5 5 5 5 5 6 5 5 6 5 6 5 5 5 5 5 5 5 5 5 6 5 5 6 5 5 5 6 5 5 5 5 5 5 5 6 5 5 5 5 6 6 5 5 5 5 5 5 5 5 5 6 5 5 5 5 5 5 5 5 5 5 5 5 5 5 5 5 6 5 6 5 5 5 6 5 5 5 5 5 5 5 5 5 5 5 5 5 6 5 5 5 5 5 6 5 5 5 6 6 5 5 5 6 5 5 6 5 5 5 5 6 6 5 5 5 6 5 5 6 5 5 5 5 6 5 6 5 5 5 6 5 5 5 5 5 5 5 5 5 5 5 5 5 5 5 5 5 5 5 5 5 6 5 5 5 5 5 5 5 5 5 6 5 5 5 6 5 6 5 5 5 5 5 5 5 5 5 5 5 6 5 5 5 5 5 6 5 5 5 5 5 6 5 5 5 5 5 5 5 5 5 5 5 5 5 5 5 5 6 5 5 5 5 5 5 5 5 5 6 5 5 5 5 5 5 5 5 5 5 5 5 5 5 5 6 5 5 5 5 5 5 5 5 5 5 5 5 5 5 5 5 5 5 5 5 5 5 5 5 5 5 5 5 5 6 5 5 5 5 6 5 6 6 5 5 5 5 5 5 6 5 6 5 5 5 6 5 5 6 5 5 5 5 5 5 6 5 5 5 5 5 5 5 6 5 5 5 5 6 5 5 5 5 5 5 6 5 5 5 5 5 5 5 5 5 5 5 5 6 5 6 5 5 5 5 5 5 5 6 6 5 5 5 5 5 5 5 5 6 5 5 5 6 5 5 6 5 5 5 5 5 5 5 5 5 5 5 5 5 5 5 5 5 5 5 5 5 5 5 5 5 6 5 5 6 5 5 5 5 5 6 5 5 6 5 6 5 5 5 6 5 5 5 5 6 5 5 6 6 5 5 5 5 5 6 5 5 6 5 5 5 5 5 6 5 5 5 5 5 5 5 5 5 6 5 5 5 5 6 5 5 5 5 5 5 6 5 6 5 5 5 6 5 6 5 5 6 5 6 5 5 5 6 5 5 5 5 5 5 5 5 5 5 5 5 5 6 5 5 5 5 6 5 5 5 5 5 5 6 5 5 5 5 5 5 5 6 5 5 5 5 5 5 6 5 5 5 5 5 5 5 6 5 5 6 5 5 5 5 5 5 5 5 5 6 6 5 5 5 5 5 5 5 5 5 5 5 5 6 5 5 5 5 5 5 5 6 5 5 5 6 5 6 5 5 6 5 5 5 5 5 6 5 5 5 6 5 5 5 5 6 5 5 5 6 5 5 5 5 5 5 5 6 5 5 6 5 5 5 6 5 5 5 6 5 5 5 5 6 5 5 5 6 5 5 5 5 5 5 5 5 5 6 5 5 5 5 5 5 5 5 5 6 5 5 5 5 6 5 5 6 5 5 5 5 5 5 5 5 5 5 5 5 5 5 5 5 5 5 5 5 5 5 5 5 5 5 6 5 5 5 5 5 5 5 5 5 5 5 6 5 5 5 6 5 5 5 5 5 5 6 5 5 5 5 5 5 5 5 5 5 5 5 5 5 5 5 5 5 5 5 5 5 5 5 5 5 6 5 6 5 5 6 6 5 5 5 5 5 5 5 5 5 5 5 5 5 5 5 5 5 6 5 5 5 5 5 5 5 5 5 5 5 5 5 5 5 5 5 5 5 5 5 5 5 5 5 5 5 5 5 5 5 5 5 5 5 5 5 5 5 5 5 5 5 5 5 5 5 5 5 5 5 5 5 5 5 5 5 5 5 5 5 6 5 5 6 5 5 5 5 6 5 5 5 5 5 5 5 5 5 5 6 5 6 5 5 5 6 5 5 5 6 5 6 5 5 5 6 5 6 5 6 5 5 5 6 5 5 5 5 6 5 6 5 5 5 5 5 6 5 6 6 5 5 5 5 5 5 6 5 5 5 6 5 5 5 5 5 5 5 5 5 5 5 5 5 5 5 5 5 5 5 6 5 5 5 6 6 5 5 5 5 5 6 5 5 5 5 5 5 5 5 5 5 5 5 5 5 6 5 5 6 5 6 5 5 5 6 5 6 5 5 6 5 5 5 5 5 5 5 5 5 5 5 6 5 5 5 5 5 5 5 5 5 5 6 6 5 5 5 5 5 5 5 6 5 5 5 5 5 5 5 5 5 5 5 5 5 5 6 5 5 5 5 5 5 5 5 5 5 6 5 5 5 6 5 6 6 5 5 5 5 5 5 5 5 6 5 5 5 5 5 5 5 5 5 6 5 6 5 6 5 5 5 5 5 5 5 5 6 5 6 5 5 5 5 5 5 6 5 5 6 5 6 5 5 5 5 5 5 5 5 5 5 5 5 5 5 6 5 5 5 5 5 5 5 5 5 5 6 5 5 5 5 5 5 6 5 5 5 5 5 5 5 5 5 5 5 5 5 5 5 5 5 5 5 5 5 5 5 5 5 6 5 5 5 5 5 6 5 5 5 5 5 5 5 5 5 5 5 6 5 5 5 5 6 5 5 5 5 5 6 5 5 5 5 5 6 5 5 6 5 5 5 5 5 5 5 5 5 5 5 5 5 5 5 5 5 5 5 5 5 5 5 5 5 5 6 5 5 6 5 5 5 5 5 5 5 5 5 5 5 5 5 5 5 6 5 5 5 5 5 5 5 5 5 6 5 5 5 5 5 5 5 6 5 5 5 5 5 6 5 5 5 5 5 5 6 5 5 5 5 6 5 5 5 5 5 5 5 6 5 5 6 5 5 6 5 5 5 5 6 5 5 5 5 5 5 5 5 6 5 5 6 5 5 5 5 5 5 5 5 5 6 5 5 5 5 5 6 5 5 5 5 6 5 5 5 6 5 5 5 5 5 5 5 5 5 5 5 6 6 5 5 5 5 5 5 5 5 5 5 5 6 5 5 5 5 5 6 5 6 6 5 6 6 5 5 6 5 5 5 5 5 5 6 5 6 6 5 5 5 5 5 6 5 5 5 5 5 5 5 5 6 5 5 5 5 6 5 5 5 5 5 6 5 5 6 5 5 5 5 5 5 5 6 5 6 5 5 5 5 5 5 5 6 6 5 5 5 5 5 5 5 6 5 5 5 5 5 5 6 5 5 5 5 5 5 5 5 5 5 5 5 5 5 6 5 5 6 5 5 5 5 6 5 5 5 5 6 5 5 5 5 5 5 6 5 5 5 5 5 5 5 6 5 5 5 6 5 5 5 5 6 5 5 6 5 5 5 5 5 5 5 6 5 5 5 5 6 5 6 5 5 5 5 5 5 5 5 5 5 5 5 5 5 6 5 5 5 5 5 5 5 6 5 5 6 5 5 6 5 5 5 5 5 5 5 5 5 6 5 5 5 6 5 5 5 5 5 5 5 5 5 6 5 5 5 5 5 5 5 5 5 5 5 6 5 5 5 6 5 5 5 5 5 5 5 5 5 5 5 6 5 5 5 5 5 5 5 5 5 5 6 5 5 5 5 5 6 5 5 5 5 5 5 5 5 6 5 5 6 5 5 6 5 5 5 5 6 6 5 5 5 5 6 5 5 5 5 6 5 5 6 5 5 5 5 6 5 5 6 5 5 5 5 5 6 5 5 5 5 5 5 5 5 6 5 6 5 5 5 5 5 5 5 5 5 6 6 5 5 5 5 5 5 6 5 5 6 5 5 6 5 6 5 5 5 6 5 5 6 5 5 5 5 5 5 5 5 6 6 5 5 6 6 5 5 5 5 6 5 5 5 6 5 6 5 6 6 6 5 6 5 5 5 6 5 5 5 5 5 5 5 5 5 6 5 5 6 5 5 5 5 5 5 6 5 5 5 5 5 5 6 6 6 5 5 5 5 5 5 5 5 5 5 5 6 5 5 5 5 6 5 5 5 5 5 5 5 5 6 5 5 6 5 5 5 6 5 5 5 5 5 5 5 5 5 6 5 5 5 5 5 5 5 5 6 5 5 5 6 5 5 6 5 5 5 6 5 6 5 5 6 5 6 5 5 6 5 5 5 5 5 5 6 5 5 6 5 5 5 5 5 5 5 5 5 5 5 5 5 5 5 5 5 5 5 5 5 5 5 5 5 5 5 5 5 5 5 5 5 5 5 5 5 5 5 5 5 5 5 5 5 5 5 5 5 5 5 5 5 5 5 5 5 5 5 5 5 5 5 5 5 5 5 5 5 5 5 5 5 5 5 5 5 5 5 5 5 5 5 5 5 5 5 5 5 5 5 5 5 5 5 5 6 5 5 5 5 6 5 5 5 5 5 5 5 5 5 5 5 5 6 6 5 5 5 5 5 5 5 5 5 5 5 5 5 5 5 6 5 5 5 6 5 5 5 5 5 5 5 5 5 5 6 5 6 5 5 5 5 5 5 5 5 5 5 5 5 5 5 5 5 5 5 5 5 5 5 5 5 6 5 5 5 5 6 5 5 5 5 5 5 5 5 6 5 5 5 5 5 5 5 5 5 5 5 5 5 5 5 5 5 5 5 5 5 5 5 5 5 5 5 5 5 5 5 5 5 5 5 5 5 5 5 5 5 5 5 5 5 5 5 5 5 6 5 5 5 5 5 5 5 5 5 5 5 5 5 5 5 5 5 5 5 5 5 5 5 5 5 5 5 5 5 5 5 5 6 5 5 5 5 5 5 6 5 5 5 5 5 5 6 5 5 6 5 6 5 6 5 5 5 5 6 5 5 5 5 5 6 5 5 5 6 6 5 5 5 6 5 5 5 5 6 6 5 5 5 5 5 5 5 5 5 5 5 5 5 5 6 5 5 6 5 5 6 6 5 5 5 5 5 5 5 5 5 5 6 5 6 5 5 5 5 5 5 5 5 5 5 5 6 5 5 5 5 5 5 5 6 5 5 5 5 5 5 5 5 5 5 5 5 5 5 5 5 5 5 6 6 5 5 5 5 5 5 5 5 5 5 5 5 5 5 5 5 5 6 5 5 5 5 5 5 5 5 5 6 5 5 5 5 5 5 5 5 5 5 5 5 6 5 5 5 5 6 5 6 5 5 5 5 5 5 5 5 5 6 5 5 5 5 6 5 5 5 5 6 5 6 5 5 5 5 5 5 5 5 5 5 5 5 6 5 5 5 5 5 5 5 5 5 5 5 5 5 5 5 6 5 6 5 5 6 5 5 5 6 5 6 5 5 6 5 5 6 5 6 5 5 5 5 5 5 5 6 6 5 5 5 5 6 6 5 5 6 6 5 6 5 5 6 6 5 5 6 5 5 6 5 5 5 5 5 5 5 5 6 5 5 6 5 6 5 5 5 6 5 5 5 5 5 5 5 5 6 5 5 5 5 5 5 5 5 5 5 5 5 5 5 5 5 5 5 5 5 5 5 6 5 5 5 5 5 5 5 5 5 5 5 5 5 5 5 5 5 5 
</DataArray>
<DataArray type="Float64" Name="stress" NumberOfComponents="9" format="ascii">
-867.96754841540132 1975.404082011537 0 1975.404082011537 -0.15065793080066214 0 0 0 0 0.13801693228379008 1918.094227913467 0 1918.094227913467 -1379.9389828138992 0 0 0 0 -181.17847940083084 1590.725902304448 0 1590.725902304448 -1967.7794879061839 0 0 0 0 -290.90654008347337 1776.9987880110157 0 1776.9987880110157 -793.27851380506763 0 0 0 0 -144.48843551309983 958.99027597656095 0 958.99027597656095 -1210.6840500347898 0 0 0 0 76.375840347973281 1168.173035147558 0 1168.173035147558 -2810.1504009656492 0 0 0 0 -6.9858126312045954 3.4835747120394842 0 3.4835747120394842 -1.2103602729576721 0 0 0 0 -275.4553429935695 300.27022672441308 0 300.27022672441308 -518.15202817763202 0 0 0 0 -1044.5129073068383 814.38611990631034 0 814.38611990631034 59.605982367160323 0 0 0 0 -78.586481838297914 453.54624125846749 0 453.54624125846749 -519.25774074969377 0 0 0 0 -14.099052305236143 6.0405832185510349 0 6.0405832185510349 2.3838243631557106 0 0 0 0 -2718.1518241911908 906.00409819136621 0 906.00409819136621 405.20350978329225 0 0 0 0 315.66318273440993 478.03913753933011 0 478.03913753933011 31.596720466288389 0 0 0 0 -184.71797444985714 -123.23848135272419 0 -123.23848135272419 408.45720903501933 0 0 0 0 -13.857273740467804 -0.068868064111967442 0 -0.068868064111967442 -0.53277114985093021 0 0 0 0 -1728.4149104513854 1093.575842793387 0 1093.575842793387 -849.84950383347132 0 0 0 0 -682.25917019761255 1928.1531096419858 0 1928.1531096419858 -815.89902212415473 0 0 0 0 -1661.9810501360134 1889.1298552575199 0 1889.1298552575199 -1296.5854032317438 0 0 0 0 -800.90392242142116 886.77830439984973 0 886.77830439984973 -133.78624419820517 0 0 0 0 -862.53857174597215 387.37350207439158 0 387.37350207439158 -1.4721153918726486 0 0 0 0 -1168.0688791211069 352.55767472433217 0 352.55767472433217 -107.72485687572771 0 0 0 0 -9.1869388985756473 -0.21304684081867009 0 -0.21304684081867009 -0.27273449509246461 0 0 0 0 -37.975575522538236 1.5447365059945355 0 1.5447365059945355 0.90889210194894332 0 0 0 0 -108.52091909769661 141.71208400644537 0 141.71208400644537 392.09212287462469 0 0 0 0 -23.189671634212573 9.5945545796294027 0 9.5945545796294027 -68.094153858015488 0 0 0 0 131.76558613261295 120.00540282413385 0 120.00540282413385 89.972670682807802 0 0 0 0 -39.611027613616898 31.784224016359076 0 31.784224016359076 -30.953758615316474 0 0 0 0 -0.37739493354717979 4.3264083493881174 0 4.3264083493881174 -1.0431725150313724 0 0 0 0 -4.0052376301579073 -0.1447299155611006 0 -0.1447299155611006 0.989932309806278 0 0 0 0 -29.506959819344047 15.451452008543129 0 15.451452008543129 0.77264055058003578 0 0 0 0 -23.196949565618127 10.251755134524331 0 10.251755134524331 0.088048483484527651 0 0 0 0 -32.041921192812538 16.575886156795058 0 16.575886156795058 -3.0277231438057584 0 0 0 0 -23.110295618895179 62.237585287657566 0 62.237585287657566 -15.609445358699304 0 0 0 0 -9.2056053847991706 15.712070097437135 0 15.712070097437135 -11.54550988142978 0 0 0 0 39.054925414122408 -5.487407004533452 0 -5.487407004533452 -50.14507492913981 0 0 0 0 -64.88322790141865 182.17618889510504 0 182.17618889510504 85.016344649615348 0 0 0 0 19.757514681761677 49.125033768530557 0 49.125033768530557 -38.518014689114352 0 0 0 0 -39.273905804397373 41.289579765582154 0 41.289579765582154 -33.868167664990438 0 0 0 0 -3.9580952078395057 284.75757609028369 0 284.75757609028369 50.050983377812372 0 0 0 0 399.39322577313942 -9.3613384485433926 0 -9.3613384485433926 -248.1322116229494 0 0 0 0 -9.5574048273042109 9.6778585177288505 0 9.6778585177288505 5.4119983165305428 0 0 0 0 -4.4946249898566748 -122.00256158467164 0 -122.00256158467164 70.678700326039689 0 0 0 0 -1076.959590214421 -258.65984976831533 0 -258.65984976831533 279.64470685971901 0 0 0 0 108.54376450811105 124.09270120350448 0 124.09270120350448 -110.888661867888 0 0 0 0 -20.792661292711273 73.320128981613379 0 73.320128981613379 40.959349210490473 0 0 0 0 15.933340714400401 -9.0090762321051443 0 -9.0090762321051443 -318.41599576592125 0 0 0 0 -192.61884730673046 294.20197990498855 0 294.20197990498855 -230.85687649101601 0 0 0 0 -110.59089341589424 33.485405766339682 0 33.485405766339682 711.13837430835702 0 0 0 0 -6.4225961772486073 1.4129455805432087 0 1.4129455805432087 0.77141406953050051 0 0 0 0 -668.39989218489791 -535.20516706499257 0 -535.20516706499257 1159.1545383068515 0 0 0 0 -645.61383411588758 500.61149245280467 0 500.61149245280467 -32.910092854341201 0 0 0 0 -120.26366487008636 731.27286881694454 0 731.27286881694454 -1255.7569032702522 0 0 0 0 -51.549885627493495 89.979977587157919 0 89.979977587157919 -723.43541096954868 0 0 0 0 -161.41036425286438 -3.0091115294126212 0 -3.0091115294126212 -63.076534472576895 0 0 0 0 -299.91321860276366 334.97409310117655 0 334.97409310117655 -370.34668516591046 0 0 0 0 16.404754266593955 -143.7945083241284 0 -143.7945083241284 -105.24571507135943 0 0 0 0 -21.199132652131084 37.114928786566452 0 37.114928786566452 -4.3934670122071111 0 0 0 0 -11.324725416768189 14.931904750001976 0 14.931904750001976 8.8795709424859055 0 0 0 0 -25.201933223142078 22.464965988816857 0 22.464965988816857 27.246620594443812 0 0 0 0 23.176948661697679 48.250984008480373 0 48.250984008480373 -62.20645813709416 0 0 0 0 19.207681132203589 24.495603733549018 0 24.495603733549018 -8.7828479676703992 0 0 0 0 -70.935101578725153 82.616883131115173 0 82.616883131115173 -54.976272227191657 0 0 0 0 -11.217725164113858 16.963406040853613 0 16.963406040853613 6.6284265609569815 0 0 0 0 728.43733349566173 245.98132377574075 0 245.98132377574075 -401.00344790631061 0 0 0 0 -3.7856333053617846 6.4829448340778626 0 6.4829448340778626 5.1264215442257353 0 0 0 0 -15.801866754074581 37.846937447764503 0 37.846937447764503 -8.1784070673802489 0 0 0 0 -21.14880759443912 28.835073282056861 0 28.835073282056861 -26.984557563297869 0 0 0 0 -12.685425024028518 39.502561030993093 0 39.502561030993093 -18.482708956667921 0 0 0 0 -17.622868691163603 46.27999043091404 0 46.27999043091404 -19.888076719762466 0 0 0 0 -16.125657802636852 51.736324827885255 0 51.736324827885255 -34.087280403029581 0 0 0 0 -16.134426564570276 53.122925516785017 0 53.122925516785017 9.7796871509417542 0 0 0 0 17.310492385084217 134.34825585406907 0 134.34825585406907 22.216800159232662 0 0 0 0 18.071322536328807 43.048460656798852 0 43.048460656798852 -105.96102212951519 0 0 0 0 44.511035159805033 89.299194878160051 0 89.299194878160051 -41.494228908421974 0 0 0 0 -17.735733553097816 23.344596784256282 0 23.344596784256282 22.52334902577968 0 0 0 0 -64.216107954729523 26.664768757646016 0 26.664768757646016 27.836923079121334 0 0 0 0 -58.188538128641085 79.845456602324703 0 79.845456602324703 -3.7372796299860056 0 0 0 0 -48.704974942462286 55.361959495441624 0 55.361959495441624 57.706513451317733 0 0 0 0 -145.5042337806517 62.426867903781385 0 62.426867903781385 58.778223040005741 0 0 0 0 -27.946118003681477 -1.1483423982099339 0 -1.1483423982099339 48.241094237804646 0 0 0 0 -27.956954468747426 -2.0599859441244917 0 -2.0599859441244917 5.7774752216100751 0 0 0 0 -17.116003310824453 10.694540417058306 0 10.694540417058306 17.51608047087575 0 0 0 0 -14.594479906343622 2.6490569124944159 0 2.6490569124944159 25.322454687142454 0 0 0 0 -1.9403545694321025 0.94084869113132186 0 0.94084869113132186 13.012900615869682 0 0 0 0 140.26541768778407 177.62916272400616 0 177.62916272400616 100.68323957970279 0 0 0 0 -20.531325800693594 7.9409508396329329 0 7.9409508396329329 27.877374214847805 0 0 0 0 -26.163940950471442 253.98737261731003 0 253.98737261731003 77.795552187350836 0 0 0 0 -37.585734942775161 272.59300378506305 0 272.59300378506305 21.007036565268209 0 0 0 0 3.9193383107340196 98.572058886027662 0 98.572058886027662 162.4577376712914 0 0 0 0 0.082093410142988432 214.14309190432323 0 214.14309190432323 184.54189022467472 0 0 0 0 -21.582196080926224 144.59036537515931 0 144.59036537515931 68.935500513201987 0 0 0 0 -50.969637227201019 56.878169114064804 0 56.878169114064804 518.93446939185378 0 0 0 0 0.55273659630881866 -0.75571071967348757 0 -0.75571071967348757 -0.71656607854816912 0 0 0 0 35.692617116663314 61.781556877787807 0 61.781556877787807 198.50520889712789 0 0 0 0 -28.813170813285979 108.58123782682469 0 108.58123782682469 176.67862021802284 0 0 0 0 -0.10300653111050906 1.2496117892142706 0 1.2496117892142706 1.346033969700045 0 0 0 0 -2.146278413284989 6.905077059598355 0 6.905077059598355 -3.8657475277333049 0 0 0 0 -572.68258649649943 526.38129927043701 0 526.38129927043701 -419.77032222292837 0 0 0 0 -128.98823435485974 178.11559286188776 0 178.11559286188776 -169.44285951684287 0 0 0 0 -196.31427774110307 469.20569451660594 0 469.20569451660594 -653.03058237677033 0 0 0 0 -0.79147412702150177 373.3135558542308 0 373.3135558542308 -628.80993417242462 0 0 0 0 1.3143538625008659 458.82361961919014 0 458.82361961919014 -654.73172062412687 0 0 0 0 -55.065461655976833 504.78979623098712 0 504.78979623098712 -684.80430444495141 0 0 0 0 -422.26695792457031 -258.00243129034789 0 -258.00243129034789 -128.38067300083276 0 0 0 0 125.47712011926342 236.29542742006015 0 236.29542742006015 -1048.9745539757714 0 0 0 0 -115.79194997803097 698.58166710678142 0 698.58166710678142 -803.39491812015331 0 0 0 0 94.494538844577619 285.9424992245622 0 285.9424992245622 -520.1620702410487 0 0 0 0 3.6131351732365147 277.43541175647442 0 277.43541175647442 -343.2546290983737 0 0 0 0 -132.76639583327051 -86.475526593683753 0 -86.475526593683753 -118.72354531461679 0 0 0 0 -8.5827968413012741 16.183937086274753 0 16.183937086274753 8.1819922749626315 0 0 0 0 -20.061225787569128 1.664207540512507 0 1.664207540512507 34.769580966712965 0 0 0 0 43.225316384021426 -165.8264526762141 0 -165.8264526762141 -697.64870947602321 0 0 0 0 -32.840525394183715 66.523050386624163 0 66.523050386624163 -35.968643504675128 0 0 0 0 -16.960201743651851 35.927988582498074 0 35.927988582498074 -23.322276258346392 0 0 0 0 -589.39743406382513 632.74137017840985 0 632.74137017840985 -223.50054551218636 0 0 0 0 8.2859311712362427 7.4343111732924569 0 7.4343111732924569 4.5922009538124655 0 0 0 0 -531.86481319639643 321.53648722917933 0 321.53648722917933 57.685998828776064 0 0 0 0 -485.6074067690206 295.52323226871522 0 295.52323226871522 -293.27953813524255 0 0 0 0 2.8251194341037831 4.4729417001253182 0 4.4729417001253182 4.2515707233034448 0 0 0 0 -614.59625889322706 427.6614076429687 0 427.6614076429687 -140.64611210452131 0 0 0 0 -445.53434140761965 219.59303613982047 0 219.59303613982047 -127.06489383846201 0 0 0 0 -491.33097187428211 228.91724635732317 0 228.91724635732317 0.21370793426467571 0 0 0 0 -471.72615564497755 242.151709414793 0 242.151709414793 -33.826792449806817 0 0 0 0 -481.00540007925156 263.97623780847061 0 263.97623780847061 -49.134754331142176 0 0 0 0 -406.40067380144501 140.18235266636657 0 140.18235266636657 50.358156188071007 0 0 0 0 -231.23729394068505 224.59776322486141 0 224.59776322486141 -54.68210245238879 0 0 0 0 -233.57517759312168 216.35517221774307 0 216.35517221774307 119.99098711038823 0 0 0 0 -194.9611920581192 225.27295072708512 0 225.27295072708512 -0.042822156712645665 0 0 0 0 46.076035625621444 104.63864340291912 0 104.63864340291912 11.528643736979575 0 0 0 0 83.515467694380277 218.323240771771 0 218.323240771771 -0.036912817718985025 0 0 0 0 78.80771281671332 224.46431312828645 0 224.46431312828645 -46.726060110646358 0 0 0 0 66.197426938390663 357.61920008698826 0 357.61920008698826 226.86380679182184 0 0 0 0 -223.29206759746376 135.8081510471784 0 135.8081510471784 23.088624317395443 0 0 0 0 -368.61012963108806 552.75973863725085 0 552.75973863725085 -52.558537415799947 0 0 0 0 -484.72121864178189 345.16901794943533 0 345.16901794943533 -358.18324314701022 0 0 0 0 -28.619138396155904 169.27558483794928 0 169.27558483794928 -90.459240778203821 0 0 0 0 1109.5051529108569 -47.633341432501766 0 -47.633341432501766 -301.94371329886781 0 0 0 0 -1.7952781124477042 264.83404449268892 0 264.83404449268892 215.15657986624865 0 0 0 0 1.0998171485887429 4.3507854486536246 0 4.3507854486536246 9.5248284635918026 0 0 0 0 -110.80531358638109 77.503066742421652 0 77.503066742421652 -75.228269485058263 0 0 0 0 -109.75016758763445 113.04604091800752 0 113.04604091800752 -11.387717721503577 0 0 0 0 -277.26994463055598 96.610994070229935 0 96.610994070229935 34.647010188928107 0 0 0 0 1033.3502558622713 50.833082340519468 0 50.833082340519468 -39.738013382746431 0 0 0 0 -523.2997652057893 94.71222717650744 0 94.71222717650744 76.309733823429269 0 0 0 0 0.46394905030973099 0.53419370893588791 0 0.53419370893588791 2.5242182503217805 0 0 0 0 320.96501658296984 91.828751397515589 0 91.828751397515589 49.563069764757529 0 0 0 0 235.00954819511571 299.63735976103544 0 299.63735976103544 35.229941795550985 0 0 0 0 73.981578371491196 176.54403704726792 0 176.54403704726792 0.1234067165205488 0 0 0 0 -45.460021367556692 73.408409749914426 0 73.408409749914426 -39.502583556182799 0 0 0 0 -130.10718885860115 285.21888232172205 0 285.21888232172205 64.8330350686374 0 0 0 0 23.806979485518241 153.58532796016516 0 153.58532796016516 44.23929870601296 0 0 0 0 75.531326298820204 87.3991553561209 0 87.3991553561209 -58.718807513141655 0 0 0 0 77.975124627735568 115.77568089378747 0 115.77568089378747 72.231469350284897 0 0 0 0 88.970133153045026 150.89647847783272 0 150.89647847783272 43.774978858741179 0 0 0 0 191.91418801886903 122.29106774513639 0 122.29106774513639 -0.08738601263457596 0 0 0 0 144.53806874500879 61.586694737168727 0 61.586694737168727 -59.776294485156541 0 0 0 0 128.43087623120664 150.32109094065527 0 150.32109094065527 16.059318573687051 0 0 0 0 67.173447328037582 97.488159473676205 0 97.488159473676205 -21.199126436273218 0 0 0 0 18.701401536432968 55.686593613955665 0 55.686593613955665 -41.691927686275449 0 0 0 0 64.601373844569025 108.0770893189765 0 108.0770893189765 -64.259659956211181 0 0 0 0 26.666413389815716 136.9921872589257 0 136.9921872589257 -82.883916684149881 0 0 0 0 40.144824314831567 99.867427644132476 0 99.867427644132476 -47.192132608281099 0 0 0 0 95.623820845386945 128.54846774909674 0 128.54846774909674 -51.626940951959114 0 0 0 0 -0.094738797983154655 114.67182670532202 0 114.67182670532202 -18.230094652040862 0 0 0 0 -0.96236951585160568 138.96145369188162 0 138.96145369188162 -31.557214448155264 0 0 0 0 -0.73928872558462899 121.92760046667536 0 121.92760046667536 60.017382037316565 0 0 0 0 1.0933821868675295 76.894673314018291 0 76.894673314018291 -29.102085917285876 0 0 0 0 77.105107851719367 75.668485615329701 0 75.668485615329701 1.438080943087698 0 0 0 0 111.72604574813522 203.85188666835347 0 203.85188666835347 104.68609825498424 0 0 0 0 -7.2386243582172369 16.129203732400242 0 16.129203732400242 -11.799430639588422 0 0 0 0 41.19462462492811 120.98186132619594 0 120.98186132619594 7.5204814046155661 0 0 0 0 -41.98253556603008 42.265603444303913 0 42.265603444303913 -33.495384092149493 0 0 0 0 38.626941384245583 106.43552738158905 0 106.43552738158905 -20.146344895793845 0 0 0 0 3.5600119009905029 56.030344218295795 0 56.030344218295795 -20.645093597579034 0 0 0 0 121.88002461338328 133.59073371320119 0 133.59073371320119 -10.879262222006219 0 0 0 0 -18.349703535029704 36.67347802958124 0 36.67347802958124 -48.330085117005581 0 0 0 0 78.06745617291017 173.49516849724023 0 173.49516849724023 3.3771760597155662 0 0 0 0 -5.6923551664222032 51.264503370919556 0 51.264503370919556 -18.063042718458746 0 0 0 0 0.69569857534952462 51.361036222462644 0 51.361036222462644 -19.177453539345152 0 0 0 0 -26.804047301554476 39.948177452664609 0 39.948177452664609 -43.837659382323068 0 0 0 0 -7.446651173842838 61.975262743908388 0 61.975262743908388 -25.851322148562758 0 0 0 0 -6.2521010797390772 53.914289968132834 0 53.914289968132834 -38.363899899864919 0 0 0 0 -22.687370389812713 84.114367699743525 0 84.114367699743525 -53.646971577174554 0 0 0 0 -7.2382659817241688 14.487046130908425 0 14.487046130908425 -10.906987331457529 0 0 0 0 -57.757495445820751 60.753247311353462 0 60.753247311353462 -35.052147858523313 0 0 0 0 2.5942120158360922 366.37121342612227 0 366.37121342612227 -483.5810973689513 0 0 0 0 164.17601987018861 398.27152945893613 0 398.27152945893613 -506.64435403335665 0 0 0 0 24.74108904099856 38.485320227805204 0 38.485320227805204 -5.1493465848835456 0 0 0 0 2.8960071072433493 56.571497378434287 0 56.571497378434287 -32.165148185536964 0 0 0 0 -5.960134512312834 72.586591468671486 0 72.586591468671486 -49.584661631146446 0 0 0 0 0.065485820647154469 65.872462400446238 0 65.872462400446238 -27.096507677655609 0 0 0 0 1.948442703882435 -108.11854497241478 0 -108.11854497241478 -453.37882861690014 0 0 0 0 30.276213050668957 19.872561475078328 0 19.872561475078328 -4.1093107974308651 0 0 0 0 51.707260026290896 409.50893716898281 0 409.50893716898281 -670.97508912518606 0 0 0 0 -476.41894914781733 726.27491140033089 0 726.27491140033089 -541.62789458917541 0 0 0 0 -885.14423711348354 -255.09760248501334 0 -255.09760248501334 -384.67593709360153 0 0 0 0 79.541770293690206 392.16784602854023 0 392.16784602854023 -1212.2750459889212 0 0 0 0 -1248.1788208980083 881.88567079654183 0 881.88567079654183 -187.87071192348958 0 0 0 0 -0.65587489320685677 10.362679968204432 0 10.362679968204432 -0.078636143574982498 0 0 0 0 -569.14429048163584 -310.47791060485179 0 -310.47791060485179 -74.497757121920586 0 0 0 0 -1243.6255859570811 90.53975883093517 0 90.53975883093517 146.04623928977526 0 0 0 0 1.8793414275966711 -55.422981042719798 0 -55.422981042719798 -1111.1562180488836 0 0 0 0 -0.27123335556825623 -91.132902738987468 0 -91.132902738987468 -334.82055993445101 0 0 0 0 4.3458331554640006 7.9733032288530126 0 7.9733032288530126 -0.080492020779018958 0 0 0 0 -202.54137357363061 48.167771111748607 0 48.167771111748607 51.533461429615272 0 0 0 0 11.22071122889875 35.436638319259572 0 35.436638319259572 2.943082502691226 0 0 0 0 -596.70702037640331 722.40760849044455 0 722.40760849044455 367.0367324729159 0 0 0 0 -716.71772680855065 334.40925670550496 0 334.40925670550496 -84.686806089608581 0 0 0 0 0.88820845240832824 12.112667452828745 0 12.112667452828745 26.166317145540802 0 0 0 0 157.40353837514704 696.22981980597979 0 696.22981980597979 -236.24791123380419 0 0 0 0 481.68360746384133 208.41574562490132 0 208.41574562490132 106.73103810850444 0 0 0 0 -84.492919432032068 89.906570360144542 0 89.906570360144542 51.291190290779923 0 0 0 0 -3.5620957365426307 1.8942290116591209 0 1.8942290116591209 6.3470333828330183 0 0 0 0 32.793686433135008 9.7161691659202916 0 9.7161691659202916 -4.1311626346068806 0 0 0 0 -13.912785437307321 123.53433130553458 0 123.53433130553458 47.377085078609525 0 0 0 0 -12.342393295698656 34.318927853920627 0 34.318927853920627 -39.437179907341658 0 0 0 0 -34.299981425981969 76.134306527630542 0 76.134306527630542 67.744131832572748 0 0 0 0 -40.908375094557414 100.54356346610803 0 100.54356346610803 -9.8251744142035022 0 0 0 0 62.65952957679292 83.075306477967388 0 83.075306477967388 -8.4571091177349444 0 0 0 0 -88.983470947023307 119.87033364844683 0 119.87033364844683 27.695049485599156 0 0 0 0 -86.101317396966692 20.947458493718159 0 20.947458493718159 -13.606305076435092 0 0 0 0 -504.79706663107936 -459.48963654528779 0 -459.48963654528779 302.82340495940298 0 0 0 0 -526.22321655639098 1365.1384533014789 0 1365.1384533014789 -890.7024505135123 0 0 0 0 -227.34586713650424 558.2105025854944 0 558.2105025854944 -1221.2630729421289 0 0 0 0 -673.72559057396575 848.75777637994179 0 848.75777637994179 -164.74410880917549 0 0 0 0 -269.26634648162872 534.67131334563601 0 534.67131334563601 -366.07426086380178 0 0 0 0 3.1029266019336887 12.640215982846883 0 12.640215982846883 2.6845702516155541 0 0 0 0 327.43847880451358 605.44888640590943 0 605.44888640590943 682.33915246409015 0 0 0 0 -242.83201196353184 231.78710191219579 0 231.78710191219579 1348.2388589771581 0 0 0 0 -2.7433184889990514 2.3248892720517347 0 2.3248892720517347 -0.61700180471441968 0 0 0 0 -179.43775258909227 33.524206870031776 0 33.524206870031776 682.69497784308624 0 0 0 0 67.97329927055398 247.97601303781266 0 247.97601303781266 89.358746816724306 0 0 0 0 185.40728342434159 376.52450836243224 0 376.52450836243224 337.37907988931693 0 0 0 0 108.92990782450215 348.12548402164248 0 348.12548402164248 328.01129870754085 0 0 0 0 482.69751367237041 55.022801252725912 0 55.022801252725912 395.99319901535637 0 0 0 0 249.28449083089072 365.81771268680313 0 365.81771268680313 43.980772511218674 0 0 0 0 17.842429335592897 148.19608736986993 0 148.19608736986993 377.67620455447832 0 0 0 0 -11.335854529228158 3.4296498477602597 0 3.4296498477602597 -1.0768038742032076 0 0 0 0 -453.99635143383057 177.6904273149994 0 177.6904273149994 781.71820120618213 0 0 0 0 74.203662813932169 253.48447852439131 0 253.48447852439131 647.52660332030791 0 0 0 0 -101.58536831771926 293.67287283598125 0 293.67287283598125 208.85543373506516 0 0 0 0 -263.87079837519559 123.87780594210926 0 123.87780594210926 649.03919609173317 0 0 0 0 -714.47864076711994 359.6473900758283 0 359.6473900758283 669.07599240416312 0 0 0 0 -724.18474195364615 377.06543765431707 0 377.06543765431707 640.31230215510004 0 0 0 0 -877.39695250280784 530.24498219394445 0 530.24498219394445 576.71959601555136 0 0 0 0 -796.34392819652567 361.36897712043719 0 361.36897712043719 668.58225639778539 0 0 0 0 -632.45895757577091 480.58206929322478 0 480.58206929322478 315.96628222661093 0 0 0 0 -609.88177784712752 428.89696550719236 0 428.89696550719236 133.22268174321653 0 0 0 0 -556.05207822115335 716.66997170801915 0 716.66997170801915 -162.40955283209041 0 0 0 0 -194.04728272893408 333.15989947137132 0 333.15989947137132 228.02979342869367 0 0 0 0 -192.98559688957175 329.16628846275307 0 329.16628846275307 196.46491213390254 0 0 0 0 56.030737473505724 197.87141078993591 0 197.87141078993591 -468.42002624896486 0 0 0 0 -193.24823975234904 602.94598154472624 0 602.94598154472624 -1123.8275834584419 0 0 0 0 240.57941595906595 186.06185716982145 0 186.06185716982145 -279.21175876545749 0 0 0 0 44.432445246675343 194.90493726564091 0 194.90493726564091 -140.5603673094447 0 0 0 0 136.32139630391612 346.39403417665744 0 346.39403417665744 -220.7095552040264 0 0 0 0 155.54327322348399 263.23176553356461 0 263.23176553356461 13.516802826256026 0 0 0 0 159.80396384523647 294.91628511208364 0 294.91628511208364 62.022726909199264 0 0 0 0 28.464102451271174 195.97664696204811 0 195.97664696204811 132.30680191599822 0 0 0 0 56.766727851583383 80.57593178007852 0 80.57593178007852 47.752398229869385 0 0 0 0 118.34752866211784 192.82562453400169 0 192.82562453400169 -102.63202728780743 0 0 0 0 50.934918189543879 75.52370231378454 0 75.52370231378454 35.051853201262787 0 0 0 0 308.97945658318349 48.04346915145652 0 48.04346915145652 -79.382759703749798 0 0 0 0 -133.33651259879844 183.01356889461749 0 183.01356889461749 -9.3980362499132752 0 0 0 0 -54.683915935795994 200.68241125955865 0 200.68241125955865 -24.684552795282798 0 0 0 0 -86.686595470050634 259.95740464440314 0 259.95740464440314 -46.339424398713163 0 0 0 0 -91.009487279574387 200.618476895208 0 200.618476895208 -40.281407753398526 0 0 0 0 -35.003169865893291 26.199376314473668 0 26.199376314473668 19.912905312973137 0 0 0 0 106.91097537011046 209.24927998205021 0 209.24927998205021 -73.84679418100859 0 0 0 0 51.796092038453935 249.47963872339096 0 249.47963872339096 -55.288962578779319 0 0 0 0 69.791051319688449 221.29933371553489 0 221.29933371553489 -75.775306970070233 0 0 0 0 134.11270876548951 188.34239213466935 0 188.34239213466935 -108.98389097854033 0 0 0 0 74.281953168369 131.23593124870968 0 131.23593124870968 -41.620764540868095 0 0 0 0 73.32069059762398 134.39625936303855 0 134.39625936303855 -51.991533117114159 0 0 0 0 41.487526243376124 166.17097125254804 0 166.17097125254804 -37.37590676437685 0 0 0 0 244.69042798646478 72.570992387558363 0 72.570992387558363 -84.755909752697335 0 0 0 0 65.058428515959321 41.254304820131807 0 41.254304820131807 -10.183247045510797 0 0 0 0 3.9350732616803725 142.51405011569295 0 142.51405011569295 198.2514090878758 0 0 0 0 15.776981556686223 249.66480696099097 0 249.66480696099097 198.8565824215766 0 0 0 0 -21.514578449001419 52.668312856141711 0 52.668312856141711 10.280411137660849 0 0 0 0 -47.124146916276146 21.923095072707511 0 21.923095072707511 6.0447697505543161 0 0 0 0 -17.09095044975129 24.80931339061317 0 24.80931339061317 -19.382837904719054 0 0 0 0 -29.63537116360385 47.555560149943631 0 47.555560149943631 7.6452303794794716 0 0 0 0 8.9022460117569793 14.008474087516802 0 14.008474087516802 0.042040742830096178 0 0 0 0 7.0254871623583313 38.703909596413723 0 38.703909596413723 -11.467424046648375 0 0 0 0 2.6678370029185317 47.398051544441842 0 47.398051544441842 205.48048098181607 0 0 0 0 -9.8358689157012122 33.762160238431534 0 33.762160238431534 -9.5755574269714998 0 0 0 0 -11.346901639830321 20.886749177509046 0 20.886749177509046 5.3463127032737248 0 0 0 0 -13.203621978993535 24.726959150501557 0 24.726959150501557 -11.314336731001589 0 0 0 0 -1.3641888353940885 18.869477697924594 0 18.869477697924594 -20.903133080108091 0 0 0 0 -6.2882534114723967 39.791376850349479 0 39.791376850349479 -25.926478279725416 0 0 0 0 11.651282195984754 21.641369528906864 0 21.641369528906864 -7.0135964422272679 0 0 0 0 -55.307693584041772 62.111874300753698 0 62.111874300753698 -77.975406660891167 0 0 0 0 -27.311103041303795 36.632129399004043 0 36.632129399004043 -7.9334980842177174 0 0 0 0 -30.733631255986438 33.744280687649734 0 33.744280687649734 -4.5045602156242239 0 0 0 0 -9.4610141634311731 42.033920567333553 0 42.033920567333553 53.93840596517839 0 0 0 0 -28.254439404387085 44.464915887139796 0 44.464915887139796 12.181101302558091 0 0 0 0 -5.4892267376002302 4.8772468309609316 0 4.8772468309609316 3.1121466064344645 0 0 0 0 -119.01736689308382 -32.521990301022015 0 -32.521990301022015 13.988636312761741 0 0 0 0 -2.9627259020951584 16.410826036348027 0 16.410826036348027 1.1400854893025034 0 0 0 0 13.694581110281433 27.964961403449706 0 27.964961403449706 -28.612234247266315 0 0 0 0 -13.204884715222761 69.377479259173924 0 69.377479259173924 141.83673613426799 0 0 0 0 -35.818748562094697 -31.154835621375241 0 -31.154835621375241 86.745748965644452 0 0 0 0 -22.329087512371188 56.446484615298687 0 56.446484615298687 160.69283805079249 0 0 0 0 -19.312422561310086 96.766148726193933 0 96.766148726193933 90.12380734711769 0 0 0 0 1.1793141834023118 147.31361317007031 0 147.31361317007031 213.73378685832722 0 0 0 0 78.760564549866103 198.55341447128012 0 198.55341447128012 119.84932383851265 0 0 0 0 40.16364678035643 158.70160453671633 0 158.70160453671633 80.491172002046369 0 0 0 0 17.765924488194287 171.87419860380396 0 171.87419860380396 93.875581590255024 0 0 0 0 46.692022781746346 187.13117604153376 0 187.13117604153376 -34.590335527085699 0 0 0 0 84.86549633154209 244.75445792339451 0 244.75445792339451 51.22483658141573 0 0 0 0 -84.002957212434922 214.77760541636235 0 214.77760541636235 -112.02832370100077 0 0 0 0 -198.70861324768339 308.27814268191287 0 308.27814268191287 -146.70319968051626 0 0 0 0 -59.790544361825596 169.8145016105409 0 169.8145016105409 -77.517950093613763 0 0 0 0 -12.077152501638921 232.08537548864115 0 232.08537548864115 -19.728085598559119 0 0 0 0 19.904309949652088 136.50961869773164 0 136.50961869773164 -3.4958622981994267 0 0 0 0 -70.263147682457202 235.59137919934801 0 235.59137919934801 -29.272133956779726 0 0 0 0 -207.49679164711051 204.92434159733239 0 204.92434159733239 -6.457150617003208 0 0 0 0 1.0281880814779498 -1.0224591988586944 0 -1.0224591988586944 -1.7043778121148421 0 0 0 0 107.9347669417748 139.18181341926174 0 139.18181341926174 3.8449616249854444 0 0 0 0 -324.90081210401331 40.606577017671952 0 40.606577017671952 14.372602840612899 0 0 0 0 2.7396541623966186 80.572845686532673 0 80.572845686532673 99.552870931533107 0 0 0 0 -28.25742138969008 28.511610989035944 0 28.511610989035944 72.025605340619222 0 0 0 0 -269.68824079661863 164.09736281351434 0 164.09736281351434 -96.900218475726433 0 0 0 0 0.89086081619049651 43.924941244516248 0 43.924941244516248 37.959421589850109 0 0 0 0 50.320083243750453 40.186302615822029 0 40.186302615822029 -38.410951091581069 0 0 0 0 -207.58277912223275 197.66413982590166 0 197.66413982590166 -90.914394989100401 0 0 0 0 -79.953648173504916 -281.22004547236065 0 -281.22004547236065 185.42211502575447 0 0 0 0 -15.562907723455282 110.4886087499417 0 110.4886087499417 -108.5547865200715 0 0 0 0 55.482298683416957 221.80395451336699 0 221.80395451336699 -156.46249155925034 0 0 0 0 -63.890421655065438 129.85187993068939 0 129.85187993068939 -61.172895861120196 0 0 0 0 -56.122779524012003 89.593493271357147 0 89.593493271357147 -30.294690154260024 0 0 0 0 -24.016167513138498 48.409817408770323 0 48.409817408770323 -25.008405686987317 0 0 0 0 8.1240841112739872 90.079786520118432 0 90.079786520118432 -100.46598568024638 0 0 0 0 51.339432158121781 35.348395321114367 0 35.348395321114367 -73.321455608416727 0 0 0 0 34.415913872187957 78.593988828237343 0 78.593988828237343 -40.91439577343408 0 0 0 0 37.664573360075899 43.294668812479841 0 43.294668812479841 -21.924374190477465 0 0 0 0 36.297213758472935 66.036694741509564 0 66.036694741509564 -115.85808388738951 0 0 0 0 -165.1830999537874 116.30679234512945 0 116.30679234512945 -2.3400376584031619 0 0 0 0 -98.322412669484038 21.415456809125317 0 21.415456809125317 32.312000169571547 0 0 0 0 -152.03112641383996 58.375476250170323 0 58.375476250170323 -17.465595316265535 0 0 0 0 -160.64131727582935 65.42882342885423 0 65.42882342885423 12.96421236731112 0 0 0 0 -74.102580738319375 20.683111882506637 0 20.683111882506637 21.296173134316632 0 0 0 0 -117.56869798377738 32.941530734940898 0 32.941530734940898 30.665250169753563 0 0 0 0 -92.526659564498914 131.22647750731267 0 131.22647750731267 -42.010618899512338 0 0 0 0 -138.84027694695578 78.73320453866836 0 78.73320453866836 15.761667475337163 0 0 0 0 -20.485498587952172 29.128996912943833 0 29.128996912943833 3.221382031513258 0 0 0 0 -32.3573575195187 52.360415222796291 0 52.360415222796291 5.1840980055612818 0 0 0 0 -35.51784627917732 36.606074932460615 0 36.606074932460615 -6.2080530526545772 0 0 0 0 -28.500938645970777 22.448339166706617 0 22.448339166706617 2.6111154175228037 0 0 0 0 -9.8363056042704464 10.794144922448824 0 10.794144922448824 5.2782645890228537 0 0 0 0 106.11042993237788 123.36762768425979 0 123.36762768425979 -49.476145860331599 0 0 0 0 25.041571536952688 58.617587138676754 0 58.617587138676754 15.879127025734306 0 0 0 0 2.246325619664276 97.121491931338824 0 97.121491931338824 29.008185723127099 0 0 0 0 -6.5543970867816483 21.593892518984376 0 21.593892518984376 2.0122077438179033 0 0 0 0 91.461486360582057 2.2172134926950093 0 2.2172134926950093 54.423603586852551 0 0 0 0 -121.84115158809891 83.764185817381076 0 83.764185817381076 -75.357176019912004 0 0 0 0 -72.676473376097761 36.77507831407361 0 36.77507831407361 21.749951921407689 0 0 0 0 13.634907402338285 42.389678975290735 0 42.389678975290735 22.822511159163696 0 0 0 0 -40.671456551368465 83.992027529522602 0 83.992027529522602 -26.475679866634891 0 0 0 0 -44.83364174781309 71.647841592126497 0 71.647841592126497 4.5073061625298578 0 0 0 0 -66.61481733727851 70.291736849510926 0 70.291736849510926 23.141106523893541 0 0 0 0 -35.414714725557133 46.52097071283788 0 46.52097071283788 44.746288394864678 0 0 0 0 -19.946441560459789 59.373990381565818 0 59.373990381565818 -31.830670390350861 0 0 0 0 -20.62966019049054 60.747472748960718 0 60.747472748960718 15.677696155384183 0 0 0 0 -46.139209758730431 82.386768697997468 0 82.386768697997468 17.740332086119452 0 0 0 0 -29.162517928853049 63.724111142611946 0 63.724111142611946 25.792640849824238 0 0 0 0 -39.433022230296046 85.354734763765009 0 85.354734763765009 40.580079387829755 0 0 0 0 -22.40288279246306 71.852856037425227 0 71.852856037425227 4.4610588261348312 0 0 0 0 -23.647606779821217 65.451191694526642 0 65.451191694526642 51.043664202137734 0 0 0 0 -54.412352956831455 105.0448928222977 0 105.0448928222977 -10.452861027242761 0 0 0 0 1.9023330790791988 99.52986509762809 0 99.52986509762809 -111.66106846532057 0 0 0 0 29.340457043173956 96.024333792904145 0 96.024333792904145 -111.21605269059364 0 0 0 0 56.934139305655748 33.027223954294286 0 33.027223954294286 4.2656487748362082 0 0 0 0 4.2285981077511678 132.23397465617018 0 132.23397465617018 -257.25678784660704 0 0 0 0 -102.00742512324359 30.041543776362232 0 30.041543776362232 -112.89468371000839 0 0 0 0 -141.1067754306132 86.317702389773331 0 86.317702389773331 -46.482482230028836 0 0 0 0 -102.41950067305879 108.93135358641302 0 108.93135358641302 -34.661691574685392 0 0 0 0 -28.749754650081741 69.000296466554573 0 69.000296466554573 -93.104175581596792 0 0 0 0 -33.127517154949601 71.603445099884993 0 71.603445099884993 -27.020966217103705 0 0 0 0 -18.248852938020718 96.758949560949986 0 96.758949560949986 -92.04652761676698 0 0 0 0 -9.2118824230710743 105.36131895587459 0 105.36131895587459 -203.48998755333014 0 0 0 0 -17.80608207100417 29.631531336012628 0 29.631531336012628 29.949744498042463 0 0 0 0 -67.623912439841661 124.47171703889944 0 124.47171703889944 -68.7428670154477 0 0 0 0 -159.70109773604781 171.79453861783259 0 171.79453861783259 -79.375793889899796 0 0 0 0 2.6512362309553765 7.636829398564565 0 7.636829398564565 8.5413262520313822 0 0 0 0 -319.18773566733216 -68.093920359839103 0 -68.093920359839103 358.39146143600738 0 0 0 0 -219.72730716839578 327.54419953061006 0 327.54419953061006 -61.219035262467514 0 0 0 0 10.175143940366979 369.99081136940731 0 369.99081136940731 -53.757598036983836 0 0 0 0 -128.84544468495005 166.4509912773683 0 166.4509912773683 -59.372553609444367 0 0 0 0 -58.135773687757776 64.528588068159252 0 64.528588068159252 -29.159558640163084 0 0 0 0 -125.44270768280694 250.4253226139117 0 250.4253226139117 -96.997741424143896 0 0 0 0 -104.19066672023473 270.29072721741613 0 270.29072721741613 -228.28437725835829 0 0 0 0 -98.706563460080361 183.9854295469886 0 183.9854295469886 -151.48375915073848 0 0 0 0 -239.22585931639333 259.09370819435571 0 259.09370819435571 -210.82765112538618 0 0 0 0 -199.86644084355794 345.99707880199276 0 345.99707880199276 -371.46135094774581 0 0 0 0 -204.95379906401649 279.56365340022057 0 279.56365340022057 -164.86657944892795 0 0 0 0 -145.32810597016942 312.43311760342112 0 312.43311760342112 -152.01155260833184 0 0 0 0 -148.01696493804047 280.4244658862026 0 280.4244658862026 -245.98605593190587 0 0 0 0 -91.868724952990306 317.14513603917658 0 317.14513603917658 -312.79846362405806 0 0 0 0 -96.614148317472427 284.43673017227411 0 284.43673017227411 -310.09537813235193 0 0 0 0 42.109931467937713 58.155225603426516 0 58.155225603426516 -57.020586782629834 0 0 0 0 5.2881970238777285 107.57058822190447 0 107.57058822190447 10.443928200118535 0 0 0 0 -14.878883778070303 32.144259146691184 0 32.144259146691184 -20.07338709654141 0 0 0 0 10.58268747155671 98.635972115516779 0 98.635972115516779 -50.636846932342451 0 0 0 0 45.925922798682905 16.39774413518964 0 16.39774413518964 2.1524967509400028 0 0 0 0 -11.243530906517719 26.048777991508295 0 26.048777991508295 -13.08108641161445 0 0 0 0 -18.298137521458557 50.169197547322256 0 50.169197547322256 -73.217470680057886 0 0 0 0 -18.699013075634866 41.674046904156057 0 41.674046904156057 51.932588686897361 0 0 0 0 0.17674538771353809 44.758610304953514 0 44.758610304953514 -8.3334034001256896 0 0 0 0 11.820494095098525 28.029708963121038 0 28.029708963121038 -4.3628241638211023 0 0 0 0 26.806969446071889 72.595676430672029 0 72.595676430672029 -69.305298083658272 0 0 0 0 -5.9923671472921853 7.2539936770617715 0 7.2539936770617715 -2.6824529435616569 0 0 0 0 26.759221322816302 58.343254925614019 0 58.343254925614019 14.672606561500288 0 0 0 0 2.8822706767820989 45.113641172192047 0 45.113641172192047 0.95934876903739585 0 0 0 0 -5.4968624843386351 44.809554255520197 0 44.809554255520197 40.702152351692348 0 0 0 0 -32.442048947201172 28.885106979486238 0 28.885106979486238 12.736405196145483 0 0 0 0 -85.591212057013763 348.5072758362785 0 348.5072758362785 -123.77604890835937 0 0 0 0 8.5822845243746997 -97.21207158442121 0 -97.21207158442121 256.87889280320087 0 0 0 0 -21.811181898459154 23.558624257022757 0 23.558624257022757 13.780140668247544 0 0 0 0 -9.7825936352310237 32.51927628010526 0 32.51927628010526 6.5086977987957653 0 0 0 0 110.90088583758188 -104.05547340716294 0 -104.05547340716294 -13.180193225707626 0 0 0 0 110.12649261516344 44.866201222208474 0 44.866201222208474 -200.16574803069307 0 0 0 0 -226.91735544238327 161.56969720615871 0 161.56969720615871 -74.044648977665929 0 0 0 0 -315.4665379841972 -21.861317566216712 0 -21.861317566216712 6.2752608702503494 0 0 0 0 -35.213034016371239 89.647163150384586 0 89.647163150384586 -64.67387581281946 0 0 0 0 -197.48255812481511 68.223139215442643 0 68.223139215442643 4.8708094373068889 0 0 0 0 -126.74094297452393 -27.923543095617788 0 -27.923543095617788 -18.820969540931401 0 0 0 0 -53.170166117357439 50.109108795913926 0 50.109108795913926 0.21364327187620802 0 0 0 0 10.425163086600634 9.013120050787407 0 9.013120050787407 -3.6053660054757302 0 0 0 0 -21.265502941908309 35.830069252951844 0 35.830069252951844 -1.9937559638299405 0 0 0 0 237.95078853881023 213.40643607593529 0 213.40643607593529 -47.705168130560196 0 0 0 0 -77.489995711963275 -7.3686776866852597 0 -7.3686776866852597 -10.772569486616703 0 0 0 0 -4.6047849887591781 2.6462207165593412 0 2.6462207165593412 0.88120057166577226 0 0 0 0 293.36102231682162 -41.523620778680197 0 -41.523620778680197 274.11244205923867 0 0 0 0 -53.421487141327816 77.927938010467187 0 77.927938010467187 9.7083476084444555 0 0 0 0 -22.379141133031226 41.620427569825551 0 41.620427569825551 22.600494480844645 0 0 0 0 2.6999913151726673 0.02846137153709094 0 0.02846137153709094 6.0683326114813099 0 0 0 0 2.9941039085751981 31.089451670284689 0 31.089451670284689 14.401279345343937 0 0 0 0 3.3265463944201912 30.731960296136052 0 30.731960296136052 20.814195677803781 0 0 0 0 -10.389524576981785 64.400866876774671 0 64.400866876774671 6.2314018265369668 0 0 0 0 -88.383288118609926 76.646864362695851 0 76.646864362695851 7.5691871741737486 0 0 0 0 20.27182084039508 26.676064403711877 0 26.676064403711877 27.231683090981917 0 0 0 0 -83.209008033580176 65.097877972048082 0 65.097877972048082 49.421285221396829 0 0 0 0 -36.707249702594709 16.710269963652536 0 16.710269963652536 26.024538779114664 0 0 0 0 -19.398024721813272 80.06907813514681 0 80.06907813514681 37.221031548513565 0 0 0 0 -47.170657223730814 65.538752241798647 0 65.538752241798647 13.396118564152857 0 0 0 0 19.08467649849652 39.510915426755304 0 39.510915426755304 21.98000809950301 0 0 0 0 -5.5268359158362728 48.4725247723145 0 48.4725247723145 7.6599678460038376 0 0 0 0 -18.586329065648897 94.615026398339978 0 94.615026398339978 49.71464679815108 0 0 0 0 -25.728015931159462 82.284456002847946 0 82.284456002847946 41.236347788653802 0 0 0 0 -12.149087386424696 44.771811517738122 0 44.771811517738122 16.221366520984876 0 0 0 0 -23.970394916912483 83.185003363698343 0 83.185003363698343 41.555744197510649 0 0 0 0 -2.0070534799087909 79.646146306637092 0 79.646146306637092 31.720583096670453 0 0 0 0 -42.155813772722468 57.120711824019963 0 57.120711824019963 10.65870539828029 0 0 0 0 -12.861230358383509 45.920565040164746 0 45.920565040164746 10.303401949310778 0 0 0 0 9.6416537483746652 87.779780260734697 0 87.779780260734697 5.8976511929331537 0 0 0 0 5.9393222595074349 39.800798842639836 0 39.800798842639836 21.484209601217259 0 0 0 0 9.0026688525358622 92.922030105261911 0 92.922030105261911 14.697899237740785 0 0 0 0 5.1431292940833373 85.116053702077807 0 85.116053702077807 19.237689920642879 0 0 0 0 -11.675446828719394 25.445020986766011 0 25.445020986766011 -24.24092588903828 0 0 0 0 14.849960948522494 83.31618550811254 0 83.31618550811254 18.998998792103521 0 0 0 0 24.637496921423008 90.593290871865975 0 90.593290871865975 14.888812078388582 0 0 0 0 6.233243315396976 105.75652851813174 0 105.75652851813174 49.177284657438577 0 0 0 0 -16.949666122069175 80.566672678338364 0 80.566672678338364 21.811142454589572 0 0 0 0 -24.585862076710328 69.049717778627382 0 69.049717778627382 32.483811268536556 0 0 0 0 -39.056533849630796 77.791117381337244 0 77.791117381337244 66.315400859841247 0 0 0 0 -248.92982244421 215.81527082560206 0 215.81527082560206 -57.582006708851168 0 0 0 0 -12.63886118192022 63.609816070584202 0 63.609816070584202 -24.66934959669743 0 0 0 0 190.72591956979159 20.240178269119497 0 20.240178269119497 -99.310359873295965 0 0 0 0 432.88138172185427 226.44358484788609 0 226.44358484788609 -278.14587081708305 0 0 0 0 -47.781799332607989 92.344540634068835 0 92.344540634068835 101.22386677447867 0 0 0 0 -4.0349795225289853 1.7134413624617295 0 1.7134413624617295 -3.1693232521865866 0 0 0 0 42.106832769486573 158.56918886471612 0 158.56918886471612 80.148486153775593 0 0 0 0 192.60318047696637 127.80166567507331 0 127.80166567507331 16.440287640456518 0 0 0 0 -177.33993061240108 94.258269686803033 0 94.258269686803033 13.653300360383582 0 0 0 0 -225.40878308181345 48.239174216991159 0 48.239174216991159 20.827102419774747 0 0 0 0 -225.94656984592439 42.609272281781159 0 42.609272281781159 -22.473872686205141 0 0 0 0 -77.740822839186876 104.39901772019221 0 104.39901772019221 -15.399697925058717 0 0 0 0 0.60053699448670983 -0.86475513538514548 0 -0.86475513538514548 -2.1995796745307672 0 0 0 0 -664.76130683580413 69.999113720901732 0 69.999113720901732 53.220571039757488 0 0 0 0 -303.40232063939766 286.19200776013167 0 286.19200776013167 -142.98321938134541 0 0 0 0 316.76263042488063 95.44629120610989 0 95.44629120610989 -126.72941768519013 0 0 0 0 -25.433149864215579 8.6845235968436469 0 8.6845235968436469 -0.85087706974417188 0 0 0 0 49.044343129498884 -37.520839001903369 0 -37.520839001903369 -117.83765901000152 0 0 0 0 36.436581450710946 248.84167553259613 0 248.84167553259613 93.278554357624671 0 0 0 0 -54.105617408076796 80.370557766484126 0 80.370557766484126 -99.078438031836413 0 0 0 0 26.690631287172437 130.16382263979904 0 130.16382263979904 -25.248793258670048 0 0 0 0 71.759609764569177 75.758619792430181 0 75.758619792430181 -17.940571182127314 0 0 0 0 -139.22848391202569 225.96421949461364 0 225.96421949461364 19.731538048570656 0 0 0 0 -65.438326035509817 98.32224592352577 0 98.32224592352577 -14.030500010918331 0 0 0 0 -29.251004015907377 51.277154276201571 0 51.277154276201571 -44.594626887322178 0 0 0 0 -60.950514433028729 79.568316059610879 0 79.568316059610879 -16.88188861963863 0 0 0 0 -32.733133290494152 102.15931652798827 0 102.15931652798827 -33.211903150822764 0 0 0 0 -84.968618062135647 86.133007451573576 0 86.133007451573576 -16.33682024373411 0 0 0 0 -151.23839001626038 48.405121633539238 0 48.405121633539238 -22.171373473778658 0 0 0 0 -87.908186247594131 70.269786581056906 0 70.269786581056906 -20.168293925635453 0 0 0 0 -17.335668175141166 14.16489204109039 0 14.16489204109039 8.2211411226300442 0 0 0 0 -28.852706613488408 36.42758237849921 0 36.42758237849921 -12.294405572567484 0 0 0 0 -24.236097256898717 21.250574385320121 0 21.250574385320121 3.1550686298392616 0 0 0 0 -20.526027376327875 32.277430814953277 0 32.277430814953277 -12.300298410082178 0 0 0 0 -27.939679999108193 33.485961858692463 0 33.485961858692463 -5.8298925955023151 0 0 0 0 -20.148692398855928 34.157869556183869 0 34.157869556183869 -11.296054794700467 0 0 0 0 46.125763173254427 129.76377572386446 0 129.76377572386446 -105.82413673945121 0 0 0 0 53.232377350668685 100.43391658672772 0 100.43391658672772 -60.740744001901476 0 0 0 0 -15.9946341545268 32.684794000951484 0 32.684794000951484 -7.4722896454819363 0 0 0 0 -26.159242142230944 46.356842765567208 0 46.356842765567208 -16.13150579418911 0 0 0 0 -55.411080597811633 93.915495888621081 0 93.915495888621081 9.7913925914617721 0 0 0 0 26.269510940168402 105.35950220434461 0 105.35950220434461 -62.935726891420927 0 0 0 0 -52.516178897218197 63.294395214623364 0 63.294395214623364 -29.812044617719948 0 0 0 0 -4.6133304860018498 26.439885720251247 0 26.439885720251247 -7.5064143721367138 0 0 0 0 -34.560264683757495 60.281678181809603 0 60.281678181809603 -59.977577861774705 0 0 0 0 -90.597991811910106 126.11296328331809 0 126.11296328331809 -12.360354388583801 0 0 0 0 -43.905005530052748 39.568206444642804 0 39.568206444642804 -1.5657754693697576 0 0 0 0 -52.91886483993585 70.36628505686167 0 70.36628505686167 -55.581588094304607 0 0 0 0 271.20608303524205 -82.977854420329095 0 -82.977854420329095 31.080009509692445 0 0 0 0 2.8174572650641494 200.96011624881976 0 200.96011624881976 -128.40737390946015 0 0 0 0 107.49385061040084 30.104566825859365 0 30.104566825859365 -115.41175127089082 0 0 0 0 180.54663530901598 88.598448119075329 0 88.598448119075329 -75.863699771187385 0 0 0 0 162.9656223552447 220.5118822607983 0 220.5118822607983 -316.82770994555904 0 0 0 0 37.883756927840295 226.58515028076363 0 226.58515028076363 -297.08196092218714 0 0 0 0 0.34364184656555352 2.7478748509269764 0 2.7478748509269764 -3.8484193839587704 0 0 0 0 201.05935713610234 256.30566098158306 0 256.30566098158306 -283.87900714654097 0 0 0 0 920.96159331736271 471.90265614355485 0 471.90265614355485 -809.62266393893515 0 0 0 0 142.28097109106602 137.04178983209567 0 137.04178983209567 27.864371780203555 0 0 0 0 483.97640779269204 -491.09028882862094 0 -491.09028882862094 28.509518078804831 0 0 0 0 74.419437078555347 294.19889236814925 0 294.19889236814925 -744.46400996941156 0 0 0 0 31.523384634201648 29.588394948514178 0 29.588394948514178 -229.91670204428374 0 0 0 0 -0.08693195361411199 167.27385114153185 0 167.27385114153185 -98.306405049019304 0 0 0 0 -29.474434729027053 116.48348172720125 0 116.48348172720125 58.070310299932316 0 0 0 0 16.424835218203953 258.93559864374765 0 258.93559864374765 195.26778074387039 0 0 0 0 256.24673094682839 210.05753135292616 0 210.05753135292616 14.169442948375945 0 0 0 0 22.639787879954383 100.09782651096975 0 100.09782651096975 5.9789737806058838 0 0 0 0 -23.549717328918632 202.189006337092 0 202.189006337092 44.527104181328923 0 0 0 0 -0.016314822618354586 198.17990301442077 0 198.17990301442077 2.6393590823718114 0 0 0 0 -280.48851439513783 134.26139611837198 0 134.26139611837198 77.653136489352619 0 0 0 0 -0.49218374252978592 3.0147678376088294 0 3.0147678376088294 -0.92081358104917399 0 0 0 0 427.11977448173275 162.47574564192473 0 162.47574564192473 78.650570246770798 0 0 0 0 475.31254852357961 223.758761784733 0 223.758761784733 108.70181894194684 0 0 0 0 -0.079660621357859895 0.16599702517710568 0 0.16599702517710568 3.9832547438619486 0 0 0 0 270.29126441958942 -45.070747301913798 0 -45.070747301913798 154.09146885988594 0 0 0 0 -0.29178136135184118 4.5346536107298476 0 4.5346536107298476 -5.0597987371317288 0 0 0 0 364.36995114776073 -35.398948066476805 0 -35.398948066476805 2.1200249691537465 0 0 0 0 174.53964299617292 218.21307119037465 0 218.21307119037465 124.03022566031723 0 0 0 0 309.72996158998285 -73.522557070169569 0 -73.522557070169569 -17.621347448479355 0 0 0 0 -69.60244363185484 -62.19526141040842 0 -62.19526141040842 199.09971199162101 0 0 0 0 3.6975162980888854 -35.501409757231158 0 -35.501409757231158 33.602437571513292 0 0 0 0 -122.96984690947284 -1.020238351818989 0 -1.020238351818989 71.301084979841107 0 0 0 0 -93.485197015266749 3.001535922056064 0 3.001535922056064 55.935469664196717 0 0 0 0 -110.56704572190029 37.438382602369529 0 37.438382602369529 65.439902550264378 0 0 0 0 -240.60421309925732 66.48212008500559 0 66.48212008500559 74.354226270053005 0 0 0 0 -163.05866212432738 119.08838497988108 0 119.08838497988108 -2.869398670962255 0 0 0 0 -426.68777643461362 191.50099855777444 0 191.50099855777444 0.37199699720281387 0 0 0 0 -193.12275568651967 155.60271104703497 0 155.60271104703497 46.21810638671559 0 0 0 0 -79.083557341262349 -12.168228178790741 0 -12.168228178790741 -53.926145757141057 0 0 0 0 -162.75695585410722 -20.351774361753996 0 -20.351774361753996 98.341080607788172 0 0 0 0 3.1646001946622846 -0.4285099944593469 0 -0.4285099944593469 -0.88215590251249409 0 0 0 0 -158.10357051437313 359.14313804591802 0 359.14313804591802 -64.134573415478371 0 0 0 0 -242.14812482908019 161.3763961344157 0 161.3763961344157 51.758233393832825 0 0 0 0 -87.422819230221648 162.90411577872601 0 162.90411577872601 51.63260117466416 0 0 0 0 -182.43691938255506 306.40746465207485 0 306.40746465207485 -160.78322904797187 0 0 0 0 75.710891127186187 216.96697668734851 0 216.96697668734851 -171.47207444700325 0 0 0 0 -93.206679867857019 352.97544473788003 0 352.97544473788003 -245.41640805712086 0 0 0 0 -79.686597710186106 290.13256328822808 0 290.13256328822808 -279.42648408461537 0 0 0 0 -29.941333613503957 271.81761360594101 0 271.81761360594101 -492.89041563039063 0 0 0 0 -172.3318987601815 371.81531141377491 0 371.81531141377491 -327.69326852718586 0 0 0 0 -150.15249323687385 317.24442352240385 0 317.24442352240385 -285.63815749376226 0 0 0 0 -582.87319172853313 537.35668147697288 0 537.35668147697288 -396.7821134418773 0 0 0 0 -196.23505259886588 354.08000212820116 0 354.08000212820116 -263.65337341859413 0 0 0 0 21.931780115362926 414.98358780489207 0 414.98358780489207 -604.68171540199546 0 0 0 0 73.309667032735888 244.87694238151744 0 244.87694238151744 -491.48354074521194 0 0 0 0 -5.9848337874136632 50.021780967588711 0 50.021780967588711 70.443365398561582 0 0 0 0 15.448197682038881 190.3500653901865 0 190.3500653901865 -445.85683888816857 0 0 0 0 -5.9914236962324026 5.9389245358391634 0 5.9389245358391634 1.9095021739712337 0 0 0 0 -87.581770559816505 226.85827224177046 0 226.85827224177046 -449.10315284940589 0 0 0 0 -87.192469034504029 44.844298853393411 0 44.844298853393411 -380.61533322217292 0 0 0 0 -217.80840052075655 69.710623849159674 0 69.710623849159674 -137.51285549798922 0 0 0 0 -396.51727604675398 209.81145435407961 0 209.81145435407961 -156.32190207030908 0 0 0 0 -524.15169151996997 -9.7204472320381683 0 -9.7204472320381683 -434.59523108579742 0 0 0 0 -242.51279340378824 333.5321149170195 0 333.5321149170195 -820.83374511857255 0 0 0 0 42.184619130784995 205.98558727029376 0 205.98558727029376 -470.59997209064022 0 0 0 0 -290.43540361977648 250.47421006630975 0 250.47421006630975 -337.22098824606655 0 0 0 0 -533.07734500717925 208.68970316975174 0 208.68970316975174 -133.71940224908758 0 0 0 0 -239.58114003547234 379.51397658470705 0 379.51397658470705 -413.5677044275435 0 0 0 0 -1150.8315138931503 613.04248990897031 0 613.04248990897031 -326.28223455471016 0 0 0 0 -0.96796227548223079 1.1212028651079891 0 1.1212028651079891 -7.2590169734790777 0 0 0 0 4.2496699255760948 7.7073821447102091 0 7.7073821447102091 -21.116933051156167 0 0 0 0 77.010108797643625 56.697333133481152 0 56.697333133481152 -52.342416921841505 0 0 0 0 -474.28297260765976 220.00000771202758 0 220.00000771202758 -72.035145552064932 0 0 0 0 -389.69760902928829 224.32725723308249 0 224.32725723308249 -134.56773739855657 0 0 0 0 -245.74601144960616 196.16128494414079 0 196.16128494414079 -106.67806540954916 0 0 0 0 -345.12874117831961 174.36405737417954 0 174.36405737417954 -90.084455939657346 0 0 0 0 -4.9229129551822552 46.6239134918942 0 46.6239134918942 1.2254144442849793 0 0 0 0 12.73564993092441 68.610381862767099 0 68.610381862767099 -21.622519467007805 0 0 0 0 6.9207528237020597 61.090733852019184 0 61.090733852019184 -24.306833606060536 0 0 0 0 48.002569873904577 67.621181941678515 0 67.621181941678515 -20.380296496288793 0 0 0 0 21.339854301608284 52.268226063681141 0 52.268226063681141 -38.230702548709814 0 0 0 0 3.7869781510671601 40.774227203190094 0 40.774227203190094 -31.279496120623662 0 0 0 0 89.174203320260858 34.829102552743279 0 34.829102552743279 -372.56279957040533 0 0 0 0 99.3472472157232 -77.965692019982725 0 -77.965692019982725 -105.26276995077205 0 0 0 0 -9.1567059520111798 49.486494581522948 0 49.486494581522948 -37.140109638741706 0 0 0 0 -7.7504198212991469 77.257975928685482 0 77.257975928685482 -21.728326054637364 0 0 0 0 34.767320534680039 -52.670676179368456 0 -52.670676179368456 64.814179561076799 0 0 0 0 15.960497772088559 22.534724414048981 0 22.534724414048981 15.909904166857416 0 0 0 0 2.4831164067727514 52.743158413853962 0 52.743158413853962 -50.258676660771016 0 0 0 0 12.452798315411201 -31.147036652619136 0 -31.147036652619136 63.717209769815554 0 0 0 0 -7.0469336744572502 7.4760039964312455 0 7.4760039964312455 42.638645120536239 0 0 0 0 49.624198720644927 -16.162147938397538 0 -16.162147938397538 36.711649480454071 0 0 0 0 4.1552748562535271 41.178222374830511 0 41.178222374830511 -41.683023255638545 0 0 0 0 50.312431473677862 26.713817586816731 0 26.713817586816731 -27.23258143932253 0 0 0 0 -2.6400135713047348 49.244850017559656 0 49.244850017559656 -0.53299526147748111 0 0 0 0 21.597711851057198 28.726666214733172 0 28.726666214733172 18.837738647343343 0 0 0 0 51.030871903853154 -3.0332970760101148 0 -3.0332970760101148 42.399253748262709 0 0 0 0 35.36597930168864 31.613317506674321 0 31.613317506674321 12.864927385071496 0 0 0 0 18.461205292653176 66.056226892747873 0 66.056226892747873 -19.704808732698439 0 0 0 0 13.339238475076854 56.913077318335127 0 56.913077318335127 -35.300549278181279 0 0 0 0 -63.571089793666033 70.050824828325858 0 70.050824828325858 1.4136628177402599 0 0 0 0 -9.1659931359099573 38.171640126964121 0 38.171640126964121 -19.038226246557315 0 0 0 0 -240.50923851894913 147.6637926827425 0 147.6637926827425 -94.782804167225549 0 0 0 0 -442.38996742299787 191.46370826747943 0 191.46370826747943 -39.310939179849811 0 0 0 0 4.347317750506047 26.779238015527639 0 26.779238015527639 18.745983969363209 0 0 0 0 -446.97124122847936 253.90021471469959 0 253.90021471469959 -129.12335558215273 0 0 0 0 -72.247898046509363 -8.1882854736741137 0 -8.1882854736741137 7.5390623764214979 0 0 0 0 66.148243447481946 33.250725698868337 0 33.250725698868337 -2.3744908700300584 0 0 0 0 -5.0320986549947975 3.0170114598450937 0 3.0170114598450937 -0.23694251575901148 0 0 0 0 -195.21754835329193 262.06392314828008 0 262.06392314828008 -66.842148622352397 0 0 0 0 -185.26528560378938 93.429753353939304 0 93.429753353939304 56.419282895183642 0 0 0 0 -365.42738665192155 149.05770831809423 0 149.05770831809423 40.273967798624653 0 0 0 0 -196.53921628958778 233.56352536917257 0 233.56352536917257 -30.379044052500831 0 0 0 0 -132.11780728091253 249.29549296454934 0 249.29549296454934 -28.222089921173733 0 0 0 0 -145.04427051606763 223.64818998902774 0 223.64818998902774 -28.928603364722107 0 0 0 0 -44.58928611761803 270.03510876718974 0 270.03510876718974 -46.456899835044169 0 0 0 0 -146.26646135689225 228.71259374356669 0 228.71259374356669 -44.135436102813401 0 0 0 0 9.4113293153059203 198.05308586182582 0 198.05308586182582 -46.376508836976427 0 0 0 0 -1.2628913691987691 158.9210794627943 0 158.9210794627943 -13.667028679847135 0 0 0 0 222.59791515534744 179.50406558324903 0 179.50406558324903 -67.46252335698955 0 0 0 0 12.927459524857113 239.42199584152331 0 239.42199584152331 2.1884635710957809 0 0 0 0 -40.500146754799061 176.57269165398611 0 176.57269165398611 -26.842383833687563 0 0 0 0 -124.98098241296248 269.29414890108092 0 269.29414890108092 -75.473947977967327 0 0 0 0 -181.73611624656769 260.08245918094326 0 260.08245918094326 -221.78813102258573 0 0 0 0 -239.82205249145773 173.7502642123909 0 173.7502642123909 -25.210648538522946 0 0 0 0 -20.429845563980052 159.22387498464013 0 159.22387498464013 -166.32363846665976 0 0 0 0 290.83072388213259 224.18308013844398 0 224.18308013844398 105.57804245560692 0 0 0 0 227.21625333538395 112.30385176226628 0 112.30385176226628 -63.017555823716975 0 0 0 0 -19.509561384838889 177.11235186667909 0 177.11235186667909 17.743921785884595 0 0 0 0 270.5433931250991 -54.128114147325505 0 -54.128114147325505 -272.57284072664334 0 0 0 0 221.65478202047234 220.06586712483477 0 220.06586712483477 -468.41378718167107 0 0 0 0 299.24372673306971 -197.24374164784285 0 -197.24374164784285 296.01040410473797 0 0 0 0 70.211280755174812 148.2822575663231 0 148.2822575663231 -253.53144708822947 0 0 0 0 106.25523632470868 164.7391774795833 0 164.7391774795833 -488.17837207621778 0 0 0 0 -203.88572890633804 191.2651511272561 0 191.2651511272561 -174.17250309594237 0 0 0 0 0.11988267633569194 185.21734178632141 0 185.21734178632141 -424.64883402586929 0 0 0 0 1403.1106434271715 -257.26215047794904 0 -257.26215047794904 -583.14864136680262 0 0 0 0 2.6649740522856575 2.5790377508353686 0 2.5790377508353686 -6.4303795852360395 0 0 0 0 -445.34794018101093 486.54229055475298 0 486.54229055475298 -384.52438399941457 0 0 0 0 4.9598885609500201 5.2363166729332136 0 5.2363166729332136 -12.40403427515119 0 0 0 0 -85.75135717674857 97.736653098952956 0 97.736653098952956 -109.59304764268381 0 0 0 0 -28.177161067142151 89.273232503521285 0 89.273232503521285 -166.71476621087277 0 0 0 0 -0.20978759673744207 58.004880747839707 0 58.004880747839707 -132.14105531159294 0 0 0 0 -67.021756507660029 53.172376262571561 0 53.172376262571561 -29.087944522296311 0 0 0 0 586.11060219701176 10.827279009807171 0 10.827279009807171 -69.604642478283495 0 0 0 0 172.39154910772049 14.692795105394907 0 14.692795105394907 47.860193310385512 0 0 0 0 209.26374230752117 71.859837707324914 0 71.859837707324914 -25.412644434298272 0 0 0 0 46.590158847015118 44.484570736152818 0 44.484570736152818 -6.0958642510086065 0 0 0 0 109.33941529995354 104.96034950976536 0 104.96034950976536 -40.513154854386812 0 0 0 0 -1.0943175302963937 13.940688246239006 0 13.940688246239006 -26.594520517075807 0 0 0 0 0.0085270501440390944 11.393650666523172 0 11.393650666523172 -20.780793694997556 0 0 0 0 -5.0875236512365518 13.559064426684927 0 13.559064426684927 -19.159341658225458 0 0 0 0 242.18645508706868 -41.322753941673454 0 -41.322753941673454 -42.070734680142778 0 0 0 0 4.1841021199033435 7.6634802121761822 0 7.6634802121761822 -11.819866077923876 0 0 0 0 -4.2647634352033492 10.012767241532856 0 10.012767241532856 -10.021076415054267 0 0 0 0 -4.2453960762832139 10.305498980448647 0 10.305498980448647 -9.156690245756181 0 0 0 0 -8.3596143701579422 10.708390294843412 0 10.708390294843412 -5.8456559209589614 0 0 0 0 1.803950392719301 -0.42612113174301669 0 -0.42612113174301669 -0.78249379071928615 0 0 0 0 69.448671339589055 28.952587900876097 0 28.952587900876097 68.117645414440631 0 0 0 0 134.38735589751741 -61.808921901436406 0 -61.808921901436406 41.051991351007018 0 0 0 0 136.65768034452049 49.901732585189166 0 49.901732585189166 -21.55266556054994 0 0 0 0 -31.678861298481934 85.310679124726448 0 85.310679124726448 11.453385585190517 0 0 0 0 -50.35520791480667 159.91409961864701 0 159.91409961864701 -37.959254307200354 0 0 0 0 26.757961789669935 25.950418250184157 0 25.950418250184157 10.311082186148269 0 0 0 0 -87.106492346167215 44.474471874545998 0 44.474471874545998 -8.0087948282016441 0 0 0 0 -8.0587450745224487 41.436023392110656 0 41.436023392110656 -70.211001239644247 0 0 0 0 40.470240187802119 91.226530791398545 0 91.226530791398545 -41.052971780503867 0 0 0 0 78.944567687212839 -28.731967479674495 0 -28.731967479674495 -188.27995765801461 0 0 0 0 139.34876425312541 136.90310394136395 0 136.90310394136395 -97.141560979802307 0 0 0 0 -251.12056725520233 88.969325748716074 0 88.969325748716074 -64.414053635335222 0 0 0 0 -0.012088456394849345 5.4304482014413225 0 5.4304482014413225 -5.664279507066226 0 0 0 0 0.14810772792469606 2.921465949523224 0 2.921465949523224 -1.0313597518751436 0 0 0 0 -6.0224940414739905 9.6525391915557748 0 9.6525391915557748 -5.5968065583232942 0 0 0 0 -10.229569825140061 0.60043332540226402 0 0.60043332540226402 72.092967787935777 0 0 0 0 -74.582839609560324 204.44898140104851 0 204.44898140104851 -172.89873138440817 0 0 0 0 -97.124232262882288 262.55841321978369 0 262.55841321978369 -89.127789899048366 0 0 0 0 -150.59774831227696 222.31923670181095 0 222.31923670181095 -40.092969588324195 0 0 0 0 -115.51230557910458 208.04395911111351 0 208.04395911111351 -25.040686567512239 0 0 0 0 -41.145090983773116 149.95309678342892 0 149.95309678342892 -61.586002698455559 0 0 0 0 -118.81429803191168 230.85966494059107 0 230.85966494059107 -120.1807607410301 0 0 0 0 -3.9576864032471804 -1.019761583937246 0 -1.019761583937246 0.31165978069434175 0 0 0 0 -12.865359789444483 207.86543493647696 0 207.86543493647696 -489.89835372208836 0 0 0 0 -297.07978325723707 302.08700217626711 0 302.08700217626711 -95.234520208614413 0 0 0 0 -7.4828937659985968 62.47563866600467 0 62.47563866600467 -120.62652899533714 0 0 0 0 -10.799801727473096 6.5877371909791691 0 6.5877371909791691 294.97903492103433 0 0 0 0 -323.45170745700307 271.89634228008072 0 271.89634228008072 561.6645232134797 0 0 0 0 -121.32778050009074 189.76133184786158 0 189.76133184786158 34.867604870854848 0 0 0 0 -774.23521045300004 -66.242145371408697 0 -66.242145371408697 199.49185104919434 0 0 0 0 -0.011222781809919979 164.24329223823042 0 164.24329223823042 208.7505531645802 0 0 0 0 80.360047169509926 157.88315415218858 0 157.88315415218858 133.52531732935313 0 0 0 0 -152.58707028364006 267.66176297843595 0 267.66176297843595 82.024451729550492 0 0 0 0 94.829828457539406 186.49197218644713 0 186.49197218644713 182.97307231857485 0 0 0 0 -6.8782893805577459 7.4431280924746517 0 7.4431280924746517 -0.37498181185601709 0 0 0 0 -430.25039994069084 100.31005999510853 0 100.31005999510853 312.08734823210943 0 0 0 0 99.618428836525709 173.15155618861172 0 173.15155618861172 191.94359138849359 0 0 0 0 71.726712255993334 226.65646291092889 0 226.65646291092889 260.73173632560793 0 0 0 0 0.0071388600945095472 221.82090001080735 0 221.82090001080735 287.94894759923409 0 0 0 0 32.540085963250021 168.09455466777035 0 168.09455466777035 159.90936484668964 0 0 0 0 -61.7547731793602 350.72635682402506 0 350.72635682402506 316.68627135645511 0 0 0 0 422.48352810905635 418.41557318459672 0 418.41557318459672 239.25593405890686 0 0 0 0 -3.492791148555213 3.4788410579214002 0 3.4788410579214002 1.6174054718183015 0 0 0 0 96.8198308523788 263.8263195450063 0 263.8263195450063 148.58171424178727 0 0 0 0 -153.02832001838033 80.351065443949665 0 80.351065443949665 356.79863875911542 0 0 0 0 -245.72791011549998 210.9453466907562 0 210.9453466907562 252.6895270447767 0 0 0 0 -98.756934904631635 99.977445166107827 0 99.977445166107827 224.22972971004856 0 0 0 0 -20.484755799159757 147.89213729181438 0 147.89213729181438 60.063336750026792 0 0 0 0 265.06276172787329 -58.031771928292073 0 -58.031771928292073 200.80184119976548 0 0 0 0 -56.806034127650491 113.98646143657788 0 113.98646143657788 57.171331334833667 0 0 0 0 95.926911393704358 100.3257509633122 0 100.3257509633122 -129.67590253280832 0 0 0 0 -15.314947284452501 168.17203637401872 0 168.17203637401872 -102.15015960382516 0 0 0 0 -35.692439045731589 73.608992408906715 0 73.608992408906715 -137.34189560361847 0 0 0 0 -0.015561079941107891 214.00376382125614 0 214.00376382125614 -171.56780043797698 0 0 0 0 -0.047455234227527399 243.61688730996411 0 243.61688730996411 101.85584726369052 0 0 0 0 -50.502895593250287 111.18880153194459 0 111.18880153194459 -53.562846729049852 0 0 0 0 -31.155239529078244 193.56744863357744 0 193.56744863357744 21.267937782409717 0 0 0 0 19.379478323666262 161.91420517995357 0 161.91420517995357 -284.0089581877038 0 0 0 0 17.851956811689888 203.11074895149432 0 203.11074895149432 -31.917554550684144 0 0 0 0 -219.37259662330325 143.98863232435724 0 143.98863232435724 -16.787003648194514 0 0 0 0 1.924501005256559 1.6621884858651725 0 1.6621884858651725 0.32890331636677672 0 0 0 0 75.736417387321126 341.04245449802875 0 341.04245449802875 -278.66326191960218 0 0 0 0 120.4263466004486 339.42606480977338 0 339.42606480977338 -182.3662995512168 0 0 0 0 77.688387695117854 357.35311854095198 0 357.35311854095198 -147.38893429851669 0 0 0 0 101.73779317752633 313.2977276019119 0 313.2977276019119 -173.96401912753208 0 0 0 0 84.371992357017007 256.12116901869285 0 256.12116901869285 -39.395877825802017 0 0 0 0 281.59111042587961 409.0674120522981 0 409.0674120522981 271.9123305130488 0 0 0 0 198.65536082260951 205.17781835014284 0 205.17781835014284 -41.544281311445502 0 0 0 0 71.532018379668443 312.31034113080023 0 312.31034113080023 106.37570463590237 0 0 0 0 14.342718062471249 10.195119106566381 0 10.195119106566381 154.26742995500535 0 0 0 0 -18.839487543460564 107.7755752564226 0 107.7755752564226 632.19734618529219 0 0 0 0 4.5546741119154603 0.99442679659016164 0 0.99442679659016164 0.17245805984543239 0 0 0 0 217.74153453498366 -3.8592235116966549 0 -3.8592235116966549 92.37661855303304 0 0 0 0 342.76195843197638 -62.452920761668793 0 -62.452920761668793 -536.90631244194628 0 0 0 0 185.7043144649715 637.82453924565925 0 637.82453924565925 -123.33958918857024 0 0 0 0 205.02022002141166 -501.17958056661155 0 -501.17958056661155 101.13116288014135 0 0 0 0 -108.21810329522123 -106.33162802542756 0 -106.33162802542756 472.27172280885861 0 0 0 0 6.6434010633017238 4.3141202479846896 0 4.3141202479846896 1.7553628508472485 0 0 0 0 -45.008632994737127 61.484991275017819 0 61.484991275017819 113.42658837067574 0 0 0 0 0.35913381982391002 88.41494340729696 0 88.41494340729696 -104.08946734280835 0 0 0 0 -153.29457427071611 98.073361622287848 0 98.073361622287848 -26.948249502745966 0 0 0 0 3.5743184670856181 4.0784199944477422 0 4.0784199944477422 2.2467719189304205 0 0 0 0 -107.34835561623549 120.08992190840036 0 120.08992190840036 292.00791671942716 0 0 0 0 -175.91655794155668 -7.6228332113068973 0 -7.6228332113068973 345.37680186667421 0 0 0 0 -13.498641050238803 60.604885168035253 0 60.604885168035253 56.889983563555688 0 0 0 0 17.52460543133202 -88.089955815992653 0 -88.089955815992653 199.84249722918503 0 0 0 0 -37.964993531498862 10.345657583152388 0 10.345657583152388 3.2178047499815676 0 0 0 0 -31.222266231096 53.236393673112616 0 53.236393673112616 138.74279330036006 0 0 0 0 -2.3422407065299922 45.082581833544282 0 45.082581833544282 55.691858518224763 0 0 0 0 90.679064889045549 159.99287362703762 0 159.99287362703762 763.30732437558981 0 0 0 0 80.156195531177218 56.065252811804385 0 56.065252811804385 77.899685340835276 0 0 0 0 -4.2163055055355017 258.37968414599368 0 258.37968414599368 313.06087609751194 0 0 0 0 87.104401033298927 -161.7094442256639 0 -161.7094442256639 274.19546762046411 0 0 0 0 339.30459633004648 296.13303680889476 0 296.13303680889476 226.8825957293775 0 0 0 0 -5.8016134518276594 3.9067714441998191 0 3.9067714441998191 9.1802650648163819 0 0 0 0 166.07196152945835 194.29451199425603 0 194.29451199425603 196.4913244092204 0 0 0 0 -5.8843657702727796 4.6903187585012631 0 4.6903187585012631 2.4149937287891987 0 0 0 0 -52.805962182945223 53.804574912559474 0 53.804574912559474 -11.894143566534694 0 0 0 0 -30.107210319845763 40.116956163948828 0 40.116956163948828 34.348272843340965 0 0 0 0 -5.2433048149138877 25.316285434925192 0 25.316285434925192 17.864641910002874 0 0 0 0 5.852177988832409 20.201048100438129 0 20.201048100438129 -6.5720521295043 0 0 0 0 1.963583844324468 23.749625274398596 0 23.749625274398596 18.03335684393322 0 0 0 0 29.063824343878878 52.317902080194244 0 52.317902080194244 7.3169275518739596 0 0 0 0 -38.637032004855882 62.460476083522394 0 62.460476083522394 -2.1508075506062596 0 0 0 0 -96.870887460929225 86.330852343689912 0 86.330852343689912 -2.9580313378626215 0 0 0 0 -59.890546474256553 148.59009791177596 0 148.59009791177596 -60.601534982975863 0 0 0 0 -16.993337086998508 79.862717725722177 0 79.862717725722177 35.213052593686371 0 0 0 0 1.2799413299726439 63.642376563055223 0 63.642376563055223 16.314175423605775 0 0 0 0 20.31551668526663 60.404060590641166 0 60.404060590641166 1.4398860736164352 0 0 0 0 9.6015392458939459 54.771375453536166 0 54.771375453536166 23.385100558789418 0 0 0 0 -18.352923269412713 76.196592888005398 0 76.196592888005398 -1.4054914110820391 0 0 0 0 0.052571522872312926 59.448453380161936 0 59.448453380161936 13.564490940931137 0 0 0 0 -107.01070907305984 30.870975835288846 0 30.870975835288846 5.1791227798821637 0 0 0 0 -47.566450794547563 38.098418277309975 0 38.098418277309975 0.43823048081685556 0 0 0 0 -33.449547617332428 36.136596324057791 0 36.136596324057791 -3.7146277871943312 0 0 0 0 -71.29011160164373 27.989777012928243 0 27.989777012928243 2.7975895853232942 0 0 0 0 -42.284309693000978 56.391249648266239 0 56.391249648266239 19.775481307075097 0 0 0 0 -54.547132260107901 38.923700658400776 0 38.923700658400776 10.306693359620112 0 0 0 0 -5.997042575996602 48.557075717599218 0 48.557075717599218 19.77263954407681 0 0 0 0 -26.172869548594463 48.439968159382261 0 48.439968159382261 11.807387760047277 0 0 0 0 -39.555231272039237 56.838987657225516 0 56.838987657225516 52.127146356011508 0 0 0 0 -69.023341433057794 21.62419023426628 0 21.62419023426628 42.111776307743639 0 0 0 0 -56.508856374741299 24.249002531440055 0 24.249002531440055 7.7682821299295028 0 0 0 0 -98.288599510604399 53.927187295359545 0 53.927187295359545 -10.230896771638072 0 0 0 0 -96.597319188527763 46.012339678949502 0 46.012339678949502 20.57375090806454 0 0 0 0 -77.232226405458277 -5.9618258679372502 0 -5.9618258679372502 -15.900123077619355 0 0 0 0 -63.287926100194454 12.799631457637588 0 12.799631457637588 -20.076014540776669 0 0 0 0 260.69052620162256 146.41787537385244 0 146.41787537385244 97.352211672608973 0 0 0 0 -107.77408941515023 -16.155412158943363 0 -16.155412158943363 -27.219231311813928 0 0 0 0 -66.304341527313227 24.189620731598552 0 24.189620731598552 -59.969196702630143 0 0 0 0 -53.943265504116425 27.451512928886586 0 27.451512928886586 -8.9364557698427234 0 0 0 0 -64.798144393513212 5.1796696444798727 0 5.1796696444798727 -20.735472332664358 0 0 0 0 -75.789546353684273 -0.46462608127330896 0 -0.46462608127330896 -8.3785917505956604 0 0 0 0 -81.291611349515733 -5.2716889548482868 0 -5.2716889548482868 -11.770912172258249 0 0 0 0 -74.590591599742766 -0.1130635033659928 0 -0.1130635033659928 -24.867096634836344 0 0 0 0 81.303756029403303 45.610770511106239 0 45.610770511106239 16.953198124949267 0 0 0 0 27.622827501993015 40.361074582182482 0 40.361074582182482 45.805611813164433 0 0 0 0 -14.804983362397977 0.87517213110447756 0 0.87517213110447756 2.1599283709685437 0 0 0 0 180.0297665483813 73.549355039052898 0 73.549355039052898 126.84938619451714 0 0 0 0 -42.100377433159174 77.238792272652788 0 77.238792272652788 7.9698388821064725 0 0 0 0 26.033288433786623 0.5714085304078651 0 0.5714085304078651 -5.8349482863780224 0 0 0 0 -142.18631937401733 30.238045288795547 0 30.238045288795547 86.296594878403994 0 0 0 0 41.945441784064315 27.962709043995346 0 27.962709043995346 -5.6157257186569041 0 0 0 0 -124.75449648973881 -39.814017893859273 0 -39.814017893859273 11.490386666911945 0 0 0 0 -126.66555449773568 -68.931150480991846 0 -68.931150480991846 -10.796107796020806 0 0 0 0 -358.17314898864424 34.572666121839575 0 34.572666121839575 93.307409150378589 0 0 0 0 -811.63891452479584 -300.57613042278172 0 -300.57613042278172 -80.786777565477678 0 0 0 0 251.28602037734527 -37.040671633531019 0 -37.040671633531019 -241.64941723605079 0 0 0 0 -33.49020741503773 38.450927900878014 0 38.450927900878014 89.80274852358707 0 0 0 0 95.165802094277751 184.83233797790308 0 184.83233797790308 -1148.8679336765781 0 0 0 0 -111.63548203649952 0.25991023742608377 0 0.25991023742608377 40.051442848642182 0 0 0 0 317.67198627907055 167.75866512583525 0 167.75866512583525 -103.03146262276096 0 0 0 0 -52.427657401286893 65.435863128861072 0 65.435863128861072 -6.5341243728299929 0 0 0 0 247.57565526991675 229.16169397061094 0 229.16169397061094 39.549006075018042 0 0 0 0 -103.09398121389677 20.020152047404736 0 20.020152047404736 -29.491719424913754 0 0 0 0 -92.148639910214115 40.193719137903827 0 40.193719137903827 24.38514625717562 0 0 0 0 -99.289467692886092 86.905244879852887 0 86.905244879852887 167.41948037917609 0 0 0 0 -590.38232102732763 -319.26631075967907 0 -319.26631075967907 264.65492376642942 0 0 0 0 -61.157366586019634 533.80324832906626 0 533.80324832906626 -84.817060143259368 0 0 0 0 -101.29896524393996 301.38043799833395 0 301.38043799833395 228.00010738520359 0 0 0 0 -71.214843443855329 70.348326925898874 0 70.348326925898874 -20.462941437077518 0 0 0 0 481.2808370700368 287.17102983173027 0 287.17102983173027 -159.50707882325514 0 0 0 0 0.20588536644724087 0.29596334066015118 0 0.29596334066015118 4.7051902935997134 0 0 0 0 -225.05800883458141 299.79042795004898 0 299.79042795004898 33.87974988573842 0 0 0 0 -55.823258317459235 78.907834540298182 0 78.907834540298182 -28.343367892440781 0 0 0 0 336.92993877140543 265.46480792266175 0 265.46480792266175 -401.20233220167029 0 0 0 0 -419.31416985343094 253.44839988286913 0 253.44839988286913 266.42810486280177 0 0 0 0 -386.00170323764905 70.063037602056284 0 70.063037602056284 244.81404944838869 0 0 0 0 -233.92027626940398 -23.184806338394992 0 -23.184806338394992 180.75245847392944 0 0 0 0 -7.2290146333980374 449.51874391968158 0 449.51874391968158 -107.84624946771339 0 0 0 0 282.58861738201813 325.14878897350718 0 325.14878897350718 -104.88113439134099 0 0 0 0 -8.1576498780469819 0.57501871458086917 0 0.57501871458086917 0.52249827693450257 0 0 0 0 -164.04286148154642 -28.852759265810164 0 -28.852759265810164 157.6353297680289 0 0 0 0 0.99832553093079923 1.4912889915851935 0 1.4912889915851935 0.92572679873708097 0 0 0 0 -23.735297470220189 3.6324270124444453 0 3.6324270124444453 -0.56537590203757659 0 0 0 0 -10.349634917452931 -15.845014657970751 0 -15.845014657970751 481.7958500257746 0 0 0 0 -274.70271863161179 -48.072643336172405 0 -48.072643336172405 696.27376544306026 0 0 0 0 -18.913151815955644 99.53493755767704 0 99.53493755767704 167.94952385805118 0 0 0 0 67.618531494197669 57.042887829349638 0 57.042887829349638 93.360816451458959 0 0 0 0 4.2667019227519631 63.121710117426119 0 63.121710117426119 51.527054747173679 0 0 0 0 -45.825236503529595 41.823925805050749 0 41.823925805050749 96.624581627358566 0 0 0 0 -31.169279191686655 44.13303844670736 0 44.13303844670736 47.367465958303001 0 0 0 0 -92.79151129080492 26.545355203627878 0 26.545355203627878 130.903397588183 0 0 0 0 -129.60084396549792 15.392422083577912 0 15.392422083577912 137.41812779390602 0 0 0 0 -15.986394402221777 -43.797182368343783 0 -43.797182368343783 136.43690734426309 0 0 0 0 24.538281736759018 104.8830433421117 0 104.8830433421117 -53.363486178415769 0 0 0 0 10.881421196630981 88.560300129298412 0 88.560300129298412 50.013272065782076 0 0 0 0 -62.908230672826903 59.772745708894945 0 59.772745708894945 48.513317396806087 0 0 0 0 15.329826893721645 66.81659934434262 0 66.81659934434262 38.697042726700602 0 0 0 0 173.77782339913392 111.63239225618599 0 111.63239225618599 -89.594274417664565 0 0 0 0 16.334228475939199 8.6504971779529569 0 8.6504971779529569 153.98617999643466 0 0 0 0 8.3176958848998765 79.977703840646427 0 79.977703840646427 269.95436853560022 0 0 0 0 4.3443945292228392 5.8623646459632113 0 5.8623646459632113 0.57740467647010263 0 0 0 0 -216.82864146307838 47.699515078678814 0 47.699515078678814 -247.51021063576263 0 0 0 0 -12.303310031271394 91.246864403122345 0 91.246864403122345 -302.86115178660111 0 0 0 0 124.03728690436401 131.65573143415168 0 131.65573143415168 158.38950547685999 0 0 0 0 58.013849125364004 72.911281004354805 0 72.911281004354805 128.19277242356475 0 0 0 0 59.952178813713545 113.25644325483881 0 113.25644325483881 61.869378496390709 0 0 0 0 118.28658785154403 134.81639306651778 0 134.81639306651778 36.036014530531247 0 0 0 0 118.72373965029692 71.395941019502061 0 71.395941019502061 14.395756095764227 0 0 0 0 134.04144344943779 104.98541897374162 0 104.98541897374162 -40.097159823853872 0 0 0 0 100.05678043005173 25.397666017801384 0 25.397666017801384 -81.307051089144807 0 0 0 0 93.94794644585636 37.269111938439437 0 37.269111938439437 256.72633622541616 0 0 0 0 -32.326154575464898 267.26451910090691 0 267.26451910090691 -6.2257913938738056 0 0 0 0 123.46574154054815 165.21479421922595 0 165.21479421922595 105.56065730622504 0 0 0 0 184.76972267548081 128.98674284682056 0 128.98674284682056 -667.89130770570409 0 0 0 0 -178.73013112974149 55.812467204163113 0 55.812467204163113 824.4916663301301 0 0 0 0 0.77873940134547581 5.2512735843241884 0 5.2512735843241884 0.48667392200148996 0 0 0 0 159.25393988514406 25.269250013014243 0 25.269250013014243 239.24568601698411 0 0 0 0 -10.884646193633671 162.93705928314012 0 162.93705928314012 -231.26790884024376 0 0 0 0 -10.221445359326026 299.11308393978834 0 299.11308393978834 -407.11501106517608 0 0 0 0 -265.84392078360543 418.98285559512442 0 418.98285559512442 582.22395636465808 0 0 0 0 -53.208792813318723 375.84459340859394 0 375.84459340859394 31.105402448069071 0 0 0 0 -411.63805274628976 180.41527358444728 0 180.41527358444728 99.594010998807789 0 0 0 0 -244.9955929677526 579.80596752010752 0 579.80596752010752 254.04446409377852 0 0 0 0 -40.709782205449301 161.32966140864301 0 161.32966140864301 159.91583464375617 0 0 0 0 -247.4781732558622 473.97599837225425 0 473.97599837225425 -265.92159533384256 0 0 0 0 11.896398036376922 54.307733591849683 0 54.307733591849683 -211.43564205173789 0 0 0 0 62.190837590853334 100.84151386551639 0 100.84151386551639 -223.92440631405043 0 0 0 0 -121.47624153243669 271.03497315690765 0 271.03497315690765 -563.02074667964916 0 0 0 0 -921.83419945163041 568.90694421988292 0 568.90694421988292 -160.53105199240963 0 0 0 0 -4.161286218017068 5.1116144602526496 0 5.1116144602526496 -7.9408313845078595 0 0 0 0 -269.88587622084015 585.36837862402172 0 585.36837862402172 357.66437468587537 0 0 0 0 -966.19968704229541 -409.82891325245328 0 -409.82891325245328 247.41507228925184 0 0 0 0 -1463.263292376505 530.2221404482334 0 530.2221404482334 729.78392444429483 0 0 0 0 -21.329150657160426 -74.579658965592898 0 -74.579658965592898 -100.78589500764792 0 0 0 0 -26.739578789885854 -37.634157659518678 0 -37.634157659518678 -340.93142088892273 0 0 0 0 -217.61549494419887 -31.842167099530343 0 -31.842167099530343 -2.6672524277601042 0 0 0 0 40.451794903972768 -191.43995959982931 0 -191.43995959982931 -32.300148235139204 0 0 0 0 -322.086203558938 -335.43707049561635 0 -335.43707049561635 -155.5621684986836 0 0 0 0 -20.293809851165861 -82.337573003300349 0 -82.337573003300349 -204.33787461497377 0 0 0 0 -23.975313222228522 4.6167277328155905 0 4.6167277328155905 15.490745071182971 0 0 0 0 -135.85524023254402 59.138604578936793 0 59.138604578936793 247.29708130025028 0 0 0 0 -18.207885341937072 145.54834341834976 0 145.54834341834976 25.356000278690772 0 0 0 0 -138.87454378874099 93.272574445247301 0 93.272574445247301 75.881961055732972 0 0 0 0 -266.30797910630645 90.706415280135843 0 90.706415280135843 102.92322464047902 0 0 0 0 -142.687709141097 110.64608140445489 0 110.64608140445489 -134.5919472463429 0 0 0 0 -13.700385337641649 19.988368911986431 0 19.988368911986431 -16.617282256635292 0 0 0 0 4.9427847595215724 4.5577307422205386 0 4.5577307422205386 -4.0870950700470985 0 0 0 0 -195.59217101419199 109.83874210131285 0 109.83874210131285 -52.093353499716613 0 0 0 0 39.081365600635763 44.156531846543658 0 44.156531846543658 -12.086304938027752 0 0 0 0 -74.320218776774709 8.1789601866439625 0 8.1789601866439625 41.084458984030789 0 0 0 0 -211.64409355669341 -20.886561854455977 0 -20.886561854455977 40.768530150620791 0 0 0 0 15.211793666587852 35.64689124097783 0 35.64689124097783 -15.092121181865537 0 0 0 0 -16.575152184168559 26.335359116178047 0 26.335359116178047 11.336073048167449 0 0 0 0 37.261827250353235 62.192299774731737 0 62.192299774731737 -27.563350655218528 0 0 0 0 72.152456488438474 50.641713316555979 0 50.641713316555979 -23.793373378153774 0 0 0 0 46.069061870053702 24.755702286096493 0 24.755702286096493 -48.333601805599756 0 0 0 0 48.337814600017737 12.753153184046823 0 12.753153184046823 6.3436979201214854 0 0 0 0 94.782493299726411 35.355221733795588 0 35.355221733795588 -80.31713425120688 0 0 0 0 52.178588079510519 78.194275533169275 0 78.194275533169275 -43.167752945912071 0 0 0 0 68.559429328255646 77.441874816337076 0 77.441874816337076 -4.3370560949260835 0 0 0 0 109.38434318359941 87.159543241386018 0 87.159543241386018 -41.955435793992365 0 0 0 0 69.380378732631584 116.75780890435641 0 116.75780890435641 -17.329924428602681 0 0 0 0 49.278482619592978 75.712413939720136 0 75.712413939720136 -44.058110647230933 0 0 0 0 29.407809640899359 98.664229226505995 0 98.664229226505995 -38.785432371189927 0 0 0 0 49.465084337632632 55.429587236963954 0 55.429587236963954 27.982186456832139 0 0 0 0 -2.5323883292255118 132.44351204270538 0 132.44351204270538 39.181267685577041 0 0 0 0 35.198345112479728 79.584901698508475 0 79.584901698508475 -1.6212279946848867 0 0 0 0 1.0763632711000355 85.047289695261611 0 85.047289695261611 -24.108927489476628 0 0 0 0 -28.255434321718667 163.1697295259155 0 163.1697295259155 -31.089019445411395 0 0 0 0 50.998579809428719 39.676436096457138 0 39.676436096457138 24.973626835950157 0 0 0 0 41.573658608353071 89.320572755968897 0 89.320572755968897 -38.060799405586295 0 0 0 0 -19.255825054904562 90.58072274033475 0 90.58072274033475 -15.273704556260782 0 0 0 0 -3.5585817585533732 64.940140718128532 0 64.940140718128532 48.645003937757792 0 0 0 0 -4.4558813804060264 57.109359954121828 0 57.109359954121828 11.467702417965484 0 0 0 0 45.73657353713611 127.93270536067121 0 127.93270536067121 12.756674214884697 0 0 0 0 16.818858163118648 156.80023879990586 0 156.80023879990586 47.755977161188639 0 0 0 0 -35.811028446918598 38.990922272889279 0 38.990922272889279 -8.265547028860464 0 0 0 0 12.853080520202639 73.726923079251719 0 73.726923079251719 43.046589546422183 0 0 0 0 11.279508340507164 52.827555776028021 0 52.827555776028021 25.421621673900518 0 0 0 0 -21.995352437251455 60.894421959088703 0 60.894421959088703 9.9616812647539774 0 0 0 0 -16.658814444788732 57.319534400941848 0 57.319534400941848 1.8177348941317177 0 0 0 0 -25.337672456427597 30.026000050121894 0 30.026000050121894 -8.1777256911079661 0 0 0 0 -22.003902510638 35.338994098139665 0 35.338994098139665 -3.367234462448323 0 0 0 0 -17.961049949894004 64.856673057684702 0 64.856673057684702 -28.269240131197876 0 0 0 0 -68.290790943352476 74.630662518855388 0 74.630662518855388 -14.174731824241462 0 0 0 0 0.68132783795834939 23.251052686605348 0 23.251052686605348 24.585974919410219 0 0 0 0 -56.71647914811183 37.139393965617273 0 37.139393965617273 14.730357868371357 0 0 0 0 -17.255610913685814 76.004997256346542 0 76.004997256346542 19.466588216364471 0 0 0 0 -112.33189011162176 43.997481875168887 0 43.997481875168887 21.181866752425776 0 0 0 0 -119.86091673489864 83.931368943138295 0 83.931368943138295 -68.339961513644084 0 0 0 0 -133.58744375994866 81.810389562331693 0 81.810389562331693 11.477430325510795 0 0 0 0 -113.63518490898059 45.875259829144852 0 45.875259829144852 46.467326473197318 0 0 0 0 -261.07091343212232 34.543431952202809 0 34.543431952202809 45.800964184662917 0 0 0 0 24.300594163600209 1.469356738815236 0 1.469356738815236 -5.583449483807712 0 0 0 0 -125.66841611856216 90.760911206505625 0 90.760911206505625 -19.858365507410781 0 0 0 0 -118.18669051408506 58.590240151428588 0 58.590240151428588 -7.8735720706040411 0 0 0 0 -121.90978128527058 53.673552110401943 0 53.673552110401943 4.2271818331246322 0 0 0 0 -120.47009963775054 51.191412370397302 0 51.191412370397302 -24.997549455059925 0 0 0 0 -37.661239105929113 78.209775210948408 0 78.209775210948408 -10.716220612706806 0 0 0 0 -18.920413820720569 13.726112854064766 0 13.726112854064766 5.6068027612182334 0 0 0 0 39.729946993102203 112.38654532634428 0 112.38654532634428 56.049245803558733 0 0 0 0 -12.803276033087968 71.373446477053221 0 71.373446477053221 67.287696484534536 0 0 0 0 16.037650183921414 27.600598407698172 0 27.600598407698172 -2.9752145306676034 0 0 0 0 58.615652022126596 126.65297705026205 0 126.65297705026205 83.690068935982708 0 0 0 0 28.077850588117144 72.541010653347257 0 72.541010653347257 12.277286905416986 0 0 0 0 -16.726070478500333 45.476170589838148 0 45.476170589838148 5.276069426239701 0 0 0 0 5.4528409211894129 46.645747388730001 0 46.645747388730001 3.6983495475885775 0 0 0 0 -36.087403575311299 100.05145782698969 0 100.05145782698969 23.965317835039613 0 0 0 0 -70.02279106213328 79.049243581205658 0 79.049243581205658 35.102981373943699 0 0 0 0 -33.007444144123383 2.5659630641364117 0 2.5659630641364117 18.706761995499612 0 0 0 0 34.081018750548537 56.673306632990716 0 56.673306632990716 60.760212718527328 0 0 0 0 88.076264473056654 161.83955703543143 0 161.83955703543143 74.5868353754704 0 0 0 0 -22.536290401464242 53.146556641125287 0 53.146556641125287 39.970581950268603 0 0 0 0 51.884127061646723 100.77892106339732 0 100.77892106339732 6.7022138945503684 0 0 0 0 -11.748850828109425 55.225669883104274 0 55.225669883104274 17.246001324727331 0 0 0 0 84.800153461677837 66.494024954221459 0 66.494024954221459 36.135468272499566 0 0 0 0 0.68431824825529475 56.514439413728724 0 56.514439413728724 62.101107953283645 0 0 0 0 -20.197504572039179 73.770186940938402 0 73.770186940938402 49.375594106089011 0 0 0 0 -5.3498857145787042 67.913717347737702 0 67.913717347737702 30.774577994674473 0 0 0 0 -47.449020925436344 68.284124663240618 0 68.284124663240618 -3.8567010555743764 0 0 0 0 -20.937396096574957 79.786745703879205 0 79.786745703879205 80.615534196682347 0 0 0 0 -17.752954695464013 43.559917502145424 0 43.559917502145424 -10.437486013581809 0 0 0 0 -17.099816177022859 32.15168931877156 0 32.15168931877156 -16.544892292425175 0 0 0 0 -17.899554142897614 44.375617438184236 0 44.375617438184236 16.494859123307833 0 0 0 0 -1.4657439818474813 35.115925326605065 0 35.115925326605065 7.985918362792745 0 0 0 0 1.5681893842993304 73.43090266429499 0 73.43090266429499 43.430934238049304 0 0 0 0 -7.5519931533763156 73.280220495062395 0 73.280220495062395 45.010296759041012 0 0 0 0 -7.303989589374396 73.926431512463751 0 73.926431512463751 45.568410632673476 0 0 0 0 17.145824139544857 55.433281470008296 0 55.433281470008296 2.3053623732139386 0 0 0 0 -6.9444936841457547 37.392526822415135 0 37.392526822415135 -26.338809770974883 0 0 0 0 -7.3681871068238252 53.920333575703808 0 53.920333575703808 30.910549641643229 0 0 0 0 -33.321351846424754 23.284767093123662 0 23.284767093123662 -8.4808948330381568 0 0 0 0 3.3157105637988025 54.723797683348494 0 54.723797683348494 21.177963750549679 0 0 0 0 -194.07504736966803 187.04721192054785 0 187.04721192054785 67.657284344362552 0 0 0 0 -31.173937887084548 316.50369285458379 0 316.50369285458379 -230.61986641514886 0 0 0 0 1.6806957125112376 1.5201960158244958 0 1.5201960158244958 0.34753959973294002 0 0 0 0 -203.64162881624361 147.41458525301641 0 147.41458525301641 -82.904135415146811 0 0 0 0 -121.16763530695243 135.91308621903454 0 135.91308621903454 -115.16051131153654 0 0 0 0 -65.90921431579045 347.25172306818604 0 347.25172306818604 -368.72116032019221 0 0 0 0 -42.738779126550071 478.68301464854812 0 478.68301464854812 7.9784340866872299 0 0 0 0 -59.049718575304723 423.24166045424136 0 423.24166045424136 -50.890105744547327 0 0 0 0 -32.555047005560482 457.28404169845271 0 457.28404169845271 -88.322252152087458 0 0 0 0 -282.79395564489096 224.85157583405271 0 224.85157583405271 118.93553205034186 0 0 0 0 -104.13204300013604 2.0268623762040079 0 2.0268623762040079 9.4431216279572254 0 0 0 0 132.72296393472971 92.558545343677906 0 92.558545343677906 -17.143088663950039 0 0 0 0 132.81620974061661 103.05542745342245 0 103.05542745342245 -41.008351738106285 0 0 0 0 54.73458528930496 213.01925424041292 0 213.01925424041292 78.738365843099018 0 0 0 0 -34.811592689904501 251.11743597723307 0 251.11743597723307 83.415946363379589 0 0 0 0 67.562235208199127 223.3614114481552 0 223.3614114481552 -99.005904512094276 0 0 0 0 35.355668251184397 62.397077485371483 0 62.397077485371483 -18.361923214281887 0 0 0 0 56.146380565107393 106.85059634892787 0 106.85059634892787 -14.745912644750206 0 0 0 0 211.49652281397721 152.53320678547243 0 152.53320678547243 -33.570088180276798 0 0 0 0 120.71145329676801 252.89138164829637 0 252.89138164829637 179.61550564906975 0 0 0 0 84.096102458628593 79.915613215634949 0 79.915613215634949 -0.35928936247091769 0 0 0 0 133.10400190768996 107.22604222717382 0 107.22604222717382 -30.700522654733504 0 0 0 0 89.701100534992293 84.980737414109171 0 84.980737414109171 -5.9658251907840167 0 0 0 0 91.24468881023131 74.128068224676099 0 74.128068224676099 -68.104100275799283 0 0 0 0 56.934374884061981 54.934606727259961 0 54.934606727259961 -39.022688819142786 0 0 0 0 86.765014678952866 67.169189483553055 0 67.169189483553055 -39.737343626235088 0 0 0 0 36.49910243897466 52.721343866227471 0 52.721343866227471 -86.606841613478082 0 0 0 0 -18.885029112105258 141.44065653844746 0 141.44065653844746 -77.164533391996883 0 0 0 0 -91.739371515992389 60.630182797183807 0 60.630182797183807 -157.78247276164257 0 0 0 0 -196.12439190169243 230.96153639631757 0 230.96153639631757 -166.57313195697589 0 0 0 0 -180.01463990020602 258.86040547148809 0 258.86040547148809 -221.24967735296013 0 0 0 0 2.9015231774324093 3.1323226001171349 0 3.1323226001171349 1.7123202982225294 0 0 0 0 -87.086238545089145 97.735400988329275 0 97.735400988329275 -129.00320189574086 0 0 0 0 -69.946646333051831 153.14581472001535 0 153.14581472001535 -49.798873192314204 0 0 0 0 -72.377618635854333 85.859686442197898 0 85.859686442197898 -25.350330849149032 0 0 0 0 -16.523499725910369 90.211274251282703 0 90.211274251282703 -60.126163319408079 0 0 0 0 1.5121374696027488 59.745314811916614 0 59.745314811916614 -34.26987312471465 0 0 0 0 3.8575222448707791 116.62070431957454 0 116.62070431957454 -132.88644397088137 0 0 0 0 -32.176389431730058 54.077437051947186 0 54.077437051947186 23.995019794263499 0 0 0 0 -27.349749879125739 79.717920529466937 0 79.717920529466937 -47.546320045388711 0 0 0 0 -72.091062150018843 69.938576816186938 0 69.938576816186938 -12.490359140276269 0 0 0 0 -72.473361142278009 128.9741544568451 0 128.9741544568451 -82.117881038662745 0 0 0 0 44.249136110796826 72.446571476789359 0 72.446571476789359 -39.792014602382551 0 0 0 0 139.26864087268768 47.72115475965802 0 47.72115475965802 -51.015885317739048 0 0 0 0 70.297860491031315 70.90925817943571 0 70.90925817943571 -54.308155952843663 0 0 0 0 94.278967953949177 44.179484119850713 0 44.179484119850713 -14.785802132992103 0 0 0 0 93.460727479483467 58.617208029343601 0 58.617208029343601 -54.622219207940361 0 0 0 0 69.084301979892189 19.533352390193613 0 19.533352390193613 -19.57392895065459 0 0 0 0 85.192286505101947 34.688712130904605 0 34.688712130904605 -23.364499110088218 0 0 0 0 106.64852838119987 11.740826234432461 0 11.740826234432461 -30.235065868197125 0 0 0 0 28.927124088571873 109.87909258258878 0 109.87909258258878 73.044104204869654 0 0 0 0 14.778164701725473 57.115914024356243 0 57.115914024356243 -37.677475300323749 0 0 0 0 -30.9385163923871 -36.875507743614889 0 -36.875507743614889 23.41383789235897 0 0 0 0 32.285390937353043 32.371475930617528 0 32.371475930617528 -2.935534685405548 0 0 0 0 69.297206373012159 31.318168609357599 0 31.318168609357599 -100.43945316612371 0 0 0 0 172.01937407100922 -67.910084647835902 0 -67.910084647835902 -9.19677879230494 0 0 0 0 11.233851094184502 150.93055718753203 0 150.93055718753203 44.985547929722088 0 0 0 0 19.081044905266253 -6.8913077492554766 0 -6.8913077492554766 41.296033567811719 0 0 0 0 14.524969590685487 220.61072619101827 0 220.61072619101827 -154.69740965117307 0 0 0 0 -15.158753137278836 18.291457347416099 0 18.291457347416099 23.126527482225356 0 0 0 0 -209.32095289274002 -16.859242525383252 0 -16.859242525383252 138.51354291127041 0 0 0 0 43.947228127879498 107.95745036110998 0 107.95745036110998 145.45917328598262 0 0 0 0 163.34958758234279 65.223858624427749 0 65.223858624427749 46.292387315137603 0 0 0 0 0.37612460363347822 0.55691741141640705 0 0.55691741141640705 4.1900489072245675 0 0 0 0 -20.721330379601568 -120.9115760364618 0 -120.9115760364618 89.165867444692879 0 0 0 0 526.5263363680715 245.36343619323418 0 245.36343619323418 -26.8496313520493 0 0 0 0 -44.381012188023305 -84.598074725460833 0 -84.598074725460833 50.0114221010069 0 0 0 0 -144.72246998589253 -52.804339233561905 0 -52.804339233561905 126.52650613672131 0 0 0 0 -107.13384473681072 -108.59031589256119 0 -108.59031589256119 195.14595992004524 0 0 0 0 35.702369366685161 35.274279753637529 0 35.274279753637529 -54.958442580558767 0 0 0 0 7.5059851158026163 -4.7572791747917336 0 -4.7572791747917336 -15.07291262012675 0 0 0 0 5.7105060294389887 51.213453676009081 0 51.213453676009081 -109.14395356265595 0 0 0 0 5.7242945844191127 54.574790284892515 0 54.574790284892515 14.140060904068378 0 0 0 0 30.275596533960197 26.173527725659369 0 26.173527725659369 -41.325468356066267 0 0 0 0 44.842531338479603 54.388960086867883 0 54.388960086867883 -84.532188156117627 0 0 0 0 2.0107520786114037 11.63741759797449 0 11.63741759797449 -47.392212758577443 0 0 0 0 27.395011317642314 33.944258143776942 0 33.944258143776942 -0.1585703434900636 0 0 0 0 686.22698726283852 32.84461356850079 0 32.84461356850079 133.00933560830276 0 0 0 0 15.405464325318462 -17.547280358965509 0 -17.547280358965509 6.3871432756086506 0 0 0 0 -119.10175140381034 464.80585080398168 0 464.80585080398168 232.49025753839123 0 0 0 0 -49.660098655454931 112.34422937388081 0 112.34422937388081 -290.85090063794996 0 0 0 0 -8.6325497940706555 70.600803851279125 0 70.600803851279125 190.69838844018886 0 0 0 0 -7.6645908732403143 8.1745842950516234 0 8.1745842950516234 0.67053397934167425 0 0 0 0 -19.798030045774794 76.652688356954968 0 76.652688356954968 -262.22916101958981 0 0 0 0 -7.3319902930161334 25.708981962423422 0 25.708981962423422 123.04122148497117 0 0 0 0 15.973806525771579 62.243451936883048 0 62.243451936883048 107.06058526581182 0 0 0 0 5.5363219123100862 47.974438427057976 0 47.974438427057976 43.914086066397431 0 0 0 0 0.12465928305027774 66.024729912405746 0 66.024729912405746 67.67650609005068 0 0 0 0 34.481808069831459 75.43820184022843 0 75.43820184022843 36.577337090720903 0 0 0 0 19.19099139554055 80.897237288391352 0 80.897237288391352 75.815330861751136 0 0 0 0 1.7435213091921469 71.182526743606559 0 71.182526743606559 41.742663791272207 0 0 0 0 -12.846451630743104 68.484467526541266 0 68.484467526541266 52.601768502987397 0 0 0 0 -10.044706376822433 59.522057758305891 0 59.522057758305891 -45.570498615963061 0 0 0 0 -12.290345013439861 15.03250257892298 0 15.03250257892298 0.84210681398239551 0 0 0 0 -7.4334145045584137 29.863272605664918 0 29.863272605664918 42.802502317510516 0 0 0 0 -11.992109806338703 41.508889410765732 0 41.508889410765732 -155.11362146146712 0 0 0 0 -44.018512336740969 22.047871041329017 0 22.047871041329017 16.641789653058368 0 0 0 0 -18.948056304390775 43.345580679868362 0 43.345580679868362 29.413908229150366 0 0 0 0 -0.44355988298084981 56.685580147553608 0 56.685580147553608 -10.146155818499768 0 0 0 0 -9.2507687438706512 30.469987259721194 0 30.469987259721194 -5.9413341819240415 0 0 0 0 -26.04423166855122 61.070980532776048 0 61.070980532776048 13.760008573488449 0 0 0 0 -26.172823112799961 51.970835110178086 0 51.970835110178086 36.847005581448684 0 0 0 0 -15.201352743348579 49.922890145355481 0 49.922890145355481 14.268637103176729 0 0 0 0 84.346262827530154 48.936948374514031 0 48.936948374514031 -14.186165296232502 0 0 0 0 -49.161535590174026 54.574694481843835 0 54.574694481843835 38.223391108356736 0 0 0 0 77.358226455049589 33.945131144009792 0 33.945131144009792 -1.8246981656184289 0 0 0 0 82.296471345645841 45.277420164173236 0 45.277420164173236 -4.8957301261689281 0 0 0 0 1.6596658243624915 6.9754909924876003 0 6.9754909924876003 -1.1410736960773362 0 0 0 0 -22.658037663262803 68.872741362092711 0 68.872741362092711 144.9463549665229 0 0 0 0 73.68323285014776 8.2179554991162149 0 8.2179554991162149 -22.757099491620465 0 0 0 0 -29.579504361157404 27.922993973042054 0 27.922993973042054 0.11095759459384169 0 0 0 0 10.922080628777621 39.294769648804504 0 39.294769648804504 1.1007500028281356 0 0 0 0 11.109191976356669 15.445801392615977 0 15.445801392615977 -5.0587268450581178 0 0 0 0 -131.11390520061832 12.543230752381987 0 12.543230752381987 133.8859534770786 0 0 0 0 56.233004315174185 71.26534532281039 0 71.26534532281039 -59.111871338322089 0 0 0 0 8.4952715802646708 37.821317908094898 0 37.821317908094898 11.742280155669505 0 0 0 0 34.724559162889875 35.844788684858521 0 35.844788684858521 -11.25386933247384 0 0 0 0 -0.66111137167646916 -0.99138305116446901 0 -0.99138305116446901 0.073911142140741681 0 0 0 0 41.725268752343254 -118.23067636130918 0 -118.23067636130918 355.42942774063772 0 0 0 0 -72.139813521658652 154.69952155628926 0 154.69952155628926 39.354778212042675 0 0 0 0 78.850375718742725 117.98421129641201 0 117.98421129641201 -370.77762838297349 0 0 0 0 -147.8696479293867 -68.861054162394794 0 -68.861054162394794 -49.093044004837793 0 0 0 0 -45.534481435955968 -94.878091764050623 0 -94.878091764050623 -223.05847170873813 0 0 0 0 68.63802252712776 -79.601754609969703 0 -79.601754609969703 -51.494512193612763 0 0 0 0 -6.5977112083944007 10.639007556882921 0 10.639007556882921 0.53998756861571851 0 0 0 0 207.32701821162482 163.51247268305724 0 163.51247268305724 -75.414071645757758 0 0 0 0 -341.75472912366968 -202.14512896959559 0 -202.14512896959559 592.3060278488008 0 0 0 0 47.569576298643369 160.20395710607886 0 160.20395710607886 -176.9484690615559 0 0 0 0 123.43370677443454 220.71564806103652 0 220.71564806103652 -88.824148533080461 0 0 0 0 23.96253420249559 216.60283352071247 0 216.60283352071247 -84.331580906534327 0 0 0 0 -110.86177535734896 118.30467502706068 0 118.30467502706068 -78.06820475949462 0 0 0 0 56.320054521929706 160.03421363602865 0 160.03421363602865 228.44845405962769 0 0 0 0 -31.467113691452823 31.958056499737204 0 31.958056499737204 -14.516797278698775 0 0 0 0 -7.9408602959949235 34.340532341109551 0 34.340532341109551 4.9294555375562652 0 0 0 0 -7.041122101189103 163.53345900479781 0 163.53345900479781 29.127425539505566 0 0 0 0 -8.1209294861564558 51.49715947804043 0 51.49715947804043 7.6558017910174385 0 0 0 0 -9.2616679872444365 47.32828541040908 0 47.32828541040908 6.78184903904571 0 0 0 0 -19.21113427112158 49.219790949502482 0 49.219790949502482 -5.2748179016792012 0 0 0 0 -16.675429906041245 72.881897050778207 0 72.881897050778207 -57.299663336219965 0 0 0 0 -71.437501341744792 161.79626453455785 0 161.79626453455785 -63.608152001517738 0 0 0 0 -19.072898878192063 81.045492006767745 0 81.045492006767745 6.0104286491550738 0 0 0 0 -35.456568432836605 51.298003806610758 0 51.298003806610758 -11.231225498373892 0 0 0 0 -38.693189487610653 88.982163090213362 0 88.982163090213362 25.731607625559263 0 0 0 0 -52.144646738772281 16.447324727687601 0 16.447324727687601 -106.79741233018444 0 0 0 0 -30.905814432844707 27.573949002581884 0 27.573949002581884 -2.3906762829931916 0 0 0 0 295.91215051005565 448.37285245444286 0 448.37285245444286 -475.96472861427901 0 0 0 0 -34.462131444059679 51.837265802295676 0 51.837265802295676 1.329930807550376 0 0 0 0 505.54157357168879 62.869040437065792 0 62.869040437065792 -783.40015149119245 0 0 0 0 -90.088749839313095 -324.57866749697996 0 -324.57866749697996 259.42280274992663 0 0 0 0 -33.868574149768392 54.679123996605085 0 54.679123996605085 27.516866739895704 0 0 0 0 -6.1582725703093502 46.525200189654775 0 46.525200189654775 -0.98800998548350005 0 0 0 0 -19.851702023966936 40.685108733271591 0 40.685108733271591 8.3743118400971071 0 0 0 0 3.8103746950018831 65.688704003093335 0 65.688704003093335 13.388063455625343 0 0 0 0 -19.0373682847721 42.106299655456752 0 42.106299655456752 16.111640532449115 0 0 0 0 -1.7982661517960992 6.5630995151512366 0 6.5630995151512366 2.1068309650200909 0 0 0 0 -46.556824247403711 156.9977281398933 0 156.9977281398933 -336.70722087381728 0 0 0 0 -105.94976038791356 -21.601528487812175 0 -21.601528487812175 413.58942236520215 0 0 0 0 -11.464947267582829 124.46345365915568 0 124.46345365915568 232.93589616418467 0 0 0 0 -77.79903605493746 195.0371504262589 0 195.0371504262589 -235.12100717586145 0 0 0 0 -13.077678251498583 57.489894043219238 0 57.489894043219238 8.6565473815226142 0 0 0 0 112.99636752846709 130.11865404764376 0 130.11865404764376 22.204426030710238 0 0 0 0 -24.750753740249152 40.635739528231944 0 40.635739528231944 -16.425564318284099 0 0 0 0 194.07193884879234 -19.370608017767836 0 -19.370608017767836 1.7323187346021314 0 0 0 0 53.336132592223294 49.318115886745204 0 49.318115886745204 -21.932042655404974 0 0 0 0 -12.119807589228003 50.915711053029099 0 50.915711053029099 9.8509743824010911 0 0 0 0 2.0611295767235589 -0.12117951778441238 0 -0.12117951778441238 -2.9409022110945378 0 0 0 0 208.68309695901553 246.14129171607397 0 246.14129171607397 144.52052486058892 0 0 0 0 -401.5253996081301 356.48651707922158 0 356.48651707922158 -128.37535342237356 0 0 0 0 -380.96074099664111 350.71947999275244 0 350.71947999275244 -397.18296020986782 0 0 0 0 3.0768871696193969 2.5278821535003431 0 2.5278821535003431 -2.1171212816805651 0 0 0 0 26.49582873399396 8.4438762191266932 0 8.4438762191266932 -12.895305987252335 0 0 0 0 20.866491789067368 24.77619993123011 0 24.77619993123011 -2.3259837831856203 0 0 0 0 10.491348714384607 15.210571140027938 0 15.210571140027938 3.9516402418136014 0 0 0 0 -290.0099088027564 136.84757173667276 0 136.84757173667276 44.895353723550443 0 0 0 0 -216.96207859701826 186.96522971837658 0 186.96522971837658 64.274966787198082 0 0 0 0 -240.27238202739909 228.37765562748268 0 228.37765562748268 -38.99111741768138 0 0 0 0 -251.8259760075598 81.032963875834412 0 81.032963875834412 -37.76522849422463 0 0 0 0 -874.91660653820145 132.91955330176734 0 132.91955330176734 -42.034502526373331 0 0 0 0 -107.3633159401943 247.41677703311643 0 247.41677703311643 -315.42648351693197 0 0 0 0 -275.72236166449147 -179.2371407435179 0 -179.2371407435179 -104.31709615445016 0 0 0 0 -589.31954906904139 176.67165126209875 0 176.67165126209875 21.657841678931163 0 0 0 0 88.782697283662856 42.080478989635139 0 42.080478989635139 -124.39487976321925 0 0 0 0 59.555538348431583 82.615029397834178 0 82.615029397834178 32.833486521788473 0 0 0 0 235.96865459606124 -122.62554630338889 0 -122.62554630338889 30.515419054857375 0 0 0 0 129.59950343421951 -5.906174260889884 0 -5.906174260889884 54.107874248121789 0 0 0 0 79.806774747776217 87.229054185316727 0 87.229054185316727 24.5730135643621 0 0 0 0 29.679704679372662 99.690197485094529 0 99.690197485094529 85.86815317658602 0 0 0 0 17.860492396808695 136.43793215605046 0 136.43793215605046 -11.105833827057722 0 0 0 0 76.220737713883864 220.08829955476511 0 220.08829955476511 95.834534919860744 0 0 0 0 1.5836436856168632 0.77979894597458355 0 0.77979894597458355 0.22617597922238053 0 0 0 0 -1.5191428287143935 89.572790218607452 0 89.572790218607452 329.87813297117987 0 0 0 0 15.052711824770086 196.37708777078808 0 196.37708777078808 -298.64536404940691 0 0 0 0 37.074173488465021 56.913771119103217 0 56.913771119103217 45.297348968724691 0 0 0 0 28.567912182290456 246.74405906844061 0 246.74405906844061 -112.24228458733069 0 0 0 0 -22.922552326279401 72.747745036634569 0 72.747745036634569 -99.223246411293758 0 0 0 0 -18.446154322606162 95.919108085974813 0 95.919108085974813 -241.12646393203568 0 0 0 0 -33.487198014438036 137.87290162379531 0 137.87290162379531 -90.202766002603312 0 0 0 0 6.660336431197365 25.98359423779614 0 25.98359423779614 15.167503606626784 0 0 0 0 -4.5773265406351129 51.967869845841278 0 51.967869845841278 -55.838751678817061 0 0 0 0 -28.154833309949026 70.728682923739598 0 70.728682923739598 -52.707640153887951 0 0 0 0 -68.965406935676583 180.60422859672281 0 180.60422859672281 -139.45681203851245 0 0 0 0 -50.797729863450513 18.279708345909057 0 18.279708345909057 49.862572310168616 0 0 0 0 -262.76257731627993 100.8914415372285 0 100.8914415372285 50.916588771953684 0 0 0 0 -8.8648703332168566 11.1382110222569 0 11.1382110222569 8.6387748977422056 0 0 0 0 -166.22810620095697 60.801838581426637 0 60.801838581426637 121.23121556106344 0 0 0 0 -213.98568895336939 162.61009489756543 0 162.61009489756543 140.6502107425722 0 0 0 0 -242.50440756128228 278.21631278305858 0 278.21631278305858 -195.43081741947913 0 0 0 0 21.928111656200031 26.848843501275621 0 26.848843501275621 9.069141161524346 0 0 0 0 -1.1167590135810315 56.933183968109915 0 56.933183968109915 29.714106780369548 0 0 0 0 -8.1367746794276172 97.611394951518946 0 97.611394951518946 -24.6824940323786 0 0 0 0 6.8771993117188686 64.996114253697669 0 64.996114253697669 23.147809567029981 0 0 0 0 23.013456996599416 67.116263758596688 0 67.116263758596688 -40.869080699445476 0 0 0 0 28.469749634116596 40.03944393243497 0 40.03944393243497 25.860450111092742 0 0 0 0 16.728811159286124 53.588910987082272 0 53.588910987082272 -69.982553065083266 0 0 0 0 -1.1311454384624966 10.322032773223782 0 10.322032773223782 8.1384920024484231 0 0 0 0 7.4227738855224743 67.920734728737216 0 67.920734728737216 20.266992200940877 0 0 0 0 31.752857590562144 42.933863767514865 0 42.933863767514865 10.014121936304065 0 0 0 0 14.391000388044631 80.560925714271434 0 80.560925714271434 -17.6632606541516 0 0 0 0 38.101915180266587 75.329189464700448 0 75.329189464700448 -31.226232974830054 0 0 0 0 26.411794560452108 45.913420504671194 0 45.913420504671194 -22.576969207028924 0 0 0 0 42.378075542699662 39.895836142230564 0 39.895836142230564 10.847894824507307 0 0 0 0 7.8589071282808618 41.372577362509645 0 41.372577362509645 -24.429257072648483 0 0 0 0 55.389232046825782 59.48275547256253 0 59.48275547256253 56.523603456311321 0 0 0 0 19.22365216932667 18.846556707563195 0 18.846556707563195 30.274731410955155 0 0 0 0 0.12412118727908705 2.0889646688832215 0 2.0889646688832215 11.774124322572199 0 0 0 0 7.9084947524097515 39.396701271916868 0 39.396701271916868 -10.137830156342602 0 0 0 0 -183.09306748827657 11.799593521585287 0 11.799593521585287 125.69086640180876 0 0 0 0 -4.040882886176405 -53.770437993130628 0 -53.770437993130628 7.601253505354066 0 0 0 0 60.025962919666199 62.726466631062749 0 62.726466631062749 51.447946260955177 0 0 0 0 43.3992157564644 100.19354306613172 0 100.19354306613172 30.850916258609629 0 0 0 0 10.553235305076669 106.10230368893474 0 106.10230368893474 100.73332606669737 0 0 0 0 29.885714481657487 56.853657617248473 0 56.853657617248473 197.44370053628541 0 0 0 0 77.948916514935263 87.405648076693552 0 87.405648076693552 85.381258851001803 0 0 0 0 10.53508887240605 46.789077057592067 0 46.789077057592067 127.73065108649348 0 0 0 0 38.975710449332837 40.855089799688358 0 40.855089799688358 50.614643650293601 0 0 0 0 5.7532538777886657 15.357440000730548 0 15.357440000730548 74.709449919997951 0 0 0 0 4.2658346954918898 2.1998784234434616 0 2.1998784234434616 0.49738807212009117 0 0 0 0 -56.901025321305497 80.265179402039621 0 80.265179402039621 -133.25262283924167 0 0 0 0 -19.585716603745823 67.438218731128245 0 67.438218731128245 -93.054332086841441 0 0 0 0 -44.113246197302942 102.5453984580513 0 102.5453984580513 -139.32117895604097 0 0 0 0 -50.163751750089432 49.433337814715514 0 49.433337814715514 -30.430419100172003 0 0 0 0 6.1624369612432304 3.5791529633133372 0 3.5791529633133372 4.5341227161129138 0 0 0 0 7.3694767057168065 -1.523477075468918 0 -1.523477075468918 25.492642917999547 0 0 0 0 10.368613071077561 5.7117925561810807 0 5.7117925561810807 14.236782947301208 0 0 0 0 2.571958090615226 5.518050916618904 0 5.518050916618904 38.16337585404608 0 0 0 0 -138.92057965933054 84.554465647473535 0 84.554465647473535 25.918014968037824 0 0 0 0 2.7279135931059955 5.2691107152773498 0 5.2691107152773498 17.049480529278682 0 0 0 0 5.4034977061673999 7.9642231977785514 0 7.9642231977785514 25.285584434840985 0 0 0 0 -105.50722457945812 99.560111484130402 0 99.560111484130402 11.755664533447089 0 0 0 0 -106.74806897799135 80.629915029052427 0 80.629915029052427 -11.289327106047494 0 0 0 0 -70.485277493076865 84.832038241923328 0 84.832038241923328 -59.719785207704263 0 0 0 0 11.759214009856805 27.811600431244187 0 27.811600431244187 -47.942217909127066 0 0 0 0 -107.11753135802974 70.234961555403558 0 70.234961555403558 -31.92802560290238 0 0 0 0 3.9298164660351986 5.0152944322811521 0 5.0152944322811521 3.350628382504901 0 0 0 0 -110.81063467657077 103.79162697608263 0 103.79162697608263 -52.029670369373889 0 0 0 0 -19.515338510303991 53.092228633639934 0 53.092228633639934 -52.169384000956597 0 0 0 0 33.687391223968007 9.4333734934330096 0 9.4333734934330096 -9.729532473623749 0 0 0 0 12.944307323512561 13.893238228398715 0 13.893238228398715 12.849933058163323 0 0 0 0 -92.191693350745481 70.989748921388582 0 70.989748921388582 -37.639823411526777 0 0 0 0 2.607040878008263 1.5118324915143688 0 1.5118324915143688 -2.7820493958447106 0 0 0 0 -4.2437995652989571 1.4576830336780731 0 1.4576830336780731 4.1261735867906761 0 0 0 0 35.242327470128657 188.53230713748553 0 188.53230713748553 -362.43537999201021 0 0 0 0 -6.8513690066174604 280.85587511091944 0 280.85587511091944 -234.05046752970975 0 0 0 0 -111.14464070714894 143.54126984010918 0 143.54126984010918 78.446191819242813 0 0 0 0 -96.190805082151201 134.8910360405871 0 134.8910360405871 -93.255680680351816 0 0 0 0 -150.68317747939727 89.032535718084091 0 89.032535718084091 10.596221554534168 0 0 0 0 -132.85642286208895 36.799750601551523 0 36.799750601551523 -161.43420500654975 0 0 0 0 -171.79143825196661 20.952651913351474 0 20.952651913351474 -155.97254832531507 0 0 0 0 -106.88108418771299 132.50227407368948 0 132.50227407368948 -120.28513400094744 0 0 0 0 -366.77896427651285 131.00181857024836 0 131.00181857024836 -88.932549124454454 0 0 0 0 -83.52265438620816 353.47294474165045 0 353.47294474165045 164.67271354011154 0 0 0 0 14.688285380690104 -182.74780819722085 0 -182.74780819722085 19.497591590409229 0 0 0 0 125.10872767926776 -113.75481370090142 0 -113.75481370090142 81.671956035953599 0 0 0 0 -34.384191707475111 -102.35873005564576 0 -102.35873005564576 252.03104796821708 0 0 0 0 31.991989842965268 -51.95492899425426 0 -51.95492899425426 41.027108692348065 0 0 0 0 -124.08475241341512 77.512034399129789 0 77.512034399129789 33.797837303463439 0 0 0 0 -99.058421584573807 77.430523637008264 0 77.430523637008264 7.287910993419132 0 0 0 0 -91.058274382376112 29.477955298370034 0 29.477955298370034 71.215486532144951 0 0 0 0 -116.81349040838541 24.317990604474858 0 24.317990604474858 94.011836392717669 0 0 0 0 27.134073053835891 -60.305915410443959 0 -60.305915410443959 91.635157985538342 0 0 0 0 -60.045670102575968 7.1590493231968821 0 7.1590493231968821 45.366925186611297 0 0 0 0 -38.157379239797592 28.090015042673258 0 28.090015042673258 46.285271471366627 0 0 0 0 44.923789994471008 -60.208031497183924 0 -60.208031497183924 50.061179380865724 0 0 0 0 30.104826138151111 -47.907198495147099 0 -47.907198495147099 119.6694999874187 0 0 0 0 30.537421936169267 -42.360022164269594 0 -42.360022164269594 50.732758664641437 0 0 0 0 74.750754423730541 -46.533392368541058 0 -46.533392368541058 41.053500286574206 0 0 0 0 15.720597742925747 21.442612997748565 0 21.442612997748565 39.197156294463475 0 0 0 0 28.7070263282003 13.486410056653142 0 13.486410056653142 34.232244706831125 0 0 0 0 12.314793770361575 17.201762368140294 0 17.201762368140294 78.349662524182463 0 0 0 0 4.925963130622506 3.181244353994586 0 3.181244353994586 8.9362475486984962 0 0 0 0 26.885834425909707 10.244744113498427 0 10.244744113498427 29.089484439577497 0 0 0 0 11.646554132094025 10.165006071068149 0 10.165006071068149 143.72128403200935 0 0 0 0 1.8949147166937337 0.018589848780734997 0 0.018589848780734997 -0.79646256399272497 0 0 0 0 9.4529550803397626 11.36360413308249 0 11.36360413308249 10.791844651217492 0 0 0 0 14.573376928878133 18.083353376117415 0 18.083353376117415 31.823746168335692 0 0 0 0 18.286013126704916 19.771939193330375 0 19.771939193330375 12.789612683342963 0 0 0 0 -6.3414326188576524 14.604114103171582 0 14.604114103171582 38.543254477081575 0 0 0 0 41.671008003300813 5.326896003618117 0 5.326896003618117 4.2343428180276987 0 0 0 0 6.7086269277860993 27.65123711629019 0 27.65123711629019 34.443210272210308 0 0 0 0 21.785914794090786 26.983497681991139 0 26.983497681991139 106.03514767495017 0 0 0 0 9.3802904018251922 -5.0587789413814193 0 -5.0587789413814193 7.5574708520611562 0 0 0 0 4.1864939748629695 -5.3081258894994079 0 -5.3081258894994079 27.677823480725237 0 0 0 0 47.466178980685072 35.232427461663065 0 35.232427461663065 105.92623474095444 0 0 0 0 3.002215553833679 -2.3308072014558832 0 -2.3308072014558832 1.298823930098238 0 0 0 0 45.392148519145849 26.457893572322973 0 26.457893572322973 69.95421854840879 0 0 0 0 88.652266333090665 -31.723026627253176 0 -31.723026627253176 16.539895925371638 0 0 0 0 4.0141786253807368 33.493307059188282 0 33.493307059188282 294.7894695809423 0 0 0 0 94.562130380349117 20.002630189089132 0 20.002630189089132 70.669420444156003 0 0 0 0 33.655392530701647 56.889328956849909 0 56.889328956849909 72.050553808186123 0 0 0 0 67.20343061244057 66.308752363832582 0 66.308752363832582 72.55370112297804 0 0 0 0 71.23091308381845 58.970332888694088 0 58.970332888694088 11.592721746915231 0 0 0 0 36.841811676014913 88.085439341560459 0 88.085439341560459 88.150417958700586 0 0 0 0 31.144481619485305 91.558594644438017 0 91.558594644438017 87.860077073481989 0 0 0 0 74.926523344198358 54.404341308197331 0 54.404341308197331 -6.3693230547150961 0 0 0 0 14.19488478393032 19.69310698968502 0 19.69310698968502 133.19135303398798 0 0 0 0 7.976072036268306 7.574228820045164 0 7.574228820045164 244.99260728911648 0 0 0 0 41.469324072691961 131.08624410397431 0 131.08624410397431 236.1146631895981 0 0 0 0 12.860873696808994 57.220152757948199 0 57.220152757948199 113.29330948558299 0 0 0 0 12.384354121066281 51.260467042685832 0 51.260467042685832 176.18976268794358 0 0 0 0 0.23355454853299307 6.4828931162846857 0 6.4828931162846857 -4.8905283762971976 0 0 0 0 72.421929450123571 -13.645899785477241 0 -13.645899785477241 -115.64589288796662 0 0 0 0 85.274137942586094 69.638702909295262 0 69.638702909295262 -116.58026091273177 0 0 0 0 -57.40808976025437 79.807414306406372 0 79.807414306406372 -1.0364542962433916 0 0 0 0 159.64793730448582 122.01474258958933 0 122.01474258958933 -10.195097719252374 0 0 0 0 83.055503949843114 43.969598488643442 0 43.969598488643442 -16.494190670769967 0 0 0 0 81.709628804426757 82.452225954591995 0 82.452225954591995 50.437353791041915 0 0 0 0 128.08186512297834 57.39145523973184 0 57.39145523973184 -60.956197867613355 0 0 0 0 144.81914526181936 141.48626528026125 0 141.48626528026125 51.03197173519797 0 0 0 0 324.18373551892 304.80301278090701 0 304.80301278090701 228.22629753432238 0 0 0 0 117.27993139077444 96.241475106007329 0 96.241475106007329 115.06607281975175 0 0 0 0 -0.1144996679504402 -0.23176589767490441 0 -0.23176589767490441 -134.29113299191522 0 0 0 0 -150.84217343345881 -180.0196203353587 0 -180.0196203353587 132.34800071085374 0 0 0 0 -1.1460348226286072 2.1099290538534348 0 2.1099290538534348 -2.1038452519871633 0 0 0 0 116.66378399644964 -60.817392040707887 0 -60.817392040707887 48.061255701075424 0 0 0 0 44.521650437614881 -19.244768121714515 0 -19.244768121714515 82.19107749469913 0 0 0 0 517.676997331233 -84.793959695389958 0 -84.793959695389958 -57.34033624757285 0 0 0 0 -352.89444861526135 470.67428406416366 0 470.67428406416366 -420.64634396421206 0 0 0 0 95.097345640519052 -166.0405672894467 0 -166.0405672894467 220.32371906672233 0 0 0 0 201.92398440089164 -349.5687602387211 0 -349.5687602387211 77.431997078723725 0 0 0 0 -0.054226606334850658 143.99059311575866 0 143.99059311575866 -3.2300296829007493 0 0 0 0 250.97004926418595 375.38360002376885 0 375.38360002376885 209.98275225388267 0 0 0 0 4.9131925089548076 1.3986378034564311 0 1.3986378034564311 0.35317067369232458 0 0 0 0 121.26853090588156 49.731522814079085 0 49.731522814079085 -66.238324425214159 0 0 0 0 14.264074847036682 88.361325520686705 0 88.361325520686705 596.29577947968232 0 0 0 0 -42.219188541501353 94.748776587006887 0 94.748776587006887 -71.769295720907849 0 0 0 0 104.91333755331289 78.491569476511813 0 78.491569476511813 -170.34902421171773 0 0 0 0 96.698563958823797 125.94043905765466 0 125.94043905765466 -22.189266589853105 0 0 0 0 19.324302403139882 24.042167971129857 0 24.042167971129857 135.40281100592119 0 0 0 0 19.693337562377565 23.863695531564417 0 23.863695531564417 124.88358766076544 0 0 0 0 13.152221021114741 4.6313100106660272 0 4.6313100106660272 3.8456196436713395 0 0 0 0 -58.487249610795516 26.558123713567909 0 26.558123713567909 13.408118316916443 0 0 0 0 -0.94279444388612887 2.1852178627228085 0 2.1852178627228085 5.8579712550038003 0 0 0 0 -40.138107353108353 -53.552424292543037 0 -53.552424292543037 40.123097438696277 0 0 0 0 -22.415029086347204 151.05500549120643 0 151.05500549120643 -196.75053346636014 0 0 0 0 16.061327514267077 162.03245128349681 0 162.03245128349681 109.63439087772531 0 0 0 0 -2.8465951509914191 -0.5452146598413492 0 -0.5452146598413492 0.92717499796835945 0 0 0 0 -219.12574571357254 212.03107527706652 0 212.03107527706652 237.49684174714639 0 0 0 0 -15.511386142068659 52.589713937673878 0 52.589713937673878 -258.8863724809803 0 0 0 0 95.752313873745152 -57.812352118260605 0 -57.812352118260605 -389.48354061146892 0 0 0 0 -414.31889036904613 289.99580598922284 0 289.99580598922284 256.75787597903036 0 0 0 0 -177.24348503098008 286.93199024940805 0 286.93199024940805 -1160.7783935373336 0 0 0 0 -156.52320576866987 167.48171272665877 0 167.48171272665877 -573.81298161048471 0 0 0 0 14.102078564232215 77.392547166322402 0 77.392547166322402 202.407447969641 0 0 0 0 -1.4057811319183315 -0.60094755605590677 0 -0.60094755605590677 2.4974849815153468 0 0 0 0 -355.29266717444989 527.53568202046154 0 527.53568202046154 -754.44870442007232 0 0 0 0 -2.9547632467148333 0.7406555159752628 0 0.7406555159752628 4.3347433499255601 0 0 0 0 -258.80585378837714 52.201110229416372 0 52.201110229416372 295.81836680094784 0 0 0 0 0.14202152725920314 90.166494973874251 0 90.166494973874251 -34.948281691295506 0 0 0 0 18.70488279259007 -20.379236476987899 0 -20.379236476987899 -106.59680950112397 0 0 0 0 197.20043174135208 90.860329735336563 0 90.860329735336563 -596.91725496590152 0 0 0 0 25.136318060060148 50.927887442886458 0 50.927887442886458 24.965386617670447 0 0 0 0 -2.6432870698523345 -0.40181010335628997 0 -0.40181010335628997 0.31372048893886983 0 0 0 0 153.8206817812752 147.45026035082901 0 147.45026035082901 -658.53178394284441 0 0 0 0 36.272010601507645 141.90362281263879 0 141.90362281263879 -367.4312586970027 0 0 0 0 0.090245685547415633 239.50688869975511 0 239.50688869975511 -523.26013438638984 0 0 0 0 39.853778818898718 147.15720531856459 0 147.15720531856459 -515.66554255921073 0 0 0 0 84.217923566728132 103.29161830367048 0 103.29161830367048 -596.9495044146679 0 0 0 0 -54.024542190891225 116.94138137404116 0 116.94138137404116 -152.12829713157498 0 0 0 0 27.583357603987679 125.51448346058896 0 125.51448346058896 -340.63183011769434 0 0 0 0 20.100442415263387 72.761635895281415 0 72.761635895281415 -369.69033278393908 0 0 0 0 24.577139387272837 101.52660888267746 0 101.52660888267746 -357.3190492109934 0 0 0 0 -132.6471927925304 233.66501718243126 0 233.66501718243126 -530.38669827851106 0 0 0 0 44.203423586426652 14.514529723335727 0 14.514529723335727 -1236.147615963413 0 0 0 0 -372.83339472646276 251.73079088671102 0 251.73079088671102 -531.1634561690189 0 0 0 0 -203.58965259874822 111.19500076874829 0 111.19500076874829 -518.01779876185537 0 0 0 0 -331.24716487220758 -30.931525841260509 0 -30.931525841260509 -675.52490684411896 0 0 0 0 90.369912478796323 81.268837551155229 0 81.268837551155229 -533.72366884212897 0 0 0 0 -7.5093359667807817 -41.281787403380804 0 -41.281787403380804 -649.29927164708261 0 0 0 0 21.390774598090502 52.921604022919382 0 52.921604022919382 -530.43408232796719 0 0 0 0 -92.114490807362017 2.3661419289401238 0 2.3661419289401238 -480.69429147652045 0 0 0 0 -20.784837909770431 89.519239353480771 0 89.519239353480771 -325.23738452211182 0 0 0 0 -91.31395275331306 66.656811639821171 0 66.656811639821171 -325.22780200339912 0 0 0 0 -106.23183745655115 68.273123386043153 0 68.273123386043153 -153.52039484075976 0 0 0 0 -35.660982316610898 213.38557709550514 0 213.38557709550514 -217.86061338547006 0 0 0 0 -64.705268193596567 94.724886822717053 0 94.724886822717053 -327.44430587603711 0 0 0 0 -30.241852415497306 288.55789537428257 0 288.55789537428257 -379.50298843672135 0 0 0 0 18.005312557128491 170.68901581228693 0 170.68901581228693 -211.74792618610945 0 0 0 0 5.9814645149454009 -10.93011642491274 0 -10.93011642491274 -529.0267511950874 0 0 0 0 16.59256262738927 155.00609017274564 0 155.00609017274564 -334.36083745111773 0 0 0 0 145.68406765586406 135.98121892446034 0 135.98121892446034 -337.70459257502807 0 0 0 0 7.4315976404182038 282.82953284531709 0 282.82953284531709 -60.851765675775823 0 0 0 0 63.593464606150519 321.15615512735167 0 321.15615512735167 -64.540484652970008 0 0 0 0 -172.06920294382144 119.97218803910164 0 119.97218803910164 -58.826374887486963 0 0 0 0 -166.83449657505844 223.75953450915949 0 223.75953450915949 10.605250441534736 0 0 0 0 -40.322544831503365 186.184725099714 0 186.184725099714 -198.00301598553051 0 0 0 0 -37.032299382874044 158.38535250943096 0 158.38535250943096 -72.998138848755843 0 0 0 0 -6.3315365863381885 129.02229022907886 0 129.02229022907886 -161.87447003549914 0 0 0 0 13.598505887013744 9.0097305023500667 0 9.0097305023500667 17.386934645182919 0 0 0 0 78.746920480320114 62.121982970305908 0 62.121982970305908 -502.60360871599369 0 0 0 0 -7.1803879805083852 103.98776270749659 0 103.98776270749659 -193.76219044972459 0 0 0 0 3.6131330723001156 20.903572506242199 0 20.903572506242199 11.262232519662007 0 0 0 0 7.661176431619765 13.958691896477081 0 13.958691896477081 4.4190590527423854 0 0 0 0 11.620583960431787 21.427104350207145 0 21.427104350207145 7.4431250807261486 0 0 0 0 -89.436370722160063 40.950914915668733 0 40.950914915668733 33.557598056241432 0 0 0 0 10.548958648738335 11.765834425698358 0 11.765834425698358 34.572858504178384 0 0 0 0 3.3863689825934955 19.32127818413133 0 19.32127818413133 17.524852412202073 0 0 0 0 9.9426787959891954 11.498988570854621 0 11.498988570854621 41.711261664922176 0 0 0 0 1.9416203123546438 28.024661837403073 0 28.024661837403073 11.614432869004759 0 0 0 0 68.506765664220438 54.76306100885904 0 54.76306100885904 37.042824818863664 0 0 0 0 -13.21345035180272 6.3972487142749017 0 6.3972487142749017 10.938479707518617 0 0 0 0 -1.8969283436745172 13.901243391439039 0 13.901243391439039 22.92233928027963 0 0 0 0 65.929958268941846 4.219268103182003 0 4.219268103182003 -64.349904047617201 0 0 0 0 29.619850135270099 83.099394681535387 0 83.099394681535387 -696.81113502598964 0 0 0 0 -8.7070923195386172 -2.9622405360281547 0 -2.9622405360281547 8.7689119361324472 0 0 0 0 1.1546643280262856 10.207398626888963 0 10.207398626888963 -0.91549465260167651 0 0 0 0 -8.7714275142498082 10.677362191936481 0 10.677362191936481 46.104851903703093 0 0 0 0 16.176993314409629 17.888411079937214 0 17.888411079937214 23.31129667253083 0 0 0 0 4.9865847192871229 11.179481225905992 0 11.179481225905992 -2.2879155355796854 0 0 0 0 -5.5288054626144003 18.998305842448644 0 18.998305842448644 34.009385248147737 0 0 0 0 -123.48374065000826 699.33826023683878 0 699.33826023683878 -390.22573233203184 0 0 0 0 -649.26066675741095 476.15159699896276 0 476.15159699896276 370.70058602789504 0 0 0 0 -1101.6920268511085 233.96760090587404 0 233.96760090587404 715.53326307772431 0 0 0 0 -1046.0623035915996 880.28565203690823 0 880.28565203690823 -40.619382293431045 0 0 0 0 -964.49609247920671 337.6352680300572 0 337.6352680300572 521.34142067310086 0 0 0 0 -701.50527494685957 368.81711634069802 0 368.81711634069802 515.7298728889275 0 0 0 0 -908.05266192553972 222.48445480665396 0 222.48445480665396 769.61109985195162 0 0 0 0 -1010.2349743362611 316.21775730425247 0 316.21775730425247 769.50848629522443 0 0 0 0 -662.71380856992619 163.16314331451304 0 163.16314331451304 262.91995010398387 0 0 0 0 118.20488759736509 1367.4030153326969 0 1367.4030153326969 -258.87032735571393 0 0 0 0 -550.13788143668353 -330.3760302865694 0 -330.3760302865694 1057.4332223062102 0 0 0 0 -407.91938709568785 742.96292887256743 0 742.96292887256743 768.67085561840167 0 0 0 0 -779.55700123769202 519.70423338453611 0 519.70423338453611 1449.3854744223736 0 0 0 0 -104.27190615243671 17.096197132722864 0 17.096197132722864 -232.3060076925799 0 0 0 0 274.8222187101419 179.75199252904258 0 179.75199252904258 -921.50146697439982 0 0 0 0 -143.41423814151494 9.7308047968067513 0 9.7308047968067513 536.04957065470262 0 0 0 0 -222.4531957817162 187.43187383282475 0 187.43187383282475 177.01248601173756 0 0 0 0 -106.69985018284342 101.2751430184162 0 101.2751430184162 0.052111775135017524 0 0 0 0 -52.084259889765235 69.064172853720265 0 69.064172853720265 18.928874619938142 0 0 0 0 -26.613067338515975 77.966879210175648 0 77.966879210175648 -67.989531206944093 0 0 0 0 -17.134764769730452 13.669787446839344 0 13.669787446839344 3.2441295821039224 0 0 0 0 236.06441997050115 182.93240459531845 0 182.93240459531845 94.697802867968676 0 0 0 0 -6.7981156958690008 2.4877006116684406 0 2.4877006116684406 -1.7068561756837779 0 0 0 0 -107.48811231998116 538.68030966697461 0 538.68030966697461 576.9193713923878 0 0 0 0 235.84842513897092 193.79479487320123 0 193.79479487320123 -244.34235814167096 0 0 0 0 231.10983806725926 -28.931864544510972 0 -28.931864544510972 -183.18575216094609 0 0 0 0 238.83345334247497 44.350556355096614 0 44.350556355096614 -43.122440210719105 0 0 0 0 668.12064388491126 -226.18639410600326 0 -226.18639410600326 -52.999645095239998 0 0 0 0 234.31323963603973 35.805264156024805 0 35.805264156024805 3.0180951447018742 0 0 0 0 -35.544409341722712 277.63235029528482 0 277.63235029528482 -33.845045170894082 0 0 0 0 -330.48518330555817 -216.75692331052733 0 -216.75692331052733 -733.49149589414719 0 0 0 0 -410.44627230612605 958.67670363924162 0 958.67670363924162 -615.71152894454644 0 0 0 0 -1087.1787134241968 365.12695101031022 0 365.12695101031022 64.092588262499703 0 0 0 0 -815.35606858536994 866.30601538330097 0 866.30601538330097 -446.99186268740959 0 0 0 0 -422.48136733577485 462.95050867707187 0 462.95050867707187 -92.10042422395145 0 0 0 0 -258.54122434311284 445.40036196387791 0 445.40036196387791 -112.23940899800073 0 0 0 0 -331.1854864560155 571.56876458428724 0 571.56876458428724 -312.83516782458628 0 0 0 0 -63.202852170838014 223.56153391792805 0 223.56153391792805 -208.93217844768151 0 0 0 0 -79.466538801527349 336.52272513294065 0 336.52272513294065 -547.17011542203727 0 0 0 0 -14.185822940282378 116.35875367781591 0 116.35875367781591 -315.37040176555729 0 0 0 0 -101.88369819487343 100.97266115469438 0 100.97266115469438 -132.49067564929101 0 0 0 0 -84.062367335824092 387.43085120866954 0 387.43085120866954 -1296.2311406622562 0 0 0 0 -53.371792027810443 208.09993189019906 0 208.09993189019906 10.918080098277642 0 0 0 0 -102.27552625712997 260.95012145058354 0 260.95012145058354 -32.875692740728937 0 0 0 0 -47.327429328412109 158.67831164882045 0 158.67831164882045 -71.603884896059753 0 0 0 0 -94.76207016490298 262.70627162729579 0 262.70627162729579 -103.44026401651354 0 0 0 0 -106.24463517862023 326.65818721231335 0 326.65818721231335 -309.51437448328033 0 0 0 0 -120.95636036479846 287.8530037110495 0 287.8530037110495 -126.31750418654519 0 0 0 0 -89.824729823259986 208.12169278922647 0 208.12169278922647 -213.7983646337525 0 0 0 0 -67.550610843660252 91.66545033273178 0 91.66545033273178 -172.50489576281961 0 0 0 0 -70.773163070029113 110.14265755460929 0 110.14265755460929 -112.11393161162414 0 0 0 0 -71.635014744402724 175.44766757445677 0 175.44766757445677 -71.865241112858712 0 0 0 0 -63.816794195743569 167.86392497343513 0 167.86392497343513 -153.6075185172424 0 0 0 0 -38.177603211355745 72.274186156555515 0 72.274186156555515 -78.956721985823947 0 0 0 0 -42.847651782325556 67.481706839783783 0 67.481706839783783 18.547713093437778 0 0 0 0 -16.980530771761551 127.42410090785415 0 127.42410090785415 -19.981731956566364 0 0 0 0 -50.184947015073703 166.74205164380373 0 166.74205164380373 29.785660208646732 0 0 0 0 -46.118683738131949 28.513420896021216 0 28.513420896021216 4.9725849812348315 0 0 0 0 -45.149499305189238 17.831634508846037 0 17.831634508846037 -29.771876350926959 0 0 0 0 -45.597033027308498 80.250347193447396 0 80.250347193447396 -32.358822246424097 0 0 0 0 -45.308826985718042 8.631142702818579 0 8.631142702818579 0.13601979175655288 0 0 0 0 -24.772635268833255 24.695786996000606 0 24.695786996000606 -82.355142889116451 0 0 0 0 103.55231327115689 2.9817356907271915 0 2.9817356907271915 610.92876216450532 0 0 0 0 240.04844232061441 615.62839234789305 0 615.62839234789305 -216.43843053133304 0 0 0 0 262.02917728816828 -496.2711306623064 0 -496.2711306623064 -745.17472584023972 0 0 0 0 -55.816657644547377 9.8281229683652782 0 9.8281229683652782 2.2528111712144891 0 0 0 0 -59.197693416077527 7.8905629274340754 0 7.8905629274340754 7.9990656536599545 0 0 0 0 -151.08419202447476 257.01366758519953 0 257.01366758519953 297.21158994054576 0 0 0 0 -5.4683360630225195 2.2141315429354016 0 2.2141315429354016 -0.88783143475555093 0 0 0 0 337.88978453561515 469.55168841598373 0 469.55168841598373 -778.19229599203936 0 0 0 0 -43.429203565713038 26.566636704005255 0 26.566636704005255 -14.112617118837207 0 0 0 0 -475.7764088382155 47.608313676823855 0 47.608313676823855 548.0180839902323 0 0 0 0 -14.33432866701996 6.9863303672230046 0 6.9863303672230046 -3.3997529291130295 0 0 0 0 -26.837641739097307 397.07375693853146 0 397.07375693853146 781.78901355780431 0 0 0 0 -64.623222498687028 77.127800223031045 0 77.127800223031045 -144.66054475574856 0 0 0 0 -35.530589255242404 19.874355419717851 0 19.874355419717851 -9.427185566993062 0 0 0 0 152.42392123365062 303.64976483344935 0 303.64976483344935 119.39808423334057 0 0 0 0 134.96902083972236 435.44027089736352 0 435.44027089736352 308.12244519500632 0 0 0 0 195.78019613954893 362.80511946840971 0 362.80511946840971 -104.94508526483594 0 0 0 0 2.6821224656014238 176.89210391659401 0 176.89210391659401 285.46965180549046 0 0 0 0 -219.4388990797197 295.53580935773829 0 295.53580935773829 17.572680713938212 0 0 0 0 -612.45165445711973 419.8454417717802 0 419.8454417717802 209.75610607958964 0 0 0 0 -401.82607137363811 243.66034803168074 0 243.66034803168074 58.124135683623877 0 0 0 0 -64.276333827372582 297.57892050219607 0 297.57892050219607 34.543482901684456 0 0 0 0 -184.27578577166241 377.34769131597534 0 377.34769131597534 118.9718885323216 0 0 0 0 273.4720535270535 494.004207129061 0 494.004207129061 54.671268084645703 0 0 0 0 136.07678813725579 423.55219079867885 0 423.55219079867885 61.69419363621148 0 0 0 0 26.696086629290221 439.6390031472605 0 439.6390031472605 222.85789926906136 0 0 0 0 -103.82930592248886 269.18515676513948 0 269.18515676513948 121.43756742249002 0 0 0 0 62.688624578954659 238.96999843220348 0 238.96999843220348 68.673571938907799 0 0 0 0 -379.75601405513589 228.19551833227695 0 228.19551833227695 -12.661079919722397 0 0 0 0 -202.50189192125254 133.56649397764227 0 133.56649397764227 -45.114156065088309 0 0 0 0 -239.88140468565507 380.40827093140018 0 380.40827093140018 24.541428187615111 0 0 0 0 95.808823525105254 66.130464582987088 0 66.130464582987088 70.972549498457056 0 0 0 0 -0.65691707066503113 27.14717738272693 0 27.14717738272693 60.219284641696504 0 0 0 0 338.46130853412978 -16.583977036234614 0 -16.583977036234614 -99.643594581290017 0 0 0 0 576.34341493424654 484.08398782829966 0 484.08398782829966 53.685171905014641 0 0 0 0 -136.85437270033617 365.83232275815112 0 365.83232275815112 36.100848370256017 0 0 0 0 236.47599806927246 618.40737729734587 0 618.40737729734587 382.13196394166425 0 0 0 0 62.172879506663321 272.68869085824298 0 272.68869085824298 554.2545158667333 0 0 0 0 512.6071974926781 64.940413790732237 0 64.940413790732237 176.0864658495841 0 0 0 0 583.91901004644751 521.72325029827925 0 521.72325029827925 448.71765824628528 0 0 0 0 83.784520020744822 297.24214425860509 0 297.24214425860509 1038.8146078475856 0 0 0 0 5.339318949346719 -0.032067189037363164 0 -0.032067189037363164 0.06707613614644603 0 0 0 0 220.82351517362531 370.36968336079519 0 370.36968336079519 421.71209224299173 0 0 0 0 -4.128526946533384 57.340699252012769 0 57.340699252012769 452.65349945144681 0 0 0 0 259.1717233669915 256.54350360369881 0 256.54350360369881 135.89505596803815 0 0 0 0 271.57652853994659 225.88081247238779 0 225.88081247238779 -22.381661601682936 0 0 0 0 338.72421165228207 227.20984023468702 0 227.20984023468702 145.25130077677886 0 0 0 0 125.57871226580755 106.20908860666304 0 106.20908860666304 195.49281249650085 0 0 0 0 375.72373563907968 165.08912629914425 0 165.08912629914425 -63.782455824000863 0 0 0 0 153.84399687097175 153.7391133087765 0 153.7391133087765 -95.210593052768672 0 0 0 0 166.59663332989658 124.93387507614125 0 124.93387507614125 -32.339071095813779 0 0 0 0 252.2776288092191 195.51244004201931 0 195.51244004201931 -98.504236195830345 0 0 0 0 198.07503097728841 205.65004841511109 0 205.65004841511109 -16.075242056348543 0 0 0 0 -227.52129514739318 168.76160229606626 0 168.76160229606626 -1.4345443962038189 0 0 0 0 -283.02295488100208 68.804894873709486 0 68.804894873709486 -114.20136705303275 0 0 0 0 120.40751873791305 151.11415915727468 0 151.11415915727468 -36.381423793591239 0 0 0 0 -47.269018871422304 42.827905151858431 0 42.827905151858431 41.892579329175078 0 0 0 0 89.773524271167844 32.654598930092561 0 32.654598930092561 -76.548227858698738 0 0 0 0 -55.498007968933962 118.3028584251806 0 118.3028584251806 -95.765335948127358 0 0 0 0 -53.059191755848587 99.619604701946173 0 99.619604701946173 21.978641281712044 0 0 0 0 -213.06375481356736 45.326072761818523 0 45.326072761818523 -37.140546744757557 0 0 0 0 -240.06901180722343 118.20438910550547 0 118.20438910550547 -112.95707275442328 0 0 0 0 -53.035456436075037 77.847515398485029 0 77.847515398485029 -99.156307766497775 0 0 0 0 -398.21988505122135 144.88883467908727 0 144.88883467908727 -95.540052754310636 0 0 0 0 -447.87648367321071 148.85542180277798 0 148.85542180277798 -84.525313566940895 0 0 0 0 -587.7914725777955 215.88801765923517 0 215.88801765923517 -75.536698803587228 0 0 0 0 -452.24753776981379 88.431164329293551 0 88.431164329293551 -11.341694190299677 0 0 0 0 -616.84044425322281 236.67432955372669 0 236.67432955372669 -81.737080976275138 0 0 0 0 -586.53995876163026 219.58347074364838 0 219.58347074364838 -65.28096633277346 0 0 0 0 -681.75394148409396 310.88491597801567 0 310.88491597801567 -106.67673212768204 0 0 0 0 -669.00806361354989 322.2064608589485 0 322.2064608589485 -105.28023167322863 0 0 0 0 -715.44154828125829 331.88055928280869 0 331.88055928280869 -76.173385080099251 0 0 0 0 -754.38853990650023 381.27369667267521 0 381.27369667267521 -107.79427026432768 0 0 0 0 -784.05695756720888 285.15503493591632 0 285.15503493591632 -60.69270594480804 0 0 0 0 -776.1010328010816 377.250967059716 0 377.250967059716 -90.362036828324108 0 0 0 0 -835.99115809399518 359.44361645615481 0 359.44361645615481 -88.480612762054534 0 0 0 0 -510.59351834928384 156.516282827125 0 156.516282827125 -22.339881945151944 0 0 0 0 -515.60548983015178 214.89147712888098 0 214.89147712888098 -76.158502227198539 0 0 0 0 -588.28591301390406 168.99028592361901 0 168.99028592361901 -69.838442693250727 0 0 0 0 -872.03083470334968 163.37675067731288 0 163.37675067731288 -49.081919064486101 0 0 0 0 -534.43299403562196 56.072294334047683 0 56.072294334047683 -136.27241802810022 0 0 0 0 -556.56180890740507 409.56113387390974 0 409.56113387390974 -87.012728278675269 0 0 0 0 -563.51427715784666 362.8990632100747 0 362.8990632100747 -382.66248003813848 0 0 0 0 -608.75178786227934 256.4113321725888 0 256.4113321725888 -154.43993624426139 0 0 0 0 -974.3788107517903 85.290115270978504 0 85.290115270978504 -167.69178764760227 0 0 0 0 -928.85222666714253 362.10923917949913 0 362.10923917949913 -310.20625169129835 0 0 0 0 -1209.8989598607441 427.23419755988652 0 427.23419755988652 -100.52150256674918 0 0 0 0 -734.00580381113105 523.23714293142575 0 523.23714293142575 -271.58151070096073 0 0 0 0 -1549.6786257620333 695.1066962215134 0 695.1066962215134 -315.8286581430898 0 0 0 0 -600.32968847370648 836.19888960540493 0 836.19888960540493 -1104.677791515116 0 0 0 0 -1639.1909125664097 775.62102895215503 0 775.62102895215503 -340.91828408867718 0 0 0 0 -1.5743151426181896 -0.032054345982295507 0 -0.032054345982295507 -0.76572668902158481 0 0 0 0 -1230.2925873573804 189.06222452814956 0 189.06222452814956 -387.83940134018667 0 0 0 0 -1526.0832854736145 699.50495026485999 0 699.50495026485999 -414.27836322446979 0 0 0 0 -1069.8260223327761 162.70969311040483 0 162.70969311040483 -231.78226726687285 0 0 0 0 -269.51515389841643 -27.255483282147424 0 -27.255483282147424 -11.059888620910897 0 0 0 0 -4.2582749519157375 -0.35325075632330893 0 -0.35325075632330893 -3.3845358252874149 0 0 0 0 -344.61676673725015 -207.98597579107059 0 -207.98597579107059 -32.549462368857121 0 0 0 0 -454.34486795288831 641.76630309018174 0 641.76630309018174 548.98334501700197 0 0 0 0 -1476.3006485862206 147.95951811654459 0 147.95951811654459 366.37929094100309 0 0 0 0 -818.02854031847528 717.7982091789836 0 717.7982091789836 -86.08707644745823 0 0 0 0 -109.87804841917023 39.251206731974435 0 39.251206731974435 121.06588403743717 0 0 0 0 -44.401915715137875 71.222815668304065 0 71.222815668304065 19.529674986033569 0 0 0 0 50.409277355189261 -39.487830858682173 0 -39.487830858682173 88.325329141712245 0 0 0 0 -5.2141695175869245 14.295434078276685 0 14.295434078276685 60.465612216174122 0 0 0 0 -3.4489688756540886 10.347612484000706 0 10.347612484000706 11.313253720769023 0 0 0 0 35.704848245768517 -140.84516820948465 0 -140.84516820948465 250.42664598599458 0 0 0 0 -38.650676648183435 -49.360845645933296 0 -49.360845645933296 194.7364537495348 0 0 0 0 -64.263889650326746 85.519693346965141 0 85.519693346965141 -14.978648079544655 0 0 0 0 -21.210765344409992 39.019015020285678 0 39.019015020285678 -8.7034462342298866 0 0 0 0 -92.786476637102169 122.80610248584571 0 122.80610248584571 -359.4602025845661 0 0 0 0 -17.646425287469128 7.4509024018005494 0 7.4509024018005494 5.5332913903483965 0 0 0 0 -2.6994858651245295 7.1547434162574497 0 7.1547434162574497 -8.1316267335567129 0 0 0 0 -1.8285480785566222 11.652408533645279 0 11.652408533645279 -19.725617589950044 0 0 0 0 -8.9410522315884009 15.118890532521164 0 15.118890532521164 -9.3176535641376859 0 0 0 0 -737.80852739181955 533.34141433624904 0 533.34141433624904 -252.34917451520414 0 0 0 0 -633.45886731562496 503.99932937105586 0 503.99932937105586 -247.61814581879207 0 0 0 0 -2.4943086112616584 83.118065402249613 0 83.118065402249613 -51.082141449290248 0 0 0 0 -26.124258524608138 29.49402850018107 0 29.49402850018107 -3.5846112172643076 0 0 0 0 -3.6428999045051427 4.9475044212797279 0 4.9475044212797279 2.4691896599285528 0 0 0 0 7.7707962003642024 -24.951513189269008 0 -24.951513189269008 -94.213358510328362 0 0 0 0 -4.53280266098227 29.347175407068676 0 29.347175407068676 -11.905767556683713 0 0 0 0 5.1230546877646326 7.5727633331372743 0 7.5727633331372743 -2.2262723221245153 0 0 0 0 -569.53057868867336 288.23130160325678 0 288.23130160325678 -157.55206425821689 0 0 0 0 -568.95185589004177 452.49221808767948 0 452.49221808767948 -244.86756768785017 0 0 0 0 -703.98436963162385 427.93983051608211 0 427.93983051608211 -123.40008200825923 0 0 0 0 -830.22502376541297 512.72641818606837 0 512.72641818606837 -161.05044817324233 0 0 0 0 -998.33457129291492 196.33371587540751 0 196.33371587540751 160.78601537044597 0 0 0 0 -651.08575679167916 360.18199980212285 0 360.18199980212285 -157.98772933610053 0 0 0 0 -715.77255816192337 406.26337628885949 0 406.26337628885949 -125.64537991488015 0 0 0 0 -789.33001330156549 333.12250223603769 0 333.12250223603769 -133.38803890259442 0 0 0 0 -717.25050803371778 373.39405507185802 0 373.39405507185802 -143.94181204080633 0 0 0 0 -794.15991616525571 307.36796770290312 0 307.36796770290312 -156.32993805164404 0 0 0 0 -965.51771517752786 506.38885801498827 0 506.38885801498827 -287.80994243031637 0 0 0 0 -627.38687789109827 298.41653942952507 0 298.41653942952507 -152.19590159869585 0 0 0 0 -19.258208546227252 22.796217775792343 0 22.796217775792343 1.3363539918819924 0 0 0 0 17.78648069664996 16.963221432091814 0 16.963221432091814 -7.1601001986828123 0 0 0 0 10.370819766471541 13.218793749033214 0 13.218793749033214 11.175314775532479 0 0 0 0 -6.3635402893958855 3.6418407836641222 0 3.6418407836641222 4.8142346602662593 0 0 0 0 5.6989811987514258 49.442477431059842 0 49.442477431059842 89.820801752242573 0 0 0 0 -2.8696195880752668 0.99313492747506338 0 0.99313492747506338 4.5197780856493761 0 0 0 0 -42.259895657926791 -7.5919673741805127 0 -7.5919673741805127 20.704912333932498 0 0 0 0 -63.780603997944127 40.25501104634759 0 40.25501104634759 15.123358126782023 0 0 0 0 -14.632147306423576 -55.773680388975436 0 -55.773680388975436 21.942079096652932 0 0 0 0 -13.810975215319559 99.877114991927556 0 99.877114991927556 -138.40936876837441 0 0 0 0 57.12528115949317 30.620454478286774 0 30.620454478286774 -74.470059076915277 0 0 0 0 -92.859204735515959 72.890524872087553 0 72.890524872087553 -14.596411348774382 0 0 0 0 -166.23814933984613 331.64287071030776 0 331.64287071030776 -351.90058648708691 0 0 0 0 31.806155441077863 139.02914718709565 0 139.02914718709565 -176.4160852593559 0 0 0 0 59.195881325442315 56.603492657435709 0 56.603492657435709 -251.78625464317702 0 0 0 0 31.841733152032248 137.92496081695481 0 137.92496081695481 -149.36012942159959 0 0 0 0 25.335415944566194 -66.099576827677538 0 -66.099576827677538 -90.612331877028055 0 0 0 0 161.26296909478697 -85.979577687048277 0 -85.979577687048277 -104.05904178802621 0 0 0 0 -61.285506473348505 -249.436897414143 0 -249.436897414143 598.98240556098881 0 0 0 0 260.91214361188668 59.917719390592538 0 59.917719390592538 -818.17268011206579 0 0 0 0 338.28358592375662 -615.27297535789535 0 -615.27297535789535 -248.65150859821892 0 0 0 0 8.3873853950681223 65.810671626091448 0 65.810671626091448 152.21423346777408 0 0 0 0 148.37061108762646 276.8334814005093 0 276.8334814005093 393.09202097038514 0 0 0 0 221.49487465158018 137.96560858603198 0 137.96560858603198 11.426985383297506 0 0 0 0 4.2242289008186269 6.4758849390744224 0 6.4758849390744224 5.0325528179991847 0 0 0 0 86.989644120902085 39.342458188138913 0 39.342458188138913 -90.82100238716987 0 0 0 0 -180.11454323266844 103.46519549286631 0 103.46519549286631 612.2056753579418 0 0 0 0 25.520481327794187 -13.284726885199689 0 -13.284726885199689 -30.469738016457541 0 0 0 0 102.73736523417006 4.0431580441320989 0 4.0431580441320989 104.84051085887768 0 0 0 0 166.12581889904277 158.12593321676434 0 158.12593321676434 63.875031129678973 0 0 0 0 17.881700058454953 -21.358819812272628 0 -21.358819812272628 74.480041631077825 0 0 0 0 15.593815601516367 18.415690178923619 0 18.415690178923619 -1.1485530537808799 0 0 0 0 23.587176396948962 65.879815900326321 0 65.879815900326321 -52.678678070974911 0 0 0 0 80.147189103448 67.541969572465575 0 67.541969572465575 -12.045557454329014 0 0 0 0 30.382199702069556 24.741327854786505 0 24.741327854786505 -44.909909248270196 0 0 0 0 116.42814510413223 29.657060485814782 0 29.657060485814782 -20.885440023766023 0 0 0 0 111.85109242123099 107.11975238168452 0 107.11975238168452 -28.317698201330131 0 0 0 0 96.675527206909919 69.426919212594839 0 69.426919212594839 -102.49052837110503 0 0 0 0 118.60236455371285 60.24805029993604 0 60.24805029993604 -96.453277059812535 0 0 0 0 105.74393122619631 89.296031840776777 0 89.296031840776777 -121.52467637187328 0 0 0 0 22.242471876597847 100.39315165625976 0 100.39315165625976 -102.80504017499698 0 0 0 0 86.884812447209242 93.834479586744692 0 93.834479586744692 -133.835619040241 0 0 0 0 180.67781162735628 196.50772187633174 0 196.50772187633174 -547.58672296999976 0 0 0 0 -184.40284516136921 879.65082321186412 0 879.65082321186412 92.417309971619943 0 0 0 0 120.19305497636378 179.97920464446543 0 179.97920464446543 66.294529581768757 0 0 0 0 135.54357206517261 103.06597312573376 0 103.06597312573376 -148.01838106725518 0 0 0 0 188.29290625088288 243.75775587065391 0 243.75775587065391 -305.93226846134166 0 0 0 0 123.37432425017687 16.280292759260192 0 16.280292759260192 -200.32819716682388 0 0 0 0 132.95268539489189 57.93392145172038 0 57.93392145172038 -129.01737809717679 0 0 0 0 155.06319207726574 25.283558731917765 0 25.283558731917765 -208.01521687428976 0 0 0 0 3.7532998653611891 -0.94600947933164292 0 -0.94600947933164292 -10.547990288712715 0 0 0 0 39.908812613224654 -81.062527667238101 0 -81.062527667238101 -269.69976639911511 0 0 0 0 -220.57226343895309 114.54363935716083 0 114.54363935716083 -92.506048559715055 0 0 0 0 127.92768201169019 19.58544629771859 0 19.58544629771859 -483.76592311359809 0 0 0 0 -63.751682257658103 6.1287709994940087 0 6.1287709994940087 -18.032353678861909 0 0 0 0 98.469649909859072 42.832726485130934 0 42.832726485130934 -10.970253616364062 0 0 0 0 46.420665093842217 50.883284461744552 0 50.883284461744552 36.430415446950065 0 0 0 0 45.350226816309259 -42.280639165907473 0 -42.280639165907473 -77.305043814696546 0 0 0 0 3.7362419177388801 84.117023712811715 0 84.117023712811715 12.354511896473923 0 0 0 0 44.910561535131365 -4.4749660844868231 0 -4.4749660844868231 91.516404105926995 0 0 0 0 8.6496954545484925 15.756151077015105 0 15.756151077015105 -12.635168575174461 0 0 0 0 -76.032832388023962 75.330139435125602 0 75.330139435125602 133.21893300992087 0 0 0 0 21.312423879575363 -18.148072181383213 0 -18.148072181383213 135.39052293063651 0 0 0 0 7.5499627667671803 7.4993934305681513 0 7.4993934305681513 -10.246267472334416 0 0 0 0 58.424255095776971 111.49704477512932 0 111.49704477512932 -89.313118396770733 0 0 0 0 77.160690206144864 87.04436844240081 0 87.04436844240081 -114.8567655486404 0 0 0 0 43.953411145900596 73.618552624781387 0 73.618552624781387 -47.442208535110694 0 0 0 0 83.194153020793237 114.98191546100861 0 114.98191546100861 -58.699585717815353 0 0 0 0 85.407503719505712 86.650882185398586 0 86.650882185398586 -86.666758206247323 0 0 0 0 78.868101568347925 95.851226338505285 0 95.851226338505285 -96.802580902680347 0 0 0 0 79.861355519547828 72.760279194222676 0 72.760279194222676 -97.347990687363335 0 0 0 0 8.4684444328095196 117.77112699498684 0 117.77112699498684 33.086161540471949 0 0 0 0 53.051759023386012 113.73610390718022 0 113.73610390718022 -3.4633869987228536 0 0 0 0 82.404479642127626 159.79056785750436 0 159.79056785750436 18.712147539343277 0 0 0 0 53.064356115049293 115.58000500997711 0 115.58000500997711 -33.882769589115924 0 0 0 0 103.51685994791387 131.7573857946627 0 131.7573857946627 -45.507686640297834 0 0 0 0 80.721542312381644 93.645796664205591 0 93.645796664205591 -66.348476008450234 0 0 0 0 75.358820076808115 95.319921156670716 0 95.319921156670716 -74.048888096032897 0 0 0 0 25.211227331468763 31.719321204388734 0 31.719321204388734 -0.039520182979231322 0 0 0 0 45.114636164596959 61.459546990866784 0 61.459546990866784 9.6418258990570394 0 0 0 0 -8.5776475338621054 25.132929492288262 0 25.132929492288262 -6.379242374439805 0 0 0 0 322.45203966006193 -14.249687383189666 0 -14.249687383189666 4.3569727258764033 0 0 0 0 29.576556610088971 35.351694439335205 0 35.351694439335205 -13.727364817772218 0 0 0 0 25.209595188107414 140.74059009823031 0 140.74059009823031 63.076197262449568 0 0 0 0 31.647129547124422 52.886586346341346 0 52.886586346341346 -1.7224061746037478 0 0 0 0 32.366199272647179 50.104574947132733 0 50.104574947132733 -15.759424014254705 0 0 0 0 76.051612329275486 47.821691801647376 0 47.821691801647376 -27.969244334839459 0 0 0 0 26.003982531872879 31.909211521338953 0 31.909211521338953 -8.962223660853498 0 0 0 0 21.577740455158278 52.687792849092602 0 52.687792849092602 0.52422045533603523 0 0 0 0 9.8999512548135122 33.854367749585293 0 33.854367749585293 -0.6034456786937793 0 0 0 0 -27.341437863589817 47.034063143022649 0 47.034063143022649 61.578435020686129 0 0 0 0 8.6496801444955054 35.537469542791598 0 35.537469542791598 1.8808638645905376 0 0 0 0 0.77072370683742264 27.56002513668205 0 27.56002513668205 -4.2097648342688414 0 0 0 0 -15.132859648917652 36.739387859781907 0 36.739387859781907 -2.8073058135669857 0 0 0 0 -29.129352007355919 69.866806270786128 0 69.866806270786128 5.807321074866195 0 0 0 0 -42.050862503936514 65.695556064011271 0 65.695556064011271 43.363317777098814 0 0 0 0 -34.213933395961568 32.712674047412158 0 32.712674047412158 -7.2637171920518835 0 0 0 0 -46.750307300538225 78.781556407396579 0 78.781556407396579 22.535193121549128 0 0 0 0 -125.20140374003677 25.63303891050009 0 25.63303891050009 67.85041668791132 0 0 0 0 25.445410679803899 81.854334573436972 0 81.854334573436972 -144.95664726059567 0 0 0 0 -3.8664082719400454 3.3813460603989149 0 3.3813460603989149 5.6384397491493132 0 0 0 0 27.393609226179706 71.402687679917676 0 71.402687679917676 -99.50141153820914 0 0 0 0 -19.689099908930075 68.575359916541856 0 68.575359916541856 -14.184298200118064 0 0 0 0 -122.33692325404627 185.37763729701146 0 185.37763729701146 -95.245974303146795 0 0 0 0 -23.246725925846476 52.89263270356787 0 52.89263270356787 67.016332684477675 0 0 0 0 6.2816838630678831 96.175637552591979 0 96.175637552591979 -26.847260378438023 0 0 0 0 -34.941604831768927 71.887246652206159 0 71.887246652206159 -23.024676658510543 0 0 0 0 6.8626817515685445 5.2227277268473244 0 5.2227277268473244 3.6840092611998712 0 0 0 0 37.691644870705204 57.165382590271292 0 57.165382590271292 -45.306284998306182 0 0 0 0 17.137695909497779 90.749863945187826 0 90.749863945187826 20.002286804588948 0 0 0 0 24.264040409238078 83.440878343815712 0 83.440878343815712 -21.907504812403204 0 0 0 0 -8.9620218427051697 46.68411923249986 0 46.68411923249986 -45.760946654390274 0 0 0 0 50.411030728795595 127.30065865471806 0 127.30065865471806 15.113827525380202 0 0 0 0 0.49826881287299329 79.850018450127664 0 79.850018450127664 41.186574032830023 0 0 0 0 -82.60978879861068 73.941358887700517 0 73.941358887700517 41.955277111374016 0 0 0 0 -362.44372903462499 -558.81699127774482 0 -558.81699127774482 -537.19975638498727 0 0 0 0 24.38459501641772 29.100573407105006 0 29.100573407105006 3.628076894455242 0 0 0 0 -109.5157081596044 152.31952388060472 0 152.31952388060472 11.216688732602506 0 0 0 0 10.555232188915397 44.114064716343591 0 44.114064716343591 -13.577943627790773 0 0 0 0 1500.2134496991603 907.24277287177779 0 907.24277287177779 -1542.0973836164503 0 0 0 0 18.346205698824633 -30.643448894346875 0 -30.643448894346875 -92.554235630241237 0 0 0 0 154.70076144226186 225.20300610705362 0 225.20300610705362 45.785142218654926 0 0 0 0 90.267807651200201 27.872121390580105 0 27.872121390580105 -295.26149022562004 0 0 0 0 56.025252069941416 11.181833018781845 0 11.181833018781845 -287.89361546282453 0 0 0 0 0.33363810705595398 5.1240230119080579 0 5.1240230119080579 -10.060740409213176 0 0 0 0 -57.406311646601353 20.993982615469804 0 20.993982615469804 30.457124231537819 0 0 0 0 280.3903653867601 -107.32605307162979 0 -107.32605307162979 -538.04272647467155 0 0 0 0 -16.398880198965344 27.640516419712185 0 27.640516419712185 29.707343864938593 0 0 0 0 24.213385324406772 49.379509910369819 0 49.379509910369819 7.1579069834506299 0 0 0 0 -2.7299558694176085 61.656701646214856 0 61.656701646214856 3.550857743207871 0 0 0 0 -2.5641164822664244 19.572731356673337 0 19.572731356673337 -12.094387572199937 0 0 0 0 -43.916190758776793 179.22494252292563 0 179.22494252292563 94.823313878323233 0 0 0 0 69.456759946877355 25.402086017431614 0 25.402086017431614 -27.523190166107838 0 0 0 0 4.5655825080674965 -5.0289915280971726 0 -5.0289915280971726 -2.6682466679189218 0 0 0 0 30.52612615729231 62.361975680226351 0 62.361975680226351 -240.89660474954053 0 0 0 0 -224.09462668125343 122.50826512152798 0 122.50826512152798 -47.046852853347445 0 0 0 0 -288.8930578954205 105.49914574742252 0 105.49914574742252 130.76606643923151 0 0 0 0 -98.686509671555541 -70.821618871222654 0 -70.821618871222654 -67.193599938178068 0 0 0 0 -93.565677840036187 171.15828642094039 0 171.15828642094039 -164.6285485648641 0 0 0 0 18.30460062783277 88.18587222322185 0 88.18587222322185 -121.22485977555061 0 0 0 0 -14.373862356591417 50.572315338647059 0 50.572315338647059 -40.096213490451191 0 0 0 0 -6.4736976457846431 7.1343546769216246 0 7.1343546769216246 7.7936230525410011 0 0 0 0 26.361884751080652 68.671045369986132 0 68.671045369986132 -76.475625912931719 0 0 0 0 -67.126250380984857 121.4108463562734 0 121.4108463562734 -89.96058127951801 0 0 0 0 -118.08806737254326 50.093524084767978 0 50.093524084767978 -34.304025981025916 0 0 0 0 19.302267191550847 18.714395458921494 0 18.714395458921494 9.9318791765303587 0 0 0 0 3.475590552771358 41.323938857316485 0 41.323938857316485 4.4631928438981028 0 0 0 0 -157.78907888483445 33.153455945343467 0 33.153455945343467 240.29178918361049 0 0 0 0 16.845709039516805 46.91275440174104 0 46.91275440174104 -21.057018300788428 0 0 0 0 17.387213069669087 18.202760849351762 0 18.202760849351762 92.823775068569375 0 0 0 0 -26.949116637806846 29.383223359819191 0 29.383223359819191 64.835319988942047 0 0 0 0 12.509549219030305 56.479874691187433 0 56.479874691187433 109.71353480157723 0 0 0 0 15.780695155506692 54.850145716084171 0 54.850145716084171 21.918055567547071 0 0 0 0 6.3065485987171996 36.132075337256083 0 36.132075337256083 -1.2248912770228344 0 0 0 0 0.80217201381310588 65.60159547756939 0 65.60159547756939 19.921816991320384 0 0 0 0 -30.490815804985971 34.226264681417653 0 34.226264681417653 74.48030309535784 0 0 0 0 3.6245889876858683 19.231369198012231 0 19.231369198012231 6.0234131873372139 0 0 0 0 3.5081098703614941 34.192931897239404 0 34.192931897239404 24.257239031294333 0 0 0 0 15.059337328561284 19.915384096095082 0 19.915384096095082 16.697794637255438 0 0 0 0 14.933632717958972 18.18989682330357 0 18.18989682330357 56.598176198250144 0 0 0 0 5.271254295023013 45.043815604465721 0 45.043815604465721 -21.735050417046295 0 0 0 0 7.0337312642805045 29.995566230362783 0 29.995566230362783 -20.040399023907412 0 0 0 0 -9.9000666313222609 58.842773789557214 0 58.842773789557214 -16.78382356421821 0 0 0 0 -14.232178201557304 46.449611213294119 0 46.449611213294119 5.0356987632872006 0 0 0 0 -14.27856002014596 47.383961285642215 0 47.383961285642215 29.425932003820094 0 0 0 0 -13.775034472815605 55.403807490655254 0 55.403807490655254 12.999098525213867 0 0 0 0 -10.384104042474064 57.772914577323263 0 57.772914577323263 -8.6139123018223245 0 0 0 0 -0.07372667029267177 61.532554389107645 0 61.532554389107645 -20.725477205330662 0 0 0 0 -6.0746902464992161 34.341093483521554 0 34.341093483521554 18.436389309430698 0 0 0 0 -10.193252659532874 40.641895782837665 0 40.641895782837665 0.34427270799046994 0 0 0 0 71.001926418202856 44.146370935991399 0 44.146370935991399 153.64860928105918 0 0 0 0 -13.709308724483449 35.005798496981669 0 35.005798496981669 10.269250605974532 0 0 0 0 -16.41934577442953 55.498726922402966 0 55.498726922402966 14.752628901215758 0 0 0 0 -17.694435254421023 46.800888271766723 0 46.800888271766723 2.7715259202313973 0 0 0 0 -11.702911040221807 36.803917323186397 0 36.803917323186397 19.25600975242844 0 0 0 0 -139.37740193463105 106.35959093163547 0 106.35959093163547 -58.054407630534115 0 0 0 0 -57.703048789873719 -43.736287461699249 0 -43.736287461699249 228.31837136029208 0 0 0 0 -0.18832932338017372 7.8488422227303758 0 7.8488422227303758 2.2396541311738805 0 0 0 0 -12.41116073653393 43.800995756620068 0 43.800995756620068 15.471593176671149 0 0 0 0 22.002687238327781 46.28212085414134 0 46.28212085414134 103.58521474517693 0 0 0 0 4.3973850534727887 11.803426594416301 0 11.803426594416301 9.5360721118392995 0 0 0 0 -11.213118396051868 13.387965927617188 0 13.387965927617188 118.97565118435159 0 0 0 0 -11.439916922211353 39.270425683970544 0 39.270425683970544 22.547734188198117 0 0 0 0 12.962366702748113 43.721917413129177 0 43.721917413129177 -25.624639070010744 0 0 0 0 22.44181255381045 55.346602514991446 0 55.346602514991446 -14.628419765602303 0 0 0 0 -11.665466247681806 32.708539431593955 0 32.708539431593955 22.001195831466248 0 0 0 0 -9.9499944543841821 38.262895393735036 0 38.262895393735036 -4.6214744951534215 0 0 0 0 -13.808072999301999 37.980843226380891 0 37.980843226380891 3.4020231681479345 0 0 0 0 -8.1680496008239061 47.761430077640739 0 47.761430077640739 3.7848856918158162 0 0 0 0 6.6970169527184682 27.091736443833319 0 27.091736443833319 -15.670465387702855 0 0 0 0 15.023975740085007 50.961013095555245 0 50.961013095555245 -14.077781340446137 0 0 0 0 5.083838031241612 35.377143049055121 0 35.377143049055121 -13.130869767209731 0 0 0 0 12.110642853484023 43.423957064469278 0 43.423957064469278 -4.1374459147014022 0 0 0 0 7.156567492015256 45.270065815512567 0 45.270065815512567 2.5753458401804892 0 0 0 0 13.662050417507999 59.591169942691067 0 59.591169942691067 3.9018335323361839 0 0 0 0 23.778378002320096 54.02196336234465 0 54.02196336234465 6.6433802682408896 0 0 0 0 10.646685654602152 52.779393877182656 0 52.779393877182656 24.436791807752343 0 0 0 0 -9.1469688997292025 34.310831787548736 0 34.310831787548736 16.878334691203229 0 0 0 0 10.00072141460987 59.851059298163591 0 59.851059298163591 5.7028445071341594 0 0 0 0 -11.149097479235934 35.487560550540366 0 35.487560550540366 30.881164374899527 0 0 0 0 -2.8537706890599672 23.726265960056843 0 23.726265960056843 36.614975948167796 0 0 0 0 1.082215775691715 31.916515775529106 0 31.916515775529106 17.660796340549602 0 0 0 0 -10.209887959874322 34.008065157757301 0 34.008065157757301 27.376130043274316 0 0 0 0 -21.696818651070487 37.405344399192018 0 37.405344399192018 68.791744938205738 0 0 0 0 -13.913513785189851 19.914158325808572 0 19.914158325808572 25.734545744452703 0 0 0 0 -12.089145987026768 46.010548385801485 0 46.010548385801485 97.261215303235076 0 0 0 0 -13.543210580092097 20.100872013418261 0 20.100872013418261 30.729769903683611 0 0 0 0 2.5624564641329926 36.498954046703147 0 36.498954046703147 23.410959258479124 0 0 0 0 -5.3436734021433949 31.541726947920324 0 31.541726947920324 23.37678132234214 0 0 0 0 -9.2894200991706057 27.059720884389318 0 27.059720884389318 27.701274254237212 0 0 0 0 -3.5628576359595172 34.735659526373638 0 34.735659526373638 28.742378161961824 0 0 0 0 156.46694999414655 -13.237649195468322 0 -13.237649195468322 27.761938623822061 0 0 0 0 -1.9317778984924416 18.214978946627976 0 18.214978946627976 15.543450627292103 0 0 0 0 0.94754635737626813 30.470023118105019 0 30.470023118105019 7.5059701716527343 0 0 0 0 16.117237150613281 33.412411607506243 0 33.412411607506243 -1.4968428258792752 0 0 0 0 31.121936915862534 8.9754871950899542 0 8.9754871950899542 -67.470448040592601 0 0 0 0 11.964395330380285 47.62765633140225 0 47.62765633140225 454.61485124872343 0 0 0 0 22.601504687000215 6.4391883399403014 0 6.4391883399403014 -44.580410942671733 0 0 0 0 1.5622597800224387 4.0392108725864162 0 4.0392108725864162 -2.5224025845738005 0 0 0 0 14.540348115121134 23.066661184527504 0 23.066661184527504 -3.7892465432232711 0 0 0 0 8.182711500528967 4.9346237456120434 0 4.9346237456120434 -38.726864552729239 0 0 0 0 -14.80294378689025 20.842529775158102 0 20.842529775158102 -10.018001223270275 0 0 0 0 53.244312639973032 34.901477703826458 0 34.901477703826458 -53.848944120545639 0 0 0 0 5.573030347738916 22.307346298291819 0 22.307346298291819 -20.854927078787469 0 0 0 0 -16.749156460406937 7.4257104168929686 0 7.4257104168929686 -37.294990180780587 0 0 0 0 20.674573553857044 31.837064634288254 0 31.837064634288254 3.5617532383294019 0 0 0 0 -17.994212157596348 23.333795442416299 0 23.333795442416299 -2.595448498821483 0 0 0 0 35.276634070338332 63.579658977698273 0 63.579658977698273 -186.26037391089085 0 0 0 0 1.2561013436343131 9.7652022501947755 0 9.7652022501947755 -1.1532234883788561 0 0 0 0 -48.432390353358642 139.9065913816512 0 139.9065913816512 33.806821128752745 0 0 0 0 3.1412383558235888 -1.5769415415443291 0 -1.5769415415443291 -76.831023933485994 0 0 0 0 24.347313269073311 40.369448414739963 0 40.369448414739963 -90.730273517136084 0 0 0 0 29.53720486722159 63.822785314765497 0 63.822785314765497 -40.622707054151533 0 0 0 0 -8.92858937371998 26.798833609056786 0 26.798833609056786 -24.557943905477856 0 0 0 0 -0.56186678399490475 27.207101801724523 0 27.207101801724523 -27.707895971210867 0 0 0 0 -59.265565118079394 133.96688577848181 0 133.96688577848181 153.61484157697396 0 0 0 0 -53.228659054118907 -33.669879707224027 0 -33.669879707224027 112.72057024426249 0 0 0 0 -2.5577912480052873 -70.383091897176882 0 -70.383091897176882 -41.911109724620474 0 0 0 0 119.96278463961789 -32.533200777041202 0 -32.533200777041202 50.468775226338039 0 0 0 0 -8.8376837127580075 -11.323521756865375 0 -11.323521756865375 60.284348744455201 0 0 0 0 124.34197886200855 0.26585353431801195 0 0.26585353431801195 56.095061282627285 0 0 0 0 -194.84773238444177 -110.05166851991999 0 -110.05166851991999 81.410036480006966 0 0 0 0 115.82286685369763 193.2003289393233 0 193.2003289393233 -681.30446343696167 0 0 0 0 -36.777921523069381 264.99318966657665 0 264.99318966657665 -13.996973018532572 0 0 0 0 -3.0561950402143196 6.800984116296771 0 6.800984116296771 0.46278644980507533 0 0 0 0 -180.60795804867666 9.5819054468902323 0 9.5819054468902323 501.80578369812793 0 0 0 0 -65.674913651753741 396.36195234134539 0 396.36195234134539 -365.20942453150928 0 0 0 0 -270.76843426910636 236.84375375576928 0 236.84375375576928 332.71291998257584 0 0 0 0 -45.961956219864078 183.28226342221114 0 183.28226342221114 -113.25031553653116 0 0 0 0 -207.52496532863006 22.097561964565102 0 22.097561964565102 117.74897746547686 0 0 0 0 90.205648509552702 3.2072209225570987 0 3.2072209225570987 -44.389511475330437 0 0 0 0 -117.92648122899118 -50.657827192546392 0 -50.657827192546392 32.985723778376268 0 0 0 0 3.0241535143140936 10.63554734706122 0 10.63554734706122 54.762366360508167 0 0 0 0 -9.8589911975068389 37.997435772616882 0 37.997435772616882 95.72268224524305 0 0 0 0 69.951992275033263 77.125453758537333 0 77.125453758537333 49.746570519851048 0 0 0 0 58.964882764521462 107.86724742291517 0 107.86724742291517 129.297669896343 0 0 0 0 146.92077302311372 21.634550277198286 0 21.634550277198286 97.263375833560531 0 0 0 0 12.262611963335075 -45.318911321654014 0 -45.318911321654014 -415.61206147104167 0 0 0 0 -43.11210718692746 113.72699912828284 0 113.72699912828284 -294.63106608671296 0 0 0 0 42.348009192523023 53.796728667705793 0 53.796728667705793 16.913951631186592 0 0 0 0 -35.690029239582145 71.969383534065855 0 71.969383534065855 36.276507809294344 0 0 0 0 0.90915804559062963 55.555171206012346 0 55.555171206012346 20.907271671549097 0 0 0 0 27.684688802528399 60.722429083773022 0 60.722429083773022 -25.735103351689759 0 0 0 0 -1.4916406649116127 13.450707182726212 0 13.450707182726212 3.5626751227850235 0 0 0 0 -40.615808610482141 55.476027784177752 0 55.476027784177752 30.326715001926296 0 0 0 0 -10.768075758913255 45.969805399289953 0 45.969805399289953 -3.4085738218327606 0 0 0 0 -44.722058479926091 80.228603845866473 0 80.228603845866473 7.3579044583530049 0 0 0 0 -33.137877870707598 85.302897417011991 0 85.302897417011991 9.2905767615857258 0 0 0 0 11.774243904466919 35.880377570872838 0 35.880377570872838 24.141208439777252 0 0 0 0 -28.371215768020193 81.640236064105693 0 81.640236064105693 -9.3859386948251995 0 0 0 0 -56.859443190798629 77.620460198490491 0 77.620460198490491 22.567848493397847 0 0 0 0 21.86353163774902 55.926527373145518 0 55.926527373145518 -5.7124827074148925 0 0 0 0 26.411454827053433 78.279280436215686 0 78.279280436215686 29.01300505297877 0 0 0 0 17.158170007382509 37.937145439107361 0 37.937145439107361 25.63912839850402 0 0 0 0 -22.617342766807269 71.942996890261384 0 71.942996890261384 6.1852966987015634 0 0 0 0 34.736548901549043 46.949225405754532 0 46.949225405754532 4.1388817946349263 0 0 0 0 -1.0700801917212226 21.257428864917909 0 21.257428864917909 -23.312902197653738 0 0 0 0 33.06355662785603 55.85474737153254 0 55.85474737153254 -0.92972532338819747 0 0 0 0 11.979436067828431 49.386401544071163 0 49.386401544071163 22.381752411095249 0 0 0 0 45.884435359497168 51.354322864640082 0 51.354322864640082 5.2579193129422492 0 0 0 0 -12.938885049819907 19.378537599068679 0 19.378537599068679 -8.8289481683914506 0 0 0 0 25.835937928125986 62.523753445196249 0 62.523753445196249 6.9322170284995082 0 0 0 0 51.435132763090678 106.59111180733896 0 106.59111180733896 71.342967131584373 0 0 0 0 -3.8316897948684066 9.319402198497583 0 9.319402198497583 -17.02214862495984 0 0 0 0 33.529800108466816 39.970446679775705 0 39.970446679775705 17.870185328598836 0 0 0 0 45.639139680407538 46.143389339380974 0 46.143389339380974 6.2589106360519509 0 0 0 0 64.671740437243443 39.989895946477191 0 39.989895946477191 7.0977320910315029 0 0 0 0 27.411286158176949 52.303963997442224 0 52.303963997442224 63.94229582830485 0 0 0 0 -4.5090248707111238 11.259769645197073 0 11.259769645197073 4.3475160034668932 0 0 0 0 46.508343796014742 40.990014841374432 0 40.990014841374432 16.240054442289875 0 0 0 0 70.146464851085511 47.03382008452536 0 47.03382008452536 7.193471292303002 0 0 0 0 66.813356074413605 83.760062494104204 0 83.760062494104204 -141.08853244091733 0 0 0 0 31.080692586017676 47.084949294940998 0 47.084949294940998 50.815265072247712 0 0 0 0 54.418330995133147 49.530353440255567 0 49.530353440255567 77.930484040389274 0 0 0 0 19.893069769441674 29.857429500665809 0 29.857429500665809 -16.557328722844236 0 0 0 0 -19.876182252073704 69.90296525047961 0 69.90296525047961 -11.23144341769148 0 0 0 0 -13.949126920748313 -5.7105289373866981 0 -5.7105289373866981 59.361731054286793 0 0 0 0 37.580382184215864 68.070100217318213 0 68.070100217318213 7.5535065059639237 0 0 0 0 -2.4606354609813836 17.304715831245936 0 17.304715831245936 9.8684383495634389 0 0 0 0 -1.1463734634451748 0.50576689695230925 0 0.50576689695230925 1.5673443846390214 0 0 0 0 136.48427852070745 112.98805779540271 0 112.98805779540271 71.812880436765226 0 0 0 0 -2.2734752708356609 39.070465539072757 0 39.070465539072757 322.87771227949997 0 0 0 0 -0.3570296470867671 0.070082841136162699 0 0.070082841136162699 0.14618272238591246 0 0 0 0 23.89789101620795 -20.725162124425879 0 -20.725162124425879 -193.44457931512443 0 0 0 0 -29.557434752563495 17.508708825494978 0 17.508708825494978 -45.314203855283267 0 0 0 0 75.135187742791459 69.130576013332757 0 69.130576013332757 49.320206928470725 0 0 0 0 68.50020279196815 42.602555532281258 0 42.602555532281258 32.351029555598871 0 0 0 0 -97.002329122481569 22.223767578097522 0 22.223767578097522 14.074190071514749 0 0 0 0 -18.643614549034446 50.759030790668049 0 50.759030790668049 44.360867679521661 0 0 0 0 36.601831382734709 28.666682900405217 0 28.666682900405217 -15.022340156418252 0 0 0 0 82.589889637571446 53.993640454946672 0 53.993640454946672 35.341661370897782 0 0 0 0 59.122567797489864 57.987532644401654 0 57.987532644401654 54.416976335820436 0 0 0 0 -60.258067545270023 16.78199054009292 0 16.78199054009292 0.51807081952210865 0 0 0 0 -59.113646669869922 59.181801354568051 0 59.181801354568051 24.855572765080069 0 0 0 0 1.4811965663465969 14.054856028886554 0 14.054856028886554 15.271496151961642 0 0 0 0 -11.79904700647603 6.9537900087689195 0 6.9537900087689195 2.8125583130031373 0 0 0 0 -75.4406532563371 13.86161952612747 0 13.86161952612747 2.7962700681628121 0 0 0 0 5.9020630238228478 176.5792092287702 0 176.5792092287702 117.38105511317372 0 0 0 0 -23.516654707065754 20.428071216718308 0 20.428071216718308 64.592574163069003 0 0 0 0 -13.074553996468103 48.628409946823879 0 48.628409946823879 51.546946252929935 0 0 0 0 -190.38748905195098 13.788437596128006 0 13.788437596128006 147.67786905817775 0 0 0 0 87.039910428040457 63.925127628199334 0 63.925127628199334 49.787939847061352 0 0 0 0 57.628541304888586 79.901191661430857 0 79.901191661430857 157.23146655772143 0 0 0 0 66.018080143723637 61.408968955660384 0 61.408968955660384 55.66397084313212 0 0 0 0 80.801260350634493 57.073155646664418 0 57.073155646664418 56.265060938843817 0 0 0 0 -85.235206751864098 -31.069674887839938 0 -31.069674887839938 171.71839758154965 0 0 0 0 55.113519172804899 72.89975390633299 0 72.89975390633299 154.47176051921997 0 0 0 0 47.335962649022804 -16.990082744847314 0 -16.990082744847314 54.105761850958515 0 0 0 0 -29.386902807702427 44.256140844419861 0 44.256140844419861 -45.191892530063342 0 0 0 0 42.965592780630573 37.513242345420849 0 37.513242345420849 -60.581755920218711 0 0 0 0 57.777718686626031 88.238943171216306 0 88.238943171216306 -46.595489168286804 0 0 0 0 65.114095308969809 72.027344759026164 0 72.027344759026164 -133.94602801062138 0 0 0 0 -41.241330080115404 176.38269067080546 0 176.38269067080546 -2.3121735924651148 0 0 0 0 72.422311985546912 47.898788892034645 0 47.898788892034645 47.247328416549863 0 0 0 0 41.266343143576705 101.96676197918168 0 101.96676197918168 31.345664125175972 0 0 0 0 21.676914104288699 104.07980851922821 0 104.07980851922821 70.462876358871654 0 0 0 0 -74.603463601399653 104.86784206457014 0 104.86784206457014 97.049297121338896 0 0 0 0 3.7128819001604825 137.35132772795441 0 137.35132772795441 9.4074235209918697 0 0 0 0 3.3088882170872012 70.425188576437904 0 70.425188576437904 105.68653764695773 0 0 0 0 15.701684096904899 119.43971641301778 0 119.43971641301778 84.871918606375402 0 0 0 0 -20.397193278296072 40.413041484051064 0 40.413041484051064 104.44406680192515 0 0 0 0 31.754605559166521 88.950773434331495 0 88.950773434331495 53.123675110331988 0 0 0 0 60.269195900211344 134.40103186291344 0 134.40103186291344 60.668977818805843 0 0 0 0 71.186667346188187 132.55403318746403 0 132.55403318746403 42.252379669434958 0 0 0 0 57.552648553039035 120.532756525281 0 120.532756525281 63.252120561659467 0 0 0 0 227.53142396223848 125.67900789917257 0 125.67900789917257 52.758389328392695 0 0 0 0 187.12517687349464 134.37273132347309 0 134.37273132347309 71.689197812505881 0 0 0 0 57.156747881016599 164.3634099779963 0 164.3634099779963 104.67134899912708 0 0 0 0 -15.370573867273768 47.908544115227343 0 47.908544115227343 57.753586915056275 0 0 0 0 -152.07614935738275 91.970077422210579 0 91.970077422210579 145.7998060624177 0 0 0 0 -26.966355319311106 66.292050881546629 0 66.292050881546629 -9.0694380668828671 0 0 0 0 -0.46430119013166404 39.553754174563437 0 39.553754174563437 14.886452346268925 0 0 0 0 -21.554911399480261 34.461747097384432 0 34.461747097384432 18.922203715501382 0 0 0 0 -26.877735130750807 60.747452282215818 0 60.747452282215818 35.331190093456826 0 0 0 0 -26.877735130896326 60.747452282201266 0 60.747452282201266 35.331190093471378 0 0 0 0 17.435221874358831 44.787236973668769 0 44.787236973668769 38.651667332265788 0 0 0 0 -26.877735130838118 60.747452282152153 0 60.747452282152153 35.331190093500481 0 0 0 0 -13.825826803789823 22.321920469963516 0 22.321920469963516 51.074630566501583 0 0 0 0 -36.705296749918489 73.936657075029871 0 73.936657075029871 10.240694149280898 0 0 0 0 -115.31969812872558 49.599726473335977 0 49.599726473335977 125.87538632578253 0 0 0 0 -54.155441022942114 44.163193908532875 0 44.163193908532875 -11.205851907638301 0 0 0 0 -29.681987261156792 65.490980078227039 0 65.490980078227039 3.7941915378760314 0 0 0 0 -20.34476937274485 81.059522149991608 0 81.059522149991608 -19.197277693157957 0 0 0 0 -115.32067930845551 81.892775816198991 0 81.892775816198991 5.1674271068950475 0 0 0 0 638.16789217474434 -219.60108992739697 0 -219.60108992739697 -115.96207399072591 0 0 0 0 -5.6822346401804786 4.7501782188434447 0 4.7501782188434447 -3.429789519899721 0 0 0 0 -110.12781853522245 0.53703642203038271 0 0.53703642203038271 -36.038656254691887 0 0 0 0 -102.55305150262848 63.805317012371233 0 63.805317012371233 67.699380874179042 0 0 0 0 -49.18698378483532 63.503148557734676 0 63.503148557734676 67.129252507795172 0 0 0 0 -46.207848497664948 40.772407002465343 0 40.772407002465343 -21.026970361997556 0 0 0 0 -78.083574619115097 -2.3195614841024508 0 -2.3195614841024508 42.87238756151055 0 0 0 0 -24.557609829083958 27.998174345120788 0 27.998174345120788 -40.095666152847116 0 0 0 0 -13.501680027077189 8.7306535919020636 0 8.7306535919020636 11.483633550659349 0 0 0 0 -64.039782519699656 57.357541653993394 0 57.357541653993394 0.51102064612496179 0 0 0 0 -80.752104354793119 61.102367699029855 0 61.102367699029855 1.8120322222785035 0 0 0 0 59.096254230797967 1205.7967578018197 0 1205.7967578018197 -633.20312781503162 0 0 0 0 -110.32098518951807 38.09670247340182 0 38.09670247340182 28.423281328919984 0 0 0 0 745.19308582120448 434.18145760155312 0 434.18145760155312 -377.33448396196036 0 0 0 0 -3.1790129886019356 2.3969861922157492 0 2.3969861922157492 5.2229637744316904 0 0 0 0 331.27925293639237 -0.94151454216626007 0 -0.94151454216626007 175.48386949628184 0 0 0 0 -60.111840106386808 148.023727103282 0 148.023727103282 337.39592625670775 0 0 0 0 -90.194375887484057 -41.750554195634322 0 -41.750554195634322 264.21005497123042 0 0 0 0 142.46785291360175 312.43458144829492 0 312.43458144829492 28.822008618662949 0 0 0 0 -54.200950774333251 43.742393245439416 0 43.742393245439416 6.5514740496291779 0 0 0 0 -624.8043103889122 302.3598852425348 0 302.3598852425348 42.104034591688105 0 0 0 0 -459.07445452268621 -100.94699859583125 0 -100.94699859583125 -42.710527498056763 0 0 0 0 -100.91158472030111 89.296589863373811 0 89.296589863373811 157.01365156788597 0 0 0 0 -39.833991174503694 -27.880893277452742 0 -27.880893277452742 -399.38333781942492 0 0 0 0 -42.475189279000915 196.54276440377362 0 196.54276440377362 -239.41075255745091 0 0 0 0 -150.51982288353202 178.43932058162136 0 178.43932058162136 51.01069286398706 0 0 0 0 -40.061367130715553 66.506576366780791 0 66.506576366780791 90.753719003065271 0 0 0 0 -66.500318937230531 53.804358642388252 0 53.804358642388252 121.10259586570101 0 0 0 0 17.409501879802065 28.387777130830727 0 28.387777130830727 121.91611710759753 0 0 0 0 126.04333050123842 90.772646605531918 0 90.772646605531918 128.61681942570556 0 0 0 0 -29.474890863218661 68.305686026154945 0 68.305686026154945 128.25373541485169 0 0 0 0 -92.679885716397621 50.072875313606346 0 50.072875313606346 134.61589532531934 0 0 0 0 3.7168979776542983 22.64831780131135 0 22.64831780131135 137.20300481024924 0 0 0 0 -19.339315415625606 24.487654688669863 0 24.487654688669863 123.18455081959291 0 0 0 0 45.549571543498359 109.10267486771318 0 109.10267486771318 175.67029884329895 0 0 0 0 -18.79336306815242 13.398422995506458 0 13.398422995506458 -8.5206715854504296 0 0 0 0 -71.322126712285353 60.747038908756622 0 60.747038908756622 166.13229185016098 0 0 0 0 21.257945888577979 77.912944258752759 0 77.912944258752759 106.59366868294364 0 0 0 0 -128.32873722877321 141.17487910320415 0 141.17487910320415 82.072020402856651 0 0 0 0 19.853494391515596 93.419677442765533 0 93.419677442765533 67.68252325742651 0 0 0 0 9.3462340058326845 169.83907099228418 0 169.83907099228418 157.46640714402383 0 0 0 0 -33.860271262266366 19.737045752404061 0 19.737045752404061 -13.014114336800759 0 0 0 0 -19.770207957512866 58.418138947678926 0 58.418138947678926 62.340112170339125 0 0 0 0 44.98025376287751 36.079028512822333 0 36.079028512822333 -3.5333642267905816 0 0 0 0 40.441853069437911 78.2690597105302 0 78.2690597105302 -99.51938598660854 0 0 0 0 13.397423357951084 149.01082848018086 0 149.01082848018086 -27.755986002437567 0 0 0 0 0.91267455896741012 107.51896399121506 0 107.51896399121506 15.827183956243971 0 0 0 0 -160.11734249799702 264.51867471570677 0 264.51867471570677 -136.45135259848757 0 0 0 0 90.915351961276428 53.616849500611352 0 53.616849500611352 -226.55947849397307 0 0 0 0 -0.59695754909079479 1.3097116291195334 0 1.3097116291195334 -1.461055302022686 0 0 0 0 -280.7426030363381 161.62530575661185 0 161.62530575661185 -11.806277000119735 0 0 0 0 -86.341464598996936 254.7366163659608 0 254.7366163659608 -175.68028783616262 0 0 0 0 2.2132482500769584 168.7277322470818 0 168.7277322470818 -114.7775370849522 0 0 0 0 -49.769004447147836 66.951154525469974 0 66.951154525469974 -168.40685572243819 0 0 0 0 -222.06554635331872 69.532231187848083 0 69.532231187848083 74.435910731110198 0 0 0 0 -59.908052889092914 47.494205209811298 0 47.494205209811298 74.958574352756841 0 0 0 0 114.8121252068654 134.30665416807642 0 134.30665416807642 -98.992935063830373 0 0 0 0 1.5967508714697942 -22.134588944089046 0 -22.134588944089046 148.02604407192848 0 0 0 0 -36.764512306964207 155.03338551506386 0 155.03338551506386 151.01025651748165 0 0 0 0 -37.147869129041283 133.46650231841159 0 133.46650231841159 -96.2433357570917 0 0 0 0 -17.998612219223105 148.00084762450751 0 148.00084762450751 -170.51823212748059 0 0 0 0 -34.438485854905139 67.032703117763958 0 67.032703117763958 -177.02313503850382 0 0 0 0 -36.014490547147943 79.49061359395273 0 79.49061359395273 -143.67495783785398 0 0 0 0 0.14043531128124975 -0.63335860373815933 0 -0.63335860373815933 -0.022960425992471833 0 0 0 0 -16.716255903361798 31.100710487646211 0 31.100710487646211 -57.484404841459764 0 0 0 0 -96.333004324772446 133.65620245672471 0 133.65620245672471 -57.74592894151283 0 0 0 0 -51.637820788446334 157.06607511255061 0 157.06607511255061 -113.6373432026885 0 0 0 0 -12.244015754130487 45.841977453128493 0 45.841977453128493 16.186729612959425 0 0 0 0 47.42392849130556 79.664839909975854 0 79.664839909975854 -35.66848794753605 0 0 0 0 8.4956916079162799 5.9466686777200266 0 5.9466686777200266 -3.4154087264978159 0 0 0 0 -3.3508163419298889 12.762109142777994 0 12.762109142777994 0.6138032811292371 0 0 0 0 239.5722553745486 71.94441723482305 0 71.94441723482305 -183.56850919434714 0 0 0 0 -8.085368210347724 53.729414345692931 0 53.729414345692931 -0.082727213062753435 0 0 0 0 59.888067754212898 17.118851029430516 0 17.118851029430516 -28.416516351655446 0 0 0 0 -26.357046356113642 32.042130659818213 0 32.042130659818213 28.721676254208433 0 0 0 0 -0.39397562866594882 37.751520525440384 0 37.751520525440384 1.241691337875082 0 0 0 0 89.604822658209741 17.176905552012613 0 17.176905552012613 6.7153412660845788 0 0 0 0 -7.8148219501929459 0.58361677013596136 0 0.58361677013596136 4.5681395598845143 0 0 0 0 -46.824013265271788 62.238318518269807 0 62.238318518269807 68.193082677903476 0 0 0 0 102.21578559091722 79.728340318142727 0 79.728340318142727 -100.95219155761879 0 0 0 0 -7.9158292535903456 26.28383725724143 0 26.28383725724143 -10.814815548430488 0 0 0 0 8.6821818811328768 18.688402815988539 0 18.688402815988539 0.2946657583226937 0 0 0 0 36.101478013348469 34.73178945728931 0 34.73178945728931 13.46929127278564 0 0 0 0 -60.992435845793807 106.39254877965504 0 106.39254877965504 22.906581792054567 0 0 0 0 42.96252313008813 39.75505055920712 0 39.75505055920712 -2.9519521531292412 0 0 0 0 84.186247113622017 78.680417255349909 0 78.680417255349909 39.261158108894094 0 0 0 0 279.04718532608069 97.761696276640578 0 97.761696276640578 -252.3715765999732 0 0 0 0 62.486561741128298 95.282426205373497 0 95.282426205373497 70.013382245284447 0 0 0 0 107.00430403059727 103.61156987328377 0 103.61156987328377 -9.6520808546133594 0 0 0 0 71.783352429527511 64.991095874029853 0 64.991095874029853 31.754489851186847 0 0 0 0 63.136515462968418 92.59262959558788 0 92.59262959558788 20.10427685704235 0 0 0 0 81.814900996607321 114.90362711423222 0 114.90362711423222 28.41440017030618 0 0 0 0 66.106814265665889 120.24093829086905 0 120.24093829086905 39.947197093530121 0 0 0 0 45.181469746115908 125.51979383962771 0 125.51979383962771 59.522567706728296 0 0 0 0 -4.4423708785279725 53.998346929708376 0 53.998346929708376 63.784539185102631 0 0 0 0 59.152360890213458 118.32928177259078 0 118.32928177259078 60.092359649375794 0 0 0 0 -32.236477586194724 51.921714422960576 0 51.921714422960576 93.277610343822744 0 0 0 0 -2.0373535984209177 9.8004434396360338 0 9.8004434396360338 7.1983379835189609 0 0 0 0 3.0986663196419819 -1.3828835546820599 0 -1.3828835546820599 -1.2552607673627563 0 0 0 0 31.494115696476001 41.860364391239273 0 41.860364391239273 -43.31285949460289 0 0 0 0 -21.323108389377467 55.286067229837499 0 55.286067229837499 301.09302854935959 0 0 0 0 20.567840838364646 101.34436872082188 0 101.34436872082188 -97.907372432528064 0 0 0 0 -42.380699009167074 85.936401428036334 0 85.936401428036334 -66.946400282344257 0 0 0 0 -35.173729300792161 31.687211909229063 0 31.687211909229063 13.202465465888963 0 0 0 0 -37.688608052249037 97.949925485374479 0 97.949925485374479 -75.265919180261335 0 0 0 0 12.279462681943333 10.561590344737688 0 10.561590344737688 -27.578787982352097 0 0 0 0 -19.520316661128163 70.243099867400815 0 70.243099867400815 -143.60771567468692 0 0 0 0 -97.013849626780029 132.86557750439169 0 132.86557750439169 -99.073511162981845 0 0 0 0 0.17052968905910859 0.94409990435595148 0 0.94409990435595148 0.18674259966213214 0 0 0 0 3.5600755774125901 153.07944127484916 0 153.07944127484916 -417.83745493215247 0 0 0 0 -152.52673815746948 162.41849050462406 0 162.41849050462406 -141.31568333787448 0 0 0 0 -395.60968012029934 83.859334429260343 0 83.859334429260343 2284.5617839096485 0 0 0 0 -406.34792907350356 39.145653497302192 0 39.145653497302192 288.18961855172165 0 0 0 0 -2.2177036477977379 -1.6328283182595182 0 -1.6328283182595182 -5.9645505547837843 0 0 0 0 -179.0813788015239 413.75597033445229 0 413.75597033445229 1863.7960773123996 0 0 0 0 447.40956362390489 558.29828692956198 0 558.29828692956198 330.66188259963383 0 0 0 0 793.14593117223842 1323.0033641220762 0 1323.0033641220762 755.42516274501395 0 0 0 0 1413.1810090820227 844.17438145356391 0 844.17438145356391 -436.34051681520214 0 0 0 0 -35.72911793053018 -232.57947129908098 0 -232.57947129908098 -487.75108425063809 0 0 0 0 913.47797258867081 -5.8064679335184337 0 -5.8064679335184337 -892.34652402005668 0 0 0 0 -130.24015419546959 226.75180143094803 0 226.75180143094803 -31.037940801150398 0 0 0 0 349.38508374370031 293.77257792880118 0 293.77257792880118 -332.42174184200803 0 0 0 0 80.628765304521494 293.55715836140735 0 293.55715836140735 -331.52963438622828 0 0 0 0 -236.77942818877997 388.28265246936326 0 388.28265246936326 510.47807562566595 0 0 0 0 -167.42144638690388 108.89574071656534 0 108.89574071656534 613.00521000811568 0 0 0 0 -248.68153918017242 204.55292697021832 0 204.55292697021832 591.09984130038356 0 0 0 0 -162.81496612722913 134.83139472429684 0 134.83139472429684 374.15047067916021 0 0 0 0 -177.2853146210382 165.80352424405282 0 165.80352424405282 308.16844129723177 0 0 0 0 -162.58884872890485 104.69923700905565 0 104.69923700905565 86.57522629952291 0 0 0 0 -84.704182728924934 54.968542595543113 0 54.968542595543113 118.08775027339652 0 0 0 0 -55.982069083777787 25.417380875736853 0 25.417380875736853 95.135091848336742 0 0 0 0 -19.245315122348984 84.487227231936231 0 84.487227231936231 61.801841575179424 0 0 0 0 18.181914763026725 39.43094274748546 0 39.43094274748546 13.620963716122787 0 0 0 0 29.507572715993042 36.574951356062058 0 36.574951356062058 16.449719160399255 0 0 0 0 23.528159043748019 123.80498450688174 0 123.80498450688174 -0.84431922737348941 0 0 0 0 12.576970828686324 17.407402804086828 0 17.407402804086828 16.000947202250799 0 0 0 0 43.791101184378931 184.10064443001829 0 184.10064443001829 -389.91901159188274 0 0 0 0 -211.05533320819927 513.02404266029134 0 513.02404266029134 66.509407190911588 0 0 0 0 -69.622237452156696 352.47228374897531 0 352.47228374897531 1202.2571952451908 0 0 0 0 3.5323200486616244 -4.1086312967428178 0 -4.1086312967428178 5.5724288207212709 0 0 0 0 -82.266316184097377 684.19451385247521 0 684.19451385247521 789.31503823348612 0 0 0 0 30.015654673190845 17.087593676326506 0 17.087593676326506 18.325103533080139 0 0 0 0 -418.28147835318487 -336.52110217972768 0 -336.52110217972768 -72.34682388267538 0 0 0 0 15.38956139422006 -8.2819243015021513 0 -8.2819243015021513 11.871252273443616 0 0 0 0 -77.004509066657192 3.6876095997940865 0 3.6876095997940865 57.274697260998437 0 0 0 0 40.875978379473963 17.61836766966735 0 17.61836766966735 58.645814851341129 0 0 0 0 11.113692632177155 17.598818785325296 0 17.598818785325296 32.313033459770089 0 0 0 0 11.128155615522701 17.639948622643715 0 17.639948622643715 11.457804174435296 0 0 0 0 27.271826023941685 37.04809021951678 0 37.04809021951678 36.021655645456121 0 0 0 0 18.98976257084751 27.859742216396725 0 27.859742216396725 25.194240805341344 0 0 0 0 7.5821608985331892 33.220184012318285 0 33.220184012318285 35.106025219501063 0 0 0 0 -4.8517551883917918 14.768484833869024 0 14.768484833869024 1.3334883330340723 0 0 0 0 17.637984162276553 41.679120764478739 0 41.679120764478739 44.620212276904567 0 0 0 0 28.871547510862001 47.875232196957768 0 47.875232196957768 43.992577407114368 0 0 0 0 26.302123879417195 36.869578308939708 0 36.869578308939708 36.546971814931567 0 0 0 0 19.562326115005675 23.317476813330131 0 23.317476813330131 20.681230559286782 0 0 0 0 38.531669509342464 27.96341981436035 0 27.96341981436035 19.051333749401238 0 0 0 0 22.680675301949123 39.093662420595933 0 39.093662420595933 19.31484347278456 0 0 0 0 26.60119519424552 33.539567276944126 0 33.539567276944126 26.371574616428916 0 0 0 0 20.688364993147843 32.053067634719127 0 32.053067634719127 26.046289856796648 0 0 0 0 26.288440188151981 40.376612140278212 0 40.376612140278212 24.896720178583564 0 0 0 0 37.127930061860297 40.213387021929009 0 40.213387021929009 23.94916042843397 0 0 0 0 -3.5117504566753155 8.0824955391661817 0 8.0824955391661817 -1.9823525589153945 0 0 0 0 -35.86327036574221 105.68364419066438 0 105.68364419066438 -24.531831458949455 0 0 0 0 -56.495398367129383 72.710327170926575 0 72.710327170926575 -28.142697484248288 0 0 0 0 -119.23812726542383 61.813191039877893 0 61.813191039877893 51.592461639815156 0 0 0 0 14.678032602449093 22.583835861906664 0 22.583835861906664 43.888959420224637 0 0 0 0 -34.153707909150398 54.460348086733575 0 54.460348086733575 28.883375888919545 0 0 0 0 65.872327809793205 46.153446739428091 0 46.153446739428091 3.5636822134993054 0 0 0 0 16.902949214800174 44.330649062834709 0 44.330649062834709 37.078852782817194 0 0 0 0 26.805195220790331 26.580757271908642 0 26.580757271908642 -2.395435502930269 0 0 0 0 38.012700331094493 -5.8231033959352771 0 -5.8231033959352771 -106.27259122273335 0 0 0 0 1.4181725015105044 2.3399303019249444 0 2.3399303019249444 0.11811527277208711 0 0 0 0 333.78524407308578 74.250856773011037 0 74.250856773011037 -68.185921073545614 0 0 0 0 155.66807994314149 49.899200973321967 0 49.899200973321967 2.2215908575149115 0 0 0 0 107.04464355300661 139.3979399977452 0 139.3979399977452 25.515738651811262 0 0 0 0 10.295620528020663 163.92918728370751 0 163.92918728370751 28.088229979379321 0 0 0 0 550.87678495547152 111.60486360201321 0 111.60486360201321 -299.64628571093999 0 0 0 0 135.88477732109823 193.95133004949912 0 193.95133004949912 286.38624414534115 0 0 0 0 70.074085442549404 289.94928109582679 0 289.94928109582679 -188.50637690787335 0 0 0 0 -0.21618911641519389 1.7303654321113235 0 1.7303654321113235 -0.22671367053829883 0 0 0 0 245.32605524340033 231.30548671081579 0 231.30548671081579 139.343512366906 0 0 0 0 186.4268200607039 146.99255532223833 0 146.99255532223833 110.26441279445407 0 0 0 0 229.41120973156649 149.13312428697463 0 149.13312428697463 82.430646225089731 0 0 0 0 213.1812890001529 151.02755024262115 0 151.02755024262115 99.525711049212077 0 0 0 0 227.68968487320672 -101.03089783399537 0 -101.03089783399537 171.46790721416983 0 0 0 0 276.21225474278617 116.42741773000125 0 116.42741773000125 102.43157737333331 0 0 0 0 212.4928558939755 144.34824238681074 0 144.34824238681074 127.1064308453133 0 0 0 0 40.594653416475012 -57.484936508261796 0 -57.484936508261796 159.44898533087871 0 0 0 0 -129.86571561986784 -107.37704960654628 0 -107.37704960654628 -165.7149659607494 0 0 0 0 61.065005166979972 101.66592106685493 0 101.66592106685493 198.42961182426188 0 0 0 0 31.943287385594886 34.271040711070782 0 34.271040711070782 -131.76851591530067 0 0 0 0 -2.9396741184847173 3.1414798865720108 0 3.1414798865720108 -0.40113239924182986 0 0 0 0 6.4652772791305324 -32.723722154660209 0 -32.723722154660209 142.68321719734172 0 0 0 0 114.22295463819682 -98.909614826894995 0 -98.909614826894995 -97.873803760714509 0 0 0 0 -2.0555167194770263 1.7042970794119157 0 1.7042970794119157 -2.1701782936593155 0 0 0 0 -19.151409751669235 61.242306570088374 0 61.242306570088374 107.0307118441433 0 0 0 0 -117.60421811871493 79.423170706433666 0 79.423170706433666 131.39830745889412 0 0 0 0 -26.229588987495163 -31.944236867356551 0 -31.944236867356551 159.6742843735974 0 0 0 0 -143.60822448712861 147.61638440187744 0 147.61638440187744 81.194150153907685 0 0 0 0 -6.4066036934018484 -24.28425629987305 0 -24.28425629987305 178.90134456214946 0 0 0 0 -6.4149532858355087 -18.754890803641501 0 -18.754890803641501 143.54171659597432 0 0 0 0 -144.45178279513493 24.955050894004671 0 24.955050894004671 226.94508337771367 0 0 0 0 -136.36469085845056 88.729119725179544 0 88.729119725179544 150.59320884812769 0 0 0 0 -98.853530798745851 -33.320188155245887 0 -33.320188155245887 271.72870898881592 0 0 0 0 -167.00409599534396 166.96366114955254 0 166.96366114955254 124.76136115993086 0 0 0 0 -442.95764009726918 308.53055279896898 0 308.53055279896898 96.256866404813991 0 0 0 0 -188.11472697755016 91.772213871069198 0 91.772213871069198 233.55100690600739 0 0 0 0 -541.41350322451763 282.73325099535759 0 282.73325099535759 200.52076897553343 0 0 0 0 -239.58269194397872 167.01853845328242 0 167.01853845328242 60.314859857666278 0 0 0 0 -244.05797193139642 128.19743822490693 0 128.19743822490693 409.30760512867619 0 0 0 0 514.77537480488172 184.7488584740895 0 184.7488584740895 -151.80051850976406 0 0 0 0 4.0961857914785966 3.2128370038952312 0 3.2128370038952312 5.4295945106057495 0 0 0 0 -33.934347495111069 -7.312737483348883 0 -7.312737483348883 189.66643373740681 0 0 0 0 105.89629375233199 235.28156504920389 0 235.28156504920389 286.67278495787241 0 0 0 0 591.76516478168924 141.4421585821774 0 141.4421585821774 82.479528352547277 0 0 0 0 206.18456316147785 -210.5030932460013 0 -210.5030932460013 367.34024015055184 0 0 0 0 -252.79758818379196 382.60913106953967 0 382.60913106953967 -50.228427680352979 0 0 0 0 -265.66534945496824 376.74308164051763 0 376.74308164051763 -3.889896221681056 0 0 0 0 -113.03705240950512 266.04108735711634 0 266.04108735711634 -89.189357137425759 0 0 0 0 -132.58394796679204 297.90001343946642 0 297.90001343946642 -23.628712744517088 0 0 0 0 -106.80442243898324 334.60439812360028 0 334.60439812360028 2.5848337262395944 0 0 0 0 -239.03801514143561 366.12378565395738 0 366.12378565395738 -36.994985045812427 0 0 0 0 -227.35887726015426 396.90186453227193 0 396.90186453227193 -74.70049399317395 0 0 0 0 -290.5768209871967 355.93375908451617 0 355.93375908451617 45.666979716942478 0 0 0 0 -463.45309690472777 512.18906456107732 0 512.18906456107732 -37.863781229627421 0 0 0 0 -366.90524100257608 431.90716325907033 0 431.90716325907033 -25.114525334135124 0 0 0 0 -231.65363482563407 367.31447813414798 0 367.31447813414798 -47.022837641854949 0 0 0 0 -365.29753457976767 437.69368058289183 0 437.69368058289183 -7.1640325060434407 0 0 0 0 -371.15941594654942 532.52223450420615 0 532.52223450420615 -205.20035819280747 0 0 0 0 -61.984227307539413 308.38118280241463 0 308.38118280241463 -554.07525674495446 0 0 0 0 -302.06399685811266 289.72066917919619 0 289.72066917919619 23.974766797158736 0 0 0 0 -96.117863417646731 164.35816647331558 0 164.35816647331558 -23.506826963459844 0 0 0 0 -27.462717331298336 61.222639231588801 0 61.222639231588801 58.464873366344364 0 0 0 0 -6.3135340537899651 3.7020329717739031 0 3.7020329717739031 -0.37616992165796459 0 0 0 0 -475.70974144211505 236.80427111469544 0 236.80427111469544 1.5857005101561299 0 0 0 0 -102.43953606687137 85.913820650474008 0 85.913820650474008 125.35619391560977 0 0 0 0 296.8046105983085 333.18735671707918 0 333.18735671707918 -229.77077366343656 0 0 0 0 -3.6349248772861102 1.9764218600322145 0 1.9764218600322145 -0.27779331828901643 0 0 0 0 -197.46195104336948 68.580453251541257 0 68.580453251541257 445.54099839936953 0 0 0 0 353.91662593361434 -86.55557016231603 0 -86.55557016231603 61.592881955837584 0 0 0 0 -433.37448891238455 357.09875864068636 0 357.09875864068636 132.03337674223712 0 0 0 0 -325.82477040260346 488.56825277472581 0 488.56825277472581 -155.55958449422496 0 0 0 0 -509.88655568186732 410.32258787961382 0 410.32258787961382 -10.173235443153317 0 0 0 0 -194.65258710494709 248.29864363404158 0 248.29864363404158 -252.89217579420165 0 0 0 0 -37.706682629217539 416.42515123471685 0 416.42515123471685 -118.00116104464939 0 0 0 0 56.850500334465323 328.05242450326841 0 328.05242450326841 -330.28367262170468 0 0 0 0 -2.6594860219556722 215.23512081185345 0 215.23512081185345 -344.31102114929854 0 0 0 0 25.258869543824403 27.502041778962848 0 27.502041778962848 -364.19952515772161 0 0 0 0 -2.1564707113652304 1.808656353768022 0 1.808656353768022 -1.367147730743639 0 0 0 0 -84.984429488606111 171.5430250436666 0 171.5430250436666 91.600445691222376 0 0 0 0 2.1174305579806969 582.68115152647442 0 582.68115152647442 -74.359055598642954 0 0 0 0 156.42918334737624 434.91160716865852 0 434.91160716865852 66.699462433489316 0 0 0 0 -200.41970989379115 273.32842075926965 0 273.32842075926965 -3.4939819348473975 0 0 0 0 91.879614891709934 181.35522721032976 0 181.35522721032976 -42.70910070550417 0 0 0 0 11.053278219711501 90.667233354462951 0 90.667233354462951 -62.012826568862693 0 0 0 0 35.28395843259932 127.24682101101826 0 127.24682101101826 -9.6218735504967299 0 0 0 0 -14.281555845136609 207.82585309774095 0 207.82585309774095 -140.15489949813491 0 0 0 0 32.742721441245521 -14.01727851715259 0 -14.01727851715259 -161.49898815008521 0 0 0 0 38.922966635815101 45.846201615817336 0 45.846201615817336 -0.88549007911569788 0 0 0 0 -7.094591020454871 4.6064227446232877 0 4.6064227446232877 -4.0620504720522206 0 0 0 0 11.850641498647747 29.760460035409778 0 29.760460035409778 32.858428190024824 0 0 0 0 21.644463241980702 57.957382300014615 0 57.957382300014615 3.6380484448955031 0 0 0 0 -6.9838323311560089 70.645224670530297 0 70.645224670530297 -1.9644119122567645 0 0 0 0 -1.0825215274621769 19.758837999485763 0 19.758837999485763 81.237456768802076 0 0 0 0 122.64621245369926 -51.220115095153233 0 -51.220115095153233 76.839914342297561 0 0 0 0 60.626490251313953 34.12432578420885 0 34.12432578420885 59.882557641278254 0 0 0 0 12.717964872915786 8.5091331948193787 0 8.5091331948193787 6.4616231242552153 0 0 0 0 -17.779966524327392 15.673875147858325 0 15.673875147858325 89.149133896080457 0 0 0 0 511.13720255657609 28.764648685178145 0 28.764648685178145 -123.10766995270114 0 0 0 0 1153.8860223641386 327.49314969673287 0 327.49314969673287 584.99441054804629 0 0 0 0 38.869053314902828 22.209697604905084 0 22.209697604905084 8.8374974187227124 0 0 0 0 -16.509595983858162 111.20783893796579 0 111.20783893796579 -11.709563789336698 0 0 0 0 -66.761868069435877 88.772924907505512 0 88.772924907505512 57.98335334858848 0 0 0 0 -202.65955708266119 -154.77846473183672 0 -154.77846473183672 906.58778891186921 0 0 0 0 379.2412831370284 568.04533340603621 0 568.04533340603621 144.07407267511553 0 0 0 0 246.11648370896728 246.10306286837022 0 246.10306286837022 76.96858499343216 0 0 0 0 271.19053075196643 234.23763073947157 0 234.23763073947157 77.171066465879449 0 0 0 0 815.37895918705181 673.41957984534292 0 673.41957984534292 336.89652615960586 0 0 0 0 121.71468625634225 414.76589200789931 0 414.76589200789931 687.04101728062051 0 0 0 0 202.68461295103828 227.98210619479823 0 227.98210619479823 385.70913535279033 0 0 0 0 200.56358640586308 141.26319760206064 0 141.26319760206064 1637.5485088038622 0 0 0 0 1401.9440965774156 -152.54232607718768 0 -152.54232607718768 176.45500169916522 0 0 0 0 311.09105086611817 196.36300251806142 0 196.36300251806142 75.564147619079449 0 0 0 0 579.14106353217903 3.3448876849583939 0 3.3448876849583939 -100.61222289813304 0 0 0 0 245.93186528192564 -131.08109790602475 0 -131.08109790602475 390.3652511744458 0 0 0 0 314.50892957545511 110.02566251109511 0 110.02566251109511 -107.03063858809764 0 0 0 0 309.37702192948564 137.93862588977663 0 137.93862588977663 -157.58005367059741 0 0 0 0 280.95762092969926 270.22033086212809 0 270.22033086212809 -364.56192890554121 0 0 0 0 374.63428786939039 115.20942455171826 0 115.20942455171826 -259.89890862110406 0 0 0 0 279.17319082690119 310.84622566692497 0 310.84622566692497 16.237101102467932 0 0 0 0 362.23678277471481 253.53753703973234 0 253.53753703973234 -263.92292848199492 0 0 0 0 282.09491955508929 173.51662694781862 0 173.51662694781862 -251.078394770866 0 0 0 0 27.776239024113451 33.639530031309938 0 33.639530031309938 28.610097625987287 0 0 0 0 -9.0683242292288924 199.99369415830733 0 199.99369415830733 -225.12871770417587 0 0 0 0 116.43457327887154 130.03913341644693 0 130.03913341644693 -120.70418198485822 0 0 0 0 177.45616465808416 136.86765924683277 0 136.86765924683277 -172.61423760044363 0 0 0 0 212.77199604055932 116.05855956090682 0 116.05855956090682 -160.7212382575126 0 0 0 0 301.3664797375277 238.94000355527805 0 238.94000355527805 -95.038128451516968 0 0 0 0 83.27157968341136 46.621102455190353 0 46.621102455190353 5.3774899742662434 0 0 0 0 209.84317701931286 6.5150263219275075 0 6.5150263219275075 -204.55203227551556 0 0 0 0 -108.91885869741964 328.97581098707815 0 328.97581098707815 -178.60964836416315 0 0 0 0 38.555698551994588 18.390876927994938 0 18.390876927994938 -7.622602335318625 0 0 0 0 4.061117645491322 358.66274397296729 0 358.66274397296729 -276.99085682529221 0 0 0 0 62.698940559501352 -21.945918764801718 0 -21.945918764801718 -22.16840274837341 0 0 0 0 254.12024455411301 -105.74796046726169 0 -105.74796046726169 -19.118038192140375 0 0 0 0 505.0260837175847 -87.197570512051243 0 -87.197570512051243 -53.384215964906616 0 0 0 0 185.97642203475334 -74.245111944625023 0 -74.245111944625023 72.057888023118721 0 0 0 0 245.70200543007377 48.001699074253338 0 48.001699074253338 -204.53540130013516 0 0 0 0 -2.0835210164672127 4.1270677308808246 0 4.1270677308808246 13.536911105769718 0 0 0 0 -646.95329382416458 908.96330100144405 0 908.96330100144405 -68.774730086191994 0 0 0 0 -971.54792710088077 -432.44627954348107 0 -432.44627954348107 2497.9997378160606 0 0 0 0 -284.79135714999575 -255.58324244871073 0 -255.58324244871073 -176.60984927463505 0 0 0 0 294.81151776642764 881.59212630574393 0 881.59212630574393 1832.3145335527588 0 0 0 0 0.75234270892538291 2.5667103320213549 0 2.5667103320213549 7.7881643135370808 0 0 0 0 1148.7490760045948 429.79847101004998 0 429.79847101004998 353.19006732384514 0 0 0 0 -1369.0785914163498 12.004663744000936 0 12.004663744000936 1656.1273376130594 0 0 0 0 443.70271648864946 977.56766876232905 0 977.56766876232905 1182.1146249260091 0 0 0 0 108.29914851396097 455.1273643966706 0 455.1273643966706 1041.1783295960558 0 0 0 0 26.077540125636006 195.16116972718555 0 195.16116972718555 1094.0000464143741 0 0 0 0 290.45907369699125 293.18198067475169 0 293.18198067475169 700.72489190601846 0 0 0 0 294.95327303283921 340.15607790479226 0 340.15607790479226 586.09855959897686 0 0 0 0 43.799072853397774 190.25187077942201 0 190.25187077942201 742.72956662775323 0 0 0 0 36.714884583816456 220.86299114200847 0 220.86299114200847 668.89062786600152 0 0 0 0 178.57889342993803 100.16326414122705 0 100.16326414122705 103.45938058409774 0 0 0 0 582.09790901746192 337.02687025017894 0 337.02687025017894 386.80715265242179 0 0 0 0 379.6425687816627 58.559842438704436 0 58.559842438704436 32.630438238626994 0 0 0 0 206.09476695706689 249.29611357035446 0 249.29611357035446 557.34342117781489 0 0 0 0 -107.39285423951333 -328.19581403793381 0 -328.19581403793381 374.31593763544151 0 0 0 0 -68.135936084544483 -357.41396501785403 0 -357.41396501785403 127.16320192927742 0 0 0 0 -226.45814038250137 -132.45222331835703 0 -132.45222331835703 179.3722353525518 0 0 0 0 -6.2629601605199241 802.44638866587843 0 802.44638866587843 1405.769271258072 0 0 0 0 -117.1913079921851 -248.71989506110549 0 -248.71989506110549 -62.267652836764682 0 0 0 0 7.5912895882754086 -2.0750031920207803 0 -2.0750031920207803 -0.054454721706491682 0 0 0 0 223.80065033987557 189.91675044792282 0 189.91675044792282 663.34713323393953 0 0 0 0 128.47367070031214 -113.14852021997467 0 -113.14852021997467 -266.95920982743519 0 0 0 0 -552.10894968786124 -23.541031187478438 0 -23.541031187478438 1132.2160536430938 0 0 0 0 250.86547563066188 723.01447016385919 0 723.01447016385919 385.04366354930971 0 0 0 0 -17.485542159183751 124.50310787215494 0 124.50310787215494 7.7961534015776124 0 0 0 0 32.061194296894676 35.813341551069108 0 35.813341551069108 38.228876224931767 0 0 0 0 54.208016729273368 14.067560130369202 0 14.067560130369202 -5.4174664465972455 0 0 0 0 4.4491265840858887 89.831343237070087 0 89.831343237070087 38.690272317297058 0 0 0 0 67.802418328743443 401.22757567940425 0 401.22757567940425 -334.43083736248684 0 0 0 0 60.911193596891422 50.429650670319027 0 50.429650670319027 34.480229046199113 0 0 0 0 -19.363566869753413 207.93403132860112 0 207.93403132860112 -18.700556177274848 0 0 0 0 41.813315667063677 42.567046495562757 0 42.567046495562757 25.182171837632787 0 0 0 0 -81.108905506014707 -20.004861331024586 0 -20.004861331024586 180.96589249812678 0 0 0 0 213.22249820470824 51.334900534991903 0 51.334900534991903 -246.29700181401131 0 0 0 0 201.18995516937139 83.959611322798082 0 83.959611322798082 32.11517657625518 0 0 0 0 201.85481290129928 18.576726969111519 0 18.576726969111519 -90.931353805961407 0 0 0 0 182.74937952486903 239.4212044500897 0 239.4212044500897 24.448642034836666 0 0 0 0 -3.7184606966511637 79.31068598546608 0 79.31068598546608 -106.11521687149798 0 0 0 0 206.37648139176054 -35.159753208750772 0 -35.159753208750772 -14.785779900710622 0 0 0 0 67.840217856645637 44.87213898677814 0 44.87213898677814 16.653148153154277 0 0 0 0 205.94549285911307 141.39461805598512 0 141.39461805598512 -362.35120669971366 0 0 0 0 71.446590518638459 72.995957623534196 0 72.995957623534196 -36.969280576300662 0 0 0 0 94.016621242313704 176.9749175047491 0 176.9749175047491 -157.99674080234763 0 0 0 0 69.54993343579919 58.731137185227908 0 58.731137185227908 27.720869786134088 0 0 0 0 67.588936205297941 53.451327716575364 0 53.451327716575364 31.420628064625333 0 0 0 0 147.89897422552485 94.644013663204532 0 94.644013663204532 31.642673678157735 0 0 0 0 82.499395208486817 34.519185601391655 0 34.519185601391655 0.87609008229628671 0 0 0 0 -25.797152254024695 171.64689994516084 0 171.64689994516084 -88.062311822963238 0 0 0 0 157.08109772157695 34.562462456295179 0 34.562462456295179 -11.249554379581241 0 0 0 0 -102.09803724725134 390.29549336651144 0 390.29549336651144 288.77207221116987 0 0 0 0 -4.3075619125476692 0.54879723718596551 0 0.54879723718596551 0.39302443682511523 0 0 0 0 -29.082959441198909 -65.358527187418076 0 -65.358527187418076 -1809.3802345652657 0 0 0 0 -42.100926841922046 -47.234788367473811 0 -47.234788367473811 -546.27752324233006 0 0 0 0 94.340694818174597 121.63972939730866 0 121.63972939730866 -855.71327454283892 0 0 0 0 0.26226485717123182 13.785395407297855 0 13.785395407297855 4.3533117516714981 0 0 0 0 1.994448659439513 -73.815837995993206 0 -73.815837995993206 -565.48667206945902 0 0 0 0 -169.00099352723191 245.68871551944176 0 245.68871551944176 -239.34953120625096 0 0 0 0 -109.8742996033252 348.96630739832108 0 348.96630739832108 -600.52380713110324 0 0 0 0 -20.098117169110992 187.64482933843101 0 187.64482933843101 -596.48234258669982 0 0 0 0 -191.60269245679592 390.17605340428418 0 390.17605340428418 -394.00004633679418 0 0 0 0 80.377710680435484 62.932619801707915 0 62.932619801707915 -266.38727530692995 0 0 0 0 74.767280109999774 155.2598669438521 0 155.2598669438521 -324.49807222630625 0 0 0 0 76.091125146763716 480.56541614872549 0 480.56541614872549 -1199.6573910436418 0 0 0 0 -245.72034556393737 783.31426260949229 0 783.31426260949229 -653.46062411111052 0 0 0 0 18.232208305867971 300.32537031135871 0 300.32537031135871 -1189.8512326645287 0 0 0 0 -69.142866276302811 340.03541661660711 0 340.03541661660711 -856.06258025127772 0 0 0 0 54.243440256534086 338.4904989388051 0 338.4904989388051 -857.32290039912186 0 0 0 0 -19.205959714276105 110.49243232120716 0 110.49243232120716 224.9801138703624 0 0 0 0 23.745018797879311 203.13879685398933 0 203.13879685398933 421.52515949411463 0 0 0 0 -30.74950514939701 438.43439204731112 0 438.43439204731112 -1179.8675542394631 0 0 0 0 9.5590255826761776 10.477102420657374 0 10.477102420657374 4.69007613360818 0 0 0 0 -238.55553214001702 286.67159232470294 0 286.67159232470294 -1164.3195163384262 0 0 0 0 -21.317157818368287 174.88708643300197 0 174.88708643300197 550.31333275976795 0 0 0 0 20.697638130306586 223.37797558913007 0 223.37797558913007 350.05854257662577 0 0 0 0 182.4995545875754 411.64410902242525 0 411.64410902242525 318.89473783040194 0 0 0 0 -24.4893789345806 657.41734031877422 0 657.41734031877422 445.12260493075883 0 0 0 0 53.939330368080846 961.26627069061942 0 961.26627069061942 -532.60582687686474 0 0 0 0 3.7238712250182289 3.0364826946714771 0 3.0364826946714771 0.9326094710602888 0 0 0 0 -58.437492857017787 636.06946637190413 0 636.06946637190413 -1468.9438953660137 0 0 0 0 -423.93047868171561 538.15631930885502 0 538.15631930885502 -1312.6550153928692 0 0 0 0 -106.57511499213524 222.8832864406013 0 222.8832864406013 1532.8583825931782 0 0 0 0 241.47834397484621 645.11415851792844 0 645.11415851792844 609.52149812424614 0 0 0 0 96.562870340832887 372.73735915198631 0 372.73735915198631 401.84564415423938 0 0 0 0 57.547997505906096 436.92262726978515 0 436.92262726978515 296.53082493139664 0 0 0 0 102.25119171000551 435.15004947476882 0 435.15004947476882 196.55909933753719 0 0 0 0 93.957257577169003 733.52748953136688 0 733.52748953136688 -72.384337260184111 0 0 0 0 214.13754110432637 553.70947738764517 0 553.70947738764517 192.59305464865361 0 0 0 0 111.52503851750225 380.76303852599085 0 380.76303852599085 -129.63543170673256 0 0 0 0 174.11740856239521 -40.416767978993448 0 -40.416767978993448 -221.79910552327055 0 0 0 0 9.6072727724421725 5.2794682815057357 0 5.2794682815057357 -0.3287650058299505 0 0 0 0 984.40495876225032 399.442453134885 0 399.442453134885 139.19081874721451 0 0 0 0 548.31385336334642 410.99126432040794 0 410.99126432040794 -6.5176413061672065 0 0 0 0 452.23238329667583 405.7345387246969 0 405.7345387246969 39.716115178263863 0 0 0 0 236.91194603599615 560.88668827844594 0 560.88668827844594 38.653914552327478 0 0 0 0 60.872105083897623 238.95856860582353 0 238.95856860582353 127.08200814556039 0 0 0 0 171.19194050453643 298.11108122565383 0 298.11108122565383 3.1072042009327561 0 0 0 0 -15.651241159310302 64.990967496549274 0 64.990967496549274 -23.042811775952941 0 0 0 0 136.75199405660169 73.031605569205567 0 73.031605569205567 -29.001107562231482 0 0 0 0 87.970984765277535 70.615257770601602 0 70.615257770601602 -29.120153931886307 0 0 0 0 -4.8041035770965514 32.51957038047999 0 32.51957038047999 -41.351259780428961 0 0 0 0 0.4352494744307478 85.282499261622434 0 85.282499261622434 25.05182308908843 0 0 0 0 83.710555240254962 111.37114197808478 0 111.37114197808478 22.016410150517913 0 0 0 0 -0.78822545736636584 95.858571173328983 0 95.858571173328983 14.867826792091364 0 0 0 0 38.190782799410954 177.79894448642153 0 177.79894448642153 30.352343759894211 0 0 0 0 25.102510867952951 50.890333098186368 0 50.890333098186368 7.9386617681918494 0 0 0 0 -41.441771039112211 34.68231197675469 0 34.68231197675469 -16.172315849034675 0 0 0 0 17.185808165333583 66.19280230334698 0 66.19280230334698 3.038505630893269 0 0 0 0 -60.487243811126064 289.98235446500439 0 289.98235446500439 528.81754540622933 0 0 0 0 103.37872788062668 556.35493931085512 0 556.35493931085512 500.29461664180053 0 0 0 0 42.559388383495389 1333.6365031849855 0 1333.6365031849855 889.31673367631447 0 0 0 0 39.278594853354662 -14.751821942747483 0 -14.751821942747483 1432.1411728918465 0 0 0 0 65.686810940840587 83.609573648278456 0 83.609573648278456 31.942683406734432 0 0 0 0 14.932623189659239 93.53694903852363 0 93.53694903852363 42.300631239369977 0 0 0 0 215.70729335299984 108.95825563440394 0 108.95825563440394 -250.91862905081325 0 0 0 0 164.27130002226309 109.60463995412083 0 109.60463995412083 13.214976966717312 0 0 0 0 -27.743396254890559 50.107758611112047 0 50.107758611112047 11.322000964437819 0 0 0 0 197.66351489508861 324.65703100759947 0 324.65703100759947 63.89765066223481 0 0 0 0 183.94154547737472 101.50071218311058 0 101.50071218311058 10.751330770072656 0 0 0 0 313.06668314286799 99.474702042549325 0 99.474702042549325 -282.22696080969035 0 0 0 0 208.06865963371456 802.90449583616282 0 802.90449583616282 -517.65205014016828 0 0 0 0 391.57352193334737 149.75322664462146 0 149.75322664462146 -549.64848059001088 0 0 0 0 144.59449237310764 172.8321807825123 0 172.8321807825123 50.04495034654974 0 0 0 0 331.23303194074106 172.50589083688101 0 172.50589083688101 -345.5799272081349 0 0 0 0 76.297409068004086 39.406196823087043 0 39.406196823087043 -39.418482270418082 0 0 0 0 407.56575557639007 56.835241615845007 0 56.835241615845007 -393.5930034109042 0 0 0 0 1468.4342450555705 -376.71749145429931 0 -376.71749145429931 -593.38379887871997 0 0 0 0 -87.192262419564941 803.58247286646292 0 803.58247286646292 -895.84783702268032 0 0 0 0 276.17914114630184 -99.27597473539754 0 -99.27597473539754 -324.74775837457855 0 0 0 0 301.92489835058223 -131.75120614761545 0 -131.75120614761545 -284.27331800926186 0 0 0 0 82.34727745018472 78.589092171427183 0 78.589092171427183 28.25774536434983 0 0 0 0 89.284536452519333 38.000323078293732 0 38.000323078293732 -13.550423478203385 0 0 0 0 -362.78924692919827 -157.9610924514709 0 -157.9610924514709 -285.03122387635995 0 0 0 0 18.131320720282801 -2.6665121415001636 0 -2.6665121415001636 -20.667752242410927 0 0 0 0 -45.590950998710468 365.20556241495069 0 365.20556241495069 -36.066596577773453 0 0 0 0 349.66891378611581 -43.34875086946704 0 -43.34875086946704 -444.11167621945788 0 0 0 0 381.76800731229741 -205.1272833400144 0 -205.1272833400144 257.7308693479863 0 0 0 0 -222.38751157989464 -80.242556014214642 0 -80.242556014214642 -366.13348474956001 0 0 0 0 13.598477769901365 -96.470168066000042 0 -96.470168066000042 -548.72202356296475 0 0 0 0 143.36881534539953 366.12809936915983 0 366.12809936915983 -136.04099699488143 0 0 0 0 278.10851291177823 625.76863389720529 0 625.76863389720529 99.421196136623621 0 0 0 0 216.10887071165052 179.49139272208413 0 179.49139272208413 56.034285965637537 0 0 0 0 889.8808275482952 779.78390805095842 0 779.78390805095842 266.35288099493482 0 0 0 0 532.8791982118928 276.49134214884543 0 276.49134214884543 253.89504161968694 0 0 0 0 -5.4239289498537104 7.5319607365792933 0 7.5319607365792933 5.8131581710313753 0 0 0 0 1609.1392148762097 550.35281142620079 0 550.35281142620079 171.36562606083316 0 0 0 0 667.8545585655811 -669.20574880538334 0 -669.20574880538334 1085.3120926097035 0 0 0 0 910.1232413317739 861.70673200432793 0 861.70673200432793 1156.7336185376043 0 0 0 0 658.21064129148726 -230.74391356929846 0 -230.74391356929846 -318.25465328190558 0 0 0 0 393.9065325774136 406.81581198045751 0 406.81581198045751 261.23068476858316 0 0 0 0 -293.83987470631655 169.40168505727252 0 169.40168505727252 -33.114016063103918 0 0 0 0 8.8270042293234265 7.586567807628839 0 7.586567807628839 -7.5794729686061828 0 0 0 0 -178.38150900915389 160.44147063857235 0 160.44147063857235 -127.41456676831876 0 0 0 0 -246.74879631427848 59.907840239236975 0 59.907840239236975 -24.782489128236193 0 0 0 0 -97.061493751589296 152.43184730595385 0 152.43184730595385 -69.248389788379427 0 0 0 0 -59.112810841925238 90.298477648175322 0 90.298477648175322 -89.835486092066276 0 0 0 0 1210.3530850527286 -25.96964692185793 0 -25.96964692185793 -577.54571763789863 0 0 0 0 69.734676135480186 97.050343395896562 0 97.050343395896562 156.79559499945753 0 0 0 0 -101.30615315586419 -413.93350626993561 0 -413.93350626993561 -668.59407343745079 0 0 0 0 672.62905308563927 1004.6961483897785 0 1004.6961483897785 -2460.7109496484591 0 0 0 0 -11.878210707951634 21.521181455270909 0 21.521181455270909 -3.9745303892091215 0 0 0 0 -130.89702177624076 109.0786239665249 0 109.0786239665249 -17.190048146543631 0 0 0 0 340.0650570089108 601.5306003539481 0 601.5306003539481 436.50785584270488 0 0 0 0 -47.583678998898904 46.255830391372001 0 46.255830391372001 -79.257613372785272 0 0 0 0 1832.4462944478751 1059.1318178165311 0 1059.1318178165311 -777.89645887044026 0 0 0 0 -406.51700702781329 -165.75497220779653 0 -165.75497220779653 564.72701531123312 0 0 0 0 -32.771504163955285 51.673932341305822 0 51.673932341305822 -19.702410399734077 0 0 0 0 -138.4401873416773 85.157941517220024 0 85.157941517220024 7.5937775500351563 0 0 0 0 339.49944023026023 414.44735865922848 0 414.44735865922848 -91.067071704572299 0 0 0 0 -31.663544955834361 43.14712176953531 0 43.14712176953531 -3.6698246947064632 0 0 0 0 -22.533360029428877 56.987566196210537 0 56.987566196210537 -33.803736688227218 0 0 0 0 52.924390275904443 127.38779622571019 0 127.38779622571019 16.332742596930984 0 0 0 0 -247.21742150317095 -133.400916955713 0 -133.400916955713 112.05101272550382 0 0 0 0 -67.994985911662297 179.01958180121437 0 179.01958180121437 1209.3649647604325 0 0 0 0 -404.18795348342928 675.33840691986552 0 675.33840691986552 2896.9009931637229 0 0 0 0 129.55885744932675 -235.39304892094151 0 -235.39304892094151 1290.8572132996496 0 0 0 0 9.0693778955141333 4.9844584520595703 0 4.9844584520595703 1.214523975450966 0 0 0 0 -27.077006405548218 182.34615608351305 0 182.34615608351305 1172.5321913370899 0 0 0 0 286.69892443593881 -6.3607499414865742 0 -6.3607499414865742 818.24122525439998 0 0 0 0 130.08249184653141 386.08125298028426 0 386.08125298028426 606.07250806711818 0 0 0 0 122.89731445770576 219.4598286207347 0 219.4598286207347 191.36538322226147 0 0 0 0 -50.436854771320213 11.967966574922684 0 11.967966574922684 312.83251644722623 0 0 0 0 -58.334236984835115 193.74444280789248 0 193.74444280789248 663.91668344864229 0 0 0 0 55.390630516676538 68.843816191410951 0 68.843816191410951 671.15955897434833 0 0 0 0 73.130702598904463 413.49087952429181 0 413.49087952429181 -1812.0877638347401 0 0 0 0 19.786365265947481 19.589924907424283 0 19.589924907424283 5.1326311989609117 0 0 0 0 -312.24158799619158 721.9743574206243 0 721.9743574206243 -509.20219564758736 0 0 0 0 527.72184181875673 251.0436067717601 0 251.0436067717601 -630.90259939284078 0 0 0 0 -160.92847891880501 530.85999809533769 0 530.85999809533769 -464.32970539159578 0 0 0 0 -64.674582636188461 360.873534946777 0 360.873534946777 -533.46191636698495 0 0 0 0 24.911375354758796 27.37820976154903 0 27.37820976154903 7.6455875341270527 0 0 0 0 -24.948021853719183 417.54419077366401 0 417.54419077366401 -1063.5840393357794 0 0 0 0 -40.235160846078543 111.92834723463238 0 111.92834723463238 664.96043308070875 0 0 0 0 -24.615144393049377 229.54372010218867 0 229.54372010218867 645.75693538775886 0 0 0 0 -7.379606765221979 196.92117872740346 0 196.92117872740346 551.07170379074159 0 0 0 0 -74.461658469646864 170.72791105179749 0 170.72791105179749 634.65711855066979 0 0 0 0 -224.19002767712163 293.87698762283799 0 293.87698762283799 636.22898954792618 0 0 0 0 -129.33135600861033 419.54526034082846 0 419.54526034082846 305.82662552769762 0 0 0 0 30.192970195402268 78.150510954044876 0 78.150510954044876 289.71448522901483 0 0 0 0 331.68527441306264 37.106518441305468 0 37.106518441305468 -48.370270154617174 0 0 0 0 320.83567086139465 449.93033244202525 0 449.93033244202525 -84.927716050558956 0 0 0 0 10.694650574574897 12.753450258042442 0 12.753450258042442 15.821999226710403 0 0 0 0 614.49390970763966 46.155755100992337 0 46.155755100992337 -54.499024463948444 0 0 0 0 784.45880334399681 453.31226831379536 0 453.31226831379536 -89.192754034957034 0 0 0 0 -85.588036363643369 -497.05752693132308 0 -497.05752693132308 462.82807777006383 0 0 0 0 -108.08265636277793 -585.85385925894298 0 -585.85385925894298 1569.9778195111621 0 0 0 0 -217.84933801860586 -212.00780596219283 0 -212.00780596219283 895.81749770643364 0 0 0 0 -55.286004340700856 28.707071052391257 0 28.707071052391257 73.090309322720714 0 0 0 0 64.421651007783566 22.334211153707656 0 22.334211153707656 54.791302883328171 0 0 0 0 -22.933521820482383 28.637460807680327 0 28.637460807680327 120.15616789745582 0 0 0 0 99.567319669888093 94.787051525523566 0 94.787051525523566 202.91922056876138 0 0 0 0 28.55945093990357 31.974376276316725 0 31.974376276316725 9.426077647999449 0 0 0 0 13.148811944780391 303.72036021262466 0 303.72036021262466 -499.84776970175153 0 0 0 0 -77.801254984620755 358.35202535967619 0 358.35202535967619 -515.21416627754479 0 0 0 0 -64.781477771401114 80.620180900124979 0 80.620180900124979 -282.77680116173724 0 0 0 0 -173.17111909241703 182.40540381474966 0 182.40540381474966 5.5202769930074282 0 0 0 0 35.027891738784263 31.450184420367648 0 31.450184420367648 7.8939324918516292 0 0 0 0 -479.80343187459948 314.69735470743763 0 314.69735470743763 -605.5382016954286 0 0 0 0 -209.25453012705111 331.18569420488348 0 331.18569420488348 -326.10484387431643 0 0 0 0 -125.32373853534955 277.61797716582805 0 277.61797716582805 -607.6917515128298 0 0 0 0 -75.215684273951638 389.25420846305769 0 389.25420846305769 -675.70367605818319 0 0 0 0 -228.46389255831309 405.73778749258054 0 405.73778749258054 -447.6232885339632 0 0 0 0 -270.39277907869837 553.54604033026408 0 553.54604033026408 -732.36779062385176 0 0 0 0 99.417771328384333 150.63368412393902 0 150.63368412393902 -1267.6927470786322 0 0 0 0 25.7509466973288 -6.7904182355377998 0 -6.7904182355377998 -28.116998538360349 0 0 0 0 2.7010460115328598 -2.2069491061633073 0 -2.2069491061633073 -6.259334564785469 0 0 0 0 -43.64490951926291 239.01380902316669 0 239.01380902316669 -570.3684455452385 0 0 0 0 15.098810261750813 15.078986486491488 0 15.078986486491488 0.56015929216983551 0 0 0 0 -105.9653343208447 192.11359041028481 0 192.11359041028481 -958.45898254512576 0 0 0 0 -52.987553642358762 449.09926926256594 0 449.09926926256594 -993.48093080495892 0 0 0 0 -395.80835568030307 528.60101822007709 0 528.60101822007709 -647.91835408115003 0 0 0 0 -0.070458746752464663 3.3255314603661787 0 3.3255314603661787 1.9801880839530384 0 0 0 0 88.825764460721985 42.373583453874744 0 42.373583453874744 26.82599924007809 0 0 0 0 54.927137132912321 83.618954584948369 0 83.618954584948369 -5.5648004594258964 0 0 0 0 66.062577752756624 98.01557526695251 0 98.01557526695251 65.119746820128057 0 0 0 0 142.34629499899165 169.63584781035024 0 169.63584781035024 81.828205575031461 0 0 0 0 104.95204036211726 92.927006593505212 0 92.927006593505212 -18.973589345478103 0 0 0 0 0.73663662845137878 21.165672955343325 0 21.165672955343325 54.950744955218397 0 0 0 0 343.09385208147432 222.31489915697603 0 222.31489915697603 76.57507194552818 0 0 0 0 16.991350312503982 -24.525183880280565 0 -24.525183880280565 -41.970543297167751 0 0 0 0 7.2784843442235712 12.539638256530417 0 12.539638256530417 -24.079865322720309 0 0 0 0 5.8954809334554739 50.793357188806112 0 50.793357188806112 -19.444687144623458 0 0 0 0 30.100437973451335 -8.4798031270329375 0 -8.4798031270329375 -57.559941303414234 0 0 0 0 10.721348772669444 -15.179283435078105 0 -15.179283435078105 -61.396340828454413 0 0 0 0 8.6793996544296661 11.462668310177364 0 11.462668310177364 -26.812441625541112 0 0 0 0 -161.21882039463162 -94.042477773673454 0 -94.042477773673454 -66.960899619701195 0 0 0 0 -342.93916784605608 38.705378527967696 0 38.705378527967696 -26.948247265585451 0 0 0 0 5.792192244749117 53.420193941298294 0 53.420193941298294 -71.387206882223836 0 0 0 0 6.1949530168777507 2.1760798268972081 0 2.1760798268972081 -10.224571636035847 0 0 0 0 29.708454465706382 -2.3527429011228378 0 -2.3527429011228378 -111.46992335818868 0 0 0 0 -335.16447311768388 35.915053361553873 0 35.915053361553873 11.382545766089606 0 0 0 0 0.61857234013240259 -1.2675783866080366 0 -1.2675783866080366 -0.66694497305225298 0 0 0 0 -57.42034340542159 308.23009890698813 0 308.23009890698813 -642.89303459023358 0 0 0 0 -75.602625158020601 389.21691101525357 0 389.21691101525357 -541.29829523141234 0 0 0 0 -145.24677651146567 235.44291739157325 0 235.44291739157325 -270.10585545504728 0 0 0 0 -236.06066931139776 289.36762441848805 0 289.36762441848805 -37.634968163692974 0 0 0 0 -114.51629134245013 381.60919779134565 0 381.60919779134565 -539.90620113823206 0 0 0 0 256.98631033151651 335.61954230297852 0 335.61954230297852 -87.820395736402133 0 0 0 0 177.51191867141733 257.96510088129435 0 257.96510088129435 227.5959647494019 0 0 0 0 655.96897257961609 54.685864510480314 0 54.685864510480314 154.35007491806755 0 0 0 0 907.4029207315325 328.73972315007268 0 328.73972315007268 169.51288404664956 0 0 0 0 612.1035607412432 118.36596540657774 0 118.36596540657774 465.09945307843736 0 0 0 0 1023.9660617630434 470.3498466678866 0 470.3498466678866 267.93770327645325 0 0 0 0 220.82765294004275 274.50058294753035 0 274.50058294753035 286.46553353081981 0 0 0 0 349.66746111652174 -11.741976620149217 0 -11.741976620149217 188.29645796829936 0 0 0 0 -229.75947837728472 229.58401304636391 0 229.58401304636391 115.25632255195524 0 0 0 0 51.409547652736364 58.41584290254832 0 58.41584290254832 65.40422372613466 0 0 0 0 -165.19915348405084 -250.53359270023066 0 -250.53359270023066 109.04403868231748 0 0 0 0 60.561999215806281 -46.175721951840387 0 -46.175721951840387 -104.82206808711271 0 0 0 0 -340.74514561293336 -93.301662764725393 0 -93.301662764725393 96.173054184851935 0 0 0 0 93.586702514452554 -83.248864933513687 0 -83.248864933513687 -1.1239240060094744 0 0 0 0 76.927938678594728 -221.01297428103862 0 -221.01297428103862 9.2638530060066842 0 0 0 0 -39.992936928342715 -122.89449769676685 0 -122.89449769676685 -54.042505317076575 0 0 0 0 -58.598061910262913 -177.97139506389067 0 -177.97139506389067 -44.990541662635223 0 0 0 0 224.07974602692775 -85.598951655505516 0 -85.598951655505516 -94.854775327624793 0 0 0 0 246.14536197386224 -127.40736363319229 0 -127.40736363319229 -21.33585510753619 0 0 0 0 496.35813038777633 -85.403627954765398 0 -85.403627954765398 -27.291893595509464 0 0 0 0 675.393275163211 26.231912433158868 0 26.231912433158868 236.14549044368323 0 0 0 0 148.87650480702086 -184.95898270809994 0 -184.95898270809994 183.27849561427138 0 0 0 0 373.21431348430633 -76.98326417592034 0 -76.98326417592034 109.48260722108535 0 0 0 0 57.646339093532674 -3.1021424985424346 0 -3.1021424985424346 378.21989386799396 0 0 0 0 493.84361986074691 223.2091149016851 0 223.2091149016851 486.30654941989633 0 0 0 0 434.32342032975976 -217.91529266110956 0 -217.91529266110956 432.1592999490822 0 0 0 0 816.24297745882359 512.19318643688166 0 512.19318643688166 1220.1755628631436 0 0 0 0 897.08620351721402 -315.15737504955177 0 -315.15737504955177 761.85747776292555 0 0 0 0 1320.2017926744502 214.02007474726997 0 214.02007474726997 161.83137245746912 0 0 0 0 630.23195553315963 598.73233180106399 0 598.73233180106399 551.94499757401354 0 0 0 0 526.860983752842 206.67848767664691 0 206.67848767664691 163.68593753276127 0 0 0 0 596.88545162113405 389.57695741929274 0 389.57695741929274 147.08636396733345 0 0 0 0 528.22476762548104 -160.14308309975604 0 -160.14308309975604 132.48758506938248 0 0 0 0 373.65070994476264 68.860051745112287 0 68.860051745112287 -41.222487764414836 0 0 0 0 722.09563286993489 140.18309195152688 0 140.18309195152688 -26.78712091158377 0 0 0 0 465.44625109857498 144.12533799132143 0 144.12533799132143 -113.76256730784371 0 0 0 0 328.58761317725111 278.07134200885412 0 278.07134200885412 32.325281176395947 0 0 0 0 475.45652694201272 5.1948675018538779 0 5.1948675018538779 -130.11978458428348 0 0 0 0 147.27302218845944 217.08718331503042 0 217.08718331503042 -24.665219105327196 0 0 0 0 170.99763180543414 264.23176722916105 0 264.23176722916105 67.686654233402805 0 0 0 0 294.3505302778176 220.17048360582703 0 220.17048360582703 -65.503320122413697 0 0 0 0 284.37221086801219 231.63507525528985 0 231.63507525528985 68.040252578830405 0 0 0 0 286.44527110467243 300.18341205286561 0 300.18341205286561 78.35525351139222 0 0 0 0 74.954832490673653 232.34192386742143 0 232.34192386742143 249.16094842478924 0 0 0 0 156.33246455297194 286.48800969496369 0 286.48800969496369 395.29638603844796 0 0 0 0 166.99600912330607 246.87241078712395 0 246.87241078712395 238.29494439626433 0 0 0 0 -16.642609172198718 154.13446968152857 0 154.13446968152857 405.64675744732813 0 0 0 0 -13.154601482790895 35.392228922864888 0 35.392228922864888 -28.732870372386969 0 0 0 0 -3.791267249067694 14.889283493484527 0 14.889283493484527 4.0549931709100093 0 0 0 0 50.951246610728958 40.491203913579739 0 40.491203913579739 -31.18169502314413 0 0 0 0 22.781110038817133 -93.526653883178369 0 -93.526653883178369 185.98866424132575 0 0 0 0 1004.6338378827495 -223.80178224878182 0 -223.80178224878182 53.163602963584708 0 0 0 0 4.7855142645060518 6.1582105030647796 0 6.1582105030647796 0.050877830857672279 0 0 0 0 2.4234302447512164 161.61605592371052 0 161.61605592371052 691.65900384127417 0 0 0 0 -232.05007767633379 683.17858031142168 0 683.17858031142168 -214.55927017543218 0 0 0 0 1442.4532052256686 536.84842519631911 0 536.84842519631911 -801.54377986758482 0 0 0 0 1445.0156668581221 606.61306029629486 0 606.61306029629486 287.59879563431605 0 0 0 0 1169.5604217642904 316.67985297591076 0 316.67985297591076 -13.48279154355987 0 0 0 0 978.56222055154285 171.55517223564675 0 171.55517223564675 2.9618820240430068 0 0 0 0 -1.3285270143732255 3.3051357679555338 0 3.3051357679555338 -0.89325901717138478 0 0 0 0 1055.6537045746795 -347.97991183946215 0 -347.97991183946215 44.743404317741806 0 0 0 0 3.7193802006548529 3.6096398791262629 0 3.6096398791262629 -4.6133721214886805 0 0 0 0 1844.398697615944 -149.83089762448799 0 -149.83089762448799 -243.1832889803336 0 0 0 0 -401.05247356126802 353.47977034283758 0 353.47977034283758 -152.44880750817629 0 0 0 0 -260.9105367522759 44.990102006978304 0 44.990102006978304 -80.729054623116099 0 0 0 0 -49.981585196026572 91.919231220905203 0 91.919231220905203 -151.32579437985441 0 0 0 0 17.807782525170065 5.4204716913404241 0 5.4204716913404241 -10.493623319608446 0 0 0 0 2.8242626185651005 1.044089914815828 0 1.044089914815828 -1.2916240383639064 0 0 0 0 211.03895557548458 -138.50194736083358 0 -138.50194736083358 -440.7471846195549 0 0 0 0 163.50324956480836 29.80394003688707 0 29.80394003688707 -131.13069195015123 0 0 0 0 100.3949336118676 -152.22470677879028 0 -152.22470677879028 -236.81648544229392 0 0 0 0 21.865144673818577 106.97010258949376 0 106.97010258949376 -31.85203429601097 0 0 0 0 131.58095480584598 155.05098931776593 0 155.05098931776593 -213.20786189095816 0 0 0 0 179.01782487986566 91.906776065326994 0 91.906776065326994 52.42925283756631 0 0 0 0 28.682709633372724 273.09679413241247 0 273.09679413241247 413.40050615582732 0 0 0 0 104.13638968596933 123.05321509299392 0 123.05321509299392 -96.210991454361647 0 0 0 0 86.510615021786634 56.445044902613517 0 56.445044902613517 -194.96523010272358 0 0 0 0 134.22073706973606 187.6646291821271 0 187.6646291821271 -112.52008960876265 0 0 0 0 195.17602492179867 154.31543018552475 0 154.31543018552475 -171.94226202371647 0 0 0 0 203.51364593942708 216.98570717506664 0 216.98570717506664 -65.613326843881168 0 0 0 0 132.98348166307551 245.0202875324976 0 245.0202875324976 -26.24816931010173 0 0 0 0 207.88681207264563 209.73328355601552 0 209.73328355601552 -109.28142851505254 0 0 0 0 316.39958029845729 42.823583299454185 0 42.823583299454185 -196.77325818422833 0 0 0 0 217.65572584683468 -23.198266358645924 0 -23.198266358645924 -127.99968645226954 0 0 0 0 289.59784673992181 158.81066431633735 0 158.81066431633735 -159.67027943150606 0 0 0 0 245.09750773072301 129.61404808355292 0 129.61404808355292 -109.41007100593743 0 0 0 0 153.04753665799217 115.09400541598734 0 115.09400541598734 -167.79174511650126 0 0 0 0 125.89701975321259 30.136032772847102 0 30.136032772847102 -186.17250955456984 0 0 0 0 58.231958517746534 63.460549436567817 0 63.460549436567817 -228.64517350290043 0 0 0 0 145.78361023835987 50.553210854697681 0 50.553210854697681 -301.32404141750158 0 0 0 0 57.55726671078412 30.096968538565832 0 30.096968538565832 -16.407604191332339 0 0 0 0 21.497583223592756 -76.176519591451324 0 -76.176519591451324 -250.82084899500478 0 0 0 0 208.4137865824614 72.718517047989735 0 72.718517047989735 -239.22589195135515 0 0 0 0 51.192138173828383 28.527497695662021 0 28.527497695662021 -25.434399873256638 0 0 0 0 102.04478015831592 -89.498132867058303 0 -89.498132867058303 -356.50686218491319 0 0 0 0 50.738110667996807 20.510585828160401 0 20.510585828160401 232.1320655617601 0 0 0 0 -24.338997073966311 98.975874343683245 0 98.975874343683245 591.23442507037544 0 0 0 0 6.6603961163166332 6.6437623831029313 0 6.6437623831029313 7.6836251654684702 0 0 0 0 0.30555896513760672 -33.484627784855547 0 -33.484627784855547 -268.62833424519704 0 0 0 0 99.995545114865308 -67.219572370519018 0 -67.219572370519018 -187.86006172158523 0 0 0 0 182.38949294325357 -18.046953934921476 0 -18.046953934921476 -252.92605702995547 0 0 0 0 -16.48952632644432 -125.55840839529992 0 -125.55840839529992 -150.1600886301012 0 0 0 0 119.06643568358686 -82.693079582972132 0 -82.693079582972132 -250.42179012538691 0 0 0 0 124.53653773099359 -143.78988405380369 0 -143.78988405380369 -97.845498927761582 0 0 0 0 103.29222861335074 -109.63557514092099 0 -109.63557514092099 -152.70635983048123 0 0 0 0 250.1866214826041 -44.059908322178671 0 -44.059908322178671 -193.20533106623043 0 0 0 0 -159.67746828395502 -131.80347693582007 0 -131.80347693582007 -54.327404614370607 0 0 0 0 17.290143652861843 -162.58372268736639 0 -162.58372268736639 -193.24763592099043 0 0 0 0 -57.01134307634311 -105.07490926528772 0 -105.07490926528772 -164.58856167168415 0 0 0 0 25.326588106825511 -191.45609738779604 0 -191.45609738779604 -75.092640040122205 0 0 0 0 7.0643950302473968 -2.1783438620477682 0 -2.1783438620477682 -71.45754097029203 0 0 0 0 80.90334668529249 297.27645271277288 0 297.27645271277288 490.63414637604001 0 0 0 0 6.4633592957892603 -3.993642192200781 0 -3.993642192200781 -9.5864287362590517 0 0 0 0 -74.24271255177382 -153.38051283325422 0 -153.38051283325422 -190.19962761624629 0 0 0 0 6.7614596451728062 2.336678921868355 0 2.336678921868355 -3.3590765601610002 0 0 0 0 205.45512938904722 101.02248114573013 0 101.02248114573013 147.03030371808563 0 0 0 0 31.805786790892704 16.260114883008399 0 16.260114883008399 -41.719808143523494 0 0 0 0 93.236663422721904 22.165892861361499 0 22.165892861361499 321.48260231237873 0 0 0 0 -87.461318961752113 13.346818933147006 0 13.346818933147006 160.33268093752849 0 0 0 0 -18.9894898168277 57.86081005516462 0 57.86081005516462 120.89246968453517 0 0 0 0 3.2738489357507206 36.235894940022263 0 36.235894940022263 70.724283580238989 0 0 0 0 4.7483967023836158 101.58543849303533 0 101.58543849303533 166.43018014999689 0 0 0 0 14.736950130289188 213.79478942165588 0 213.79478942165588 192.84676170148305 0 0 0 0 72.601161282436806 189.97015945060411 0 189.97015945060411 123.6827252115545 0 0 0 0 101.31371495629719 222.26704746487667 0 222.26704746487667 112.95061612087011 0 0 0 0 114.16941091784975 149.04220324617927 0 149.04220324617927 -42.93604181673436 0 0 0 0 58.671108165763144 148.27814470991143 0 148.27814470991143 38.185894345195265 0 0 0 0 28.050730001770717 113.72991636400548 0 113.72991636400548 62.821627920726314 0 0 0 0 35.882604004073073 101.43885255650093 0 101.43885255650093 55.581308468797943 0 0 0 0 31.958204448659671 91.737994114417234 0 91.737994114417234 67.648746899503749 0 0 0 0 27.011000138678355 110.37340689136181 0 110.37340689136181 83.270910768100293 0 0 0 0 59.596014851755172 206.25005712693019 0 206.25005712693019 246.75489992907387 0 0 0 0 124.71546401215892 -9.828569856545073 0 -9.828569856545073 -237.35956948561943 0 0 0 0 52.73607927847479 237.53400053878431 0 237.53400053878431 272.25469081888514 0 0 0 0 6.697584043719047 2.0686850498054952 0 2.0686850498054952 -2.6877317980840871 0 0 0 0 -35.233615887569613 5.1451555507519515 0 5.1451555507519515 -43.225602593243821 0 0 0 0 60.815472253023472 84.591034574797959 0 84.591034574797959 -103.31558265569765 0 0 0 0 -36.660544845253753 69.207944886074984 0 69.207944886074984 53.274230256676674 0 0 0 0 212.96733767027763 243.15500096580581 0 243.15500096580581 -13.762706354886177 0 0 0 0 130.14887629051009 125.91291575197465 0 125.91291575197465 -78.20421755676216 0 0 0 0 224.74749140031054 362.68380642770353 0 362.68380642770353 108.99033014458109 0 0 0 0 150.20574993640548 279.61101125206551 0 279.61101125206551 37.247711697214982 0 0 0 0 194.68950750834483 457.89539217689162 0 457.89539217689162 219.10342012085312 0 0 0 0 149.144639631264 350.56564727529985 0 350.56564727529985 217.38016444371897 0 0 0 0 103.87238955281464 255.10970647229988 0 255.10970647229988 69.512518611474661 0 0 0 0 131.57636403531797 487.48693112234469 0 487.48693112234469 293.75885162988561 0 0 0 0 108.94174240409484 391.77657464746153 0 391.77657464746153 175.84900401985215 0 0 0 0 141.83637845975682 470.65294728280423 0 470.65294728280423 321.27685155943618 0 0 0 0 227.93155966509585 504.39591802536233 0 504.39591802536233 129.9022773430479 0 0 0 0 275.51700435880048 578.79498380799487 0 578.79498380799487 243.45486467039154 0 0 0 0 234.02390996328904 618.26236035433249 0 618.26236035433249 361.73522653909458 0 0 0 0 212.56053819320005 592.00408848040388 0 592.00408848040388 341.93408704658941 0 0 0 0 -21.644747223609173 245.06287844196248 0 245.06287844196248 1115.7646153142923 0 0 0 0 377.72511919290628 932.38020872984089 0 932.38020872984089 972.22178626267851 0 0 0 0 -19.893844491060008 94.510619005341141 0 94.510619005341141 315.18413751281332 0 0 0 0 -40.175663858230109 239.74266200496641 0 239.74266200496641 627.4137050046993 0 0 0 0 -52.151360192223365 141.49069186345787 0 141.49069186345787 388.36457786170649 0 0 0 0 -18.51870113122277 435.48080379626481 0 435.48080379626481 700.43222207881627 0 0 0 0 188.7954927334431 593.67029936150357 0 593.67029936150357 476.64548921998357 0 0 0 0 19.717649798780258 375.24596352326262 0 375.24596352326262 461.61630668022553 0 0 0 0 -25.366855205706088 306.08056391490391 0 306.08056391490391 355.65487816764653 0 0 0 0 35.508725690222491 268.69439053329916 0 268.69439053329916 296.12720017190441 0 0 0 0 -81.842215688346187 110.6502026639937 0 110.6502026639937 255.93131238563365 0 0 0 0 -31.357140226275078 191.884257727972 0 191.884257727972 257.43290067047928 0 0 0 0 -53.708100091462256 112.36039935651934 0 112.36039935651934 236.30977560818428 0 0 0 0 22.091414920287207 -31.036939154328138 0 -31.036939154328138 -92.65100754397281 0 0 0 0 200.10286155279027 574.42101414303761 0 574.42101414303761 79.250958658485615 0 0 0 0 -153.21471540551283 40.428812812431715 0 40.428812812431715 205.19440625172138 0 0 0 0 1.4747711018249134 -0.13041780768669753 0 -0.13041780768669753 0.20212163854127851 0 0 0 0 -289.49509254611712 -175.45355539157754 0 -175.45355539157754 750.8993250495987 0 0 0 0 -172.94125789046666 151.29318619612604 0 151.29318619612604 269.30155420027586 0 0 0 0 18.809261512258672 212.07850231915654 0 212.07850231915654 203.00800512892602 0 0 0 0 32.028951008323929 -12.649603106663562 0 -12.649603106663562 -77.315147023968166 0 0 0 0 22.304269747510261 0.090123006586509291 0 0.090123006586509291 -53.336085295391968 0 0 0 0 -2.5964551946744905 -26.68781421827407 0 -26.68781421827407 -67.820426512596896 0 0 0 0 29.313132262096737 8.0466587559068827 0 8.0466587559068827 -44.735505894924529 0 0 0 0 11.345311048011354 58.844316843104025 0 58.844316843104025 25.189359520962171 0 0 0 0 159.65140584509572 326.73016786344488 0 326.73016786344488 35.258786642982159 0 0 0 0 18.88539919505439 20.643632311949844 0 20.643632311949844 4.5391194713254492 0 0 0 0 10.76858006482999 2.1864454244542912 0 2.1864454244542912 -58.753546926745912 0 0 0 0 3.5738710311236019 6.2494951624259443 0 6.2494951624259443 5.3463666989659799 0 0 0 0 184.54562945211364 -146.55641149712028 0 -146.55641149712028 69.174051701491408 0 0 0 0 551.34572090988513 158.48510365816765 0 158.48510365816765 67.987073516182136 0 0 0 0 0.52645325162247048 7.9668288576998663 0 7.9668288576998663 -1.5910326599993283 0 0 0 0 -8.9012614902585483 -196.6542808357226 0 -196.6542808357226 687.40386063828919 0 0 0 0 1254.1889727017297 234.52884751210513 0 234.52884751210513 123.52809418045945 0 0 0 0 959.25871231334168 1077.3580210590881 0 1077.3580210590881 811.69132603364415 0 0 0 0 2.4373148455788538 7.7022175045384671 0 7.7022175045384671 12.172899470702845 0 0 0 0 143.06714854141319 -121.49610441837285 0 -121.49610441837285 31.481933744580601 0 0 0 0 772.90316940190314 125.84265686884828 0 125.84265686884828 -213.02096756493847 0 0 0 0 92.332390119066986 66.258048042858718 0 66.258048042858718 48.527568307719775 0 0 0 0 122.81155510189274 30.480308529178728 0 30.480308529178728 27.549400148709537 0 0 0 0 84.051119728705089 86.02080857110559 0 86.02080857110559 11.158150664559798 0 0 0 0 115.06182547854405 50.273562392336316 0 50.273562392336316 -11.162706504721427 0 0 0 0 106.98948673493214 302.53739022063382 0 302.53739022063382 161.32482007684303 0 0 0 0 436.13517620228959 497.98701948643065 0 497.98701948643065 170.94179957355664 0 0 0 0 338.69820006496957 626.79414281286336 0 626.79414281286336 462.33601395771257 0 0 0 0 545.44536122367845 626.57078806910977 0 626.57078806910977 322.07322793660569 0 0 0 0 321.40376718189509 567.49668385061523 0 567.49668385061523 429.95554389608151 0 0 0 0 71.818898037432973 316.48880157351232 0 316.48880157351232 584.27779421825835 0 0 0 0 106.64303007168928 495.80604257932282 0 495.80604257932282 1429.7711028308477 0 0 0 0 994.25338248216576 673.98655356003292 0 673.98655356003292 230.21917027056043 0 0 0 0 617.01109249199544 -63.401989493260771 0 -63.401989493260771 647.31725189198914 0 0 0 0 181.30958924719016 341.70469191183292 0 341.70469191183292 279.51478267747007 0 0 0 0 -20.114913307745155 115.27577468482195 0 115.27577468482195 170.18791840186168 0 0 0 0 365.72852076099116 528.08728991899261 0 528.08728991899261 -3.0131247971876292 0 0 0 0 271.71790983714163 525.66677299293951 0 525.66677299293951 200.395565017443 0 0 0 0 -274.35572725053862 521.65094050862535 0 521.65094050862535 -1.5764419878096305 0 0 0 0 240.20200574333103 672.24803823151524 0 672.24803823151524 -383.66561318501044 0 0 0 0 -212.10196769762319 176.60540418844948 0 176.60540418844948 -0.6153510188596556 0 0 0 0 -105.10209149257844 393.03274922465971 0 393.03274922465971 -263.57074663649837 0 0 0 0 -1296.4918429414902 657.05158546167877 0 657.05158546167877 -0.055442247445171233 0 0 0 0 -166.42004379737591 318.02425351591046 0 318.02425351591046 731.49835272070777 0 0 0 0 0.68337958240131513 2.8437851786369066 0 2.8437851786369066 -2.2424193408909758 0 0 0 0 188.86078797244772 112.20558950766281 0 112.20558950766281 -615.88624212994182 0 0 0 0 274.6658798670469 381.3534559595937 0 381.3534559595937 221.38282225735747 0 0 0 0 328.75339678813179 429.4973779783686 0 429.4973779783686 244.17457220779761 0 0 0 0 423.90790537885459 501.97710196893786 0 501.97710196893786 -5.6375699804193573 0 0 0 0 1.0573979129251967 4.9775722104103721 0 4.9775722104103721 -3.3736181063889177 0 0 0 0 248.2509984612916 457.04270778805403 0 457.04270778805403 -0.065664560366712976 0 0 0 0 179.90534713566012 321.95454086089012 0 321.95454086089012 447.60411496720917 0 0 0 0 1.7657542932626029 3.5099989647010261 0 3.5099989647010261 -1.7719553820317202 0 0 0 0 128.88852150691855 147.31177170180854 0 147.31177170180854 0.35509930119587807 0 0 0 0 335.87217788587805 393.76373512843838 0 393.76373512843838 396.13481741823489 0 0 0 0 421.31221548134636 499.30877493139269 0 499.30877493139269 157.46642115368741 0 0 0 0 490.21319447586211 608.7869816888051 0 608.7869816888051 280.48605570845393 0 0 0 0 426.28803905195855 588.24435987763718 0 588.24435987763718 88.840916721674148 0 0 0 0 479.3970606700459 623.40522335308924 0 623.40522335308924 111.08709124419693 0 0 0 0 258.4387567286758 536.82352311176874 0 536.82352311176874 9.7619008006731747 0 0 0 0 384.39305367873021 644.62386620169127 0 644.62386620169127 19.526458874906893 0 0 0 0 465.59672599282749 683.81412600377735 0 683.81412600377735 1.6864078884391347 0 0 0 0 381.91350949936168 734.18889298684735 0 734.18889298684735 248.17469897655246 0 0 0 0 345.85184008623764 646.69964724977399 0 646.69964724977399 75.15093069276918 0 0 0 0 392.51763514921549 585.69440664800641 0 585.69440664800641 153.68268567381165 0 0 0 0 323.6865637313349 456.59308678884554 0 456.59308678884554 61.621948897984112 0 0 0 0 368.44249740303349 417.93998623015796 0 417.93998623015796 74.839947193671833 0 0 0 0 332.79707475871328 279.14090490222588 0 279.14090490222588 -28.061713840197626 0 0 0 0 275.42420628834225 319.48265943761726 0 319.48265943761726 56.49077704019146 0 0 0 0 492.50947534278384 347.06977464853844 0 347.06977464853844 38.36165275577514 0 0 0 0 500.85331069842141 379.23923875160835 0 379.23923875160835 88.678549045078398 0 0 0 0 522.33266119466771 542.66271323311503 0 542.66271323311503 98.869572198411333 0 0 0 0 457.71241859492147 537.67822032246477 0 537.67822032246477 171.47251863713564 0 0 0 0 582.98079020208388 615.93893212538751 0 615.93893212538751 386.61465929013502 0 0 0 0 542.4521376260891 501.71275884474744 0 501.71275884474744 170.46765955992328 0 0 0 0 501.13306437450774 715.51325625318532 0 715.51325625318532 345.83044495773356 0 0 0 0 400.10749473427495 735.08363951517094 0 735.08363951517094 935.12768425240938 0 0 0 0 928.63049495270025 799.93993192785274 0 799.93993192785274 3.0713288318511331 0 0 0 0 928.53219551957955 445.29786121040888 0 445.29786121040888 66.443541950924555 0 0 0 0 554.23969810846756 145.28094285089901 0 145.28094285089901 85.54452996688633 0 0 0 0 700.7558795105615 168.35520248475586 0 168.35520248475586 23.704162186848407 0 0 0 0 20.716222709317663 487.46798998382656 0 487.46798998382656 150.06955104565714 0 0 0 0 2017.6831002503786 216.49047475412954 0 216.49047475412954 -49.058401047874213 0 0 0 0 2.5406259082399671 1.8692817075744586 0 1.8692817075744586 2.3493876349224934 0 0 0 0 -198.33413900757478 -118.43435278559264 0 -118.43435278559264 -37.553317300655181 0 0 0 0 -483.59507967282843 240.53436594834784 0 240.53436594834784 22.247854952198395 0 0 0 0 -473.1487111552633 210.3803796359789 0 210.3803796359789 -7.7437270220907521 0 0 0 0 -0.57393150455236253 1.0516499032723345 0 1.0516499032723345 2.5680202776429155 0 0 0 0 50.822050729184411 298.77031726503628 0 298.77031726503628 -0.46289952759980224 0 0 0 0 -472.94134026444226 195.85762182460167 0 195.85762182460167 -64.211484240840946 0 0 0 0 -60.498906256645569 194.83042047242998 0 194.83042047242998 -17.737779738001336 0 0 0 0 328.45060348268817 -76.229845617446699 0 -76.229845617446699 40.610683203696681 0 0 0 0 5.4310279889581139 6.3266176507554661 0 6.3266176507554661 3.8649315650410472 0 0 0 0 -32.62144514942338 -13.651774125864904 0 -13.651774125864904 -19.184035686048446 0 0 0 0 661.5840383940631 -6.7222303199596354 0 -6.7222303199596354 41.271972519069095 0 0 0 0 534.03438732987024 118.07060153211205 0 118.07060153211205 61.093477987727965 0 0 0 0 387.20978497294345 200.88893673837083 0 200.88893673837083 20.02292646830756 0 0 0 0 246.98526810538624 61.08005673601474 0 61.08005673601474 -105.15619044277992 0 0 0 0 5.6495400094910551 6.9906070634255286 0 6.9906070634255286 5.8411140933900469 0 0 0 0 218.19708799952787 -65.453482793800504 0 -65.453482793800504 -159.55819732085911 0 0 0 0 189.2186566306973 37.428672714245295 0 37.428672714245295 -43.546301987036713 0 0 0 0 7.6628369870107491 97.84264697231265 0 97.84264697231265 26.294144160448923 0 0 0 0 1.4878787967479354 78.466290882315661 0 78.466290882315661 46.578899262780396 0 0 0 0 -51.820905584155078 29.918556750846264 0 29.918556750846264 5.8139049052727216 0 0 0 0 -85.148606116432347 -23.012756345389789 0 -23.012756345389789 24.357199152553221 0 0 0 0 10.782109834864173 62.492221982574847 0 62.492221982574847 37.053318514303101 0 0 0 0 9.9053223874486207 63.056022997054242 0 63.056022997054242 42.777249110418779 0 0 0 0 51.554084681006316 85.134965641205781 0 85.134965641205781 9.9904884566094552 0 0 0 0 28.166065318469919 106.74476494499686 0 106.74476494499686 -49.089790149628243 0 0 0 0 15.818864679054514 52.545059668154863 0 52.545059668154863 -30.073557780804549 0 0 0 0 29.838299293576256 95.690445980282675 0 95.690445980282675 22.707908883399796 0 0 0 0 66.845017028156576 166.39744884972129 0 166.39744884972129 1.6071972798745264 0 0 0 0 -32.05892109031447 142.82882369098661 0 142.82882369098661 30.081338360185327 0 0 0 0 -9.7323862208737637 106.98566118826602 0 106.98566118826602 49.035455721990729 0 0 0 0 -37.121713982775191 57.540413832470222 0 57.540413832470222 -3.2024085414377623 0 0 0 0 -40.828338315614033 78.690469464450871 0 78.690469464450871 56.744112710701302 0 0 0 0 -140.74833793783182 69.60815728302623 0 69.60815728302623 196.1738852589915 0 0 0 0 66.122025809850129 263.22592777370301 0 263.22592777370301 163.54622812428715 0 0 0 0 -0.26149657702515938 0.52199328928368516 0 0.52199328928368516 4.545806380271074 0 0 0 0 -15.136922891829798 15.151517798459885 0 15.151517798459885 2.0564722353314266 0 0 0 0 -66.282988342047929 81.089559047430157 0 81.089559047430157 -7.9118946978633176 0 0 0 0 -59.276217823505526 59.912354604271592 0 59.912354604271592 -18.834398487185837 0 0 0 0 62.942960934029543 184.94419930916047 0 184.94419930916047 55.036003371358674 0 0 0 0 -62.648197461542104 40.944770082689196 0 40.944770082689196 -7.3190499575784429 0 0 0 0 -89.165170387183025 56.855482680344721 0 56.855482680344721 97.651431357080583 0 0 0 0 16.058351233852591 64.352028648554551 0 64.352028648554551 10.665598546729598 0 0 0 0 -19.038993708563794 214.80955230935979 0 214.80955230935979 336.38395086798118 0 0 0 0 88.787323340053263 277.1848293873918 0 277.1848293873918 242.42741810683947 0 0 0 0 -25.747339909656148 299.07017406037266 0 299.07017406037266 556.5130652419648 0 0 0 0 105.36645266967935 398.09516115765655 0 398.09516115765655 439.19661387395172 0 0 0 0 -135.5974735819218 237.79717431198151 0 237.79717431198151 361.33264652564321 0 0 0 0 -68.519823663027637 151.36215983906004 0 151.36215983906004 282.85467524739579 0 0 0 0 -117.42881231549768 29.80101806114908 0 29.80101806114908 118.77074986333901 0 0 0 0 117.8675744536049 538.40614471240042 0 538.40614471240042 455.36685942319309 0 0 0 0 24.520972397986043 451.18326197240822 0 451.18326197240822 376.48213721899083 0 0 0 0 -50.216309604125854 483.02176694709487 0 483.02176694709487 658.80794904606046 0 0 0 0 9.5000064549731178 479.8556279448967 0 479.8556279448967 525.35176544952992 0 0 0 0 -155.04627448365864 482.39579970178966 0 482.39579970178966 536.01389586620644 0 0 0 0 -42.949110586938332 481.28751892457694 0 481.28751892457694 425.47978422310553 0 0 0 0 -67.094999167002243 553.09813023095194 0 553.09813023095194 832.64058891791501 0 0 0 0 -254.37874097772146 205.18472038439359 0 205.18472038439359 548.53533045533368 0 0 0 0 -407.00698038915289 -202.69989421234641 0 -202.69989421234641 96.338558701751538 0 0 0 0 -285.74988039278287 375.79586257825576 0 375.79586257825576 88.30788511983701 0 0 0 0 -44.851752589023818 -52.850901045494538 0 -52.850901045494538 293.23447870522068 0 0 0 0 -112.05547986752026 403.26059124758831 0 403.26059124758831 580.56649931607535 0 0 0 0 -43.030001642491698 57.335109097286477 0 57.335109097286477 33.609351000843162 0 0 0 0 -503.08467465772628 -56.882394216023386 0 -56.882394216023386 193.27830094099772 0 0 0 0 -99.802618603196606 226.79387738144942 0 226.79387738144942 357.7693455843837 0 0 0 0 -63.558186992666379 -39.661598414117179 0 -39.661598414117179 -68.296687358189956 0 0 0 0 -10.256920726483266 2.4203042844294771 0 2.4203042844294771 1.5333755093541583 0 0 0 0 -41.789473122214815 21.482077950737633 0 21.482077950737633 22.066983644649042 0 0 0 0 -56.1761305888067 -13.07980059678448 0 -13.07980059678448 -9.9762870007871243 0 0 0 0 -7.2329120529873308 55.777235781327363 0 55.777235781327363 8.5647101031499915 0 0 0 0 5.5349850285680589 35.931218496886686 0 35.931218496886686 31.855158031136199 0 0 0 0 -352.4751339845825 62.414500215854787 0 62.414500215854787 -4.5925426100038749 0 0 0 0 -504.79561181451572 128.33477817265521 0 128.33477817265521 -23.715506652100885 0 0 0 0 -17.322211192671119 19.829531493058433 0 19.829531493058433 -10.553967324752932 0 0 0 0 6.062147733711754 30.472122502687853 0 30.472122502687853 8.7229141648172686 0 0 0 0 -6.850394021311331 57.873778601020604 0 57.873778601020604 9.1243240394251188 0 0 0 0 -469.21175376142128 -144.50664009417233 0 -144.50664009417233 115.25172929427754 0 0 0 0 -183.16791360846946 72.518560151744168 0 72.518560151744168 186.50699569345306 0 0 0 0 -368.78086190827548 -113.66832047243952 0 -113.66832047243952 86.733990044333041 0 0 0 0 -585.15877374634965 -36.626215950132973 0 -36.626215950132973 68.075910399624263 0 0 0 0 -634.84560682814845 -226.60435847139888 0 -226.60435847139888 -20.221365721144139 0 0 0 0 -345.36767909803712 -160.10370072365549 0 -160.10370072365549 -30.80249981781526 0 0 0 0 -204.96806019433097 254.09260416268444 0 254.09260416268444 73.393816077215888 0 0 0 0 -598.2019610334446 -271.51665924238478 0 -271.51665924238478 -228.75182078841317 0 0 0 0 -943.23051590722025 302.13553459016839 0 302.13553459016839 39.605764110827295 0 0 0 0 -11.512692508447657 9.6103051629758198 0 9.6103051629758198 -8.908682228311676 0 0 0 0 28.176552012289903 28.274703071641852 0 28.274703071641852 0.023985542982700281 0 0 0 0 -1593.6299274372468 -650.80976769908011 0 -650.80976769908011 -133.6669155346699 0 0 0 0 -4.3943647351340402 2.5714896105023328 0 2.5714896105023328 -3.3285802108477753 0 0 0 0 4.2992276074082838 38.839082250095089 0 38.839082250095089 -30.3477393026551 0 0 0 0 -24.024524739097615 26.769520556685166 0 26.769520556685166 -3.0923457648186741 0 0 0 0 23.675448919329028 43.214387339827226 0 43.214387339827226 4.3464689775137231 0 0 0 0 16.817318060702746 21.205870780282567 0 21.205870780282567 3.374467152614443 0 0 0 0 4.0488050070780446 30.737660943741503 0 30.737660943741503 -0.016204814790398814 0 0 0 0 -8.2597488976780369 20.439367022034276 0 20.439367022034276 -5.8300052125414368 0 0 0 0 -15.621779617452376 27.203816960398399 0 27.203816960398399 0.039504391112131998 0 0 0 0 -2.0688385703961103 24.507488826704503 0 24.507488826704503 -9.9367363247874891 0 0 0 0 5.6407702646080793 23.423433785750603 0 23.423433785750603 -25.086270969375619 0 0 0 0 5.3714969871391531 30.134014326058605 0 30.134014326058605 -29.129354278178653 0 0 0 0 -20.844106297868166 46.197117126757803 0 46.197117126757803 -30.756929903815035 0 0 0 0 -11.876642276138227 64.365590667963261 0 64.365590667963261 -2.5494166294083698 0 0 0 0 6.9132727687965598 25.775218390212103 0 25.775218390212103 -62.551036447082879 0 0 0 0 -22.166706212234203 30.271919849699771 0 30.271919849699771 23.814113016473129 0 0 0 0 19.553276858382638 30.190701696157674 0 30.190701696157674 21.379953949915091 0 0 0 0 3.6525345815501318 4.1242233375843682 0 4.1242233375843682 3.5173295495485206 0 0 0 0 23.119071963277747 -7.149966432749352 0 -7.149966432749352 -22.562427665018504 0 0 0 0 24.250020563878209 22.687903590250244 0 22.687903590250244 -24.982871381841164 0 0 0 0 1.6148941231166685 2.6821574069591634 0 2.6821574069591634 -2.080506985761474 0 0 0 0 26.542695850426753 -19.469965081989358 0 -19.469965081989358 -22.350164213718244 0 0 0 0 62.30041996580394 36.524115901596815 0 36.524115901596815 -51.735537538406788 0 0 0 0 16.539374898751305 63.09178732905275 0 63.09178732905275 34.65258577845816 0 0 0 0 37.306049163916612 49.577921639594933 0 49.577921639594933 22.341803655872354 0 0 0 0 -0.49801612656455774 3.1283236360257263 0 3.1283236360257263 -12.278921579688038 0 0 0 0 -7.6890857834578128 55.691336738476821 0 55.691336738476821 43.199870023616768 0 0 0 0 20.11867770404865 63.236933794560173 0 63.236933794560173 -6.5146249887620797 0 0 0 0 44.57756161510747 112.21398978701473 0 112.21398978701473 -55.690609476150712 0 0 0 0 47.306797984195534 14.646727277763489 0 14.646727277763489 -6.2054213288694697 0 0 0 0 -15.472189197754247 24.056352173060915 0 24.056352173060915 -19.789426088256505 0 0 0 0 14.001660593191446 67.685979475012573 0 67.685979475012573 85.837370968758478 0 0 0 0 13.374600059050408 10.129663624358727 0 10.129663624358727 -39.750875372716109 0 0 0 0 40.751715387679724 -8.8536867956354399 0 -8.8536867956354399 -42.315786870140073 0 0 0 0 20.955401345746054 -20.107334324769909 0 -20.107334324769909 -49.27622545700433 0 0 0 0 91.416065142475418 21.756839678229881 0 21.756839678229881 -117.17895866769686 0 0 0 0 162.68390251305772 33.709227818622821 0 33.709227818622821 -30.771897068509134 0 0 0 0 76.074574858067763 -69.584300833743328 0 -69.584300833743328 46.489657867350616 0 0 0 0 -1.4825042676435505 1.4205748942757737 0 1.4205748942757737 2.8059401016132597 0 0 0 0 -8.2902880347746759 52.676161952163966 0 52.676161952163966 24.575827337270312 0 0 0 0 117.64800108121716 27.934475330512214 0 27.934475330512214 -0.027169602872163523 0 0 0 0 109.20843589453432 15.781260953179299 0 15.781260953179299 56.523760581185343 0 0 0 0 78.908824502422021 57.438552689334756 0 57.438552689334756 0.027976110788586084 0 0 0 0 86.966752086716042 146.16566437872098 0 146.16566437872098 109.8460188365425 0 0 0 0 50.582118481245288 78.61932115482341 0 78.61932115482341 47.634516369769699 0 0 0 0 -2.677656539072359 44.893508378914703 0 44.893508378914703 99.142499710205357 0 0 0 0 43.793462181355835 68.991452142181515 0 68.991452142181515 62.136513694829773 0 0 0 0 35.806844976559773 51.865090718194551 0 51.865090718194551 78.535967936797533 0 0 0 0 27.632740451123482 1.4956126832366863 0 1.4956126832366863 -13.803842486311623 0 0 0 0 476.95565590385559 446.98763781493835 0 446.98763781493835 270.37695161921874 0 0 0 0 150.28007928165789 136.37500450741209 0 136.37500450741209 0.34730792724171999 0 0 0 0 -16.247044099246523 61.541711765654327 0 61.541711765654327 234.04578335856786 0 0 0 0 307.99454187564061 490.96722244752709 0 490.96722244752709 719.02202456793748 0 0 0 0 323.62643786920307 -200.76433504463603 0 -200.76433504463603 -60.91269947339606 0 0 0 0 84.587880601874303 76.312148274240826 0 76.312148274240826 -26.568434318840445 0 0 0 0 26.471661360899873 8.3474546663199476 0 8.3474546663199476 1.9408095930359011 0 0 0 0 91.35189834535322 64.466415463881276 0 64.466415463881276 -244.83498080367281 0 0 0 0 36.205424259456777 39.23438646203067 0 39.23438646203067 -34.712706289159541 0 0 0 0 -4.4768971724288349 48.20581497704552 0 48.20581497704552 -72.460379404226842 0 0 0 0 113.83447478653761 -44.240292705850152 0 -44.240292705850152 -65.211299587156645 0 0 0 0 38.391535192251524 10.904558637905382 0 10.904558637905382 3.6915072800237922 0 0 0 0 81.754866943280149 70.783928560837012 0 70.783928560837012 -118.51975561291329 0 0 0 0 41.315846810080984 -14.027003273058654 0 -14.027003273058654 -117.8603390180142 0 0 0 0 50.016105980170323 109.44631581121212 0 109.44631581121212 -151.85336607915269 0 0 0 0 24.292251053771338 11.581506332871413 0 11.581506332871413 -2.9495345343457302 0 0 0 0 80.643028428112302 145.1996057549477 0 145.1996057549477 43.307434651891526 0 0 0 0 432.93918574466443 6.9987688364417409 0 6.9987688364417409 -166.56433673387528 0 0 0 0 30.905515106541031 -124.98261239001317 0 -124.98261239001317 -167.45552612219035 0 0 0 0 -11.408336043255943 13.868090319144457 0 13.868090319144457 -15.043528810464522 0 0 0 0 49.597232189823444 55.579029334859115 0 55.579029334859115 108.55924154349486 0 0 0 0 135.2321410094828 62.088626134005608 0 62.088626134005608 -47.119448894114612 0 0 0 0 199.46166756032653 -24.702647248112044 0 -24.702647248112044 -131.75175799234421 0 0 0 0 73.741506041187677 101.59522553564602 0 101.59522553564602 -115.63512210117187 0 0 0 0 84.657855618132089 42.226725821146829 0 42.226725821146829 35.355292704174644 0 0 0 0 192.57153059953816 107.1558044826379 0 107.1558044826379 15.803231522262649 0 0 0 0 136.85325906665457 202.48034124819969 0 202.48034124819969 149.8341029748517 0 0 0 0 -4.991908302568568 8.2685795826753576 0 8.2685795826753576 -9.1647081301883588 0 0 0 0 239.5649930066993 245.69095425936757 0 245.69095425936757 149.2023688932386 0 0 0 0 12.733094002519465 64.06944811770154 0 64.06944811770154 139.97940358916094 0 0 0 0 -1.4710183021840848 2.7916133195535622 0 2.7916133195535622 -3.3756753146265055 0 0 0 0 -3.2722055120270852 -189.7576262131206 0 -189.7576262131206 -488.11515172281361 0 0 0 0 188.70048448371745 175.83999210287584 0 175.83999210287584 -458.78333379213927 0 0 0 0 -15.613751981984933 89.447726096621409 0 89.447726096621409 -68.12316253339668 0 0 0 0 -120.93331656332794 -44.843632611555222 0 -44.843632611555222 -154.89373096308555 0 0 0 0 78.981453922229775 181.51927296743088 0 181.51927296743088 20.788902386593691 0 0 0 0 54.91747471844883 74.482981391993235 0 74.482981391993235 -119.99339329690702 0 0 0 0 574.97023206892845 -22.437279262085212 0 -22.437279262085212 -47.800416369680534 0 0 0 0 259.98722396746962 141.49514913127859 0 141.49514913127859 -88.876892113868962 0 0 0 0 181.74052810934336 44.308321848351625 0 44.308321848351625 -53.694105124332054 0 0 0 0 359.4767053138421 266.66702762393288 0 266.66702762393288 11.235359103622613 0 0 0 0 -125.78000256671476 84.372584135304351 0 84.372584135304351 236.30700837750919 0 0 0 0 -93.972367711232437 -159.71478717659193 0 -159.71478717659193 -144.58938406519883 0 0 0 0 83.028802202185034 286.8421473945491 0 286.8421473945491 16.703703124352614 0 0 0 0 527.94240075754351 355.63207420671097 0 355.63207420671097 110.26517020647589 0 0 0 0 50.447925607186335 392.53397938756098 0 392.53397938756098 353.68705331869478 0 0 0 0 -0.8683316363715079 1.7884674032309107 0 1.7884674032309107 -0.59007844924781239 0 0 0 0 222.47674701652249 484.18855939003333 0 484.18855939003333 609.91556142845366 0 0 0 0 160.96875335076038 77.781130231229326 0 77.781130231229326 148.953595721694 0 0 0 0 35.503565068951502 115.46166004648694 0 115.46166004648694 322.05670473306236 0 0 0 0 25.897558154025319 198.03541395047068 0 198.03541395047068 136.11186627556162 0 0 0 0 -312.55710382906727 119.12763256987819 0 119.12763256987819 98.568015662691323 0 0 0 0 -131.90192661277069 155.1471077109527 0 155.1471077109527 52.745753026305465 0 0 0 0 -150.65191853363285 74.76644995665265 0 74.76644995665265 -25.437205489419284 0 0 0 0 -9.1662485031638425 109.14228410028409 0 109.14228410028409 32.461430636249133 0 0 0 0 1.121260855739461 3.5968972863358228 0 3.5968972863358228 -2.3809060695948574 0 0 0 0 -330.3391431841992 161.88651446943186 0 161.88651446943186 47.441416115922038 0 0 0 0 268.53976335593325 156.23048067719355 0 156.23048067719355 -412.51457806865801 0 0 0 0 261.92139566147489 188.02838175418583 0 188.02838175418583 -31.420044661894281 0 0 0 0 -33.540245275344205 274.39523638237006 0 274.39523638237006 131.55653498007086 0 0 0 0 -67.972643537064869 69.586873847794777 0 69.586873847794777 -68.844492663120036 0 0 0 0 42.50828296702457 369.25215417253639 0 369.25215417253639 17.526524178010732 0 0 0 0 166.84891588662686 315.44956083349462 0 315.44956083349462 14.490813034397434 0 0 0 0 1.6198700072445122 4.2663032465926882 0 4.2663032465926882 -1.2558301936396674 0 0 0 0 -50.418542903784328 146.68528625763065 0 146.68528625763065 37.233150619635126 0 0 0 0 -392.28992843893866 188.87257967612095 0 188.87257967612095 -44.708573649775644 0 0 0 0 23.931907594377662 44.710899656818583 0 44.710899656818583 -64.009404388110852 0 0 0 0 1193.2088077685239 317.71342207969064 0 317.71342207969064 -137.0300706084272 0 0 0 0 396.4738903837424 299.89735468372965 0 299.89735468372965 30.94643719943997 0 0 0 0 1.0580875451456961 1.8098683389045398 0 1.8098683389045398 -0.5431160376433013 0 0 0 0 417.95085366127603 581.97702836304143 0 581.97702836304143 -248.48550070326019 0 0 0 0 297.34968743159152 779.76205044177914 0 779.76205044177914 -122.94204995266045 0 0 0 0 225.57685049733482 671.85134495292004 0 671.85134495292004 177.50326186440361 0 0 0 0 272.84723686540201 662.9892214746742 0 662.9892214746742 -618.24150644429028 0 0 0 0 1.2469636998965896 3.3325988140594802 0 3.3325988140594802 2.187015441050022 0 0 0 0 -38.078455433140334 325.84740419464651 0 325.84740419464651 710.30251146771479 0 0 0 0 -1.579011969950443 257.20760195687762 0 257.20760195687762 -438.41517824885523 0 0 0 0 125.11711739926614 498.14160955043917 0 498.14160955043917 15.875402791050874 0 0 0 0 -104.77362013435413 528.92301509126264 0 528.92301509126264 171.03190676046506 0 0 0 0 364.167540686949 432.49264412993216 0 432.49264412993216 -17.026475282942556 0 0 0 0 400.86308398439951 547.11953867967895 0 547.11953867967895 33.614004952658433 0 0 0 0 252.56461865125857 451.52946030567909 0 451.52946030567909 354.69495758160338 0 0 0 0 252.95302274545065 458.56852259877996 0 458.56852259877996 118.82871169912687 0 0 0 0 26.288935106867939 258.04977190674981 0 258.04977190674981 -234.1462452811611 0 0 0 0 580.89820019010222 558.23065861551731 0 558.23065861551731 29.925546723839943 0 0 0 0 382.22396473883418 597.82948572320674 0 597.82948572320674 512.44047373627109 0 0 0 0 719.81053772100859 746.04914899202413 0 746.04914899202413 265.86577438327367 0 0 0 0 9.6591279538914208 3.8680580883390832 0 3.8680580883390832 1.5416623448633615 0 0 0 0 1087.2921797986219 301.42942286123798 0 301.42942286123798 -233.63327969548806 0 0 0 0 1049.5922279864435 541.54473033757313 0 541.54473033757313 118.92180845084658 0 0 0 0 840.30981676392094 93.846244711463441 0 93.846244711463441 228.53017754657776 0 0 0 0 608.64957352476586 290.57482040345167 0 290.57482040345167 -0.15813441589853028 0 0 0 0 -142.63438158355166 622.44734883308411 0 622.44734883308411 128.63498197582521 0 0 0 0 411.49217696899632 463.26512314617685 0 463.26512314617685 0.16576574975624681 0 0 0 0 216.37733492452844 228.44564905682819 0 228.44564905682819 35.058840691905061 0 0 0 0 -227.07884289094181 486.35236819926649 0 486.35236819926649 -0.21460056177602382 0 0 0 0 -541.46925009182087 707.13332617040214 0 707.13332617040214 -103.88885276774636 0 0 0 0 -495.0038738031617 117.6700606995073 0 117.6700606995073 -253.49854581627096 0 0 0 0 -978.48442695378981 335.65829281874903 0 335.65829281874903 0.32237114173040027 0 0 0 0 -468.08778925536353 487.91657385796134 0 487.91657385796134 -432.41406826266757 0 0 0 0 -60.431080575188389 28.905584518603064 0 28.905584518603064 -0.72398926659661811 0 0 0 0 -199.28036456453628 -78.021129861903319 0 -78.021129861903319 56.727567508140964 0 0 0 0 -8.8308329974625082 2.1760862305136754 0 2.1760862305136754 -0.58991563926058888 0 0 0 0 -839.85636187805176 226.63015771337086 0 226.63015771337086 392.82841099072539 0 0 0 0 -23.031772129555975 69.679633809759252 0 69.679633809759252 95.187747316420428 0 0 0 0 10.981276791912933 57.281982033697204 0 57.281982033697204 98.511045332001231 0 0 0 0 -178.87966039459752 109.4565607752811 0 109.4565607752811 325.26111882105761 0 0 0 0 -247.27247039736449 163.67335486806223 0 163.67335486806223 888.61561648993666 0 0 0 0 -350.80932438218952 399.79262757269498 0 399.79262757269498 182.92817442194064 0 0 0 0 -135.50171115928288 418.02380639650073 0 418.02380639650073 112.19505962236144 0 0 0 0 -287.13883489274849 465.69997463301843 0 465.69997463301843 230.44907186026103 0 0 0 0 -296.39677137859417 417.13577623081073 0 417.13577623081073 231.17413930614566 0 0 0 0 27.757142481048504 113.7181281866724 0 113.7181281866724 0.12918995192012517 0 0 0 0 -50.747799845779809 76.059646206842444 0 76.059646206842444 284.54906853366992 0 0 0 0 308.3156955384984 11.135749586293969 0 11.135749586293969 -36.026507683018281 0 0 0 0 254.00583950164491 204.33291560568068 0 204.33291560568068 112.96968067904527 0 0 0 0 4.1863560610404704 5.1554271637342879 0 5.1554271637342879 -1.4847895621882046 0 0 0 0 -0.60098114920815249 -1.3905403175672149 0 -1.3905403175672149 -1.3023039861140546 0 0 0 0 131.95655780005291 81.467462506041556 0 81.467462506041556 0.092289503110805526 0 0 0 0 -71.364947856469371 21.292777008187841 0 21.292777008187841 -1.3788514598600159 0 0 0 0 -24.029929003378541 6.5163783307970959 0 6.5163783307970959 -0.5704581831860267 0 0 0 0 23.652719181212888 54.129801339389815 0 54.129801339389815 25.819369823353554 0 0 0 0 -11.557232471224779 136.97538878523483 0 136.97538878523483 256.47345007087642 0 0 0 0 55.316421623067072 111.60990282669081 0 111.60990282669081 47.1050423636907 0 0 0 0 -32.703971047807499 22.163387798203985 0 22.163387798203985 65.541819538419077 0 0 0 0 -20.363771341879485 19.163231704235585 0 19.163231704235585 -7.0121627844947341 0 0 0 0 270.00207720773324 51.428686239760282 0 51.428686239760282 -71.44986628893821 0 0 0 0 185.65378729288204 -33.499721175914601 0 -33.499721175914601 1.1404108979977536 0 0 0 0 -173.67462611242081 187.32364006065472 0 187.32364006065472 479.56631381006446 0 0 0 0 -19.153891950836652 22.097998435755798 0 22.097998435755798 -12.80092470893203 0 0 0 0 30.34614914123722 99.115551080707519 0 99.115551080707519 67.708466947391571 0 0 0 0 -55.141900141257793 376.66447874467849 0 376.66447874467849 -142.56187016873446 0 0 0 0 -0.73110410838872042 2.9396319042088734 0 2.9396319042088734 5.2283440045503937 0 0 0 0 -37.769217657426452 507.81353670614953 0 507.81353670614953 -418.29887136236357 0 0 0 0 -14.215351942350026 145.22441687977516 0 145.22441687977516 -369.42669458125602 0 0 0 0 70.01488521117426 321.14121878223159 0 321.14121878223159 -42.554870733249118 0 0 0 0 166.88202689144555 48.514826613516561 0 48.514826613516561 -11.114999079713016 0 0 0 0 -24.295206271469141 28.311794115303897 0 28.311794115303897 -18.005217571496303 0 0 0 0 176.57156517739713 -126.82809757941868 0 -126.82809757941868 -322.96764999438165 0 0 0 0 175.26012870226987 204.64417943516128 0 204.64417943516128 56.209355042075913 0 0 0 0 152.59429996364088 236.61099007963276 0 236.61099007963276 199.50574648620386 0 0 0 0 77.73109696231279 266.73253734957893 0 266.73253734957893 174.37483703064208 0 0 0 0 73.645276306859159 210.97144369443049 0 210.97144369443049 229.20313697626989 0 0 0 0 8.3210145444754744 241.34637177843979 0 241.34637177843979 189.3012798586351 0 0 0 0 34.633093458825897 174.51915821347939 0 174.51915821347939 274.8405969940286 0 0 0 0 3.6836720279352448 213.60330847807381 0 213.60330847807381 333.71588988868461 0 0 0 0 -6.2011677104001137 154.16387629969176 0 154.16387629969176 334.17337944702012 0 0 0 0 -40.92785094327337 174.67877809072525 0 174.67877809072525 524.34610114762472 0 0 0 0 23.657946266277577 130.58568062612176 0 130.58568062612176 483.45173692176832 0 0 0 0 -4.7975209401774919 186.32584946317002 0 186.32584946317002 502.89548083330737 0 0 0 0 11.110362198238363 155.48887982403176 0 155.48887982403176 651.24355932968319 0 0 0 0 104.26638567584087 262.96507611846755 0 262.96507611846755 495.00049933577975 0 0 0 0 43.336285746800058 129.00151080629803 0 129.00151080629803 598.59200957257417 0 0 0 0 69.326162445508089 233.1186498643001 0 233.1186498643001 354.95145426827366 0 0 0 0 67.285868767291618 195.5635885153381 0 195.5635885153381 420.82949797356559 0 0 0 0 154.33867361595185 266.50267935940792 0 266.50267935940792 253.10031709485338 0 0 0 0 141.01032642347491 245.42229724681238 0 245.42229724681238 388.60865130020829 0 0 0 0 230.23548744332948 214.02529182244325 0 214.02529182244325 202.83146106857748 0 0 0 0 213.795398712522 331.9496039821388 0 331.9496039821388 408.74420209808886 0 0 0 0 108.14428351203446 214.71474755119448 0 214.71474755119448 578.40061029190838 0 0 0 0 56.539335030924121 189.99098202032474 0 189.99098202032474 671.91405304516957 0 0 0 0 64.606383502446988 144.19472457878874 0 144.19472457878874 806.11440889285586 0 0 0 0 133.82447680234327 292.43496833294921 0 292.43496833294921 646.58055380825681 0 0 0 0 130.05436343840847 280.62343216315094 0 280.62343216315094 770.43197448097635 0 0 0 0 306.50289731429802 432.17057336923608 0 432.17057336923608 580.10145783492044 0 0 0 0 104.97862066530797 378.43426746613113 0 378.43426746613113 899.07515215802414 0 0 0 0 112.66875790068207 434.75515819253178 0 434.75515819253178 1280.9730844122532 0 0 0 0 346.80526425892322 264.70119081404755 0 264.70119081404755 391.68675129076291 0 0 0 0 172.42228314385648 264.30004783774712 0 264.30004783774712 428.21393074828666 0 0 0 0 250.04549867378046 288.09033375703802 0 288.09033375703802 402.47482071188278 0 0 0 0 303.07741186720523 339.2424665584258 0 339.2424665584258 378.05565817201568 0 0 0 0 300.19097316772604 354.19617282798572 0 354.19617282798572 339.25208511065284 0 0 0 0 -1.647643118228757 9.45768086534585 0 9.45768086534585 -0.20845332824919893 0 0 0 0 -117.25374407281015 252.14881603251706 0 252.14881603251706 -68.662282662015059 0 0 0 0 -172.18882588421729 189.64479149455838 0 189.64479149455838 633.83969388688274 0 0 0 0 -329.74561055673803 311.26013176183915 0 311.26013176183915 82.064224756231852 0 0 0 0 1.9136595496831603 5.3849854516959539 0 5.3849854516959539 3.9636219553313339 0 0 0 0 -309.02346282218696 372.89928771100858 0 372.89928771100858 199.48805762970733 0 0 0 0 0.36786018814989063 2.3447965191264331 0 2.3447965191264331 1.9434589848452362 0 0 0 0 -2.9739537806672161 326.53475791215897 0 326.53475791215897 -464.44356834290011 0 0 0 0 -55.839128640162016 317.75788718745935 0 317.75788718745935 144.53268772532465 0 0 0 0 -20.145767808262462 137.45117253754142 0 137.45117253754142 117.21724034859653 0 0 0 0 -139.22755040622178 85.480120442596672 0 85.480120442596672 152.46205914914754 0 0 0 0 -134.37764781808028 204.68035416383327 0 204.68035416383327 321.11465709975164 0 0 0 0 -148.47398321040964 133.57188392948956 0 133.57188392948956 374.53121511703648 0 0 0 0 -81.386613481179666 133.3336774164236 0 133.3336774164236 483.71116698634432 0 0 0 0 -74.421651585014388 167.88839643819392 0 167.88839643819392 390.27481519296998 0 0 0 0 -115.23670715911976 143.25035215554817 0 143.25035215554817 393.48600068936503 0 0 0 0 -133.35921183284881 160.05811901214474 0 160.05811901214474 489.18280376418556 0 0 0 0 -100.86712851879474 109.67738796038429 0 109.67738796038429 441.9825706010015 0 0 0 0 89.521486945501238 303.80364265046956 0 303.80364265046956 368.07333542366359 0 0 0 0 -113.59396930006187 13.449814935411268 0 13.449814935411268 329.07818246247189 0 0 0 0 115.44050028168567 316.22168593780225 0 316.22168593780225 470.95297867260524 0 0 0 0 -2.4574633983456238 3.0040474017155958 0 3.0040474017155958 -1.0996624541008373 0 0 0 0 27.235920204788272 382.23560488073781 0 382.23560488073781 562.71519709057975 0 0 0 0 180.45822052440053 254.27780870274 0 254.27780870274 298.22275079345854 0 0 0 0 77.456185330624066 82.395421478700882 0 82.395421478700882 203.60858115403244 0 0 0 0 82.781588254067174 94.466877295446466 0 94.466877295446466 191.48161201131006 0 0 0 0 134.54711299823293 164.36620436076919 0 164.36620436076919 201.52834488924418 0 0 0 0 36.789410209782545 -33.734739337001884 0 -33.734739337001884 61.421502528566634 0 0 0 0 -21.277615696923931 81.352624735807694 0 81.352624735807694 264.95350886561209 0 0 0 0 78.04313619362074 86.618165087740635 0 86.618165087740635 266.34251645471159 0 0 0 0 23.936023661334715 5.4258967675378642 0 5.4258967675378642 0.02389246742911233 0 0 0 0 103.98616664666042 162.78859315803857 0 162.78859315803857 308.10933212453529 0 0 0 0 -27.981565394118661 -187.28106316592311 0 -187.28106316592311 300.42126494070362 0 0 0 0 209.36624064084026 197.42967130507168 0 197.42967130507168 229.61647401252594 0 0 0 0 -1.1103966434471886 1.5723422041917416 0 1.5723422041917416 -0.5040594147067452 0 0 0 0 135.71542344656154 273.52886737918561 0 273.52886737918561 366.91201540785551 0 0 0 0 -158.29518656836808 101.64256068559189 0 101.64256068559189 441.11012329656751 0 0 0 0 -182.66876851750931 129.60033420559921 0 129.60033420559921 503.61765961168567 0 0 0 0 -121.03302950730722 117.53757781762397 0 117.53757781762397 488.00026670949455 0 0 0 0 -70.294396739554031 104.47345995807882 0 104.47345995807882 570.92431183264125 0 0 0 0 -53.50430286435585 132.74110501632094 0 132.74110501632094 461.23398262704723 0 0 0 0 -120.77557116034222 167.427525337931 0 167.427525337931 473.8908438936196 0 0 0 0 4.9526044605637907 32.970482241606874 0 32.970482241606874 4.7699185230481049 0 0 0 0 -73.71206893287308 114.54315188746477 0 114.54315188746477 189.23921453899675 0 0 0 0 19.656581846210571 5.317410864774331 0 5.317410864774331 9.4551804721884132 0 0 0 0 -93.88617711232655 1.7469181987107731 0 1.7469181987107731 646.82468699236779 0 0 0 0 -8.9969313290625905 -105.51041228380291 0 -105.51041228380291 285.30402924182272 0 0 0 0 28.645075140419067 151.81565287786361 0 151.81565287786361 354.73217334372384 0 0 0 0 -90.721756615661434 -139.76681769864081 0 -139.76681769864081 399.50290590497934 0 0 0 0 63.713309298167587 -169.29420395762281 0 -169.29420395762281 195.26446419965941 0 0 0 0 318.14038095199794 -36.830160299832642 0 -36.830160299832642 -7.4095367715053726 0 0 0 0 165.77149394532171 196.53268372823004 0 196.53268372823004 40.22376745622023 0 0 0 0 -42.813380944722667 202.58283019044393 0 202.58283019044393 49.078094521493767 0 0 0 0 32.983869594710995 -35.134984044358134 0 -35.134984044358134 -1.6274896358627302 0 0 0 0 84.72443026585097 36.189295444790332 0 36.189295444790332 -139.95150687944988 0 0 0 0 -27.912770630533487 13.860095542662748 0 13.860095542662748 -201.84821777462639 0 0 0 0 -66.487306914579676 35.108027146576205 0 35.108027146576205 101.8890555508151 0 0 0 0 33.972229279966996 174.7229333781288 0 174.7229333781288 -139.47091837074549 0 0 0 0 -571.69183741198503 58.689577203735098 0 58.689577203735098 372.46367705264493 0 0 0 0 -6.3862010067977764 2.6781345085602339 0 2.6781345085602339 0.10229571791542824 0 0 0 0 46.979970602078538 221.51698127949567 0 221.51698127949567 -486.88822668905777 0 0 0 0 -132.85969601792567 -9.6695555415535637 0 -9.6695555415535637 -143.98193446658843 0 0 0 0 -2.6433633707645185 -0.32226614671341736 0 -0.32226614671341736 -0.39207668491391168 0 0 0 0 74.235606676360476 194.76912049925158 0 194.76912049925158 -824.44465601387219 0 0 0 0 -247.34893013768715 305.84888132490141 0 305.84888132490141 -45.669630987715209 0 0 0 0 -22.395797316807148 58.128452887653111 0 58.128452887653111 -209.36084622313501 0 0 0 0 -197.24728516620962 -106.83815996611156 0 -106.83815996611156 -68.99782050299109 0 0 0 0 -0.35556154738878831 10.164843018930696 0 10.164843018930696 -4.3882554833999166 0 0 0 0 -40.409573641405586 257.70163698289252 0 257.70163698289252 186.65618080884451 0 0 0 0 249.20329719425899 -128.10053899371087 0 -128.10053899371087 34.291219394042855 0 0 0 0 9.2813914045571551 34.671908509168347 0 34.671908509168347 12.699060530935785 0 0 0 0 -207.45437548827613 172.78133230768435 0 172.78133230768435 357.71943631482281 0 0 0 0 -230.62219877513417 -41.015579082813929 0 -41.015579082813929 435.01439128881611 0 0 0 0 -249.2969038504234 56.617774049329455 0 56.617774049329455 184.06733708596585 0 0 0 0 -231.70832900608912 -37.833994960476957 0 -37.833994960476957 180.85716010536999 0 0 0 0 -52.431018540839432 137.21962054750475 0 137.21962054750475 -98.205564768297336 0 0 0 0 -17.750796488315245 146.93512585830103 0 146.93512585830103 -525.53840251103975 0 0 0 0 -8.8815033424798457 101.00432181447832 0 101.00432181447832 -300.72743328901561 0 0 0 0 -594.90152435644268 -96.958755250612739 0 -96.958755250612739 985.51057952199335 0 0 0 0 -55.905313127943373 -83.456920679134782 0 -83.456920679134782 1222.4965672289545 0 0 0 0 92.768392635814962 -13.94638228592521 0 -13.94638228592521 986.29277602527509 0 0 0 0 45.657562024782237 183.83963498207595 0 183.83963498207595 1246.1585068118584 0 0 0 0 34.546975690813269 128.68931770490599 0 128.68931770490599 1015.4344819092948 0 0 0 0 44.9456779058346 129.26865516350517 0 129.26865516350517 988.31008510431275 0 0 0 0 73.058849577661022 30.760257159039611 0 30.760257159039611 1023.9337745592056 0 0 0 0 84.980059239627735 53.479320367317996 0 53.479320367317996 1039.1704097585753 0 0 0 0 108.75538804775715 38.301472152474162 0 38.301472152474162 1022.1479459396796 0 0 0 0 24.495173406285176 50.853576625639107 0 50.853576625639107 1076.8918630489206 0 0 0 0 34.057833776391817 73.913825416697364 0 73.913825416697364 933.10981923012878 0 0 0 0 31.284667225932935 49.306662873990717 0 49.306662873990717 1039.2754292562677 0 0 0 0 67.051496969126674 149.79922228242867 0 149.79922228242867 810.31925155440695 0 0 0 0 42.226291694481915 65.461163915417274 0 65.461163915417274 926.25630906643346 0 0 0 0 39.97638756382139 97.445406410389751 0 97.445406410389751 799.56214832913247 0 0 0 0 28.960931836190866 -21.661352882045321 0 -21.661352882045321 1002.5520609125961 0 0 0 0 15.220680423062731 9.2439126553799724 0 9.2439126553799724 933.15521108530811 0 0 0 0 14.281683402794442 -39.213667570962571 0 -39.213667570962571 940.13245624525007 0 0 0 0 -23.172683571174275 -63.37659758576774 0 -63.37659758576774 1121.8518172922377 0 0 0 0 21.029514415735321 -136.34629091905663 0 -136.34629091905663 1029.1780473946128 0 0 0 0 3.0229702105248606 2.0851965908614432 0 2.0851965908614432 1.9291496307075207 0 0 0 0 6.489934589691984 105.9317137568105 0 105.9317137568105 -302.58206911783782 0 0 0 0 14.049841362575535 107.98103922672453 0 107.98103922672453 -304.88607941450027 0 0 0 0 19.492520607024233 30.668536684512546 0 30.668536684512546 1.7671557419174739 0 0 0 0 -70.632096838089637 65.986166433547623 0 65.986166433547623 -216.94077759527136 0 0 0 0 239.91431407128039 24.347276980777679 0 24.347276980777679 -268.72747234690178 0 0 0 0 3.591763586824527 -21.305636527540628 0 -21.305636527540628 1116.1291294677649 0 0 0 0 12.227263707768742 31.125806342922786 0 31.125806342922786 11.842535031076288 0 0 0 0 13.881161249730212 -63.30862801776675 0 -63.30862801776675 729.42977785925905 0 0 0 0 54.963268914661967 14.268411058223137 0 14.268411058223137 -253.24633856756554 0 0 0 0 10.674210627629506 4.1563157937667086 0 4.1563157937667086 -5.5755995500944664 0 0 0 0 1.0693065226369072 115.09358593940851 0 115.09358593940851 -46.671472030032419 0 0 0 0 13.650793887471082 99.335786256284337 0 99.335786256284337 -70.992822114189039 0 0 0 0 8.4734533417067723 83.686149040288001 0 83.686149040288001 -114.33648922067368 0 0 0 0 49.58442406654467 -110.79044669288487 0 -110.79044669288487 783.17985945154214 0 0 0 0 44.900160923869407 -14.929580310592428 0 -14.929580310592428 866.30210838429048 0 0 0 0 13.559687775326893 42.925115324487706 0 42.925115324487706 781.05298831293476 0 0 0 0 47.762368645257084 75.388636562303873 0 75.388636562303873 765.24916981573188 0 0 0 0 30.530523041546985 127.17162776640544 0 127.17162776640544 629.22259952549939 0 0 0 0 13.573957702945336 8.9289235793257831 0 8.9289235793257831 727.2732263717553 0 0 0 0 10.59432523715077 59.307082094332145 0 59.307082094332145 556.8557829419733 0 0 0 0 -18.456923835547059 72.74975905849351 0 72.74975905849351 617.47718599851942 0 0 0 0 57.269148392031639 23.356227930285968 0 23.356227930285968 511.8459013124484 0 0 0 0 60.423597907258227 -71.904143787702196 0 -71.904143787702196 678.92157051224422 0 0 0 0 44.234059542202885 62.610880213207565 0 62.610880213207565 -61.50657346832304 0 0 0 0 12.923900839949056 136.69562050390232 0 136.69562050390232 -70.46038763562683 0 0 0 0 21.122308029953274 126.79932820637623 0 126.79932820637623 -110.13128630097708 0 0 0 0 -97.643419812726279 135.84616476934207 0 135.84616476934207 -84.307103485509288 0 0 0 0 22.040275413430209 147.18041311894922 0 147.18041311894922 -207.45909959730488 0 0 0 0 -51.374889513019298 342.63608130229841 0 342.63608130229841 -752.02326718957374 0 0 0 0 -4.4229295803990283 4.3880103642971875 0 4.3880103642971875 -0.27457710298373605 0 0 0 0 189.44825280098303 -127.3680501111885 0 -127.3680501111885 -698.08260748694738 0 0 0 0 -176.51798279869035 333.54741425207249 0 333.54741425207249 -512.26884765853174 0 0 0 0 9.5422841422223428 89.308766720583662 0 89.308766720583662 -23.22194672182377 0 0 0 0 20.869397584392573 134.02757690751605 0 134.02757690751605 -61.717334404231224 0 0 0 0 25.789881535500172 90.085983573226258 0 90.085983573226258 -115.3479248345102 0 0 0 0 25.523607451563294 89.005476305414049 0 89.005476305414049 -89.047626833315007 0 0 0 0 21.003805837031905 125.64663068514801 0 125.64663068514801 -85.576418748503784 0 0 0 0 23.705027495867398 137.51324415151248 0 137.51324415151248 -122.12390288687311 0 0 0 0 -53.069087740008399 259.93176185111588 0 259.93176185111588 -88.313818495938904 0 0 0 0 46.930442698023398 212.87530973591493 0 212.87530973591493 -255.40710434368521 0 0 0 0 5.5237608080642531 168.35260478933196 0 168.35260478933196 -29.305993887421209 0 0 0 0 29.521795297010613 57.369041327530795 0 57.369041327530795 -229.64358720682503 0 0 0 0 -93.618700723189249 204.23342499273349 0 204.23342499273349 225.52450387345743 0 0 0 0 -0.75708906832585399 1.9022838174821004 0 1.9022838174821004 -0.52059311494521054 0 0 0 0 16.790410498237179 329.96227553526114 0 329.96227553526114 -1207.3158124322317 0 0 0 0 -121.30361375971552 262.49134074678659 0 262.49134074678659 -490.73464446798607 0 0 0 0 -196.57424580209954 300.59238168826414 0 300.59238168826414 -447.57543339197582 0 0 0 0 -55.292645607597365 310.54489780185315 0 310.54489780185315 -354.9204240904146 0 0 0 0 -24.426480758429534 280.74702375734705 0 280.74702375734705 -452.42371197754255 0 0 0 0 2.9980533950256358 99.601386927370186 0 99.601386927370186 -303.95990863159386 0 0 0 0 -362.05067358730139 346.57709715364035 0 346.57709715364035 -360.11282977202791 0 0 0 0 -408.37240383869357 473.95736818809382 0 473.95736818809382 -540.01056004560087 0 0 0 0 -279.04276170073172 189.99742261278516 0 189.99742261278516 -247.7365094153356 0 0 0 0 -332.07726471305796 306.21432376744269 0 306.21432376744269 -499.80364542472307 0 0 0 0 -149.81523459238269 282.81117783598529 0 282.81117783598529 -594.82027084872243 0 0 0 0 -216.13828657476552 293.40449880805318 0 293.40449880805318 -355.13500478609058 0 0 0 0 -445.20195859042724 336.73524264579464 0 336.73524264579464 -189.78383540813957 0 0 0 0 -151.07221907292114 298.12904468351189 0 298.12904468351189 -223.44294214993988 0 0 0 0 -230.71616297495439 248.42457730230626 0 248.42457730230626 -99.393764779095363 0 0 0 0 616.83969624925521 -14.975009079818847 0 -14.975009079818847 -273.47253983827795 0 0 0 0 276.13684252372695 -130.44619148519268 0 -130.44619148519268 -193.88548204133986 0 0 0 0 914.64151143206618 370.24628826823027 0 370.24628826823027 -581.06711739787715 0 0 0 0 -1549.3476006291367 1488.4475321860737 0 1488.4475321860737 -804.45242248349678 0 0 0 0 6.049364624621667 3.5035866218749625 0 3.5035866218749625 -6.0990491436665764 0 0 0 0 172.22329950678977 739.05591201483549 0 739.05591201483549 -1265.5752098290832 0 0 0 0 2021.6617160183614 -853.02410521102865 0 -853.02410521102865 -275.6923296676905 0 0 0 0 465.30579530583054 73.153748454205925 0 73.153748454205925 147.80764685876784 0 0 0 0 464.99851568504346 -459.74624074538133 0 -459.74624074538133 368.86413625999558 0 0 0 0 352.84864462575479 -65.666398023705369 0 -65.666398023705369 86.479916875985509 0 0 0 0 517.7477047251632 226.08266994899168 0 226.08266994899168 -433.23531962554262 0 0 0 0 178.38220660817751 398.49394487065729 0 398.49394487065729 -300.38022925029509 0 0 0 0 5.6047418501111679 386.4354625181586 0 386.4354625181586 -235.54165989888497 0 0 0 0 -33.940599958448729 295.37922969582542 0 295.37922969582542 -385.67789462288783 0 0 0 0 -508.87416729278266 525.63746955573151 0 525.63746955573151 -287.15199274018232 0 0 0 0 -1.2107501475074969 311.66593980357356 0 311.66593980357356 -470.040081589279 0 0 0 0 53.694930407298671 416.64722555341359 0 416.64722555341359 -292.28452487832692 0 0 0 0 518.33058927249658 -67.081594256418612 0 -67.081594256418612 -380.87212421635195 0 0 0 0 -435.19722517109403 -25.361583864425484 0 -25.361583864425484 -570.52923016466957 0 0 0 0 -767.34836353395076 613.05807186949824 0 613.05807186949824 -391.95193042718165 0 0 0 0 -211.34523925630492 565.6991300110094 0 565.6991300110094 -1090.5121787560784 0 0 0 0 -1.4143212680424497 2.0953443754866043 0 2.0953443754866043 -1.7308176217754578 0 0 0 0 -384.1628707709533 759.1255059192772 0 759.1255059192772 -912.43200119401808 0 0 0 0 -1282.6258551646533 472.6898414756397 0 472.6898414756397 -157.52719130432524 0 0 0 0 -0.92873162897524963 3.1185917279399327 0 3.1185917279399327 -3.1013027993648592 0 0 0 0 -548.13735762368742 315.36709025099844 0 315.36709025099844 -137.5273599216016 0 0 0 0 -17.894831745366332 -1.8975443791765656 0 -1.8975443791765656 1.6522834338829853 0 0 0 0 -14.950105327261554 40.815432106541266 0 40.815432106541266 -73.935532641393365 0 0 0 0 -15.692501319852354 14.342468316860447 0 14.342468316860447 -14.406218483633751 0 0 0 0 62.741268008106999 28.533554030829691 0 28.533554030829691 -17.837473778614822 0 0 0 0 125.82817525110659 13.078325780461455 0 13.078325780461455 -16.386605884705205 0 0 0 0 3.8892933560950098 3.9392386529262424 0 3.9392386529262424 -5.2245134388176382 0 0 0 0 -258.54871837682367 393.95480589904037 0 393.95480589904037 -576.73369845509296 0 0 0 0 -318.80604460825634 337.18266773553478 0 337.18266773553478 -405.03061811916632 0 0 0 0 -145.59323695695093 28.132295097579117 0 28.132295097579117 -273.34897967443248 0 0 0 0 -108.06299108043822 80.034122601431591 0 80.034122601431591 -201.67586936180305 0 0 0 0 -55.056984075508808 -4.7486060408627964 0 -4.7486060408627964 -210.97919726461259 0 0 0 0 -235.95914127499736 37.75053363510392 0 37.75053363510392 -147.26685440009169 0 0 0 0 -242.77482206081913 96.689721771046607 0 96.689721771046607 307.32329528623995 0 0 0 0 -150.8921410221883 532.101719572398 0 532.101719572398 -476.29865509048614 0 0 0 0 -61.87820678735261 -96.095696782380401 0 -96.095696782380401 -243.99792393571624 0 0 0 0 -580.05306018661031 312.37287784559885 0 312.37287784559885 -528.22339063866821 0 0 0 0 -923.92389609396196 858.54692374114347 0 858.54692374114347 -661.78605392728514 0 0 0 0 -652.63258303986913 312.54430893965036 0 312.54430893965036 -262.27747505097796 0 0 0 0 -587.22593313370362 390.46061282936353 0 390.46061282936353 -495.89539197956037 0 0 0 0 1142.3262736762881 -295.7400877429609 0 -295.7400877429609 -127.15179270489534 0 0 0 0 16.48537024961955 9.54848449306634 0 9.54848449306634 -14.795477441624968 0 0 0 0 281.82806066178091 170.9795808351555 0 170.9795808351555 -110.83517906073575 0 0 0 0 483.35539267488639 -141.1060813404456 0 -141.1060813404456 -2.4405052775073273 0 0 0 0 23.078442109437063 14.275281499669386 0 14.275281499669386 -18.462608493808943 0 0 0 0 -1015.0893564471735 742.6422906982425 0 742.6422906982425 -454.52941508268395 0 0 0 0 -888.15273431438982 363.81922774320265 0 363.81922774320265 -272.38139364457675 0 0 0 0 -351.76261398122369 211.52017500163129 0 211.52017500163129 -431.9447918766673 0 0 0 0 -340.25694080751055 249.09255648656108 0 249.09255648656108 -312.03515327138166 0 0 0 0 -145.64039096190754 51.475536900892621 0 51.475536900892621 -220.81529021340975 0 0 0 0 -573.53515814514685 212.99907873873599 0 212.99907873873599 -103.6672850112227 0 0 0 0 -128.50521115387164 288.06972987341032 0 288.06972987341032 -339.65198559135752 0 0 0 0 -25.409959500408149 135.87515826602976 0 135.87515826602976 -115.19196201715113 0 0 0 0 153.46669773562098 212.20530986889025 0 212.20530986889025 27.599812413463951 0 0 0 0 187.73380472000827 212.78911589245035 0 212.78911589245035 -189.47114672062889 0 0 0 0 167.6487310126322 146.67546515351387 0 146.67546515351387 -108.53783685462258 0 0 0 0 89.33805731432949 52.286419029514946 0 52.286419029514946 -135.59274363498116 0 0 0 0 9.573533587557904 148.14924709167826 0 148.14924709167826 -238.24208943029225 0 0 0 0 -18.48570228945573 -7.555828306638432 0 -7.555828306638432 -181.66879352258547 0 0 0 0 102.83013959009259 33.476869197416818 0 33.476869197416818 -195.87545026819498 0 0 0 0 103.78312859407561 16.871966654032803 0 16.871966654032803 -93.495719672428095 0 0 0 0 174.52939732162486 28.098799876821431 0 28.098799876821431 -146.09581384899502 0 0 0 0 112.05549338999117 -9.9398906837632239 0 -9.9398906837632239 -131.66524352032138 0 0 0 0 59.625371778711269 -31.579989644196758 0 -31.579989644196758 -137.10100773523664 0 0 0 0 -6.8873203025432304 46.398136518599131 0 46.398136518599131 -179.71325418800552 0 0 0 0 146.0451618656225 37.218339413477224 0 37.218339413477224 -80.973989020378212 0 0 0 0 122.48618200467172 101.75778159001129 0 101.75778159001129 19.405418611178902 0 0 0 0 219.06281697286613 156.12263213942788 0 156.12263213942788 -14.155689938190335 0 0 0 0 112.76002255798085 -18.961782398786454 0 -18.961782398786454 -94.090889666156727 0 0 0 0 150.67837041190069 20.320820276501763 0 20.320820276501763 -124.17481913249139 0 0 0 0 130.28593558103967 15.670044112715004 0 15.670044112715004 -63.663016738282749 0 0 0 0 137.27705593796418 64.717882913682843 0 64.717882913682843 -29.151833216150408 0 0 0 0 185.81039605175465 75.302160000697768 0 75.302160000697768 -39.753850403831166 0 0 0 0 188.36667413756368 88.079601733719755 0 88.079601733719755 -90.275889529359119 0 0 0 0 188.81691699848307 154.39104754314758 0 154.39104754314758 37.686743292309984 0 0 0 0 219.71519656771852 117.46965901997828 0 117.46965901997828 -48.605319263283491 0 0 0 0 197.85203880970221 192.32702426174728 0 192.32702426174728 117.55734135737293 0 0 0 0 238.0765818657419 145.31028420897383 0 145.31028420897383 25.876794068492018 0 0 0 0 267.44993009313475 177.15874432547571 0 177.15874432547571 59.342450088384794 0 0 0 0 282.45685179515203 300.21363064106845 0 300.21363064106845 119.86979408492334 0 0 0 0 311.34182580140623 249.20891791204485 0 249.20891791204485 31.057130262960186 0 0 0 0 -12.940569497754609 48.091167148716423 0 48.091167148716423 -74.472261687672727 0 0 0 0 226.04836367027383 98.941391655022016 0 98.941391655022016 -82.945661472404026 0 0 0 0 264.76304932461062 205.73390517234293 0 205.73390517234293 -17.911306316086666 0 0 0 0 362.53005928330094 366.4588384065537 0 366.4588384065537 90.664332990732873 0 0 0 0 320.16296966133086 200.37340448020223 0 200.37340448020223 -2.3777322125897626 0 0 0 0 -14.383021115267212 37.366536006459327 0 37.366536006459327 -71.584154762403017 0 0 0 0 45.92373507002776 108.43995850166266 0 108.43995850166266 -48.057290301787475 0 0 0 0 -2.6534684288235439 174.00285315203291 0 174.00285315203291 128.77067458165675 0 0 0 0 -4.3365594995411811 67.178566498657801 0 67.178566498657801 55.558877373243376 0 0 0 0 20.581535433269892 82.174641661555142 0 82.174641661555142 -55.380172970995773 0 0 0 0 -63.844334006771533 17.552325117809232 0 17.552325117809232 -43.896998439663548 0 0 0 0 197.85203880973859 192.32702426172909 0 192.32702426172909 117.55734135737521 0 0 0 0 133.86535419285065 217.50355005042456 0 217.50355005042456 459.03167637529623 0 0 0 0 95.747388464100368 118.67884624135331 0 118.67884624135331 216.32682231631406 0 0 0 0 52.01696149070267 99.0859186773273 0 99.0859186773273 -2.165903557495767 0 0 0 0 39.115984490021219 91.920565735798618 0 91.920565735798618 268.4984883567995 0 0 0 0 169.96629218980524 61.087980783422609 0 61.087980783422609 10.847646027727478 0 0 0 0 293.58727978456272 -18.745164701416911 0 -18.745164701416911 -96.230326086111745 0 0 0 0 120.39558923111326 -21.413373495015549 0 -21.413373495015549 29.225996090237004 0 0 0 0 42.708739332145342 43.789406532489011 0 43.789406532489011 -20.465889410997988 0 0 0 0 47.90107429226714 -57.940540238996533 0 -57.940540238996533 -159.49210027891604 0 0 0 0 15.103687158652377 30.47624997885314 0 30.47624997885314 -56.695989007103279 0 0 0 0 66.809388868059614 93.693298387752293 0 93.693298387752293 84.856558853476599 0 0 0 0 -21.82256462248634 46.967255942882602 0 46.967255942882602 -15.288185248628452 0 0 0 0 37.22922649690841 54.157035185025116 0 54.157035185025116 -27.511631962721403 0 0 0 0 134.30923025591255 28.643624327868565 0 28.643624327868565 -180.7187182016828 0 0 0 0 170.44567981513683 71.565309040990542 0 71.565309040990542 -161.72749076153286 0 0 0 0 -34.516876708882634 29.289307860095406 0 29.289307860095406 -8.2668156539898945 0 0 0 0 193.22240646078353 159.69454018871329 0 159.69454018871329 41.496321049977269 0 0 0 0 18.265837289106187 32.024107924523811 0 32.024107924523811 -66.503637536243559 0 0 0 0 185.76587948843371 240.0998912484647 0 240.0998912484647 89.495129921691841 0 0 0 0 197.85203880970948 192.32702426168544 0 192.32702426168544 117.55734135740204 0 0 0 0 88.040133069684089 127.05442807406507 0 127.05442807406507 136.64377127816988 0 0 0 0 -32.383503425618983 40.736752840793997 0 40.736752840793997 45.609556347289981 0 0 0 0 -40.009403433930856 -55.02384437011915 0 -55.02384437011915 -136.10078648858098 0 0 0 0 103.64370739484002 189.26370109614072 0 189.26370109614072 32.278222390028532 0 0 0 0 86.603139842518431 117.71536418213145 0 117.71536418213145 62.554955063635134 0 0 0 0 115.26716301760189 42.91446861337954 0 42.91446861337954 -109.2996133544948 0 0 0 0 101.67556482886036 58.174867597883534 0 58.174867597883534 6.2402185090653219 0 0 0 0 148.05626771751849 162.50088853396574 0 162.50088853396574 -31.070142203381693 0 0 0 0 276.58430352032337 312.71872683233232 0 312.71872683233232 109.03424493505736 0 0 0 0 4.4162561220862599 3.1757861131843157 0 3.1757861131843157 0.51604982316207781 0 0 0 0 -24.079398726093359 57.809606260221699 0 57.809606260221699 513.83060758252395 0 0 0 0 -19.339527005980017 48.704734555668438 0 48.704734555668438 338.11841441113211 0 0 0 0 78.269326316269144 140.74065320878799 0 140.74065320878799 31.944562996093737 0 0 0 0 85.0650422266026 111.4422915556388 0 111.4422915556388 35.226832472035312 0 0 0 0 66.074886013075655 67.098902407222667 0 67.098902407222667 -3.079292950958731 0 0 0 0 12.569570043128859 34.272076562900942 0 34.272076562900942 -14.655487087939065 0 0 0 0 66.958578533891796 -160.56070123014615 0 -160.56070123014615 60.427332630308229 0 0 0 0 -11.222299496803231 20.309141228931637 0 20.309141228931637 -38.54089284026108 0 0 0 0 -6.9173165588099437 123.2272919817915 0 123.2272919817915 15.416002190919244 0 0 0 0 245.90207110338088 260.59529393370394 0 260.59529393370394 -36.465723368775798 0 0 0 0 48.373019986627696 270.94164229055605 0 270.94164229055605 217.96919199810145 0 0 0 0 139.35981775804794 161.4682576374471 0 161.4682576374471 -88.565765740244387 0 0 0 0 101.28423453515006 173.71105859545969 0 173.71105859545969 -65.445183779636864 0 0 0 0 130.04510498577656 145.3198745604459 0 145.3198745604459 18.960833250979704 0 0 0 0 144.86310601032437 173.5494130049683 0 173.5494130049683 -73.276095057139173 0 0 0 0 23.302637784097897 56.297189402444928 0 56.297189402444928 -59.473285783569736 0 0 0 0 292.07213168869748 90.79065535108748 0 90.79065535108748 -91.520764428569237 0 0 0 0 20.229624201896513 116.21190379688051 0 116.21190379688051 -57.018100989647792 0 0 0 0 77.659720222588476 -32.764365971597726 0 -32.764365971597726 -84.909803460774128 0 0 0 0 213.03219746173431 117.85560324184462 0 117.85560324184462 -153.93837379857723 0 0 0 0 159.00178993592999 32.826124697334308 0 32.826124697334308 -252.81717620525978 0 0 0 0 60.026996048567526 94.466404848913953 0 94.466404848913953 -62.522461001644842 0 0 0 0 37.765328909845266 78.24006204134821 0 78.24006204134821 -68.825569870328763 0 0 0 0 4.762539934275992 128.96087994944537 0 128.96087994944537 -135.91862756459341 0 0 0 0 -9.8871070619527472 5.4359031436433725 0 5.4359031436433725 -115.84616948133043 0 0 0 0 52.232242105001205 4.6249052382736409 0 4.6249052382736409 8.4427169422415318 0 0 0 0 86.139156974353682 95.392459117967519 0 95.392459117967519 -43.321893299143994 0 0 0 0 -644.87276473143538 226.03192419090919 0 226.03192419090919 65.410733587690629 0 0 0 0 -133.68449809924641 384.55977042074664 0 384.55977042074664 230.21352578404185 0 0 0 0 0.061081047400259436 0.50557586734317539 0 0.50557586734317539 -1.4392170042081887 0 0 0 0 121.32574284581597 -155.11825774909721 0 -155.11825774909721 154.34232746178168 0 0 0 0 490.98523932683747 -118.93353083675174 0 -118.93353083675174 -91.54872614233318 0 0 0 0 -393.93174239851214 -25.908870088322146 0 -25.908870088322146 -76.203502837801352 0 0 0 0 -202.48115042694917 156.11719552691648 0 156.11719552691648 -131.72312757949112 0 0 0 0 -152.89232419332257 54.832361765802489 0 54.832361765802489 -77.976252069318434 0 0 0 0 -395.70534114456632 353.61182466147147 0 353.61182466147147 -66.298530045489315 0 0 0 0 -123.10029859467249 303.62552000286814 0 303.62552000286814 -195.5358356355282 0 0 0 0 39.918218632476055 -105.17223488799937 0 -105.17223488799937 10.013387678125582 0 0 0 0 143.77227492438033 31.664187769521959 0 31.664187769521959 -136.17744669262675 0 0 0 0 -159.49066552726435 148.47279823773715 0 148.47279823773715 -129.61187610474644 0 0 0 0 -1.9380618693212455 -4.467650727063301 0 -4.467650727063301 -69.10431452980265 0 0 0 0 -294.0047052472928 59.517077504373447 0 59.517077504373447 -74.746190388046671 0 0 0 0 -19.332500370353955 -7.3336897972912993 0 -7.3336897972912993 -40.397793594034738 0 0 0 0 -73.890049774483487 6.2599530125953606 0 6.2599530125953606 -21.591169601480942 0 0 0 0 -154.00535451263204 116.99611501327308 0 116.99611501327308 -97.709176443186152 0 0 0 0 -160.97070842226822 103.71543130264763 0 103.71543130264763 -72.872056280712513 0 0 0 0 -5.9650711098438478 65.163402813763241 0 65.163402813763241 -77.958216284256196 0 0 0 0 0.01252140740325558 94.596194529120112 0 94.596194529120112 41.540397033240879 0 0 0 0 64.102194022310869 49.793475953127199 0 49.793475953127199 69.363585352846712 0 0 0 0 64.164548491689857 38.260416808399896 0 38.260416808399896 23.129806677403394 0 0 0 0 -15.703901531414886 47.086662785543012 0 47.086662785543012 -27.21869157912306 0 0 0 0 33.669378864982718 4.484189857612364 0 4.484189857612364 1.119799693551613 0 0 0 0 104.97420547442562 130.04466769714236 0 130.04466769714236 100.69096289334993 0 0 0 0 50.11550308104961 36.054078222667158 0 36.054078222667158 116.10832971624041 0 0 0 0 77.189999777976482 7.0105866416997742 0 7.0105866416997742 60.336840654767002 0 0 0 0 25.287256036168834 5.7498529077709009 0 5.7498529077709009 0.88098347050145165 0 0 0 0 113.55563030785197 24.549765224743169 0 24.549765224743169 -15.866527497972129 0 0 0 0 120.57541638264047 60.699864308393444 0 60.699864308393444 43.828256816283101 0 0 0 0 -8.8194132953794906 -4.7640286821406335 0 -4.7640286821406335 48.291249878209783 0 0 0 0 36.575546499861957 46.922312556125689 0 46.922312556125689 44.560002101494774 0 0 0 0 -7.1640310829388909 -62.545563363652036 0 -62.545563363652036 62.66269704518345 0 0 0 0 20.363930662462543 5.427187119401637 0 5.427187119401637 0.68958503433422536 0 0 0 0 16.815201711568079 -37.827372560597723 0 -37.827372560597723 -30.152239302383805 0 0 0 0 18.414233108956978 -22.431427047762554 0 -22.431427047762554 35.574973470778787 0 0 0 0 29.632078300244757 -22.386873370414833 0 -22.386873370414833 21.742345653156917 0 0 0 0 62.023868040974776 19.23377108904242 0 19.23377108904242 51.246003460808424 0 0 0 0 20.460424054188479 -26.150917061808286 0 -26.150917061808286 32.860055819197441 0 0 0 0 85.759058780749911 -14.854859058013972 0 -14.854859058013972 -57.373267353104893 0 0 0 0 156.82470393504491 195.64291587902608 0 195.64291587902608 151.63538545033225 0 0 0 0 -36.422585440304829 -111.00897127555072 0 -111.00897127555072 246.87664484513152 0 0 0 0 8.3106604094209615 -0.99991570318525191 0 -0.99991570318525191 186.61209022074763 0 0 0 0 24.080488641359892 36.551903895550311 0 36.551903895550311 11.886894974381189 0 0 0 0 -45.443540746709914 -233.22514169171336 0 -233.22514169171336 352.90744183290008 0 0 0 0 92.709370164775464 34.353443110652734 0 34.353443110652734 55.818988177270512 0 0 0 0 52.565950407566561 -14.723976927376498 0 -14.723976927376498 -72.908838758572529 0 0 0 0 105.44619930066983 -52.45052418497653 0 -52.45052418497653 -72.665120991026924 0 0 0 0 6.7097317905945602 -132.46055986160604 0 -132.46055986160604 78.046068863986875 0 0 0 0 33.638919513650762 -59.804421454617113 0 -59.804421454617113 -141.34454101166921 0 0 0 0 102.77209647329437 -62.009580454319803 0 -62.009580454319803 -100.34298168931855 0 0 0 0 94.795013460221526 -20.519361597071111 0 -20.519361597071111 -59.111742207329371 0 0 0 0 98.917019279360829 -13.81534483303767 0 -13.81534483303767 -64.539194632969156 0 0 0 0 72.269745110075746 -6.0388178707944462 0 -6.0388178707944462 -61.075713200494647 0 0 0 0 109.16653226432391 -15.026033554524474 0 -15.026033554524474 -89.299527776056493 0 0 0 0 94.903388834609132 -18.749817841869344 0 -18.749817841869344 -82.964426411417662 0 0 0 0 38.33368583086849 24.971738151005411 0 24.971738151005411 -80.582875841790155 0 0 0 0 126.93821105067036 12.875652595535939 0 12.875652595535939 -85.942128333626897 0 0 0 0 88.971911593958794 61.450968496543283 0 61.450968496543283 -91.140218672764604 0 0 0 0 137.12617134163156 89.404110178500559 0 89.404110178500559 -169.67595068131777 0 0 0 0 41.587932920912863 73.954331252971315 0 73.954331252971315 -83.916730457138328 0 0 0 0 75.44350222054095 47.284691219772938 0 47.284691219772938 14.914242580120806 0 0 0 0 12.645149043747352 5.3231628588210071 0 5.3231628588210071 0.68576017051588067 0 0 0 0 103.30576862753878 152.20762365386327 0 152.20762365386327 221.37085947519881 0 0 0 0 -47.921486390936479 -165.72730540935299 0 -165.72730540935299 396.05672518396386 0 0 0 0 47.231151010006045 41.949919881582417 0 41.949919881582417 12.659954928241035 0 0 0 0 5.2496908936882392 244.75743052402504 0 244.75743052402504 565.2286361898532 0 0 0 0 -19.226619154804212 -519.09405538772808 0 -519.09405538772808 -1577.0517833519043 0 0 0 0 -1.6387928075200762 578.08296899090419 0 578.08296899090419 417.85643647267352 0 0 0 0 -0.046083138454591221 0.80994607427706455 0 0.80994607427706455 11.46312039950547 0 0 0 0 1094.6397132280181 891.9904540747375 0 891.9904540747375 -176.53527546218174 0 0 0 0 -135.49972600000183 188.85665932857228 0 188.85665932857228 414.81357490432492 0 0 0 0 -205.99281758905636 19.804563246507314 0 19.804563246507314 52.028861241073173 0 0 0 0 -53.852966249549354 159.98315055939747 0 159.98315055939747 -23.909575293371745 0 0 0 0 -131.15095851140723 311.93540154126913 0 311.93540154126913 324.75779477173637 0 0 0 0 -94.155837799324217 405.18387487146447 0 405.18387487146447 501.75193496212887 0 0 0 0 418.88952697414061 545.77391076657659 0 545.77391076657659 53.413876306840393 0 0 0 0 -4.9222109150214237 82.265005518740509 0 82.265005518740509 142.82605811124085 0 0 0 0 138.70120363988099 -24.912735607829745 0 -24.912735607829745 -552.13229850612333 0 0 0 0 99.86912631332234 465.02140743059863 0 465.02140743059863 1900.1038810377977 0 0 0 0 12.907930133408286 35.442840993192661 0 35.442840993192661 7.2484338513924342 0 0 0 0 116.68168654228793 -353.30604352388764 0 -353.30604352388764 1450.2904784671991 0 0 0 0 172.76832779246615 68.342829656670801 0 68.342829656670801 -686.92711176456942 0 0 0 0 -2.2914201149417579 4.9276033584037577 0 4.9276033584037577 12.263871952393572 0 0 0 0 -583.29260530404281 228.5464229872232 0 228.5464229872232 4337.1569926831216 0 0 0 0 -2.791615123159545 13.912952791084876 0 13.912952791084876 -7.9827535760195474 0 0 0 0 23.894185102137271 28.53898867337557 0 28.53898867337557 -18.337794874038082 0 0 0 0 592.11012666784518 742.07247271830784 0 742.07247271830784 3132.7487744547252 0 0 0 0 462.25843596121013 -11.546585495931254 0 -11.546585495931254 -688.99705121783336 0 0 0 0 -100.52619109555599 -440.81059961290066 0 -440.81059961290066 -763.73508609417331 0 0 0 0 -2.8324095704157344 1.763219496048265 0 1.763219496048265 -4.4631699655276122 0 0 0 0 0.066524321868200786 34.429171227442566 0 34.429171227442566 21.483894625380344 0 0 0 0 12.220740316290176 20.7418007337983 0 20.7418007337983 18.196996778271568 0 0 0 0 -0.039621712120405814 39.311087918179858 0 39.311087918179858 -1.8047533402568661 0 0 0 0 10.59913966153124 7.7234639490852715 0 7.7234639490852715 2.7290177130697231 0 0 0 0 23.160538549040211 37.596081073090318 0 37.596081073090318 -25.021496322578969 0 0 0 0 -0.33785129707393935 1666.8034791061727 0 1666.8034791061727 2756.7517549153927 0 0 0 0 756.40978097496918 1323.5566363491416 0 1323.5566363491416 1.3103520643016964 0 0 0 0 280.89943577560189 353.30682069154864 0 353.30682069154864 2701.9037279049226 0 0 0 0 -86.359769211685489 768.50145726887058 0 768.50145726887058 2510.9182673643954 0 0 0 0 497.61042969376649 328.07741935438571 0 328.07741935438571 603.976734635311 0 0 0 0 1.4445500836582426 4.4101425887254067 0 4.4101425887254067 3.2200627439535907 0 0 0 0 -2.9365101921102905 2106.5093487442082 0 2106.5093487442082 2628.6739820761882 0 0 0 0 402.0565471556547 1671.4221718218996 0 1671.4221718218996 393.23054522706661 0 0 0 0 262.03934994791052 1499.134394985711 0 1499.134394985711 559.85068184060219 0 0 0 0 290.09453804034729 933.11531652950589 0 933.11531652950589 914.95087413910369 0 0 0 0 350.20056482190557 1269.8909780701033 0 1269.8909780701033 1147.2952420081419 0 0 0 0 34.422871013724944 929.27487613337871 0 929.27487613337871 2715.7942817954581 0 0 0 0 1.4659613120913093 5.0408838016738287 0 5.0408838016738287 2.4529743853266401 0 0 0 0 264.66831550118513 507.52692223296253 0 507.52692223296253 1810.5801570991462 0 0 0 0 -104.4732526826192 46.318888612198862 0 46.318888612198862 1155.8080743570972 0 0 0 0 258.87608236036613 1185.9978271323489 0 1185.9978271323489 2209.4943990929532 0 0 0 0 141.8509926864208 754.40119165627402 0 754.40119165627402 1280.4893111819056 0 0 0 0 120.87226503869169 573.4128115552885 0 573.4128115552885 657.55195629800437 0 0 0 0 333.82418823757689 482.32539104690659 0 482.32539104690659 317.60928382076963 0 0 0 0 57.668202104046941 -25.93532589581082 0 -25.93532589581082 470.87748975726572 0 0 0 0 749.60433735073639 858.91551985629212 0 858.91551985629212 239.22638747104065 0 0 0 0 344.19877377319153 629.71787280761146 0 629.71787280761146 428.63889883918455 0 0 0 0 381.11728548709652 1136.4592205412337 0 1136.4592205412337 441.66071361838112 0 0 0 0 296.36591889840565 823.79579795099562 0 823.79579795099562 805.91705562420248 0 0 0 0 505.44003256772703 1257.7923524505095 0 1257.7923524505095 529.10330540418363 0 0 0 0 1040.1887012174629 819.9267807454271 0 819.9267807454271 532.88508002818787 0 0 0 0 447.48822133836438 970.5332008789228 0 970.5332008789228 1516.1277973937395 0 0 0 0 5.318892397330103 4.3420259381308597 0 4.3420259381308597 -0.024528577198566381 0 0 0 0 66.899401279253652 -321.7337956118281 0 -321.7337956118281 -553.42723195865256 0 0 0 0 251.15862061206826 470.61273364855333 0 470.61273364855333 416.54022999534209 0 0 0 0 10.797839839857772 8.3122262858669842 0 8.3122262858669842 -1.2701441098531063 0 0 0 0 254.24155013445488 282.4338199867866 0 282.4338199867866 -572.65235869870958 0 0 0 0 44.679654918887536 140.02116035873769 0 140.02116035873769 -215.36949954167358 0 0 0 0 -119.30613042229379 232.53276042425568 0 232.53276042425568 32.648840446883696 0 0 0 0 -1.6645551664091442 5.2690617927674595 0 5.2690617927674595 -0.49489813140196137 0 0 0 0 -0.76229315771172423 2.7467427757151199 0 2.7467427757151199 -0.35652462928827156 0 0 0 0 230.27754278403154 137.90023957677477 0 137.90023957677477 -571.35500334354697 0 0 0 0 -139.19125995289505 81.018477794546925 0 81.018477794546925 188.71479330066359 0 0 0 0 11.338182736755698 12.261735200627299 0 12.261735200627299 206.36214651480623 0 0 0 0 -23.926549519936088 69.088425467009074 0 69.088425467009074 145.15694962431735 0 0 0 0 -84.352748324818094 129.43897971509432 0 129.43897971509432 263.34119186527823 0 0 0 0 60.367377351838513 3.7048948648043734 0 3.7048948648043734 323.69151306702406 0 0 0 0 -20.151839987080166 141.6841791015122 0 141.6841791015122 308.54593802348245 0 0 0 0 -53.607101149477785 118.67420793964948 0 118.67420793964948 1.5295544089240138 0 0 0 0 9.2670592456415761 235.30673986159672 0 235.30673986159672 -278.29243984433288 0 0 0 0 -35.984905248704308 103.72496597330246 0 103.72496597330246 417.95038002675574 0 0 0 0 9.8108440029754149 43.388074296468801 0 43.388074296468801 10.024521868701875 0 0 0 0 -86.89868750550886 -22.963050658130669 0 -22.963050658130669 591.60513241731678 0 0 0 0 195.63496845844202 228.24593730450033 0 228.24593730450033 -478.98727852275124 0 0 0 0 140.77326511884166 134.28103829188694 0 134.28103829188694 757.148407919085 0 0 0 0 14.807769369927911 40.017385994325139 0 40.017385994325139 9.4114762060437229 0 0 0 0 -91.483749402697867 276.44614952333359 0 276.44614952333359 249.04726151607611 0 0 0 0 -7.9265857836726354 -104.02955804055819 0 -104.02955804055819 439.68529751598908 0 0 0 0 15.194459885227843 235.97153800880187 0 235.97153800880187 -167.52958132064305 0 0 0 0 -22.918149740915396 318.17388062986356 0 318.17388062986356 290.84924063810831 0 0 0 0 -0.642044675559589 3.3109920794969447 0 3.3109920794969447 5.0597871069426645 0 0 0 0 -50.296378552477108 18.211887309469603 0 18.211887309469603 143.70068279257612 0 0 0 0 -69.028278499317821 65.322335432701948 0 65.322335432701948 32.211622437454935 0 0 0 0 -57.637359640059003 100.70332822783394 0 100.70332822783394 88.805164527446323 0 0 0 0 -105.44156816510076 91.594528491074016 0 91.594528491074016 92.167470779531868 0 0 0 0 -23.526399840819067 56.527368141109037 0 56.527368141109037 52.689493714225137 0 0 0 0 -30.057732745015528 80.57252586292816 0 80.57252586292816 53.69864466844956 0 0 0 0 -66.381280536559643 72.73794832870044 0 72.73794832870044 52.497178546876967 0 0 0 0 -39.161553152738634 64.966400832462568 0 64.966400832462568 13.749103432579432 0 0 0 0 -52.655495948859226 33.9526639361831 0 33.9526639361831 9.5286708778302796 0 0 0 0 -39.261414733489801 68.046383992921619 0 68.046383992921619 48.963307085383349 0 0 0 0 -453.04191443957643 -375.3997959011549 0 -375.3997959011549 389.13285296248068 0 0 0 0 -86.141321817834978 432.99829741918802 0 432.99829741918802 652.26638765251118 0 0 0 0 149.01164547495455 -149.71588966799845 0 -149.71588966799845 -70.916058245697059 0 0 0 0 -280.09008267801619 -140.95168304300023 0 -140.95168304300023 -50.427122315881206 0 0 0 0 -51.753140374243614 27.674054795388841 0 27.674054795388841 30.671531970280768 0 0 0 0 0.013895646766115988 49.726896987202409 0 49.726896987202409 11.596276479673861 0 0 0 0 -9.2531146732762863 72.782783924629257 0 72.782783924629257 66.196750908911781 0 0 0 0 5.7198023226592341 110.37746941093064 0 110.37746941093064 186.61001663624484 0 0 0 0 -104.1571037415888 20.437561228092818 0 20.437561228092818 102.51786025030015 0 0 0 0 -70.04537360166232 27.669995932921523 0 27.669995932921523 13.279038460639672 0 0 0 0 158.13666435440973 18.094773217162583 0 18.094773217162583 -345.23754359361192 0 0 0 0 -11.000627699419681 6.6394184074175655 0 6.6394184074175655 16.238748568079757 0 0 0 0 4.8844372636071256 -1.9284588347294971 0 -1.9284588347294971 -4.0763601227740196 0 0 0 0 -13.218183713463077 92.861392261293076 0 92.861392261293076 180.07980131320073 0 0 0 0 24.139729448754224 114.96861389742844 0 114.96861389742844 182.29669637667303 0 0 0 0 3.5622733512718696 130.97112742727768 0 130.97112742727768 224.23029518550175 0 0 0 0 -11.181980764427863 106.59522116448352 0 106.59522116448352 195.53249202414736 0 0 0 0 9.8618904413306154 65.768817735308403 0 65.768817735308403 260.01416405683267 0 0 0 0 4.8342637301205116 43.716741765626494 0 43.716741765626494 10.288865047939691 0 0 0 0 -62.312081087482511 67.567875883927627 0 67.567875883927627 425.09585181750117 0 0 0 0 -15.717951795333647 69.358131714907358 0 69.358131714907358 224.54688944903319 0 0 0 0 171.1063495026101 157.76326532685744 0 157.76326532685744 0.85849504797442933 0 0 0 0 -43.156149845266555 143.85520710714081 0 143.85520710714081 219.36880781123182 0 0 0 0 -57.033883250323925 175.8973707253972 0 175.8973707253972 124.75288878618449 0 0 0 0 -12.885383754139184 98.983472913816513 0 98.983472913816513 144.76774356128954 0 0 0 0 -1.1339537608658929 5.4177462683739606 0 5.4177462683739606 -0.34644236062330336 0 0 0 0 8.1461559406889137 80.181559489243227 0 80.181559489243227 113.2308194864454 0 0 0 0 -43.590778758596571 82.19421052737016 0 82.19421052737016 154.37435208062016 0 0 0 0 -27.286374492934556 18.517154665743874 0 18.517154665743874 10.008047972944041 0 0 0 0 -119.9212219856563 -29.539772441734385 0 -29.539772441734385 -56.884384040121404 0 0 0 0 -0.29937304413761012 52.086804264647071 0 52.086804264647071 159.05387112991048 0 0 0 0 87.590040628379938 91.480275046558745 0 91.480275046558745 -394.11791676934081 0 0 0 0 -19.541299652701127 32.433982581831515 0 32.433982581831515 -219.83890318324848 0 0 0 0 10.167940875628886 10.517861903099629 0 10.517861903099629 -1.8843900330895913 0 0 0 0 19.633015502014132 67.042886175810054 0 67.042886175810054 -64.171166560387064 0 0 0 0 16.85662303474237 78.921991555231216 0 78.921991555231216 81.246364338541753 0 0 0 0 7.7994014404663119 11.788251635368169 0 11.788251635368169 -2.1851589938898144 0 0 0 0 -20.528292060698732 30.9060745873212 0 30.9060745873212 -222.12432386300952 0 0 0 0 58.545782846234943 27.477471339563635 0 27.477471339563635 -334.97350849051145 0 0 0 0 -0.19445329322061866 3.7368972591439729 0 3.7368972591439729 -0.18012533638267314 0 0 0 0 12.131245545497222 67.429466981928272 0 67.429466981928272 278.58789849907043 0 0 0 0 -8.0054892548942007 93.956570952708717 0 93.956570952708717 320.57233138624724 0 0 0 0 8.0395846013707342 46.350392952641414 0 46.350392952641414 174.15994582827989 0 0 0 0 -17.19259216222963 114.43182319496054 0 114.43182319496054 237.15186349180294 0 0 0 0 12.838598990645551 69.037891795022006 0 69.037891795022006 276.45648577735119 0 0 0 0 93.034252515502885 215.96941969052568 0 215.96941969052568 329.81519367033616 0 0 0 0 5.454836554821668 47.221611291353838 0 47.221611291353838 212.43760509688582 0 0 0 0 -93.17852624526131 51.850492661818862 0 51.850492661818862 272.12535163488792 0 0 0 0 -89.251072474340617 11.308361080566101 0 11.308361080566101 184.42652538074617 0 0 0 0 -17.862022044642799 72.902908405276321 0 72.902908405276321 47.565221034106798 0 0 0 0 -47.600440886446449 5.9853620819158095 0 5.9853620819158095 161.80653643367259 0 0 0 0 -1.2131442784448154 130.84964990879962 0 130.84964990879962 223.66939459910736 0 0 0 0 -13.289853971531556 63.983964714272588 0 63.983964714272588 31.064411023282446 0 0 0 0 -52.095070863477304 103.15267440673779 0 103.15267440673779 -84.584925002331147 0 0 0 0 5.6528230694455317 12.356533581947829 0 12.356533581947829 -0.47212620278386908 0 0 0 0 6.2744015757925808 5.1871389340958558 0 5.1871389340958558 -44.806036938498437 0 0 0 0 -10.82366208966414 57.855337012340897 0 57.855337012340897 -122.59421909214143 0 0 0 0 -126.03307212099753 79.621243884939759 0 79.621243884939759 -0.29503497942641843 0 0 0 0 1.7549826223078213 0.092400955909219817 0 0.092400955909219817 -2.4996747004770441 0 0 0 0 -3.7765758491877932 28.003830738871329 0 28.003830738871329 -44.457149472087622 0 0 0 0 -44.629771601907123 73.061945822657435 0 73.061945822657435 28.44353095596307 0 0 0 0 0.44341246304446713 9.4059483229094027 0 9.4059483229094027 13.184840247596469 0 0 0 0 -300.16627349769988 237.91327349119092 0 237.91327349119092 -84.440193385414204 0 0 0 0 -6.3704070458861679 31.709910952258724 0 31.709910952258724 33.621885327011114 0 0 0 0 -275.0711057211447 225.71645835695381 0 225.71645835695381 -156.43281258046318 0 0 0 0 1.6332846789737232 26.589518372900784 0 26.589518372900784 -119.06259067347855 0 0 0 0 0.33512866799847529 2.5074157155862338 0 2.5074157155862338 2.5813724976440184 0 0 0 0 -261.73890487292374 177.56515906165805 0 177.56515906165805 -66.939659269146432 0 0 0 0 -224.99483158003568 109.52031587610691 0 109.52031587610691 91.640022341882286 0 0 0 0 -210.85894250305137 171.16214130734443 0 171.16214130734443 -88.755531633694773 0 0 0 0 -185.80552673211423 113.47871024641609 0 113.47871024641609 -61.857290214888053 0 0 0 0 -268.98390115961229 161.89288785173267 0 161.89288785173267 -16.044367495840561 0 0 0 0 -59.759314063300508 219.20863430393956 0 219.20863430393956 -93.186845463438658 0 0 0 0 -290.39550941926791 186.07259157267981 0 186.07259157267981 28.410492151255312 0 0 0 0 -286.12243102739376 365.5824802846837 0 365.5824802846837 -254.30270226989524 0 0 0 0 -0.072197215292860051 6.9053182650161347 0 6.9053182650161347 11.557059594209079 0 0 0 0 -44.003324031922148 -28.185652294425381 0 -28.185652294425381 199.7803385378138 0 0 0 0 -39.909007498521532 -8.3724958892635186 0 -8.3724958892635186 182.44958474794475 0 0 0 0 18.649549788278819 -186.39808239730337 0 -186.39808239730337 453.72218440659344 0 0 0 0 -43.462525902310517 151.99684791606524 0 151.99684791606524 285.55741302661045 0 0 0 0 -54.084012811805835 29.188991930065129 0 29.188991930065129 7.4201563638721098 0 0 0 0 11.135551022009167 66.816286057412071 0 66.816286057412071 -61.798603900489979 0 0 0 0 -105.56341566290939 78.653859230485978 0 78.653859230485978 189.02866712321702 0 0 0 0 -76.613482144770387 -6.3609207271838386 0 -6.3609207271838386 214.43594509168906 0 0 0 0 -95.705698743937319 39.801030164495387 0 39.801030164495387 155.72157461306779 0 0 0 0 -77.235897392929473 18.45099335841951 0 18.45099335841951 130.79782611618066 0 0 0 0 -186.55451576165433 -92.308231619295839 0 -92.308231619295839 105.2925657570886 0 0 0 0 -74.251173057564301 16.335201077199599 0 16.335201077199599 71.311239401558851 0 0 0 0 -64.127791515293211 76.073790709575405 0 76.073790709575405 48.65437934979127 0 0 0 0 -58.837115267076484 25.471998842495452 0 25.471998842495452 5.5874819655572949 0 0 0 0 102.78574340660271 219.24678388498796 0 219.24678388498796 -209.08320797241868 0 0 0 0 -123.65056776809797 1.5405206731265935 0 1.5405206731265935 381.94049884656852 0 0 0 0 -92.450014966143499 -130.79321238407283 0 -130.79321238407283 32.074940103349945 0 0 0 0 195.29329536276055 -27.056422694891808 0 -27.056422694891808 606.21343719183278 0 0 0 0 22.520735336550388 269.95647353377808 0 269.95647353377808 414.94485319658997 0 0 0 0 -16.201063270276791 54.470909370160371 0 54.470909370160371 389.53364596475421 0 0 0 0 -140.75769304716778 241.33012010080711 0 241.33012010080711 1220.0787930245206 0 0 0 0 -284.40980303146716 19.480873991655244 0 19.480873991655244 1450.6413297578038 0 0 0 0 -339.38127466544393 -388.41781090506993 0 -388.41781090506993 232.62897516124667 0 0 0 0 2.190000556344728 -2.5721580414303418 0 -2.5721580414303418 6.3196340943254654 0 0 0 0 845.87076321102995 1174.4973039654742 0 1174.4973039654742 1443.6518449437426 0 0 0 0 627.30875755207308 652.49882848009293 0 652.49882848009293 621.65198506540037 0 0 0 0 -188.91210015094475 95.61688118706661 0 95.61688118706661 -0.95679859984193172 0 0 0 0 -9.1200144150179199 -3.4587232604411469 0 -3.4587232604411469 24.354331956330242 0 0 0 0 -122.44569268184333 201.52879521852293 0 201.52879521852293 151.39155250605836 0 0 0 0 34.684538016110309 156.72841113795585 0 156.72841113795585 -928.95237179700734 0 0 0 0 14.66771591166993 26.246463533648196 0 26.246463533648196 3.1194063582476694 0 0 0 0 182.06599425803142 238.8630263086161 0 238.8630263086161 571.98197222608724 0 0 0 0 -1.6577846941436292 179.04759068466228 0 179.04759068466228 -591.0750933098825 0 0 0 0 21.031536408564847 30.431676662379942 0 30.431676662379942 3.2280534160539602 0 0 0 0 16.950280548340743 205.77048644588513 0 205.77048644588513 -556.99282958195545 0 0 0 0 202.23210475509768 -230.79184975050885 0 -230.79184975050885 1319.3224266987527 0 0 0 0 311.88100249016134 89.145307714934461 0 89.145307714934461 649.33253612339468 0 0 0 0 29.999738385457022 200.6127207495374 0 200.6127207495374 1229.0447349816041 0 0 0 0 104.5857627395194 593.44341916115445 0 593.44341916115445 1976.5225602881692 0 0 0 0 50.512722335930903 413.8252603697465 0 413.8252603697465 1403.1170302574392 0 0 0 0 130.28970813291016 61.503314346293337 0 61.503314346293337 1242.351686947919 0 0 0 0 -138.20191604222418 273.34851838721443 0 273.34851838721443 1325.4117692406362 0 0 0 0 -158.23379761705473 182.87006351152377 0 182.87006351152377 2106.8316941814992 0 0 0 0 6.5362377495342656 17.983138246340019 0 17.983138246340019 2.5429443714373541 0 0 0 0 -0.19817769914334349 248.20764270950713 0 248.20764270950713 -1350.1088450247407 0 0 0 0 15.218754037496183 286.73367655759648 0 286.73367655759648 -729.51617067978805 0 0 0 0 -53.397687258484439 183.37821512590199 0 183.37821512590199 -789.73434017138788 0 0 0 0 -73.577831253518298 203.50383026065401 0 203.50383026065401 -726.24946474406897 0 0 0 0 -90.130047447208199 368.5323417747386 0 368.5323417747386 -605.83809413915878 0 0 0 0 -23.468790510283725 210.6302717696235 0 210.6302717696235 -375.38376745878486 0 0 0 0 13.461993994122167 329.12339980122488 0 329.12339980122488 -526.35125503348536 0 0 0 0 16.799656143139146 230.41166625991173 0 230.41166625991173 -666.81677389232937 0 0 0 0 -33.520972534031898 284.49796121854524 0 284.49796121854524 -592.82638278206286 0 0 0 0 -36.347170353445108 282.92514467388901 0 282.92514467388901 -430.93894588806506 0 0 0 0 96.078430574460072 301.49744447054763 0 301.49744447054763 -533.47891532197536 0 0 0 0 13.539058994621314 333.54304617592095 0 333.54304617592095 -544.93418718549219 0 0 0 0 -436.43301254509652 634.08778456504388 0 634.08778456504388 -623.5644169573643 0 0 0 0 1.0475957726866909 434.53155378267365 0 434.53155378267365 -551.08480352372862 0 0 0 0 12.581778059386124 251.96611603609017 0 251.96611603609017 -338.40306778971717 0 0 0 0 164.25934829556718 279.78170614272676 0 279.78170614272676 -335.51516244973209 0 0 0 0 2.5804357722206106 0.91372008801737437 0 0.91372008801737437 -1.6493247320319995 0 0 0 0 510.60528305016123 -76.563220583029761 0 -76.563220583029761 -82.421634458318294 0 0 0 0 123.20565954904305 67.463313003303483 0 67.463313003303483 -59.806745624180166 0 0 0 0 114.19231415503145 56.901993927118383 0 56.901993927118383 -36.736592158114945 0 0 0 0 145.93407325918724 115.36681782063442 0 115.36681782063442 -35.985112965281587 0 0 0 0 42.882406022330542 124.14969385497534 0 124.14969385497534 -35.408810267221043 0 0 0 0 80.95632795192796 82.811420404203091 0 82.811420404203091 -20.801148368729628 0 0 0 0 77.998709115461679 76.613107303157449 0 76.613107303157449 -33.584096525487439 0 0 0 0 82.996704855166172 65.3492583989173 0 65.3492583989173 -12.226123263390036 0 0 0 0 36.533670274318865 117.96367449070749 0 117.96367449070749 4.0518027445359621 0 0 0 0 35.120140326389446 203.9080724590458 0 203.9080724590458 -79.848997190230875 0 0 0 0 -20.767188649773743 121.39307082283267 0 121.39307082283267 -4.4082250777209993 0 0 0 0 9.6238456743922143 60.324672688342616 0 60.324672688342616 49.875035807941458 0 0 0 0 31.29408058248373 128.32688354421771 0 128.32688354421771 -7.8175658318978094 0 0 0 0 11.753666981054266 131.63686412838433 0 131.63686412838433 -86.700829993111256 0 0 0 0 18.462044847339712 151.9230393802045 0 151.9230393802045 -100.32963892332918 0 0 0 0 -16.800185840485938 264.01029489502253 0 264.01029489502253 -344.17931489115472 0 0 0 0 -122.77166443610076 170.04293910664273 0 170.04293910664273 -80.191142714036687 0 0 0 0 -30.125191575647477 123.01314685407124 0 123.01314685407124 -230.96926834696023 0 0 0 0 -82.043580830914834 154.35885747216798 0 154.35885747216798 -36.786353159601276 0 0 0 0 225.93675412269295 225.46619883211679 0 225.46619883211679 -199.95051526369207 0 0 0 0 -29.201317044513416 19.625125699226373 0 19.625125699226373 120.24656580531882 0 0 0 0 210.57018493796568 -9.6413327678492351 0 -9.6413327678492351 -49.213924293238961 0 0 0 0 70.655155916110743 42.814805212879946 0 42.814805212879946 -68.293188937263039 0 0 0 0 70.083156649896409 46.831489744599821 0 46.831489744599821 -36.948336640426298 0 0 0 0 -26.148262906124728 124.34403972754808 0 124.34403972754808 22.752828589589626 0 0 0 0 131.51409536111169 -484.31967841031656 0 -484.31967841031656 317.99926354701074 0 0 0 0 74.036497652201191 68.618080389386122 0 68.618080389386122 59.41290262778115 0 0 0 0 107.4794881021935 182.22423532085531 0 182.22423532085531 -91.352597859626258 0 0 0 0 67.983422713043439 62.713785766612617 0 62.713785766612617 52.182775823609973 0 0 0 0 360.26707895970321 -207.4250154444253 0 -207.4250154444253 48.540284829441589 0 0 0 0 -111.36873043027299 26.667997923270377 0 26.667997923270377 -68.272652116194877 0 0 0 0 -1097.7367488050659 339.76801897181758 0 339.76801897181758 -159.27801466315668 0 0 0 0 -135.18951220389135 89.454506265750751 0 89.454506265750751 597.47139739908744 0 0 0 0 16.310734551982023 212.99936647177037 0 212.99936647177037 85.444894586518785 0 0 0 0 -69.726646973176685 197.48542187095518 0 197.48542187095518 336.01977929727582 0 0 0 0 -28.509599992845324 -23.185922351069166 0 -23.185922351069166 230.88423023020187 0 0 0 0 -257.48515107139974 263.54049647118063 0 263.54049647118063 287.29847319959299 0 0 0 0 -38.941770310979337 -201.04997209006797 0 -201.04997209006797 645.04126654666675 0 0 0 0 187.4397629516825 87.721736847528518 0 87.721736847528518 308.9769040355859 0 0 0 0 86.122406948695556 80.120297210257945 0 80.120297210257945 55.424082755274661 0 0 0 0 90.180544868897414 271.85693463708685 0 271.85693463708685 190.36154196087591 0 0 0 0 144.52698861865429 19.066420476858184 0 19.066420476858184 -217.46538302013141 0 0 0 0 5.7335278780431338 14.66239146918528 0 14.66239146918528 17.094934749399957 0 0 0 0 189.45936109036847 1.1880885360005777 0 1.1880885360005777 -256.00403253180411 0 0 0 0 69.391789182369394 58.663728969622753 0 58.663728969622753 -225.94257400860079 0 0 0 0 66.417601659605907 158.09078403131264 0 158.09078403131264 -225.05812258427613 0 0 0 0 108.21272408945879 122.75519358659949 0 122.75519358659949 -185.80070536006679 0 0 0 0 208.5692819202668 83.641290044266498 0 83.641290044266498 -221.79164643124386 0 0 0 0 286.20661295848367 193.22981395708121 0 193.22981395708121 -188.2197798058769 0 0 0 0 94.375030261730899 250.23815638939504 0 250.23815638939504 45.680539020999277 0 0 0 0 210.99580923642498 102.87028208146512 0 102.87028208146512 -238.95031084089715 0 0 0 0 527.82293844458763 257.92655441249372 0 257.92655441249372 -203.29456753255909 0 0 0 0 202.95063175705582 101.03132666553211 0 101.03132666553211 3.6939635574963177 0 0 0 0 72.703725838029641 303.64712581440835 0 303.64712581440835 -292.74996475355147 0 0 0 0 219.63636119270814 99.013165098085665 0 99.013165098085665 -249.51009284977044 0 0 0 0 187.55469580714998 37.391557505114179 0 37.391557505114179 -287.93381466250139 0 0 0 0 150.02173536745977 -14.429757503101428 0 -14.429757503101428 -427.2728897328343 0 0 0 0 -15.898536416416391 128.332386291886 0 128.332386291886 -506.8598702619056 0 0 0 0 -65.567983395256306 181.59773421784121 0 181.59773421784121 -202.76304653724401 0 0 0 0 -210.99338809681649 316.62562235771475 0 316.62562235771475 -274.88508230506068 0 0 0 0 -191.87266875474961 399.31252531396967 0 399.31252531396967 -835.58888279964776 0 0 0 0 -296.43719078982394 464.16517561946966 0 464.16517561946966 -584.3522284517403 0 0 0 0 -17.902266768202026 104.25470012645383 0 104.25470012645383 -687.75185787267401 0 0 0 0 -167.32322037230188 1142.4901988735728 0 1142.4901988735728 -746.69344035524182 0 0 0 0 1.6800965487648511 5.6284687204747286 0 5.6284687204747286 0.85061513541467093 0 0 0 0 238.09819169936964 732.4134135510285 0 732.4134135510285 -2371.856965207975 0 0 0 0 -201.85552239143362 116.28948235101416 0 116.28948235101416 -1200.8043802082029 0 0 0 0 219.89214504850679 434.28425833198344 0 434.28425833198344 1259.4980748566959 0 0 0 0 169.53570686954117 -106.19689105882571 0 -106.19689105882571 934.67655524710426 0 0 0 0 -241.1434779887386 641.269918799273 0 641.269918799273 2763.5332853134387 0 0 0 0 84.736078576330328 426.8139292064152 0 426.8139292064152 154.21732897781476 0 0 0 0 -128.47451351592827 442.32468058093946 0 442.32468058093946 469.0524382947624 0 0 0 0 -121.4333232572244 170.28904897904795 0 170.28904897904795 109.72184644514346 0 0 0 0 -77.453237826703116 42.395974256003683 0 42.395974256003683 19.108433548068206 0 0 0 0 -59.42545918164663 52.056007859181818 0 52.056007859181818 -4.2133307167312637 0 0 0 0 161.48122718126069 470.20401396474335 0 470.20401396474335 489.28505862524617 0 0 0 0 -34.846380605563098 22.078809347319073 0 22.078809347319073 9.9105031055073738 0 0 0 0 641.47885072739518 365.12707802700606 0 365.12707802700606 -24.363143916722038 0 0 0 0 103.89268997392355 773.43840597847156 0 773.43840597847156 123.47383179890858 0 0 0 0 -50.13277614893741 778.42007939672476 0 778.42007939672476 365.18295087190927 0 0 0 0 -108.95414753824298 129.2287266852727 0 129.2287266852727 -51.631197376177624 0 0 0 0 -89.205406810826389 93.131283377722866 0 93.131283377722866 -59.320828154485753 0 0 0 0 -57.526103149037226 142.78321116438747 0 142.78321116438747 -37.098955274774198 0 0 0 0 -86.838629953985219 104.39583199961271 0 104.39583199961271 -20.012917974348966 0 0 0 0 -8.1697057817690109 23.454648659601354 0 23.454648659601354 9.7128735741600707 0 0 0 0 -74.318051104867664 59.258469673149193 0 59.258469673149193 35.726956390273699 0 0 0 0 6.5156181124825707 6.2099427111150263 0 6.2099427111150263 8.3639943947579383 0 0 0 0 -96.766918950605032 109.73222366359914 0 109.73222366359914 -88.78452159299195 0 0 0 0 -139.74997225744301 146.17747780120408 0 146.17747780120408 -97.967469411087222 0 0 0 0 -111.44182218298738 92.932156232686793 0 92.932156232686793 -60.926332192844711 0 0 0 0 -40.84740435659478 94.991519308365241 0 94.991519308365241 -83.952657067318796 0 0 0 0 -103.74644588388037 100.17255733859929 0 100.17255733859929 -82.618435454478458 0 0 0 0 -36.882833631774702 132.6044597537566 0 132.6044597537566 -117.56867970174062 0 0 0 0 -70.120671118609607 99.168029398635554 0 99.168029398635554 -91.964228314580396 0 0 0 0 -107.24336244289589 109.28561445754167 0 109.28561445754167 -75.936543353964225 0 0 0 0 -100.8855142006214 129.24283844033926 0 129.24283844033926 -117.32952407582343 0 0 0 0 -105.74391221281257 127.99559751353809 0 127.99559751353809 -72.207854159883937 0 0 0 0 -108.27494706475409 127.74994507945303 0 127.74994507945303 -68.668570553156314 0 0 0 0 -22.529103440480469 32.425228194400461 0 32.425228194400461 43.488829050660783 0 0 0 0 -117.61184414471791 123.70247880795068 0 123.70247880795068 -39.419809712911956 0 0 0 0 -112.2584710241008 135.65554023771256 0 135.65554023771256 -63.906345666400739 0 0 0 0 -1.6847258531342959 56.588767775105225 0 56.588767775105225 5.3185374879831215 0 0 0 0 5.4449633706626628 103.57146560832575 0 103.57146560832575 -128.1196080244772 0 0 0 0 2.5101765814311534 18.935358197290995 0 18.935358197290995 -2.8823607888409128 0 0 0 0 -156.13146874896483 166.23695631463488 0 166.23695631463488 -68.217256528711005 0 0 0 0 7.043556334485249 31.803336290807223 0 31.803336290807223 -16.824474802612968 0 0 0 0 10.494622966552924 51.264204693400643 0 51.264204693400643 -2.8971406266646227 0 0 0 0 -5.2230341258473345 40.270976532927307 0 40.270976532927307 -9.60714067328081 0 0 0 0 -26.855577535556222 153.56419531259598 0 153.56419531259598 -118.63029142636151 0 0 0 0 -19.312641205295222 23.107211559898133 0 23.107211559898133 0.57704466686118394 0 0 0 0 1.0352727307235909 76.321172648884385 0 76.321172648884385 -93.901710603509855 0 0 0 0 -113.39318702486344 160.76919488998101 0 160.76919488998101 -108.1952262696941 0 0 0 0 -35.455645807732708 32.908319428580299 0 32.908319428580299 45.79138437228697 0 0 0 0 -73.696058996334614 112.46889425863992 0 112.46889425863992 -59.904640562519489 0 0 0 0 -121.44486781769047 141.56772133560298 0 141.56772133560298 -53.544165398241603 0 0 0 0 -78.87941683293144 59.732573058241968 0 59.732573058241968 -8.9206925821438858 0 0 0 0 106.12777666904367 264.37180782861105 0 264.37180782861105 43.537221459006105 0 0 0 0 13.527799631992821 246.08529287512647 0 246.08529287512647 -121.78336159781247 0 0 0 0 -69.037899922262682 73.259755360909693 0 73.259755360909693 -14.245884121425263 0 0 0 0 105.69653820155872 222.57929369526028 0 222.57929369526028 -115.80514593696716 0 0 0 0 135.16879841776972 127.02389847299492 0 127.02389847299492 -211.4961475944001 0 0 0 0 -27.669316223160422 124.60175804310347 0 124.60175804310347 47.397236084558244 0 0 0 0 32.53002367996109 66.769879922555162 0 66.769879922555162 8.7952978485345596 0 0 0 0 72.395727560353592 63.153228938351056 0 63.153228938351056 14.885847421810439 0 0 0 0 84.113824615882592 37.529201578928856 0 37.529201578928856 0.31261966385289952 0 0 0 0 -40.882876183706685 90.28229215805186 0 90.28229215805186 175.64722119192447 0 0 0 0 -12.160413464668636 32.063945430409149 0 32.063945430409149 96.078393112911726 0 0 0 0 11.71767227678356 190.47099396854537 0 190.47099396854537 -96.90026791638229 0 0 0 0 20.029118173486495 40.136642936413409 0 40.136642936413409 -17.295928199309856 0 0 0 0 76.858810545905726 174.61129182926015 0 174.61129182926015 163.59549253517434 0 0 0 0 -37.446019088529283 214.13479263521731 0 214.13479263521731 399.40990452522738 0 0 0 0 21.21087305113906 231.90000458233953 0 231.90000458233953 48.348286445369013 0 0 0 0 181.79575082125666 296.91888869308605 0 296.91888869308605 -269.47369428691673 0 0 0 0 -65.396930557835731 324.87452569490961 0 324.87452569490961 115.05027844279539 0 0 0 0 222.11720014858292 135.40496939903824 0 135.40496939903824 -218.29199315013921 0 0 0 0 209.79982870003005 233.34385425801156 0 233.34385425801156 -553.03837176686466 0 0 0 0 -470.93793268208174 595.28324029230316 0 595.28324029230316 -168.47694866274105 0 0 0 0 -453.41288369654649 421.8917219768573 0 421.8917219768573 -444.47413221932948 0 0 0 0 -0.62520425011756942 -5.4125818019053327 0 -5.4125818019053327 -3.8908675614890029 0 0 0 0 420.21837936373777 293.05163401335267 0 293.05163401335267 -587.7847910686578 0 0 0 0 738.07748036047269 6.9570785388641525 0 6.9570785388641525 -342.85652456214302 0 0 0 0 230.40201119283483 151.63490047972209 0 151.63490047972209 61.648379553462291 0 0 0 0 215.21546353354643 208.86973904862498 0 208.86973904862498 14.660079458014479 0 0 0 0 -46.496312842755287 19.269425262667937 0 19.269425262667937 -69.040747832215857 0 0 0 0 -41.093201191732078 126.19209250103995 0 126.19209250103995 -17.6759816801532 0 0 0 0 -45.914434634767531 67.084934348265961 0 67.084934348265961 4.2604460127404309 0 0 0 0 -10.368987602825342 43.523706892065924 0 43.523706892065924 -14.285834828781507 0 0 0 0 -103.37120857238915 103.73407026115274 0 103.73407026115274 21.892472862684372 0 0 0 0 2.203892017825531 11.378882969241687 0 11.378882969241687 -13.765378976538841 0 0 0 0 239.2004793547967 20.537106356220193 0 20.537106356220193 -82.303819775406737 0 0 0 0 32.278446135393636 80.045648276026014 0 80.045648276026014 11.221812908655137 0 0 0 0 43.667082950240001 83.28049969865242 0 83.28049969865242 176.0061597617314 0 0 0 0 87.435200554878975 180.08304341805206 0 180.08304341805206 76.919864572666484 0 0 0 0 28.450985155569526 53.528506716288121 0 53.528506716288121 -14.865539162612194 0 0 0 0 2.6385822034344812 8.0131124690015412 0 8.0131124690015412 19.954663329619819 0 0 0 0 42.920806842023012 50.998863092147985 0 50.998863092147985 12.887879205110949 0 0 0 0 16.564918815056444 122.70749440719374 0 122.70749440719374 106.81379376200493 0 0 0 0 49.885405378576252 17.747283460354083 0 17.747283460354083 99.671285631169667 0 0 0 0 33.859868416100653 38.375368015793356 0 38.375368015793356 66.840001634613145 0 0 0 0 -25.759504639954685 52.917458827607106 0 52.917458827607106 -17.388322090402653 0 0 0 0 -5.2581517066864762 45.328391804137937 0 45.328391804137937 -42.457095811259933 0 0 0 0 3.057352073543143 37.171380990944883 0 37.171380990944883 4.4181714220848107 0 0 0 0 -7.4171711875969777 50.43621368073218 0 50.43621368073218 -13.819447742116608 0 0 0 0 -12.445849576644832 42.041685390238854 0 42.041685390238854 -17.898121944941522 0 0 0 0 -4.7717769906303147 41.944834714300669 0 41.944834714300669 -20.502644247051649 0 0 0 0 -97.939383836201159 56.118762360914843 0 56.118762360914843 19.832456710821134 0 0 0 0 0.31974435043919414 0.75489213985484582 0 0.75489213985484582 0.71533004395587341 0 0 0 0 -12.586372495181422 40.855633148792549 0 40.855633148792549 -26.967875325412024 0 0 0 0 -2.8547245359321209 0.89583507753242486 0 0.89583507753242486 -10.073193321335033 0 0 0 0 115.7413045101639 56.327342179267362 0 56.327342179267362 -48.752306230613613 0 0 0 0 1.2590274924135372 10.447082354053919 0 10.447082354053919 -3.2739709403795132 0 0 0 0 -22.19003917396185 50.03494792805941 0 50.03494792805941 -19.413897334510693 0 0 0 0 0.33569026598701157 31.37851172304569 0 31.37851172304569 -20.030547147350568 0 0 0 0 36.075503002095502 41.344128648142942 0 41.344128648142942 -53.650936192909285 0 0 0 0 -17.089960091325338 43.766233588821706 0 43.766233588821706 -12.720788483275101 0 0 0 0 42.924105009573395 88.977040965983178 0 88.977040965983178 -26.641527524272533 0 0 0 0 172.37962314853212 72.780263151653344 0 72.780263151653344 -72.336042914825157 0 0 0 0 0.40518948146041112 -6.5407527719284815 0 -6.5407527719284815 -45.656947231048662 0 0 0 0 -185.86474371221266 205.16631871432401 0 205.16631871432401 -206.5510044636103 0 0 0 0 -130.12571344625758 144.7701258069801 0 144.7701258069801 -327.04133800208365 0 0 0 0 -611.00143964345625 262.77556449849726 0 262.77556449849726 -59.517482691848272 0 0 0 0 -251.77919762329475 574.13772917112237 0 574.13772917112237 -739.53730437854392 0 0 0 0 174.26457829437277 -332.04988936237351 0 -332.04988936237351 -471.07632174274477 0 0 0 0 -1.8354639771048937 -4.0357537367667504 0 -4.0357537367667504 -15.082133259088025 0 0 0 0 -919.51473713006999 794.39037856832874 0 794.39037856832874 -630.9466997706113 0 0 0 0 -19.174372178193153 97.360229895772136 0 97.360229895772136 92.164261750156584 0 0 0 0 -53.468209194223164 447.2564536470345 0 447.2564536470345 -628.19982196369529 0 0 0 0 -124.80219713255065 549.67252238417495 0 549.67252238417495 -542.0575987095508 0 0 0 0 -212.53466069776914 468.46418463870577 0 468.46418463870577 -564.77391477880155 0 0 0 0 11.066623885490117 226.67015700462071 0 226.67015700462071 -448.73321725296955 0 0 0 0 -33.763543647110055 389.73358847660711 0 389.73358847660711 -1012.6793308089764 0 0 0 0 -129.60816200921545 457.00538396423872 0 457.00538396423872 -629.38642499559774 0 0 0 0 -0.10897409305471228 319.1972985265802 0 319.1972985265802 -653.73809063900262 0 0 0 0 -131.30619071108231 418.15605477556892 0 418.15605477556892 -206.87505376027548 0 0 0 0 -134.82481639244361 191.88707782337588 0 191.88707782337588 -73.826521218172275 0 0 0 0 116.60004392522387 129.62481205949371 0 129.62481205949371 -104.27484831130278 0 0 0 0 -74.353663002199028 218.29532811397985 0 218.29532811397985 353.13238415487285 0 0 0 0 121.74768695549574 92.457138694182504 0 92.457138694182504 9.486640906010507 0 0 0 0 -1.9438958208529016 -0.55848935540251432 0 -0.55848935540251432 0.042589256430929368 0 0 0 0 330.97183439834043 -27.973408031451982 0 -27.973408031451982 -27.794527053891215 0 0 0 0 238.35981428675586 116.36584524727732 0 116.36584524727732 -75.536952908732928 0 0 0 0 101.69303098524688 60.192760875728709 0 60.192760875728709 -19.80702863503393 0 0 0 0 -0.27847190438478719 85.724664798630329 0 85.724664798630329 -284.87568276317324 0 0 0 0 -48.31596957736474 -45.786472214556852 0 -45.786472214556852 -46.973900964159839 0 0 0 0 -1.3408830036121486 2.1923566202476934 0 2.1923566202476934 -0.61407401367915782 0 0 0 0 96.053985414007911 101.66659544378217 0 101.66659544378217 -270.63164672584389 0 0 0 0 -40.348866438627738 58.412776502853376 0 58.412776502853376 -4.6754494619235629 0 0 0 0 79.590208117951988 14.459482362864946 0 14.459482362864946 10.729733603733621 0 0 0 0 -1.2659331955403275 2.6895042090268362 0 2.6895042090268362 -4.9097671337468967 0 0 0 0 132.8993502708181 110.41973247529131 0 110.41973247529131 68.847390065115178 0 0 0 0 64.878469993520412 118.41906685595313 0 118.41906685595313 122.44177196393866 0 0 0 0 0.11431156908656703 68.988645162522516 0 68.988645162522516 105.41174420344032 0 0 0 0 10.981141705313348 -22.412755023671707 0 -22.412755023671707 1.2830069596093381 0 0 0 0 54.761764428876631 18.796174015118595 0 18.796174015118595 -19.713208872686664 0 0 0 0 74.12543431535596 -27.92773625393238 0 -27.92773625393238 56.381566305761226 0 0 0 0 73.543851777707459 -13.391771945251094 0 -13.391771945251094 -31.524805667933833 0 0 0 0 42.719972102684551 58.259345349510113 0 58.259345349510113 20.357539514821838 0 0 0 0 42.003988184558693 50.305224215602721 0 50.305224215602721 86.518187295892858 0 0 0 0 69.797114919638261 109.93185839565194 0 109.93185839565194 9.5818959806165367 0 0 0 0 146.72037359985552 24.319503661354247 0 24.319503661354247 -21.297192111240292 0 0 0 0 -5.3072351782175247 98.957876878645038 0 98.957876878645038 39.611429895616311 0 0 0 0 -10.927507722539303 52.014527002062096 0 52.014527002062096 3.5418602587305941 0 0 0 0 -21.354170414153486 43.7240637778159 0 43.7240637778159 11.062654094697791 0 0 0 0 -9.393863928358769 64.5808098224079 0 64.5808098224079 24.011843716842122 0 0 0 0 -10.433197649486829 52.234002550278092 0 52.234002550278092 3.2845200119554647 0 0 0 0 -3.2975217075727414 59.096146346633759 0 59.096146346633759 5.175623692895897 0 0 0 0 19.824989712019288 33.18082483351219 0 33.18082483351219 23.302067556379484 0 0 0 0 -0.36821216563112102 64.529086428970913 0 64.529086428970913 2.0349132754472521 0 0 0 0 25.258883065529517 64.470741936020204 0 64.470741936020204 6.1870351207689964 0 0 0 0 37.333892194350483 39.360720987317109 0 39.360720987317109 -25.092628498510749 0 0 0 0 37.10721833514981 40.001064125022822 0 40.001064125022822 -21.877580737489552 0 0 0 0 10.125573897376285 20.02782104054095 0 20.02782104054095 22.575256580525632 0 0 0 0 23.63487530688144 44.479824959911639 0 44.479824959911639 -26.619970505447782 0 0 0 0 -37.156488116807623 154.11848576632656 0 154.11848576632656 -22.232479393343965 0 0 0 0 -42.525916212282027 100.08671242896889 0 100.08671242896889 -81.265427031201398 0 0 0 0 -35.739492193924889 139.36579515515132 0 139.36579515515132 -13.943810078322713 0 0 0 0 1325.9971212454257 519.94638533965917 0 519.94638533965917 209.60130115511129 0 0 0 0 393.60985887561401 278.72381969697381 0 278.72381969697381 507.59290057107864 0 0 0 0 -0.95841253728855236 0.6713636328837822 0 0.6713636328837822 1.5772674994907163 0 0 0 0 331.03223172086291 425.76477821097433 0 425.76477821097433 599.0318115413902 0 0 0 0 1261.6125858138257 434.62242250884447 0 434.62242250884447 -286.52311460777128 0 0 0 0 342.68070930985414 396.60683854302624 0 396.60683854302624 477.19439846859314 0 0 0 0 169.21761755105399 444.40944678271626 0 444.40944678271626 496.04930768345366 0 0 0 0 241.89987660123734 278.07421333312959 0 278.07421333312959 354.89219199804938 0 0 0 0 393.15514792661361 370.10822741894071 0 370.10822741894071 273.68064262080588 0 0 0 0 0.67050566955003887 301.02145805184773 0 301.02145805184773 430.9996012291158 0 0 0 0 267.57910096486739 225.06718073444063 0 225.06718073444063 128.68583228105126 0 0 0 0 387.47884344743215 293.14352986851372 0 293.14352986851372 243.35453051276272 0 0 0 0 11.184040981584985 27.282628933335218 0 27.282628933335218 -21.365832278812377 0 0 0 0 0.2499175521894017 7.1392957425900931 0 7.1392957425900931 -7.6523133024005574 0 0 0 0 -25.631927385795279 27.810644051643976 0 27.810644051643976 279.96818542218534 0 0 0 0 -20.977809426243766 -26.485336978092164 0 -26.485336978092164 202.98069215128271 0 0 0 0 4.0050820455059863 1.8802333906264863 0 1.8802333906264863 4.6455158335884121 0 0 0 0 -342.81608110018715 207.09560680547293 0 207.09560680547293 -110.47541426194584 0 0 0 0 -0.39761579993381702 -1.9297668103391104 0 -1.9297668103391104 2.78883407715273 0 0 0 0 -0.68244700779177947 163.7599003676969 0 163.7599003676969 -238.3037899390547 0 0 0 0 -122.98962622528779 235.24518465885922 0 235.24518465885922 -267.44170106451202 0 0 0 0 -144.61035754106706 305.40167046821625 0 305.40167046821625 -335.83416728257725 0 0 0 0 1.3102443617826793 243.01949527751276 0 243.01949527751276 -67.640697518585512 0 0 0 0 -217.34391530608991 248.06234087752455 0 248.06234087752455 299.26838712647805 0 0 0 0 -239.4265261996261 92.419272062675191 0 92.419272062675191 37.708536808684585 0 0 0 0 -48.431852601686842 211.29817452572024 0 211.29817452572024 -357.25827340152682 0 0 0 0 -33.413407995263697 139.96223054970687 0 139.96223054970687 -279.0557230495474 0 0 0 0 -199.73719887396146 242.05813835078789 0 242.05813835078789 -350.63525380670603 0 0 0 0 -213.30998637328594 299.62125268548607 0 299.62125268548607 0.68048056103907584 0 0 0 0 9.0441443171584979 -13.521455571926708 0 -13.521455571926708 20.257804311869052 0 0 0 0 -3.9357102085468227 4.2671825167234658 0 4.2671825167234658 13.345228662167123 0 0 0 0 8.9993606095813448 5.2397207753983821 0 5.2397207753983821 22.819518316035101 0 0 0 0 3.5986107846147206 -2.861289242894145 0 -2.861289242894145 12.00157215299987 0 0 0 0 279.17994361033197 -139.87956242388464 0 -139.87956242388464 99.923097826220328 0 0 0 0 420.54129936851677 -61.442082768095133 0 -61.442082768095133 -117.79343405546388 0 0 0 0 110.81299311894691 -162.74924468082827 0 -162.74924468082827 143.39687781146495 0 0 0 0 -101.06606845605711 -10.030949994725233 0 -10.030949994725233 43.218222983061423 0 0 0 0 -0.18036908268726393 0.34844446573559651 0 0.34844446573559651 -1.3047645820724654 0 0 0 0 -27.872284514975036 -21.223466894953162 0 -21.223466894953162 -5.1537240114121232 0 0 0 0 1.0055595811182911 7.7788556576838488 0 7.7788556576838488 20.096579832110933 0 0 0 0 -3.6090310356977966 -2.1958732142362933 0 -2.1958732142362933 5.6300573323524796 0 0 0 0 -65.36535324822762 -60.099154679506682 0 -60.099154679506682 61.715875270721881 0 0 0 0 6.3891607030379305 -3.9714905949135684 0 -3.9714905949135684 1.9484371891896957 0 0 0 0 81.554323467396898 27.41220455363873 0 27.41220455363873 1.8794914360503299 0 0 0 0 46.210947245839634 -56.416914347813872 0 -56.416914347813872 4.2156847423575528 0 0 0 0 12.679475878052472 73.466457932717731 0 73.466457932717731 168.94401402489893 0 0 0 0 26.433622297961847 116.45297398197727 0 116.45297398197727 141.63914135761115 0 0 0 0 186.48963733470009 340.56710500613917 0 340.56710500613917 423.00749092595652 0 0 0 0 -113.8348256934205 295.30696502941919 0 295.30696502941919 758.59142429589701 0 0 0 0 -96.499529489985434 250.86412106823627 0 250.86412106823627 477.17878729852055 0 0 0 0 1.7244947911139548 2.8845891687597032 0 2.8845891687597032 6.8659595813784193 0 0 0 0 200.66353274972062 -338.15303874373785 0 -338.15303874373785 546.75644922276842 0 0 0 0 436.43335481082613 369.91437769110416 0 369.91437769110416 250.95962826309915 0 0 0 0 68.934390182737843 -117.47720024538285 0 -117.47720024538285 243.98647470540209 0 0 0 0 182.89027716787268 39.823168509198879 0 39.823168509198879 -39.450723246685811 0 0 0 0 147.09115064125217 -48.561664293432841 0 -48.561664293432841 250.35857778254285 0 0 0 0 -27.89185874647228 249.8542581831498 0 249.8542581831498 946.31205114289514 0 0 0 0 191.88089916754689 -307.85730231119123 0 -307.85730231119123 712.37061847589939 0 0 0 0 -245.56389058228797 46.256592242688839 0 46.256592242688839 732.2077041053999 0 0 0 0 -234.07346569908259 137.59309726149877 0 137.59309726149877 1115.9492924220995 0 0 0 0 97.916113800521998 576.76967246707682 0 576.76967246707682 967.03052629682497 0 0 0 0 -192.92365196795436 138.55031013979169 0 138.55031013979169 574.51154431324721 0 0 0 0 -169.89650417281518 167.82591289821357 0 167.82591289821357 367.3425180359518 0 0 0 0 -129.81263862119522 216.61249412445613 0 216.61249412445613 599.7519942730105 0 0 0 0 -179.46124471139592 110.29711346582963 0 110.29711346582963 830.95443099104887 0 0 0 0 -185.63950978849607 155.60508033926453 0 155.60508033926453 537.66161855841347 0 0 0 0 -6.4326169448540895 178.30380156805086 0 178.30380156805086 483.18719401007547 0 0 0 0 2.1602531537894833 0.96731546526008572 0 0.96731546526008572 0.73837437091347624 0 0 0 0 -63.036448428785661 -76.583396495618217 0 -76.583396495618217 404.12273486447521 0 0 0 0 -5.2008249528444139 -294.09360656349963 0 -294.09360656349963 1166.2384822889144 0 0 0 0 -148.88449283166847 204.72164420683475 0 204.72164420683475 973.26626998609481 0 0 0 0 0.37990774464516447 267.21310492460867 0 267.21310492460867 591.16024396196735 0 0 0 0 -48.62963733846118 55.001597039954504 0 55.001597039954504 256.24512078402768 0 0 0 0 -0.16387684262736002 237.38446884586665 0 237.38446884586665 106.86355452188582 0 0 0 0 -93.739269884131318 344.85869811280872 0 344.85869811280872 -331.44875520377536 0 0 0 0 -28.225155460968381 36.296317764083142 0 36.296317764083142 -213.30401893699673 0 0 0 0 -0.05946134525584057 220.50692579850147 0 220.50692579850147 -347.5695165849429 0 0 0 0 -134.08750415462782 335.73978937461106 0 335.73978937461106 -199.84815984184388 0 0 0 0 2.9475581380420692 0.75888763477926346 0 0.75888763477926346 -1.9137567245735028 0 0 0 0 -120.19657248760996 288.86602198460241 0 288.86602198460241 -592.05129615958867 0 0 0 0 -0.27547358678566525 488.15767920911094 0 488.15767920911094 -607.48496306105881 0 0 0 0 -360.67345395735174 421.20146201627176 0 421.20146201627176 -1563.940058995162 0 0 0 0 -394.40560928152991 280.01240446768861 0 280.01240446768861 -601.67608339750223 0 0 0 0 -198.26509174636521 417.3264194035678 0 417.3264194035678 -539.18855396003346 0 0 0 0 -1120.0176267457282 172.01808153940328 0 172.01808153940328 -303.06722235000416 0 0 0 0 35.365403319970937 559.80473404775148 0 559.80473404775148 -264.72715450399755 0 0 0 0 73.508138695833622 1372.2097357645544 0 1372.2097357645544 -518.43983660647791 0 0 0 0 -364.17902650785254 352.77839601236883 0 352.77839601236883 -244.65273116904063 0 0 0 0 -333.83409934864176 108.050165339042 0 108.050165339042 -299.247855235526 0 0 0 0 4.792924361465225 2.8597396764878269 0 2.8597396764878269 0.087575140585208544 0 0 0 0 35.092441213295388 -163.83058922123564 0 -163.83058922123564 -11.976897510950948 0 0 0 0 -107.78309339193947 -200.4783517670312 0 -200.4783517670312 501.55265613819211 0 0 0 0 180.57256675668759 707.20423632927009 0 707.20423632927009 356.21313347189425 0 0 0 0 159.61350124500314 336.33667076377424 0 336.33667076377424 -333.51576010477402 0 0 0 0 2.6745172520363667 2.0803935080723548 0 2.0803935080723548 0.52119008718102577 0 0 0 0 253.30705160092475 571.26917452101225 0 571.26917452101225 -291.24105390233308 0 0 0 0 -122.53349026064097 732.61055648683214 0 732.61055648683214 -99.236920627285144 0 0 0 0 -636.93532082872116 483.65315190844922 0 483.65315190844922 -81.889806387491262 0 0 0 0 -79.846225562534528 462.63519361566068 0 462.63519361566068 -92.332026480336026 0 0 0 0 -79.323413777543465 139.08767658287252 0 139.08767658287252 -218.0057312848221 0 0 0 0 11.986823361015922 16.713777311984408 0 16.713777311984408 22.569069565091809 0 0 0 0 -68.600981744079036 442.80770230735288 0 442.80770230735288 -319.36394826851392 0 0 0 0 1339.7905116877373 158.15744870010531 0 158.15744870010531 -533.14916199232539 0 0 0 0 60.064344490547228 316.81534152525012 0 316.81534152525012 -224.85854196613582 0 0 0 0 -231.6192992924272 426.49091144985374 0 426.49091144985374 -370.33740608587686 0 0 0 0 3.8786675746783601 5.6859871810160314 0 5.6859871810160314 7.639839181128778 0 0 0 0 -23.329667113808682 141.68221155645733 0 141.68221155645733 -218.76076223385462 0 0 0 0 -231.21989388947259 303.87280238950552 0 303.87280238950552 -342.52512408264738 0 0 0 0 93.815370932585211 288.51722964280816 0 288.51722964280816 -586.71744241230772 0 0 0 0 -100.1712025685556 275.6314372261113 0 275.6314372261113 -358.94198161952772 0 0 0 0 960.39573550615751 360.21850249051931 0 360.21850249051931 -900.33224084600442 0 0 0 0 612.28055437722651 -585.50233090987967 0 -585.50233090987967 -1111.230498545774 0 0 0 0 -87.742020587240404 405.03807387390407 0 405.03807387390407 -394.58373705772829 0 0 0 0 218.35388713227803 241.53998510363726 0 241.53998510363726 -581.44913120257479 0 0 0 0 185.16015731470543 -23.558475484689552 0 -23.558475484689552 -689.81807485411446 0 0 0 0 246.41490341330064 104.95620139075072 0 104.95620139075072 -436.37684834554966 0 0 0 0 -13.665712118556257 159.18457536569622 0 159.18457536569622 -368.70907852495657 0 0 0 0 68.613833818504645 -81.716044241633426 0 -81.716044241633426 -344.71175751872943 0 0 0 0 78.928984125512216 -6.7492006906131792 0 -6.7492006906131792 -95.374984414615028 0 0 0 0 82.117285217027529 23.199544847533616 0 23.199544847533616 -42.514930301880668 0 0 0 0 23.27311709379137 88.562492885885149 0 88.562492885885149 -105.57252022022294 0 0 0 0 8.7391730567469494 43.61707591920549 0 43.61707591920549 -211.66995045528165 0 0 0 0 -77.58924653325812 120.89639004927449 0 120.89639004927449 -46.118096827119189 0 0 0 0 -8.457003243813233 88.522976281070441 0 88.522976281070441 -39.495775857601984 0 0 0 0 18.632583029326412 31.654557811607248 0 31.654557811607248 32.273712141385872 0 0 0 0 -392.79782962571335 -8.4660663204426783 0 -8.4660663204426783 46.927252431596571 0 0 0 0 -2.8521517093104194 74.915203996091805 0 74.915203996091805 -9.7342219730999204 0 0 0 0 33.983536840332818 101.42383749440523 0 101.42383749440523 -32.496231192082632 0 0 0 0 30.987849240191281 75.440870857798473 0 75.440870857798473 -18.846305345206929 0 0 0 0 9.0822546678791696 25.510260058603308 0 25.510260058603308 -48.011402689218812 0 0 0 0 -5.8008431800408289 29.056013252120465 0 29.056013252120465 3.8731132741086185 0 0 0 0 16.383590234130679 45.894582334682127 0 45.894582334682127 -46.401475979058887 0 0 0 0 9.2151559331832686 22.703740330508936 0 22.703740330508936 -52.098235037592531 0 0 0 0 16.667266546302926 14.11152648640126 0 14.11152648640126 0.044085264577631733 0 0 0 0 6.8229339002573397 16.739655054278046 0 16.739655054278046 -45.030411909850955 0 0 0 0 5.8655449837585536 35.597290208956196 0 35.597290208956196 11.229646849055976 0 0 0 0 -0.15910270315052344 4.7906405020603984 0 4.7906405020603984 9.6547135464639524 0 0 0 0 -13.531627312186174 76.085603571613319 0 76.085603571613319 58.462499506451422 0 0 0 0 -219.51750720874406 146.58864448645181 0 146.58864448645181 -30.883861248309188 0 0 0 0 -273.57313209384301 204.9091462917695 0 204.9091462917695 -32.275654823997286 0 0 0 0 -21.928145154914091 139.34726639012297 0 139.34726639012297 162.09251846752886 0 0 0 0 -543.77974111165531 213.42719491233584 0 213.42719491233584 181.66560915952869 0 0 0 0 -7.5742190476033215 8.0478064758188488 0 8.0478064758188488 7.3219098811428118 0 0 0 0 -431.93079429485806 575.99924353814458 0 575.99924353814458 -547.12054715025442 0 0 0 0 -302.77356663865794 346.37894868426338 0 346.37894868426338 -232.15153021090373 0 0 0 0 -722.49870814717724 477.41952436973588 0 477.41952436973588 -93.207065756090742 0 0 0 0 -624.20436996751232 113.53634604008766 0 113.53634604008766 233.02473093239314 0 0 0 0 -182.60174733854365 19.570718727598432 0 19.570718727598432 15.586480183507774 0 0 0 0 44.918167203795747 297.22860435824259 0 297.22860435824259 317.50792208870553 0 0 0 0 4.2242168477387168 -148.78755805816036 0 -148.78755805816036 354.27793445884163 0 0 0 0 -151.05692802986596 -31.641973224361209 0 -31.641973224361209 276.89053224627423 0 0 0 0 71.707880954665598 -121.11914567287749 0 -121.11914567287749 134.17609681239264 0 0 0 0 -313.48901084945828 182.56391494167838 0 182.56391494167838 108.67910310379739 0 0 0 0 -148.51362296279149 -32.542671118791986 0 -32.542671118791986 116.51031582756696 0 0 0 0 -380.67091328835522 40.491412147363008 0 40.491412147363008 196.78463100886074 0 0 0 0 -207.68836608419952 227.35739720028323 0 227.35739720028323 26.097740275734395 0 0 0 0 -30.128319082781672 -34.080768332220032 0 -34.080768332220032 96.882317872665226 0 0 0 0 0.20273566662547182 1.7832285538069144 0 1.7832285538069144 3.073604900697112 0 0 0 0 -96.081690826591512 -86.173557224899923 0 -86.173557224899923 173.83019950579182 0 0 0 0 59.007422321650665 -50.783647112963081 0 -50.783647112963081 137.35269142989637 0 0 0 0 -3.0816092586888431 8.5550124891632464 0 8.5550124891632464 32.136839592385186 0 0 0 0 -29.723167252021085 15.720275915266029 0 15.720275915266029 7.6027605610676119 0 0 0 0 -0.25831747349097611 2.953941810082739 0 2.953941810082739 5.0604094995801603 0 0 0 0 -2.0212980689936728 1.9477096016144912 0 1.9477096016144912 15.47844432483285 0 0 0 0 114.47493623823539 55.174562958369279 0 55.174562958369279 42.224986914911028 0 0 0 0 -14.431167324393755 11.485526962012955 0 11.485526962012955 -57.217916043184232 0 0 0 0 0.95510779436153825 0.16937885007337172 0 0.16937885007337172 27.330511572828982 0 0 0 0 80.545186344847025 137.12664591618795 0 137.12664591618795 -151.3514725125824 0 0 0 0 -294.13905642103782 -51.702421623125701 0 -51.702421623125701 311.79113699149457 0 0 0 0 -656.96780770899932 316.19713422840141 0 316.19713422840141 -49.617644504211057 0 0 0 0 -3.5487869997801624 3.1155905822015484 0 3.1155905822015484 -2.9049575384038278 0 0 0 0 -711.7960656095529 -198.97487584433838 0 -198.97487584433838 23.57031058022767 0 0 0 0 -196.23983397905613 -19.809841753688488 0 -19.809841753688488 57.623754598251253 0 0 0 0 -458.8743312083825 187.98692368141565 0 187.98692368141565 161.2895458597468 0 0 0 0 -485.97587189816113 57.770391472840856 0 57.770391472840856 60.619566613593634 0 0 0 0 -0.65095893701092677 1.5555409654218124 0 1.5555409654218124 0.038586086551081866 0 0 0 0 35.243145839282079 76.062273959449158 0 76.062273959449158 24.210603162864572 0 0 0 0 12.989269501579486 7.2183503372043845 0 7.2183503372043845 -11.568145320400561 0 0 0 0 173.45696348045021 251.72415639363862 0 251.72415639363862 223.55973366131457 0 0 0 0 233.65401768386073 229.86605819813121 0 229.86605819813121 206.7896426026382 0 0 0 0 15.168815399049322 15.078181834785937 0 15.078181834785937 5.7314717076427115 0 0 0 0 -155.55770318079885 56.536224263662916 0 56.536224263662916 9.2309987087028276 0 0 0 0 -45.724444185558241 -55.852605207153829 0 -55.852605207153829 -136.437969421444 0 0 0 0 -156.39887163462299 13.003092612562796 0 13.003092612562796 -20.363994609102519 0 0 0 0 54.196099035365478 58.510007490272983 0 58.510007490272983 -46.205707886583696 0 0 0 0 27.041419480352488 173.9078302843227 0 173.9078302843227 334.10496325494751 0 0 0 0 41.579748490796192 132.47681625728728 0 132.47681625728728 102.65512782098631 0 0 0 0 1.8544756219505132 2.1037984099030638 0 2.1037984099030638 -3.461744757146505 0 0 0 0 -7.2157469098237357 11.572131919972392 0 11.572131919972392 -4.3622976080289888 0 0 0 0 72.637433596071787 140.81838705079281 0 140.81838705079281 104.82032945832543 0 0 0 0 255.42499052369385 153.98287626796082 0 153.98287626796082 71.113713441838627 0 0 0 0 202.78171929980454 192.5161816093605 0 192.5161816093605 57.389033826795639 0 0 0 0 180.64012250218366 129.27297965065372 0 129.27297965065372 122.19632704848118 0 0 0 0 207.97481813110062 168.17678826553129 0 168.17678826553129 -28.426308269736182 0 0 0 0 213.03328858073291 96.19892380427973 0 96.19892380427973 141.14971223848261 0 0 0 0 178.91337352498522 222.66852209767467 0 222.66852209767467 -61.531843176846451 0 0 0 0 165.5520683129289 171.58812784576367 0 171.58812784576367 118.47916014293696 0 0 0 0 166.10550994173536 156.8465427239862 0 156.8465427239862 -237.50827887319247 0 0 0 0 -58.077368338621454 302.68999420347609 0 302.68999420347609 124.43821274258789 0 0 0 0 181.07292755791423 172.04619423312215 0 172.04619423312215 167.60014139328632 0 0 0 0 197.53404706742731 218.69572443285506 0 218.69572443285506 95.751401603128215 0 0 0 0 118.94242527264214 272.83603169973503 0 272.83603169973503 354.35483678393393 0 0 0 0 47.016689577532816 20.62355507011489 0 20.62355507011489 -22.954400281167182 0 0 0 0 -16.740469470561948 42.063599390668969 0 42.063599390668969 14.828858477823815 0 0 0 0 7.8536812620098999 6.6536433701800775 0 6.6536433701800775 -11.315885077056521 0 0 0 0 32.940054572078225 29.885144301544642 0 29.885144301544642 -16.804648062687193 0 0 0 0 25.792814398824703 22.363261273814715 0 22.363261273814715 -19.374399190610461 0 0 0 0 9.084994147575344 32.412744084336737 0 32.412744084336737 -25.365605819504708 0 0 0 0 -167.86605208078981 124.91604244481277 0 124.91604244481277 -22.322311682905365 0 0 0 0 -69.259387177557073 -72.762943117499162 0 -72.762943117499162 11.560514574826811 0 0 0 0 160.82646781334915 49.07488233593449 0 49.07488233593449 -131.36289672732164 0 0 0 0 58.950962347764289 39.303641287355276 0 39.303641287355276 -47.572536060666607 0 0 0 0 1.2428120874041895 2.2489581784803221 0 2.2489581784803221 1.3170490210903374 0 0 0 0 -13.321765059663448 27.736122306603647 0 27.736122306603647 16.928095239205504 0 0 0 0 15.175310074432019 0.040736157340880652 0 0.040736157340880652 0.29796048752750748 0 0 0 0 0.99423112417571247 15.142721249372698 0 15.142721249372698 -19.267880041210447 0 0 0 0 23.62064086569444 -1.2425799892553187 0 -1.2425799892553187 -40.369413807427918 0 0 0 0 -5.846258420508093 -21.10829205526079 0 -21.10829205526079 -63.082229638024728 0 0 0 0 5.4950490295226757 2.4131788194186043 0 2.4131788194186043 -3.5654308424810921 0 0 0 0 -12.959668057577801 53.730909003217675 0 53.730909003217675 -81.804687701077796 0 0 0 0 18.404051990757438 3.4875751217444702 0 3.4875751217444702 -4.9649066508443571 0 0 0 0 16.343332654418191 -5.7847788395010866 0 -5.7847788395010866 -31.942015773296589 0 0 0 0 32.940411608185968 10.338908676534629 0 10.338908676534629 -19.047657749702921 0 0 0 0 22.943220187211409 21.828007775642618 0 21.828007775642618 25.613636531178031 0 0 0 0 26.286764417134691 -0.38748262269655243 0 -0.38748262269655243 -31.664683481332759 0 0 0 0 36.246861922263633 -1.982212730905303 0 -1.982212730905303 -39.110870373355283 0 0 0 0 19.650663193213404 -10.197394403374346 0 -10.197394403374346 -38.12561645101232 0 0 0 0 47.251053418483934 22.206360280100853 0 22.206360280100853 -42.506137529097032 0 0 0 0 31.957141803759441 -0.39482868486993539 0 -0.39482868486993539 -10.225082146716886 0 0 0 0 4.0651446224448833 1.2930786976612865 0 1.2930786976612865 -0.95165063232467162 0 0 0 0 -2.2832592586491955 -17.565126974926898 0 -17.565126974926898 -41.701943061611018 0 0 0 0 32.016963669273537 0.81909911525144707 0 0.81909911525144707 -72.319710926283733 0 0 0 0 13.086639659646607 -0.58902439388111816 0 -0.58902439388111816 -35.506413679642719 0 0 0 0 5.3903880136203952 -3.6391661380766891 0 -3.6391661380766891 -31.219397658282105 0 0 0 0 -79.530676129303174 35.473642283178378 0 35.473642283178378 34.778126873250585 0 0 0 0 14.964043023096025 30.802513619391377 0 30.802513619391377 -6.3636071476063218 0 0 0 0 109.54948320181575 79.952104656407755 0 79.952104656407755 -48.881867758202134 0 0 0 0 7.2171577688892974 10.43100728062025 0 10.43100728062025 -49.146076341714632 0 0 0 0 16.297534023404296 53.131153025944514 0 53.131153025944514 -101.41204620233111 0 0 0 0 -7.0497884505530237 36.865683256510238 0 36.865683256510238 -111.2624711130411 0 0 0 0 -32.041652462765342 41.266609237713055 0 41.266609237713055 -88.354722640395266 0 0 0 0 -191.69011474080617 230.00209401305437 0 230.00209401305437 -184.30048914846975 0 0 0 0 -0.61531172710342652 1.9573130975545325 0 1.9573130975545325 -33.562376449797213 0 0 0 0 236.96172371623834 50.154502221064831 0 50.154502221064831 -181.09723511848279 0 0 0 0 -148.0685190920849 558.02083234729207 0 558.02083234729207 -585.46578510929248 0 0 0 0 -352.02007107367535 238.51244276668331 0 238.51244276668331 -93.415320368239918 0 0 0 0 -34.356970712346083 15.581017918948419 0 15.581017918948419 -249.29761447029523 0 0 0 0 -43.796200252018252 254.0341617319919 0 254.0341617319919 -1611.5137501770369 0 0 0 0 -0.47026005144640237 -0.092224980126189848 0 -0.092224980126189848 -12.378077947620284 0 0 0 0 111.01168557867641 -395.45967498466234 0 -395.45967498466234 -932.68185351763896 0 0 0 0 -1214.5025899383327 690.52949514088868 0 690.52949514088868 -307.7773539322443 0 0 0 0 35.605592868625536 619.09446526109059 0 619.09446526109059 -1400.1160813993811 0 0 0 0 111.86893623333162 164.42300622785115 0 164.42300622785115 -94.809680065378416 0 0 0 0 188.05786716162402 241.38475112953347 0 241.38475112953347 -739.57706046185922 0 0 0 0 239.99316937249932 74.915803167140893 0 74.915803167140893 -432.48851821159406 0 0 0 0 -16.297361194647237 352.3530348744398 0 352.3530348744398 -371.71906112213765 0 0 0 0 170.10467581220655 284.84791941839194 0 284.84791941839194 -451.98701982292187 0 0 0 0 88.850618332449812 372.47251117208543 0 372.47251117208543 -516.2727323858544 0 0 0 0 30.987988677526573 273.9128536457024 0 273.9128536457024 -452.29843258233814 0 0 0 0 99.375833187048556 266.75130920855008 0 266.75130920855008 -488.59627571341298 0 0 0 0 30.261140844057081 272.22014796572512 0 272.22014796572512 -301.21964887579998 0 0 0 0 -52.035298836083257 194.74451535830065 0 194.74451535830065 -345.85261583581814 0 0 0 0 23.002078540339426 114.60161354085176 0 114.60161354085176 -262.57983734654778 0 0 0 0 27.420401940104966 111.87693757074499 0 111.87693757074499 -559.22452122182222 0 0 0 0 28.814542437961791 -85.834746050186368 0 -85.834746050186368 -964.1939217386207 0 0 0 0 66.090955234729336 55.570761219769338 0 55.570761219769338 -493.65416420921247 0 0 0 0 -32.744489964388777 260.56120797981384 0 260.56120797981384 -711.35690317572335 0 0 0 0 -78.192840658105524 -53.092445888915336 0 -53.092445888915336 -678.02281234360271 0 0 0 0 55.563871689722873 145.15483645788663 0 145.15483645788663 -595.26555917918995 0 0 0 0 133.17316185680102 303.51896366581423 0 303.51896366581423 -496.89804550945973 0 0 0 0 74.011724834919733 225.65862111642127 0 225.65862111642127 -256.51827991474056 0 0 0 0 14.453287933589309 190.66440253101246 0 190.66440253101246 -265.20729116314033 0 0 0 0 81.662476526878891 237.04623851603719 0 237.04623851603719 -239.83483993270602 0 0 0 0 64.153838046943378 59.129775296683434 0 59.129775296683434 50.118877310306075 0 0 0 0 117.65972666209382 -5.7942924919975667 0 -5.7942924919975667 95.309891720917221 0 0 0 0 218.28522509083632 149.31456499125761 0 149.31456499125761 -289.70941462865085 0 0 0 0 68.835654216905823 95.638497308842489 0 95.638497308842489 -28.827422376582035 0 0 0 0 -3.0341943230506345 35.252069847144568 0 35.252069847144568 -11.637096363155877 0 0 0 0 66.03217583588048 86.727395410210192 0 86.727395410210192 -5.3326756958922488 0 0 0 0 60.064338504855641 60.127877132912616 0 60.127877132912616 43.770952791099063 0 0 0 0 35.346569221072059 -39.057079842325152 0 -39.057079842325152 57.526032147641672 0 0 0 0 -104.31333416835696 304.85670977458358 0 304.85670977458358 -72.519937177797146 0 0 0 0 108.09465830793852 47.166645291305485 0 47.166645291305485 -800.10745948010299 0 0 0 0 15.770964948679648 16.492011756855334 0 16.492011756855334 6.7663436822671486 0 0 0 0 385.98966783582 346.41872318996684 0 346.41872318996684 -947.65885552813597 0 0 0 0 247.0287993783204 443.36612386239722 0 443.36612386239722 -875.32046184083811 0 0 0 0 100.0110698547287 309.22200049274397 0 309.22200049274397 -816.93788977810618 0 0 0 0 82.32846422556031 -53.072364686271612 0 -53.072364686271612 -824.52860187816873 0 0 0 0 440.38962205100688 633.73554716185754 0 633.73554716185754 -174.91773947997353 0 0 0 0 -150.66794490986285 396.47370766577933 0 396.47370766577933 -693.8330953810073 0 0 0 0 225.99520323123579 50.640532384997641 0 50.640532384997641 -804.45388904301581 0 0 0 0 288.02812352062756 112.54004519919545 0 112.54004519919545 -519.2662817929795 0 0 0 0 519.18617976689711 426.65991942859091 0 426.65991942859091 -876.1946801457525 0 0 0 0 221.63249774994893 172.48183375594044 0 172.48183375594044 6.5850550547220337 0 0 0 0 196.65518997431172 200.33183039702863 0 200.33183039702863 286.61379547299657 0 0 0 0 143.17614909804979 107.64069622609532 0 107.64069622609532 25.387737791601467 0 0 0 0 235.39426487739183 127.87222046903207 0 127.87222046903207 19.169797980644944 0 0 0 0 243.89801274742342 466.79979228474468 0 466.79979228474468 463.14417056092498 0 0 0 0 249.37351013829903 78.380721250663555 0 78.380721250663555 119.97560094700384 0 0 0 0 -114.3073264492341 256.91337519208901 0 256.91337519208901 -479.38794559853523 0 0 0 0 -46.76003052383021 310.7658816291223 0 310.7658816291223 922.02986178654157 0 0 0 0 6.6564903129005586 3.1925222406318667 0 3.1925222406318667 -2.0140302351901598 0 0 0 0 1.7008746711368303 3.025282303197983 0 3.025282303197983 -2.1625812571087408 0 0 0 0 11.198269586583763 0.064234997086643375 0 0.064234997086643375 -2.6244569996685092 0 0 0 0 6.6068635062779322 8.3840253688901214 0 8.3840253688901214 -10.008813121194841 0 0 0 0 156.27500914704433 -106.95768534347371 0 -106.95768534347371 22.856840002459649 0 0 0 0 192.87580926797818 216.74786526968819 0 216.74786526968819 286.45211553995978 0 0 0 0 102.21811297765089 331.44239071233642 0 331.44239071233642 371.15843122441038 0 0 0 0 10.677437018508499 107.67576031748285 0 107.67576031748285 587.27115728257195 0 0 0 0 275.02500785955635 252.16164774818571 0 252.16164774818571 58.416768685699935 0 0 0 0 -416.20735821629205 319.21129250162994 0 319.21129250162994 63.887274480265432 0 0 0 0 -0.83301616511862164 -0.83267431279510618 0 -0.83267431279510618 -0.40240076303931005 0 0 0 0 566.99206467299155 -39.696517211401442 0 -39.696517211401442 63.793396385117376 0 0 0 0 35.73944961802772 -166.11473491563083 0 -166.11473491563083 -41.84941742254523 0 0 0 0 211.55177024943987 -2.8701749043066229 0 -2.8701749043066229 80.166912896248505 0 0 0 0 4.1973025248101123 -0.063423500370248576 0 -0.063423500370248576 -4.7861039751365126 0 0 0 0 360.86824897567203 -113.73693976675077 0 -113.73693976675077 -215.65171738169738 0 0 0 0 -306.82384884008206 162.78735636488636 0 162.78735636488636 -58.468954660937015 0 0 0 0 -29.005373880994739 204.68849777871583 0 204.68849777871583 -151.36000900906583 0 0 0 0 68.192921784000646 96.730248123481942 0 96.730248123481942 -95.860272191217518 0 0 0 0 135.34020504377258 69.731779965659371 0 69.731779965659371 -119.31761508737691 0 0 0 0 60.065558777951082 77.206193866120884 0 77.206193866120884 -141.34422067434207 0 0 0 0 78.232386278141348 79.962286208203295 0 79.962286208203295 -73.756468967490946 0 0 0 0 68.487137740539765 35.043306191072134 0 35.043306191072134 -39.138494964947313 0 0 0 0 115.37580969730698 109.7413325212965 0 109.7413325212965 -173.90152226398277 0 0 0 0 57.503733831203135 10.235536224749012 0 10.235536224749012 -23.695832710003742 0 0 0 0 11.244100555987274 23.148356859872401 0 23.148356859872401 15.409950394427469 0 0 0 0 17.432127061580729 27.369049233153646 0 27.369049233153646 -9.7282674700812777 0 0 0 0 2.6901008899961596 4.6742384404140154 0 4.6742384404140154 5.4898461296128431 0 0 0 0 103.85860949936432 126.00834086026862 0 126.00834086026862 144.44236432465186 0 0 0 0 28.281690248200903 44.466825534378586 0 44.466825534378586 5.2990049933141563 0 0 0 0 21.130565955042769 57.183632482891205 0 57.183632482891205 17.668562856651022 0 0 0 0 4.5537804188153785 4.5957382956490136 0 4.5957382956490136 -2.9090146769210321 0 0 0 0 23.464910178514401 40.694126874330323 0 40.694126874330323 -190.62101566672936 0 0 0 0 -17.43083467692486 65.745740410935468 0 65.745740410935468 -71.143918416499218 0 0 0 0 3.9660516254043614 109.55210052626899 0 109.55210052626899 -48.552350163627125 0 0 0 0 113.64400891793775 147.91745943007118 0 147.91745943007118 -114.01069358311543 0 0 0 0 50.455724043786176 166.07763494412575 0 166.07763494412575 -47.368992854477256 0 0 0 0 38.979259040635952 63.71220033665486 0 63.71220033665486 -38.063492539600702 0 0 0 0 -10.737648309648648 145.88115899592503 0 145.88115899592503 4.4516474204065162 0 0 0 0 -9.3229809245676734 152.51113573784869 0 152.51113573784869 -32.261207832270884 0 0 0 0 32.569200087098579 81.66991639216576 0 81.66991639216576 -88.064261615458236 0 0 0 0 7.1069297780490501 4.7139140589657842 0 4.7139140589657842 -23.864520857292106 0 0 0 0 206.11011259720544 139.3744024548796 0 139.3744024548796 71.224473765265429 0 0 0 0 196.30522559871315 221.03132346233542 0 221.03132346233542 -326.47336847832503 0 0 0 0 -28.773366627094219 104.64468807420781 0 104.64468807420781 133.98700577595264 0 0 0 0 -71.547729933083247 65.900557287615356 0 65.900557287615356 114.43754241946954 0 0 0 0 25.066793332545785 43.277650966539113 0 43.277650966539113 -1.40688345531089 0 0 0 0 -56.678252987730957 34.16831497817018 0 34.16831497817018 126.18266931313804 0 0 0 0 27.953471099288436 26.520530559897452 0 26.520530559897452 -6.7950813810821273 0 0 0 0 89.297976348025259 145.87180354784323 0 145.87180354784323 92.051805090777634 0 0 0 0 3.0352318672411087 23.795964478864818 0 23.795964478864818 -29.085840099607807 0 0 0 0 22.834748091221002 24.227969273395434 0 24.227969273395434 -30.242580346151204 0 0 0 0 44.495205558841917 61.933258134833068 0 61.933258134833068 -2.7299635422659776 0 0 0 0 24.938194895774359 23.134048830266693 0 23.134048830266693 110.85244554479027 0 0 0 0 91.372448372334475 133.32654509193299 0 133.32654509193299 -135.18249930797992 0 0 0 0 1.5908913945451673 3.9932702393959829 0 3.9932702393959829 6.4759030162530724 0 0 0 0 72.02247801089834 32.433312523008908 0 32.433312523008908 -122.64686991212352 0 0 0 0 27.900805119672441 18.375792537154439 0 18.375792537154439 -122.38199699272172 0 0 0 0 129.87366500223288 129.00839843382954 0 129.00839843382954 -283.5941861102674 0 0 0 0 31.554409702832345 -30.602380754966134 0 -30.602380754966134 -260.10848058167051 0 0 0 0 84.62783765574568 38.393231242348179 0 38.393231242348179 -174.7674920940276 0 0 0 0 -98.264761314254429 73.333633534051728 0 73.333633534051728 -171.43122446488951 0 0 0 0 60.851814526613452 114.3788551652035 0 114.3788551652035 -186.49784956996527 0 0 0 0 70.872834158682963 139.85133852780177 0 139.85133852780177 -180.3490351255063 0 0 0 0 35.771037934086053 106.48438026533111 0 106.48438026533111 -151.05081581452191 0 0 0 0 99.222423684725072 69.728133976972003 0 69.728133976972003 -156.57463712925221 0 0 0 0 67.229814223494031 113.63637188452884 0 113.63637188452884 -206.06571742890708 0 0 0 0 9.4979538452234635 33.090667600271971 0 33.090667600271971 -20.916633307530791 0 0 0 0 43.567941129411338 102.57133863430232 0 102.57133863430232 81.634802247136633 0 0 0 0 2.097875120207874 4.5057354816848516 0 4.5057354816848516 2.100877314154511 0 0 0 0 39.587597267556703 41.186797895602183 0 41.186797895602183 -159.60607642782031 0 0 0 0 95.066092738619773 75.956251502514419 0 75.956251502514419 -132.67176168755236 0 0 0 0 24.407282199710608 25.180691794879522 0 25.180691794879522 -33.385740838753009 0 0 0 0 17.390869031834882 61.996672716240482 0 61.996672716240482 265.05478601393588 0 0 0 0 27.942137102058041 49.452082014233383 0 49.452082014233383 3.8571203476549272 0 0 0 0 5.286037104824274 5.934877434386209 0 5.934877434386209 -4.8452974299792295 0 0 0 0 14.300914277192391 48.58268584588204 0 48.58268584588204 19.602065876743062 0 0 0 0 -112.99767569062897 58.265095455092705 0 58.265095455092705 38.118545314995572 0 0 0 0 -48.548027165470558 111.56351426908469 0 111.56351426908469 30.709358995384207 0 0 0 0 7.7242720326175913 21.627435731852657 0 21.627435731852657 26.20935001841066 0 0 0 0 14.121106975955882 25.641118350029473 0 25.641118350029473 -16.539766249866936 0 0 0 0 58.414761358842952 39.735037197684846 0 39.735037197684846 -10.570847076588507 0 0 0 0 80.109966690535657 42.15155142691998 0 42.15155142691998 -119.93752181026588 0 0 0 0 -6.928807945419976 99.340356459623308 0 99.340356459623308 -135.17301017718671 0 0 0 0 62.288373827264877 64.076675366598465 0 64.076675366598465 -117.21782729924126 0 0 0 0 -189.31052890845604 319.23281464592435 0 319.23281464592435 -156.97514492023492 0 0 0 0 43.848794113084296 138.37488633162235 0 138.37488633162235 -167.42617997001662 0 0 0 0 144.41074282482441 143.74438252109826 0 143.74438252109826 -173.72036394575684 0 0 0 0 241.61769062691383 44.850160167786271 0 44.850160167786271 -107.62961128495544 0 0 0 0 192.40240608443855 137.81113292846499 0 137.81113292846499 47.025738198257386 0 0 0 0 24.435005197050486 208.83888546083813 0 208.83888546083813 173.23448473196277 0 0 0 0 -12.32150430584079 97.349445214055493 0 97.349445214055493 -164.92235289296946 0 0 0 0 152.04077193751436 408.77782219162827 0 408.77782219162827 502.92488137026112 0 0 0 0 405.35175601793162 477.60529324315848 0 477.60529324315848 259.19670358433791 0 0 0 0 772.21435359359384 494.39468253577297 0 494.39468253577297 201.84244735787843 0 0 0 0 348.69553990251097 149.87540633906099 0 149.87540633906099 7.0785193357396565 0 0 0 0 291.94721671991283 683.49302507075663 0 683.49302507075663 832.21411011803139 0 0 0 0 689.43562457249209 803.78125083701752 0 803.78125083701752 783.0343635158863 0 0 0 0 7.8368863045398029 68.80137380998076 0 68.80137380998076 -20.165964623784021 0 0 0 0 11.430749604274752 78.968676945419247 0 78.968676945419247 5.0239789435008788 0 0 0 0 -8.4951522664196091 57.045649341414901 0 57.045649341414901 32.572853234132253 0 0 0 0 451.66389090185112 -6.1371402383513214 0 -6.1371402383513214 -94.193828755501045 0 0 0 0 112.79769909030438 -83.82967502244901 0 -83.82967502244901 -101.04075377842696 0 0 0 0 86.452352319145575 74.008168921074002 0 74.008168921074002 61.122978784649149 0 0 0 0 63.315300182803185 26.906349217057937 0 26.906349217057937 -15.0691193947805 0 0 0 0 -6.0058089735830436 56.27389781822194 0 56.27389781822194 -15.21035953149476 0 0 0 0 70.919784617544792 10.319210998098924 0 10.319210998098924 -58.770536534610073 0 0 0 0 55.899096350440232 -18.113608704703552 0 -18.113608704703552 -91.984194576541995 0 0 0 0 115.63863528524234 -48.333573621412597 0 -48.333573621412597 18.152325551292279 0 0 0 0 253.23714543625829 4.4712074867179581 0 4.4712074867179581 -78.23845622630779 0 0 0 0 101.6168910832057 6.9366016076241976 0 6.9366016076241976 -76.851560731059351 0 0 0 0 158.20800206514286 -6.8843894798916736 0 -6.8843894798916736 -147.66264392030189 0 0 0 0 16.327021992809023 30.079159338284171 0 30.079159338284171 -152.85035076126292 0 0 0 0 91.50399831411778 -11.396756909944543 0 -11.396756909944543 -173.96785679956102 0 0 0 0 95.786476410910836 50.367625673123484 0 50.367625673123484 -169.91768465162841 0 0 0 0 35.217533381364774 -42.55532642554067 0 -42.55532642554067 -115.00581911362065 0 0 0 0 91.843009029209497 -59.587858799264495 0 -59.587858799264495 -121.58596595466793 0 0 0 0 72.922199353131873 -13.202080382587724 0 -13.202080382587724 -100.24870552867333 0 0 0 0 -14.294591958794626 -93.286709927904667 0 -93.286709927904667 -121.95416916790782 0 0 0 0 -14.683063335054612 -102.01601220022053 0 -102.01601220022053 -272.6010908354383 0 0 0 0 34.124494462605981 -38.968573131618129 0 -38.968573131618129 -61.19052902898602 0 0 0 0 -188.16585182202107 -9.8896032818543063 0 -9.8896032818543063 44.604607839088885 0 0 0 0 188.65392914475524 283.13127533192619 0 283.13127533192619 -18.740512134124401 0 0 0 0 -1.7096606550502287 25.533846949046534 0 25.533846949046534 -30.23008361280516 0 0 0 0 -1.0047427075667628 1.2658457253356659 0 1.2658457253356659 -5.6910709241440616 0 0 0 0 106.57262078960775 50.916576225293284 0 50.916576225293284 -13.02994990813113 0 0 0 0 -234.31132806272581 379.40475678484529 0 379.40475678484529 154.77677907183352 0 0 0 0 242.91290885898343 -291.23541551441099 0 -291.23541551441099 -338.27699477032547 0 0 0 0 -396.38813464558189 -76.152020282307149 0 -76.152020282307149 -53.512695967263426 0 0 0 0 -85.711819332034793 122.83719312217727 0 122.83719312217727 -277.49147386222501 0 0 0 0 28.411094750728807 32.318508517803821 0 32.318508517803821 -184.31039164185768 0 0 0 0 -40.149007992105908 26.546474489502771 0 26.546474489502771 -74.683718752648019 0 0 0 0 -76.472658906714059 67.506576603923349 0 67.506576603923349 -5.5782390651284004 0 0 0 0 -10.071743111839169 38.073620229656001 0 38.073620229656001 -83.065884664502846 0 0 0 0 -12.953734186419751 -15.660479776370266 0 -15.660479776370266 -15.495415582618989 0 0 0 0 -92.41077632480301 -40.280943349569043 0 -40.280943349569043 6.8601733434766174 0 0 0 0 74.258029863398406 32.788948835486735 0 32.788948835486735 -16.66823062160438 0 0 0 0 30.35065639403183 -24.809070530301142 0 -24.809070530301142 -51.847382677344967 0 0 0 0 4.340445140041993 -39.13803146074315 0 -39.13803146074315 12.68102004062348 0 0 0 0 19.464080984609609 -5.8361621403112167 0 -5.8361621403112167 -15.003667514926747 0 0 0 0 45.188428330089664 -13.381460966854775 0 -13.381460966854775 -59.577326454411619 0 0 0 0 -11.233479944887222 47.232345059598401 0 47.232345059598401 -1.4191857317127869 0 0 0 0 -20.01974476579926 33.564447450837179 0 33.564447450837179 -13.424945014952527 0 0 0 0 -4.8420066130493069 54.098802146460002 0 54.098802146460002 3.4530491509776766 0 0 0 0 -309.56069227967237 316.31224654828338 0 316.31224654828338 741.37198581027405 0 0 0 0 -2.1629352112013862 4.002181091350721 0 4.002181091350721 -7.0037461362262903 0 0 0 0 151.45974862852609 23.159606611943758 0 23.159606611943758 6.583778537780745 0 0 0 0 149.23883787210798 71.270723211188852 0 71.270723211188852 -26.122924438401242 0 0 0 0 -341.93061616316845 -129.86551862153783 0 -129.86551862153783 214.11360158243133 0 0 0 0 -23.471841469623541 -130.03387513555469 0 -130.03387513555469 -134.65500878573039 0 0 0 0 86.665508590551326 9.2764659662989288 0 9.2764659662989288 -67.633193395075978 0 0 0 0 47.289791377377696 -39.522242700450079 0 -39.522242700450079 -105.61505672491148 0 0 0 0 -6.9613915608279058 -71.80756419313775 0 -71.80756419313775 6.1706992909321343 0 0 0 0 -57.375309726252453 122.60690249448089 0 122.60690249448089 37.37436798698036 0 0 0 0 11.773300950531848 -1.3867556550258087 0 -1.3867556550258087 80.45499860631935 0 0 0 0 57.133789213286946 59.802277061936365 0 59.802277061936365 45.556472815977031 0 0 0 0 -7.61645620559284 182.35052669513971 0 182.35052669513971 34.338708857841084 0 0 0 0 128.002644650207 93.682434089096773 0 93.682434089096773 -9.3070720359974075 0 0 0 0 91.790674179341295 -103.03139776533408 0 -103.03139776533408 -168.67601264324185 0 0 0 0 13.84154703281456 8.0628911641192644 0 8.0628911641192644 6.1429746568646806 0 0 0 0 98.290809225110934 55.634000561638345 0 55.634000561638345 -2.9868957246908394 0 0 0 0 38.032443318537844 76.332517596273647 0 76.332517596273647 54.503587051582144 0 0 0 0 -0.035088456545338431 2.4078536805959914 0 2.4078536805959914 -2.7421733791063829 0 0 0 0 139.00212966205436 -9.8379839085391723 0 -9.8379839085391723 -28.301301976563991 0 0 0 0 -0.1909899001068851 4.426491135133972 0 4.426491135133972 -3.4951251493766122 0 0 0 0 10.574560148801538 -2.2950963582043187 0 -2.2950963582043187 -28.738663713285632 0 0 0 0 -173.52146545324649 61.25378380305483 0 61.25378380305483 17.423329700352042 0 0 0 0 -64.628092265273153 13.813459428185524 0 13.813459428185524 -35.753011793232872 0 0 0 0 -50.913758867474826 132.53736026545312 0 132.53736026545312 -1.4322093801674782 0 0 0 0 -62.725696105073439 87.690256148731351 0 87.690256148731351 -9.3008040972511026 0 0 0 0 -139.63008510199143 41.499152745029278 0 41.499152745029278 3.2627371125563513 0 0 0 0 402.97166505892528 22.828891815680436 0 22.828891815680436 -242.2090697744643 0 0 0 0 -57.894813925017388 113.46113743534909 0 113.46113743534909 10.35998922770159 0 0 0 0 -5.3728483746020288 9.9758060451007395 0 9.9758060451007395 -24.165880912259734 0 0 0 0 -30.243779592317878 98.69173141853571 0 98.69173141853571 17.532084815236885 0 0 0 0 -28.282746869590483 119.48001867841595 0 119.48001867841595 -30.664602216216736 0 0 0 0 129.34478401109664 22.600706750517929 0 22.600706750517929 -3.3587214234157727 0 0 0 0 150.98094861388381 26.729046936692612 0 26.729046936692612 -111.87173773089853 0 0 0 0 107.01066582417116 179.97732490025555 0 179.97732490025555 -228.847678585209 0 0 0 0 -39.905400478452066 -110.1239907782201 0 -110.1239907782201 -52.822676620271523 0 0 0 0 166.82422433730881 29.015426856768727 0 29.015426856768727 -77.311374349388643 0 0 0 0 -163.94859772411291 163.35788905699519 0 163.35788905699519 -23.622947129804743 0 0 0 0 -28.584930522309151 116.85597206619059 0 116.85597206619059 -20.769837862200802 0 0 0 0 151.39028401189717 -213.91643630536055 0 -213.91643630536055 -145.59667218436516 0 0 0 0 403.84774769036449 -162.54923667208277 0 -162.54923667208277 -250.8126066819168 0 0 0 0 3.1781518615004813 5.5308087635630443 0 5.5308087635630443 -8.0544970817973649 0 0 0 0 105.43550158740254 175.73356025043176 0 175.73356025043176 280.04112021256879 0 0 0 0 40.531652844352948 200.45394287699543 0 200.45394287699543 166.61909419299991 0 0 0 0 19.854089283637137 27.482933309654193 0 27.482933309654193 -27.279661261153592 0 0 0 0 51.59033498482313 91.438527544072713 0 91.438527544072713 181.9338333173655 0 0 0 0 110.90170727115401 198.57009832554058 0 198.57009832554058 147.47213753629694 0 0 0 0 -13.798256452019814 16.841565530029214 0 16.841565530029214 -9.4640887574067563 0 0 0 0 -586.07834130790434 154.65762056551284 0 154.65762056551284 125.76206898364035 0 0 0 0 120.06159090079018 127.93955634689701 0 127.93955634689701 106.09544479110627 0 0 0 0 10.356014071192476 179.01260964282937 0 179.01260964282937 173.65468499119379 0 0 0 0 169.61476501629659 158.75570415588663 0 158.75570415588663 19.332860955830256 0 0 0 0 33.757961791055834 24.089802996153885 0 24.089802996153885 -22.235974215295911 0 0 0 0 64.546031719193707 17.763760547632046 0 17.763760547632046 -0.36858748937083874 0 0 0 0 51.530976906127762 40.474897237250843 0 40.474897237250843 -32.162672152915547 0 0 0 0 40.006841106966021 68.383038807944104 0 68.383038807944104 25.610166942467913 0 0 0 0 117.97097592053615 34.057167004280927 0 34.057167004280927 11.762948911493368 0 0 0 0 1.8763705653845335 21.179370374175349 0 21.179370374175349 15.880534140639114 0 0 0 0 12.804663333154167 35.962865512716235 0 35.962865512716235 27.516023074422264 0 0 0 0 34.967552407663788 77.61717008460829 0 77.61717008460829 -171.49565877930854 0 0 0 0 27.126935933652362 45.461244778695367 0 45.461244778695367 -30.690484492087108 0 0 0 0 20.623533139718347 86.319893210391456 0 86.319893210391456 23.789012015862681 0 0 0 0 0.37816487411444655 18.242888669039147 0 18.242888669039147 1.6071411794401591 0 0 0 0 40.92421249387553 41.769047001807849 0 41.769047001807849 89.347622360172863 0 0 0 0 15.005177993851248 67.343164686491036 0 67.343164686491036 66.552991836289948 0 0 0 0 22.6991011838345 8.3123251656582511 0 8.3123251656582511 -54.906169258423688 0 0 0 0 36.411313485012215 57.896232141478322 0 57.896232141478322 60.312064346195257 0 0 0 0 43.124966375857184 80.048021557589891 0 80.048021557589891 22.262606080763362 0 0 0 0 -7.1229318103160608 9.1409730933029749 0 9.1409730933029749 -11.440139548629148 0 0 0 0 13.436400336082443 92.663177056843779 0 92.663177056843779 68.565014374609746 0 0 0 0 24.530683028016938 96.068291731848149 0 96.068291731848149 18.619069936607957 0 0 0 0 167.53878059898852 161.02485493003041 0 161.02485493003041 34.835188686127367 0 0 0 0 162.18621800030814 147.16119577736026 0 147.16119577736026 39.472439847173519 0 0 0 0 31.838611744176887 52.704133417980302 0 52.704133417980302 54.593941334889678 0 0 0 0 -41.814246661109792 12.844304935143555 0 12.844304935143555 62.193179167930793 0 0 0 0 111.58204545874469 -12.274501837655407 0 -12.274501837655407 -214.29283740714163 0 0 0 0 -1.2433218582391987 3.2832235787262505 0 3.2832235787262505 -4.7771269518282793 0 0 0 0 160.98901838641177 107.92432999128505 0 107.92432999128505 0.82632220910454635 0 0 0 0 94.07664956136432 28.894160795557127 0 28.894160795557127 -66.684578226238955 0 0 0 0 192.04481846514682 116.73358268637094 0 116.73358268637094 -33.231421674288868 0 0 0 0 202.71352204021241 127.55320261088309 0 127.55320261088309 -25.713581193878781 0 0 0 0 130.57012309526908 123.94095713230126 0 123.94095713230126 2.2074960562749766 0 0 0 0 131.60562151851263 118.87465090858495 0 118.87465090858495 -75.582823086799181 0 0 0 0 160.5297292221876 174.29308895093163 0 174.29308895093163 -118.86612704490108 0 0 0 0 158.43621459943824 184.61902363095942 0 184.61902363095942 -48.505708739281545 0 0 0 0 137.72659409255721 156.51606684847502 0 156.51606684847502 12.682603947454481 0 0 0 0 46.959335510626261 234.39859036509006 0 234.39859036509006 -52.31963177630314 0 0 0 0 41.088644493220329 196.41584723833543 0 196.41584723833543 20.073007943152334 0 0 0 0 41.068009140086019 199.99875511095047 0 199.99875511095047 47.165299249281816 0 0 0 0 160.09221964579774 141.35515069022767 0 141.35515069022767 25.134544146079861 0 0 0 0 151.14898386393907 169.23269592513316 0 169.23269592513316 -48.32118006316523 0 0 0 0 -235.09367835905141 -35.646661658742232 0 -35.646661658742232 160.24552396681975 0 0 0 0 -205.93687323243648 -30.282225129211838 0 -30.282225129211838 68.973969129750913 0 0 0 0 -35.150912137425621 244.85229824045928 0 244.85229824045928 -25.951161225984833 0 0 0 0 -358.3744881476523 155.41850672230248 0 155.41850672230248 112.10957745277847 0 0 0 0 -9.0354718770395266 194.44064457025161 0 194.44064457025161 23.11797947075047 0 0 0 0 -482.76682431370136 379.65182556509899 0 379.65182556509899 -58.505602750112303 0 0 0 0 68.62060369847859 204.65361458788448 0 204.65361458788448 -303.18735740849661 0 0 0 0 -109.0904183780367 -114.84644734124959 0 -114.84644734124959 -483.58614319745902 0 0 0 0 -722.52033124285299 -119.66870384664435 0 -119.66870384664435 55.74663635557954 0 0 0 0 149.42849869132624 -163.39877443258956 0 -163.39877443258956 -100.09972142335937 0 0 0 0 -0.16255152301987152 5.2418934486737072 0 5.2418934486737072 24.661750476418064 0 0 0 0 -101.55261566757963 -52.492722989546337 0 -52.492722989546337 29.884093707609281 0 0 0 0 -62.503506319841108 36.531620179845959 0 36.531620179845959 109.50838511695474 0 0 0 0 -0.074008097108162474 -9.7250893285909115 0 -9.7250893285909115 15.46128468931056 0 0 0 0 0.13483535342621167 0.226757056876977 0 0.226757056876977 2.0361298279195523 0 0 0 0 30.16256794284709 -36.564904544740784 0 -36.564904544740784 18.82016473737167 0 0 0 0 -14.681459614337655 -21.209912557715143 0 -21.209912557715143 -174.72061089680938 0 0 0 0 0.12530136149733551 8.1518190235219663 0 8.1518190235219663 35.96794266572347 0 0 0 0 -210.49508646185859 -48.207551833718753 0 -48.207551833718753 153.22537175598791 0 0 0 0 -64.525101976962105 108.9563846345236 0 108.9563846345236 345.29846823113621 0 0 0 0 3.4104599858546862 -7.2760475402938027 0 -7.2760475402938027 -31.986644462915137 0 0 0 0 3.4432284813993306 14.022630265785274 0 14.022630265785274 23.905631739222052 0 0 0 0 5.1848609840310473 92.902914334517746 0 92.902914334517746 124.22523862974413 0 0 0 0 -102.73041136690881 104.01275578483182 0 104.01275578483182 19.442421163913082 0 0 0 0 -48.147617487906246 -7.5547332913465652 0 -7.5547332913465652 91.182217159304855 0 0 0 0 -9.395078608962649 16.520951992884875 0 16.520951992884875 11.094358874446698 0 0 0 0 3.2958135731555274 14.659433583303439 0 14.659433583303439 34.462836397009966 0 0 0 0 -20.211883469899476 7.2531698081293143 0 7.2531698081293143 -32.318559552798945 0 0 0 0 4.9905182985728516 18.398073748404471 0 18.398073748404471 37.312218213070778 0 0 0 0 -18.231029965696507 336.80149780430474 0 336.80149780430474 103.06487468969863 0 0 0 0 -125.62145338804112 -117.60343701675083 0 -117.60343701675083 147.13870599432266 0 0 0 0 46.640864141423663 148.17314446240198 0 148.17314446240198 126.85069388678676 0 0 0 0 -43.485619175626198 167.67126200370694 0 167.67126200370694 183.48685361686103 0 0 0 0 -76.269309076087666 226.01809368879549 0 226.01809368879549 118.01875735734939 0 0 0 0 -42.765001835141447 110.18420859228354 0 110.18420859228354 111.7194630582635 0 0 0 0 18.447519926790847 177.840897729473 0 177.840897729473 137.90382715188025 0 0 0 0 -112.05696903415082 140.444604793287 0 140.444604793287 202.75520591951499 0 0 0 0 -0.2516249514947333 8.7036155781997735 0 8.7036155781997735 1.9372940312188973 0 0 0 0 33.754934440850775 104.24017359872778 0 104.24017359872778 165.69825963604671 0 0 0 0 -146.132540296363 83.502657888118847 0 83.502657888118847 111.63287018496339 0 0 0 0 -49.705713063885923 154.68216828049481 0 154.68216828049481 184.6233204066516 0 0 0 0 -74.043622142402455 73.947934076793899 0 73.947934076793899 150.01108238907182 0 0 0 0 -46.393746501416899 115.02154268469894 0 115.02154268469894 168.33931879641568 0 0 0 0 61.916333183238748 60.767865006506327 0 60.767865006506327 143.05176548540476 0 0 0 0 79.017613871023059 102.94781697235885 0 102.94781697235885 133.94909236292006 0 0 0 0 -83.588130646152422 111.44770337177033 0 111.44770337177033 181.29594556709344 0 0 0 0 -38.470543330040528 78.617204818256141 0 78.617204818256141 -72.328022457440966 0 0 0 0 139.12588842306286 87.481345929583767 0 87.481345929583767 76.152267903162283 0 0 0 0 -3.2524100694677145 43.896835098911339 0 43.896835098911339 -55.478742606606815 0 0 0 0 55.764135969162453 179.39043184244656 0 179.39043184244656 -4.428749658545712 0 0 0 0 394.25413214642344 166.1545718634552 0 166.1545718634552 -77.524002105619729 0 0 0 0 -12.067009376036594 11.729852168294343 0 11.729852168294343 20.825112042358185 0 0 0 0 -67.185018755269994 170.70619767685457 0 170.70619767685457 66.192194766423199 0 0 0 0 -69.154349034914048 6.6369684154342394 0 6.6369684154342394 -45.140917545475531 0 0 0 0 3.9576411390976318 22.405528023883079 0 22.405528023883079 -29.267800921121847 0 0 0 0 29.129660415521357 36.472749313688837 0 36.472749313688837 10.072773317457177 0 0 0 0 34.2335421918051 68.524157030549986 0 68.524157030549986 -56.534877814970969 0 0 0 0 -3.5303586782453067 37.497268687419563 0 37.497268687419563 -19.797092950218541 0 0 0 0 0.75668252240188849 64.070785275455094 0 64.070785275455094 -60.291624625605373 0 0 0 0 69.568980945346993 69.469925882605821 0 69.469925882605821 -25.17682198969851 0 0 0 0 2.4958399875904433 -16.974686979472608 0 -16.974686979472608 -89.069127226792261 0 0 0 0 21.759116881468799 63.08936781425291 0 63.08936781425291 -75.841580605338095 0 0 0 0 31.145316860405728 39.595060906034632 0 39.595060906034632 -48.403911452511238 0 0 0 0 143.28187606692518 35.933037854078975 0 35.933037854078975 -84.559803246345837 0 0 0 0 -24.631096519675339 30.346514891964034 0 30.346514891964034 15.350545154346037 0 0 0 0 -53.969945362608996 33.115931234614436 0 33.115931234614436 60.483950412381091 0 0 0 0 -2.9632064794728308 21.297892970557015 0 21.297892970557015 44.518747537570448 0 0 0 0 2.0276493093336256 26.57927634456658 0 26.57927634456658 27.296958295202145 0 0 0 0 -45.675460137150367 18.565187379580493 0 18.565187379580493 85.9380069088038 0 0 0 0 13.355014924265561 26.880550753411626 0 26.880550753411626 24.566578751670932 0 0 0 0 -16.121691164007643 5.9545572017186714 0 5.9545572017186714 40.048374770745795 0 0 0 0 -3.6780741197815701 9.8542268449409107 0 9.8542268449409107 2.8606315245215761 0 0 0 0 29.960682087647001 34.871230336472991 0 34.871230336472991 4.8170715632986685 0 0 0 0 34.705408687797899 41.565224123807184 0 41.565224123807184 32.538399868989472 0 0 0 0 -1.2469989662240266 6.5680432929908648 0 6.5680432929908648 4.9096850562835037 0 0 0 0 -0.45648687666090382 8.1601881174903532 0 8.1601881174903532 3.8795237287758391 0 0 0 0 32.852570755014312 42.826639518059437 0 42.826639518059437 35.915896906633861 0 0 0 0 -5.626375426130835 6.3232537033691187 0 6.3232537033691187 36.092307798127877 0 0 0 0 8.048375022248365 20.092940380643995 0 20.092940380643995 2.1817283401614986 0 0 0 0 16.393555892419727 20.686850519739039 0 20.686850519739039 4.223238780368729 0 0 0 0 4.4823823509976677 27.885403865789399 0 27.885403865789399 -6.9125429192424761 0 0 0 0 4.3411141297547147 28.302571794782125 0 28.302571794782125 16.140090157277882 0 0 0 0 9.692070584053198 32.697671850528408 0 32.697671850528408 34.91400901137218 0 0 0 0 29.010351853794418 28.265105408048839 0 28.265105408048839 20.341761404561794 0 0 0 0 35.619792557816254 41.385998693702277 0 41.385998693702277 -118.95807907632116 0 0 0 0 0.33631204220813515 8.4734161775567181 0 8.4734161775567181 -3.1178779043336977 0 0 0 0 -52.056578246756544 49.39232942806575 0 49.39232942806575 -14.069998827249947 0 0 0 0 -2.8871893750037998 35.634185662918753 0 35.634185662918753 -35.563766981977096 0 0 0 0 -6.0757023633923382 13.771919399534454 0 13.771919399534454 0.8000002114331437 0 0 0 0 -15.716230110061588 27.767581204670932 0 27.767581204670932 -6.2854230258255939 0 0 0 0 1.3817740083038359 30.9231846625419 0 30.9231846625419 -32.209322037296019 0 0 0 0 -7.156031648570206 31.072413476933434 0 31.072413476933434 -3.4911597192985937 0 0 0 0 -12.42538772006273 21.190910794106074 0 21.190910794106074 14.199412614888598 0 0 0 0 10.895121893455155 54.834365168067905 0 54.834365168067905 52.066438523779397 0 0 0 0 4.8697147684870288 37.572170895291492 0 37.572170895291492 15.362765010155272 0 0 0 0 5.699442838318646 38.623557255905325 0 38.623557255905325 5.8282974740141071 0 0 0 0 7.5626908396370709 33.753833265858702 0 33.753833265858702 9.4069200640151394 0 0 0 0 8.2232186484841989 33.584749278553517 0 33.584749278553517 9.3494765685141061 0 0 0 0 6.6615549131820444 30.451605351765465 0 30.451605351765465 4.6407495507446583 0 0 0 0 5.8659049029564869 21.737828148812909 0 21.737828148812909 2.5939880095180623 0 0 0 0 9.6153730665544686 23.310838621515302 0 23.310838621515302 17.800368017897817 0 0 0 0 5.4780935551971197 16.699831143501797 0 16.699831143501797 2.1333961465379616 0 0 0 0 2.1205465346425285 30.094723659864101 0 30.094723659864101 3.263720894537478 0 0 0 0 2.0169117733354511 17.406659630846519 0 17.406659630846519 -1.5296927659783393 0 0 0 0 -1.6383800938279762 16.709113704275367 0 16.709113704275367 7.0179840006032208 0 0 0 0 4.971155099233556 14.748895909062917 0 14.748895909062917 -1.568259489111437 0 0 0 0 -14.256795996712754 24.011379923555069 0 24.011379923555069 1.1782561331601755 0 0 0 0 -3.8240846184869497 9.4911117673490111 0 9.4911117673490111 4.3543265825428286 0 0 0 0 -25.2989680981118 16.093346757273139 0 16.093346757273139 3.2055370190391841 0 0 0 0 -2.393570955885636 14.453739365197777 0 14.453739365197777 2.277842122347316 0 0 0 0 -13.532810724398587 21.076525155343006 0 21.076525155343006 0.3893801526533025 0 0 0 0 4.9886539530924203 14.538681422242377 0 14.538681422242377 3.7732366097727024 0 0 0 0 19.849341986729996 12.147397138186079 0 12.147397138186079 6.8522866632559953 0 0 0 0 2.7881475227959527 37.558103598064292 0 37.558103598064292 16.12349678424016 0 0 0 0 13.653664322118857 13.812847046842307 0 13.812847046842307 4.6550915936476827 0 0 0 0 -0.60189297581841572 8.0503673187572531 0 8.0503673187572531 8.7527935269644068 0 0 0 0 -20.853313494495524 46.884904962111477 0 46.884904962111477 -5.9728174440970179 0 0 0 0 -13.600810171294142 26.011346361905453 0 26.011346361905453 8.5434665973921255 0 0 0 0 0.63926451997539857 11.77932117776578 0 11.77932117776578 -4.3836604214260966 0 0 0 0 -16.283354110521032 10.994549881612784 0 10.994549881612784 -0.055843378400595611 0 0 0 0 -5.4451954366856228 12.025285789624505 0 12.025285789624505 3.420615487008142 0 0 0 0 3.3259768163522665 5.6457039121631425 0 5.6457039121631425 -2.7381321202370255 0 0 0 0 9.4724428665795131 14.246784427233138 0 14.246784427233138 9.5753611955802285 0 0 0 0 18.946521555264553 28.29895383430943 0 28.29895383430943 1.1928096542087587 0 0 0 0 21.914469388106227 18.628549563915641 0 18.628549563915641 16.797088973542031 0 0 0 0 28.37071152273711 34.831590067877016 0 34.831590067877016 9.6597488044276361 0 0 0 0 -3.0043386615999736 8.8593004021358297 0 8.8593004021358297 1.8852575367027242 0 0 0 0 21.708149111072998 27.790398101524261 0 27.790398101524261 17.006059259474796 0 0 0 0 12.555773212445501 17.658416345232069 0 17.658416345232069 12.379899886054391 0 0 0 0 -3.0903247643972804 7.3340219034387673 0 7.3340219034387673 0.50085910998197392 0 0 0 0 25.19846860456164 28.992842984482195 0 28.992842984482195 15.63671241956763 0 0 0 0 13.365255316748517 24.977006997276476 0 24.977006997276476 16.029404525595965 0 0 0 0 7.5308638236601837 14.95586196318709 0 14.95586196318709 9.349440895490261 0 0 0 0 6.9524678365537511 12.259955061812533 0 12.259955061812533 6.6962960967237635 0 0 0 0 -1.9867371270600529 5.3942977656382993 0 5.3942977656382993 1.9875149506264336 0 0 0 0 1.9904283334083175 8.140570585229483 0 8.140570585229483 -0.5441516128321382 0 0 0 0 1.9968143141908286 8.4509096274095583 0 8.4509096274095583 5.9021306057238689 0 0 0 0 2.9069458164627804 4.900279247399574 0 4.900279247399574 -0.62999159089911139 0 0 0 0 -3.8264289336564161 5.3661822405112929 0 5.3661822405112929 3.6525031648203736 0 0 0 0 4.2349821114185033 16.499458036758369 0 16.499458036758369 21.519877989434008 0 0 0 0 -63.478706274203432 21.008738466981413 0 21.008738466981413 95.090535336272296 0 0 0 0 -24.120883030525874 80.161317528162726 0 80.161317528162726 33.561848654529967 0 0 0 0 6.4502461838128511 -19.366613321832119 0 -19.366613321832119 55.327213753764227 0 0 0 0 -0.87923970239594951 2.1288517279911048 0 2.1288517279911048 4.2383115395200761 0 0 0 0 6.8073127688621753 36.571844231609248 0 36.571844231609248 98.185628363629803 0 0 0 0 1.3303813459933735 -12.49421012721632 0 -12.49421012721632 83.672693098644231 0 0 0 0 -16.368660652457038 6.8063434467203479 0 6.8063434467203479 64.016796128486249 0 0 0 0 8.090137109211355 -5.1747113613587317 0 -5.1747113613587317 42.588989109874092 0 0 0 0 0.091747988541499126 -0.46835217116166916 0 -0.46835217116166916 1.8518931794378695 0 0 0 0 8.2204392846324481 13.141133977071149 0 13.141133977071149 26.405389143252705 0 0 0 0 11.394568174597225 -35.31177665870382 0 -35.31177665870382 89.446391435212718 0 0 0 0 11.500966982908722 -1.5707622651948441 0 -1.5707622651948441 24.312167107766072 0 0 0 0 27.157218972148257 33.053823550259949 0 33.053823550259949 45.924401896731069 0 0 0 0 0.3854905455974631 1.347767379436192 0 1.347767379436192 1.4286655312851124 0 0 0 0 3.3584397718368564 8.8895967459543499 0 8.8895967459543499 1.0487043042307675 0 0 0 0 -0.096227725103631201 7.2487653059573987 0 7.2487653059573987 2.4407644812895581 0 0 0 0 4.5747028063633479 17.676241708039015 0 17.676241708039015 22.259184830743834 0 0 0 0 -2.2031387380257605 5.5233954566738817 0 5.5233954566738817 13.87752670681153 0 0 0 0 -6.6500890876968697 9.0428924212892525 0 9.0428924212892525 25.647920292532945 0 0 0 0 4.5706221069091271 6.8151126645537374 0 6.8151126645537374 3.4534144505823932 0 0 0 0 4.3441584445245098 0.086775981357277487 0 0.086775981357277487 50.206169705623324 0 0 0 0 0.7888858502043945 5.3057948570439031 0 5.3057948570439031 2.1445071502341522 0 0 0 0 5.1082544213859364 2.9516636639164062 0 2.9516636639164062 41.138523299377994 0 0 0 0 3.2874587676772649 1.4154832771591543 0 1.4154832771591543 -4.586018990289773 0 0 0 0 2.8075667413650081 11.508895900682546 0 11.508895900682546 6.4406079082446013 0 0 0 0 2.1787587997423543 9.5033443545106593 0 9.5033443545106593 5.5827928924954904 0 0 0 0 5.8584601099282736 12.63650485715425 0 12.63650485715425 6.4219568292426032 0 0 0 0 3.3490136964246631 11.219914787416201 0 11.219914787416201 6.6190025368005081 0 0 0 0 3.1837471118415124 10.051854557087836 0 10.051854557087836 5.1584027720405174 0 0 0 0 0.41807375933507984 6.2254808994626671 0 6.2254808994626671 2.9120094811803376 0 0 0 0 3.0880796645278679 9.4181473036550472 0 9.4181473036550472 6.4510849169773792 0 0 0 0 6.8554575860471232 2.4949350341818786 0 2.4949350341818786 -2.8885442884541135 0 0 0 0 6.2832907764864387 7.2985453017138298 0 7.2985453017138298 5.5737210546816698 0 0 0 0 0.64856034131367934 2.7712722512269465 0 2.7712722512269465 -0.15965093168293731 0 0 0 0 2.5460107352514285 2.5636643977717313 0 2.5636643977717313 -6.1530276316929946 0 0 0 0 4.351205412109266 10.992856733068493 0 10.992856733068493 5.8959973386033653 0 0 0 0 6.6182841706322506 9.6973228914966967 0 9.6973228914966967 6.4626147345406366 0 0 0 0 3.4346034976857069 7.7230216606106694 0 7.7230216606106694 0.53165179936897289 0 0 0 0 3.5058835561229955 8.1842478924569377 0 8.1842478924569377 3.9096477849933038 0 0 0 0 -1.8343125298270024 6.3670437747609867 0 6.3670437747609867 -1.4686696747303358 0 0 0 0 1.4942001929210278 3.0765692033668728 0 3.0765692033668728 -0.73581662767871769 0 0 0 0 4.7653916363051394 12.112335209609228 0 12.112335209609228 7.7213538966908573 0 0 0 0 9.5225936207425548 13.855406183783089 0 13.855406183783089 11.633449761005522 0 0 0 0 -2.6628161115274622 4.8853774352716641 0 4.8853774352716641 2.7522541189076488 0 0 0 0 4.392748604514054 10.468892047109421 0 10.468892047109421 7.0488853906517761 0 0 0 0 -42.894188934005797 87.166769234442199 0 87.166769234442199 -101.47343108115973 0 0 0 0 -1.055108522462433 0.025749290247404133 0 0.025749290247404133 -1.2862021077517056 0 0 0 0 -44.992139974579914 54.219026866485137 0 54.219026866485137 -48.470123370780357 0 0 0 0 -149.87601462767634 122.3176429961735 0 122.3176429961735 -76.447981265914677 0 0 0 0 -121.57579703279771 102.65426724878758 0 102.65426724878758 -75.77255273646594 0 0 0 0 2.1123154936579454 0.47458356271813784 0 0.47458356271813784 -1.4165456259197819 0 0 0 0 3.7898927871719934 9.3871993651750927 0 9.3871993651750927 6.7536852493603874 0 0 0 0 -7.4468090770969866 6.8679703809848434 0 6.8679703809848434 16.551840538591932 0 0 0 0 2.2066858997108483 5.2991151428290095 0 5.2991151428290095 3.6971231042259642 0 0 0 0 -27.719739262218354 -15.572113224301575 0 -15.572113224301575 91.730725051786067 0 0 0 0 2.3636866151784943 -0.54731499881680179 0 -0.54731499881680179 -1.9318894430645779 0 0 0 0 4.7415423830680083 -13.913631506885849 0 -13.913631506885849 23.702853596789282 0 0 0 0 -0.093280949440668337 61.814978972876361 0 61.814978972876361 -91.127407177829809 0 0 0 0 -3.8490561386279296 2.7497304457465361 0 2.7497304457465361 -104.83086679500593 0 0 0 0 -0.042546608776319772 105.20156277582282 0 105.20156277582282 58.473529977444059 0 0 0 0 1.3711066221568444 1.367841180556427 0 1.367841180556427 2.1735409687146139 0 0 0 0 0.8677266973118094 36.337605314554366 0 36.337605314554366 37.186466046930946 0 0 0 0 -2.3310570926277592 -2.0838049067187256 0 -2.0838049067187256 7.0564556749805991 0 0 0 0 -0.74728172966570128 4.4512130314815295 0 4.4512130314815295 32.164417741546458 0 0 0 0 -1.5901300347241261 -1.735586042950878 0 -1.735586042950878 3.81964243716582 0 0 0 0 0.58068918430944905 2.0341133710917347 0 2.0341133710917347 9.6662348029003624 0 0 0 0 1.1050308063986449 6.3134178541596384 0 6.3134178541596384 4.3243251626317942 0 0 0 0 10.994001279163058 12.65426005147674 0 12.65426005147674 -25.306206688278507 0 0 0 0 2.2476266024400786 6.0030086505450413 0 6.0030086505450413 4.2552378899749783 0 0 0 0 1.2410067340242676 4.5640473963903787 0 4.5640473963903787 10.391765531237979 0 0 0 0 -1.5941503394660685 6.7852096846526138 0 6.7852096846526138 12.490255119595531 0 0 0 0 -0.05290987326583263 2.4536478095443925 0 2.4536478095443925 6.2594118615939411 0 0 0 0 -9.9674076469091233 16.08076329364394 0 16.08076329364394 58.275933473536497 0 0 0 0 0.98334031338885097 5.8840135614651103 0 5.8840135614651103 16.051256019255582 0 0 0 0 9.6963472520728828 -1.6851227982824639 0 -1.6851227982824639 -15.243321262199061 0 0 0 0 -0.55491283185349971 4.2868130316602375 0 4.2868130316602375 5.9869067049951799 0 0 0 0 -3.5071096301762736 6.7401889459306403 0 6.7401889459306403 20.439904221358574 0 0 0 0 0.0020131282217334956 7.0976351467893437 0 7.0976351467893437 21.101286409622844 0 0 0 0 -1.3323574045061832 8.6381036655111529 0 8.6381036655111529 21.761726228573025 0 0 0 0 -0.35130335538997315 4.1228882051718756 0 4.1228882051718756 12.069024580128826 0 0 0 0 -0.0035701519518624991 6.7569905019900034 0 6.7569905019900034 10.442598576769342 0 0 0 0 1.4354602668284429 3.4044674308701559 0 3.4044674308701559 9.5741131766791483 0 0 0 0 -2.675598883695784 3.3806151867756853 0 3.3806151867756853 6.3603039814406657 0 0 0 0 53.153240492392797 -102.30172094206227 0 -102.30172094206227 67.209931364912336 0 0 0 0 -11.228056666775956 -79.588522819658465 0 -79.588522819658465 101.49763994984744 0 0 0 0 -7.6136498354753712 34.300291695221858 0 34.300291695221858 86.16882692519539 0 0 0 0 48.329361797841557 -55.41649524034176 0 -55.41649524034176 87.581729873760196 0 0 0 0 -49.321815017290646 -22.034036409374494 0 -22.034036409374494 111.63458511583849 0 0 0 0 -13.432612246630015 -54.325837133075765 0 -54.325837133075765 119.83063135146949 0 0 0 0 -36.993698248690635 -8.663671963186971 0 -8.663671963186971 17.152063645964517 0 0 0 0 28.262699873208476 44.311169766738203 0 44.311169766738203 59.400950338781513 0 0 0 0 -138.94717665123608 118.89545355190603 0 118.89545355190603 -19.872798762655293 0 0 0 0 -0.97270679395433035 9.621337031785913 0 9.621337031785913 20.581029132956758 0 0 0 0 -0.24402688012014551 -8.8481956998734859 0 -8.8481956998734859 32.838091111971153 0 0 0 0 -45.220676566506881 -35.049818969451053 0 -35.049818969451053 -49.679480418773892 0 0 0 0 200.87661321910127 -289.08941022584713 0 -289.08941022584713 291.9630061227266 0 0 0 0 -0.0014496818626080002 4.3119494149390762 0 4.3119494149390762 5.5515263270535797 0 0 0 0 1.3206151041665919 1.9813517506537011 0 1.9813517506537011 2.4919199970882957 0 0 0 0 -40.048151839462662 6.675121485956879 0 6.675121485956879 86.854606631062779 0 0 0 0 -296.10427807190354 504.23717722595575 0 504.23717722595575 -418.40864369282099 0 0 0 0 6.2753454494832539 5.7847148166201876 0 5.7847148166201876 -8.365042942246788 0 0 0 0 130.57442324193107 313.22561825450521 0 313.22561825450521 -454.32214785640963 0 0 0 0 -836.49692296182184 610.22526600959191 0 610.22526600959191 -534.45459578466216 0 0 0 0 -391.26635801435623 1445.89153394344 0 1445.89153394344 -914.05288681715137 0 0 0 0 246.3352962076151 1281.084791405621 0 1281.084791405621 -915.32269161669137 0 0 0 0 813.37237208908846 -339.14814645550177 0 -339.14814645550177 28.734664176397928 0 0 0 0 6.1513254273055793 1.355195080564183 0 1.355195080564183 -3.0883761231072135 0 0 0 0 -285.13401091062769 279.26141798746585 0 279.26141798746585 -977.94822755530549 0 0 0 0 -455.34522088352969 1036.9561833017697 0 1036.9561833017697 -1288.8729667486077 0 0 0 0 12.527649429097025 -0.17718935139712144 0 -0.17718935139712144 -8.5882493810912095 0 0 0 0 -429.93817975812999 421.03082708064085 0 421.03082708064085 -1000.6334184731004 0 0 0 0 -258.51374103840863 679.62639419633524 0 679.62639419633524 -660.81942971190892 0 0 0 0 -258.3621134866371 123.86359581687793 0 123.86359581687793 252.34079732703321 0 0 0 0 35.925217323523839 5.6444666039365394 0 5.6444666039365394 -41.756989748882972 0 0 0 0 91.586249957908876 -55.5331753970313 0 -55.5331753970313 33.181994238599145 0 0 0 0 7.0023968425111036 -2.3885619453344447 0 -2.3885619453344447 -2.6554317340246598 0 0 0 0 96.999511806978262 111.96009538068392 0 111.96009538068392 -172.32372482944993 0 0 0 0 -107.74067504012964 172.36319923535075 0 172.36319923535075 -90.045674603021325 0 0 0 0 -183.0356228643941 -38.248593174244888 0 -38.248593174244888 -43.144431885320955 0 0 0 0 39.154565684707279 4.6294068725762934 0 4.6294068725762934 -38.981327346759088 0 0 0 0 82.401059945725137 -80.853275205219688 0 -80.853275205219688 -7.429263997466478 0 0 0 0 46.47332436676561 -46.563845687805355 0 -46.563845687805355 -118.75902433173087 0 0 0 0 127.23091495176777 192.17778364137666 0 192.17778364137666 90.644183650646028 0 0 0 0 -370.44550140242791 124.04251219722209 0 124.04251219722209 -88.853805031620141 0 0 0 0 -19.788663912371675 39.356520076741845 0 39.356520076741845 -25.566590969677527 0 0 0 0 11.24832868683734 26.482120051658512 0 26.482120051658512 -41.991229664524326 0 0 0 0 -8.3687178679101635 95.126865007310698 0 95.126865007310698 -25.69962083003702 0 0 0 0 -21.720934629862313 88.76684260562979 0 88.76684260562979 4.2911704564048705 0 0 0 0 303.24811348202638 -73.239453696514829 0 -73.239453696514829 -130.74011960702592 0 0 0 0 -7.9238916348352859 30.69489256988269 0 30.69489256988269 -15.738961935129717 0 0 0 0 -2.8697424651069809 6.1616366089658285 0 6.1616366089658285 -3.9594507946788102 0 0 0 0 -43.787793641320604 31.068951667130023 0 31.068951667130023 289.92094302610803 0 0 0 0 -26.049490359007905 290.3510660688903 0 290.3510660688903 716.4238102893305 0 0 0 0 71.574667943168606 419.01623374639894 0 419.01623374639894 564.84853970819677 0 0 0 0 384.26029168778769 935.47513602057916 0 935.47513602057916 1212.3424292227846 0 0 0 0 -165.98365540633858 121.31212782908847 0 121.31212782908847 1264.5701444974948 0 0 0 0 36.557766172154516 -43.290895602338878 0 -43.290895602338878 70.812776552635114 0 0 0 0 3.1387265155323831 4.8242907952039644 0 4.8242907952039644 5.4341767224733317 0 0 0 0 -191.09866367708219 448.6183328859068 0 448.6183328859068 -172.80260211379573 0 0 0 0 -150.7062477866275 31.986417821343821 0 31.986417821343821 -18.524852378894138 0 0 0 0 8.566442271050704 18.670047604106959 0 18.670047604106959 1.0234530193573868 0 0 0 0 28.079296173310468 212.19920306363662 0 212.19920306363662 -58.831043384372606 0 0 0 0 916.88866439664707 256.69529391154356 0 256.69529391154356 -242.80172677591054 0 0 0 0 498.57937729158948 1248.4416497718498 0 1248.4416497718498 475.13422972349872 0 0 0 0 377.5320995614311 538.81204453035662 0 538.81204453035662 1104.8046555868841 0 0 0 0 1159.9035762869462 700.30117113372353 0 700.30117113372353 530.32086971082208 0 0 0 0 816.16125956489122 202.14731214359199 0 202.14731214359199 698.93744968982173 0 0 0 0 392.08167323836824 256.86768880377713 0 256.86768880377713 441.39694310709626 0 0 0 0 342.9118975387828 685.7843399489584 0 685.7843399489584 481.13793385706299 0 0 0 0 357.72556797277502 496.51608588305135 0 496.51608588305135 214.22112317647088 0 0 0 0 178.30471861456317 344.98585464766802 0 344.98585464766802 305.44079462374748 0 0 0 0 406.89236009426531 546.46831976600424 0 546.46831976600424 113.61650623095011 0 0 0 0 248.85716883866189 369.05322776109097 0 369.05322776109097 70.8628975357733 0 0 0 0 342.19535142135828 540.58263844589305 0 540.58263844589305 165.05717649594408 0 0 0 0 751.41078614948128 773.28186362522274 0 773.28186362522274 -447.80841639902519 0 0 0 0 761.60247201395032 698.46054353066756 0 698.46054353066756 93.982985705691362 0 0 0 0 36.343865727365483 341.81544499254323 0 341.81544499254323 53.08769246373231 0 0 0 0 -21.266248197753157 257.14464170653309 0 257.14464170653309 4.4418632953165798 0 0 0 0 169.60858627395646 391.40216202103693 0 391.40216202103693 205.92165803644002 0 0 0 0 101.83403576480669 273.35439216400027 0 273.35439216400027 44.88021198046772 0 0 0 0 174.41937161165697 305.01977941537734 0 305.01977941537734 105.06985674848147 0 0 0 0 140.99981790069796 444.47762532623619 0 444.47762532623619 76.116154710347018 0 0 0 0 81.332066556500649 317.27406158531267 0 317.27406158531267 -82.8056963078634 0 0 0 0 -38.233597493122943 383.30906327516459 0 383.30906327516459 18.684527594405154 0 0 0 0 -33.208458646764484 391.91732593140091 0 391.91732593140091 -14.113965954940795 0 0 0 0 341.43399148939716 528.12158462716661 0 528.12158462716661 -34.440329885605024 0 0 0 0 267.060364694491 370.23158551160168 0 370.23158551160168 -36.977631152371032 0 0 0 0 191.92132924601901 362.55388332654911 0 362.55388332654911 -166.60720611410125 0 0 0 0 223.73342919819697 539.65388404240639 0 539.65388404240639 -154.30968265675853 0 0 0 0 626.99843226458688 604.66655964052916 0 604.66655964052916 -13.523605397121401 0 0 0 0 505.82819807194028 471.88959710905056 0 471.88959710905056 -42.749892511246799 0 0 0 0 500.0258589989171 406.93136425222974 0 406.93136425222974 -117.9991798524934 0 0 0 0 1095.0192802677939 319.74769315045614 0 319.74769315045614 -235.64434773060566 0 0 0 0 458.10006199849522 232.89705770069486 0 232.89705770069486 -193.21351650409906 0 0 0 0 363.70814509332922 502.97728933071448 0 502.97728933071448 -55.68274399312395 0 0 0 0 552.99245429827351 424.10340991176849 0 424.10340991176849 -135.50587176948829 0 0 0 0 288.5380907233266 385.81011036588643 0 385.81011036588643 -131.70205444463772 0 0 0 0 308.30684505326008 332.52775194114793 0 332.52775194114793 -49.049488005513922 0 0 0 0 258.00210305581277 190.41605343376136 0 190.41605343376136 -120.40723879606958 0 0 0 0 414.01609422683032 218.52656995119651 0 218.52656995119651 -119.76140287031012 0 0 0 0 68.52100054366997 496.61730003354518 0 496.61730003354518 -74.227861280272919 0 0 0 0 344.53041019723241 453.48720874991977 0 453.48720874991977 -131.50962823310147 0 0 0 0 322.78513364342143 467.32607047134707 0 467.32607047134707 -16.695726344505601 0 0 0 0 251.69340710367396 535.18604437567865 0 535.18604437567865 -81.027265331993476 0 0 0 0 237.75377293044949 476.5779029547457 0 476.5779029547457 -139.08422412445998 0 0 0 0 199.09002656789744 604.56547783384485 0 604.56547783384485 -5.7057183437545973 0 0 0 0 170.1401933708803 490.53073631716961 0 490.53073631716961 234.47577417280991 0 0 0 0 191.91536253390586 390.3471936142596 0 390.3471936142596 110.44043483149289 0 0 0 0 169.38306348234437 461.38293679567732 0 461.38293679567732 -12.728533684621652 0 0 0 0 82.691346486095426 346.53894682602913 0 346.53894682602913 312.31371279297855 0 0 0 0 63.046441818165476 282.23087102163117 0 282.23087102163117 106.06112518931877 0 0 0 0 121.58836912795095 390.67941997211312 0 390.67941997211312 178.06058403386305 0 0 0 0 175.10020295473441 184.6719464654916 0 184.6719464654916 -43.422131820131654 0 0 0 0 171.51695711426873 306.21516229595272 0 306.21516229595272 -50.569680035774581 0 0 0 0 109.03340939453847 240.30123263929227 0 240.30123263929227 36.023392507438984 0 0 0 0 116.48435602468089 250.57754822159404 0 250.57754822159404 47.736693739784641 0 0 0 0 25.42148994969466 128.19346845656764 0 128.19346845656764 -3.1600473350054017 0 0 0 0 127.8272865847207 147.99161371127889 0 147.99161371127889 -69.725535190133087 0 0 0 0 4.9603875138564035 30.667682281293764 0 30.667682281293764 -81.715762114241443 0 0 0 0 -11.126455395515592 31.924462540026404 0 31.924462540026404 -61.207252082172204 0 0 0 0 0.35783305674067378 -3.5326740363484532 0 -3.5326740363484532 -68.43302536795818 0 0 0 0 -24.612157192459563 39.859163874331898 0 39.859163874331898 -44.26603119189167 0 0 0 0 22.219510763860853 82.291429507185057 0 82.291429507185057 -29.939336449771872 0 0 0 0 144.4039497614358 58.534981684353625 0 58.534981684353625 -84.515235471771121 0 0 0 0 117.0125948569912 84.11404941699675 0 84.11404941699675 -51.541106287224466 0 0 0 0 92.205998220732909 14.084094405572387 0 14.084094405572387 -69.974122517078285 0 0 0 0 153.26531142949989 31.149459131063509 0 31.149459131063509 -64.856765947988606 0 0 0 0 -26.157860203820746 5.9807397564909479 0 5.9807397564909479 -39.583275222927114 0 0 0 0 313.01341898350438 -7.7639609559203109 0 -7.7639609559203109 -89.764806428991506 0 0 0 0 151.60826316136081 26.926067412020529 0 26.926067412020529 -59.489027519990486 0 0 0 0 -148.57044575503096 620.17400639284824 0 620.17400639284824 -2179.3245188513138 0 0 0 0 -601.77554787873123 1020.4380445051822 0 1020.4380445051822 -857.85201296877131 0 0 0 0 9.9560249901611826 -4.3541932277130257 0 -4.3541932277130257 -22.780434457439281 0 0 0 0 -111.61078711440496 813.81509368280604 0 813.81509368280604 -1254.1906652765247 0 0 0 0 -8.5948033725871937 41.890142816532943 0 41.890142816532943 -72.017325734215774 0 0 0 0 -5.5983960662531729 25.879303018001707 0 25.879303018001707 -51.478542213976887 0 0 0 0 -32.171716111202841 2.3871923119486382 0 2.3871923119486382 -62.159721833675121 0 0 0 0 -59.259490854339674 10.923180813126237 0 10.923180813126237 783.4052922808296 0 0 0 0 -1657.3333093000292 1108.0694706692757 0 1108.0694706692757 -752.80965574526272 0 0 0 0 -1.3437131108901355 2.4893878841585604 0 2.4893878841585604 -3.446575845254209 0 0 0 0 58.489259795458565 143.30340900758165 0 143.30340900758165 276.98431405720476 0 0 0 0 49.80319490258821 344.98430930937553 0 344.98430930937553 52.598057267226977 0 0 0 0 154.6622204667292 298.4508449845016 0 298.4508449845016 264.05917372491513 0 0 0 0 281.91213747569054 426.20649203699031 0 426.20649203699031 112.32830695395387 0 0 0 0 169.96604827784176 347.63145704187627 0 347.63145704187627 158.43638673075475 0 0 0 0 82.655913736016373 356.06854947889587 0 356.06854947889587 -182.67307736715156 0 0 0 0 49.65243598480447 439.67633492322784 0 439.67633492322784 87.391010599014407 0 0 0 0 133.63163659094516 222.39012733069421 0 222.39012733069421 60.444017240704852 0 0 0 0 -105.94432782537478 377.43876729137628 0 377.43876729137628 52.238011967485363 0 0 0 0 -120.39298419613624 132.17295609151915 0 132.17295609151915 -363.49901440828398 0 0 0 0 -161.33216473479843 680.10898049827301 0 680.10898049827301 -5.9280507398507325 0 0 0 0 -238.76820104004582 502.02875030001815 0 502.02875030001815 719.14770734904596 0 0 0 0 -563.61176882278596 -170.04258778542498 0 -170.04258778542498 -521.20824169343541 0 0 0 0 144.08256843849813 -34.279115776356775 0 -34.279115776356775 35.365719033554342 0 0 0 0 -1540.7350680445325 758.37554241605085 0 758.37554241605085 -132.07317556036287 0 0 0 0 28.584967108965188 18.045963219944618 0 18.045963219944618 -22.330762245647151 0 0 0 0 -573.55458711151778 371.8342263734084 0 371.8342263734084 -449.93103170655013 0 0 0 0 148.24728978543135 83.80245183129955 0 83.80245183129955 -59.549108504983451 0 0 0 0 97.284674897709465 30.529401886189135 0 30.529401886189135 -104.7800097652871 0 0 0 0 71.072249551097229 181.09512938526996 0 181.09512938526996 -129.39761470282974 0 0 0 0 -10.649282441467221 160.90887552528875 0 160.90887552528875 -124.45580712083529 0 0 0 0 265.52305437057476 -36.912714689758104 0 -36.912714689758104 -76.41277904168237 0 0 0 0 252.32494349166518 -109.84129544182724 0 -109.84129544182724 -25.228886363300262 0 0 0 0 168.6021852351987 62.653132731720689 0 62.653132731720689 -123.9366037298114 0 0 0 0 140.4919938724488 81.396931561874226 0 81.396931561874226 -123.98941259327694 0 0 0 0 78.113339204144722 65.799190488054592 0 65.799190488054592 -86.709441354527371 0 0 0 0 87.818694556175615 113.57796659957239 0 113.57796659957239 -155.70617204755399 0 0 0 0 67.373285911351559 85.09164784096356 0 85.09164784096356 -108.79302293417641 0 0 0 0 104.70732515380951 79.89015236288833 0 79.89015236288833 -123.09302637961082 0 0 0 0 80.317796519564581 61.947937643397381 0 61.947937643397381 -134.7528430364473 0 0 0 0 -17.182879422864062 114.18332326509881 0 114.18332326509881 -80.605974306952703 0 0 0 0 -21.244579252223048 132.01248921854312 0 132.01248921854312 -108.63011669310663 0 0 0 0 21.745587950850442 10.308004047021505 0 10.308004047021505 -3.7507425947665354 0 0 0 0 -8.8171116557823552 99.424318650198984 0 99.424318650198984 -117.15184858592693 0 0 0 0 -0.48916203326189134 120.60515110343658 0 120.60515110343658 -116.35613215924968 0 0 0 0 66.798069304139062 94.024175326252589 0 94.024175326252589 -117.50976487016305 0 0 0 0 51.886543279571924 110.51009763872571 0 110.51009763872571 -120.03706823402172 0 0 0 0 60.472043244259112 91.397597653987759 0 91.397597653987759 -110.26599772290501 0 0 0 0 51.332270970699028 99.635662101471098 0 99.635662101471098 -114.18572799827598 0 0 0 0 58.738060328920255 79.730322158888157 0 79.730322158888157 -111.52801809968878 0 0 0 0 65.358729802814196 72.393084712315613 0 72.393084712315613 -105.39328187147476 0 0 0 0 84.353153122850927 70.950602792618156 0 70.950602792618156 -112.40476264261815 0 0 0 0 84.809396901982836 72.826318800223817 0 72.826318800223817 -109.73070319080944 0 0 0 0 71.608340615712223 51.538042609452532 0 51.538042609452532 -102.23954443817638 0 0 0 0 73.532363029080443 45.635466716794326 0 45.635466716794326 -88.187432531805825 0 0 0 0 42.619580281156232 50.170107789650501 0 50.170107789650501 -102.01352790096598 0 0 0 0 37.067542717619446 8.2473312121203968 0 8.2473312121203968 -42.852779030519301 0 0 0 0 -338.656983062584 -408.79158836110446 0 -408.79158836110446 -1117.8251383756506 0 0 0 0 -21.024628009050502 72.237081654238864 0 72.237081654238864 -71.614374971410143 0 0 0 0 -0.24918412616173669 4.0453171783018504 0 4.0453171783018504 -8.8373675380960037 0 0 0 0 7.2252529088727897 40.071305299978121 0 40.071305299978121 -50.03088520107849 0 0 0 0 -828.16597893108701 1171.4325259980833 0 1171.4325259980833 -840.82753223777763 0 0 0 0 7.5949298124434392 8.1791809374199822 0 8.1791809374199822 -6.7528789988795666 0 0 0 0 -747.91586236500734 1641.5775310772333 0 1641.5775310772333 -456.46757308208657 0 0 0 0 32.02753227425341 18.176491602781695 0 18.176491602781695 -35.624931003078416 0 0 0 0 127.20314298416633 3.8701724865059077 0 3.8701724865059077 -74.109183568012668 0 0 0 0 123.17046037541877 46.732381422920298 0 46.732381422920298 -63.968331789921649 0 0 0 0 120.62973562337356 29.613780230106386 0 29.613780230106386 -88.035759343314567 0 0 0 0 101.76366980199236 56.515413328146678 0 56.515413328146678 -99.5184189132342 0 0 0 0 93.058216737190378 56.962133099515995 0 56.962133099515995 -96.194011286643217 0 0 0 0 66.986055662753643 10.192326490025152 0 10.192326490025152 -51.06782488475551 0 0 0 0 115.06121420809359 34.534680293385463 0 34.534680293385463 -96.611400031499215 0 0 0 0 76.333057705477799 52.675581912724894 0 52.675581912724894 25.361961214528961 0 0 0 0 -35.545435524214554 95.800044945041009 0 95.800044945041009 10.072524799280018 0 0 0 0 -58.796475986942824 182.70301756099434 0 182.70301756099434 2.6397930065463697 0 0 0 0 -103.58616401525796 114.20221507772294 0 114.20221507772294 51.639115185102128 0 0 0 0 -46.026804441970853 57.268856971659261 0 57.268856971659261 118.2853504349041 0 0 0 0 -14.964207870987593 -56.258271636921563 0 -56.258271636921563 44.003377791344974 0 0 0 0 -19.419158075746964 59.760694100517867 0 59.760694100517867 93.447340009588515 0 0 0 0 36.231162562049576 -45.274516426608898 0 -45.274516426608898 -62.625164539656907 0 0 0 0 -7.24055323828361 19.579815346027317 0 19.579815346027317 180.78934469299566 0 0 0 0 5.9422189636024996 168.7610144283608 0 168.7610144283608 198.02750280596183 0 0 0 0 -2.9904083869187161 131.56871834136109 0 131.56871834136109 48.256571472084033 0 0 0 0 212.47297534989775 51.450281590408849 0 51.450281590408849 21.354554337616719 0 0 0 0 659.70420633158574 -128.50901321503352 0 -128.50901321503352 -13.999692869998398 0 0 0 0 5.1345466289065982 3.8407182382336345 0 3.8407182382336345 -2.6069021437660211 0 0 0 0 452.08720860629546 290.73039548015004 0 290.73039548015004 119.26852662496094 0 0 0 0 -242.22397191333948 593.24433999465691 0 593.24433999465691 -10.548655828901246 0 0 0 0 63.631308996618827 213.39918145824231 0 213.39918145824231 397.55602366951643 0 0 0 0 2.353213633716905 0.97892795339808458 0 0.97892795339808458 -1.7912779984231548 0 0 0 0 166.87173523330421 250.48893238630626 0 250.48893238630626 161.87441441613191 0 0 0 0 -63.10291020213117 -26.26365250868912 0 -26.26365250868912 240.72782936545991 0 0 0 0 -51.023699356053839 535.64251421894005 0 535.64251421894005 -361.35265757131674 0 0 0 0 239.03223644836544 160.80703698933576 0 160.80703698933576 -57.247394864723901 0 0 0 0 -44.26318233992788 387.95767804249044 0 387.95767804249044 34.660179404603696 0 0 0 0 -46.172290006295725 457.31230024331103 0 457.31230024331103 -36.059914270299487 0 0 0 0 -110.72087987033592 223.92103701410815 0 223.92103701410815 -19.942654462849532 0 0 0 0 -412.18824507585305 247.46227325900691 0 247.46227325900691 26.093981727059145 0 0 0 0 -179.53366308764453 57.420184865033661 0 57.420184865033661 -146.47343774164619 0 0 0 0 6.9410067211394377 6.7386887306292031 0 6.7386887306292031 -0.85111166131494542 0 0 0 0 -8.9162803666768013 137.85074947755675 0 137.85074947755675 -221.71958299320249 0 0 0 0 -217.37951051628625 218.25050824260688 0 218.25050824260688 -132.03926623889129 0 0 0 0 274.72855534224709 -148.08518938252109 0 -148.08518938252109 -73.14296705032757 0 0 0 0 159.9958835299476 26.024863512078809 0 26.024863512078809 -111.80506493369467 0 0 0 0 -60.500726054218831 -0.19060295276358374 0 -0.19060295276358374 124.69883444827792 0 0 0 0 -35.19390755945642 174.73850675514404 0 174.73850675514404 -357.47673155195162 0 0 0 0 60.331001537110069 34.038881064388349 0 34.038881064388349 17.906164231812078 0 0 0 0 106.42855164010325 177.83183561014994 0 177.83183561014994 -207.98701316074585 0 0 0 0 96.540346739951929 -62.477362259758593 0 -62.477362259758593 79.313702713812745 0 0 0 0 234.11764267393937 16.125686895704348 0 16.125686895704348 -183.22867569747905 0 0 0 0 -314.39790138771787 6.461534174872213 0 6.461534174872213 -201.36827539876867 0 0 0 0 42.794722193691996 254.10480727378308 0 254.10480727378308 4.7401496776321892 0 0 0 0 99.787024379482318 250.05748933175346 0 250.05748933175346 -246.81058181421395 0 0 0 0 68.580029052982368 39.926626424916719 0 39.926626424916719 23.239846165769151 0 0 0 0 91.725732730677919 491.10472462928283 0 491.10472462928283 -568.92082929013486 0 0 0 0 -657.48707600010675 351.14440935939092 0 351.14440935939092 -399.20625591719181 0 0 0 0 850.89473863610328 -37.906022406903503 0 -37.906022406903503 -225.57543866568085 0 0 0 0 0.91061383385158479 0.27029472537256538 0 0.27029472537256538 -9.0141381143551911 0 0 0 0 -1162.4273463334393 1139.4992934468646 0 1139.4992934468646 -546.6868553018403 0 0 0 0 -371.00214258322376 560.60808469266522 0 560.60808469266522 -248.54562247847571 0 0 0 0 336.12874084805662 504.93870423874796 0 504.93870423874796 -1326.1481700353706 0 0 0 0 35.722122390401637 -89.283957761224883 0 -89.283957761224883 -53.32551318179685 0 0 0 0 187.99334658856242 76.72583803868838 0 76.72583803868838 25.632827420122339 0 0 0 0 169.82267721390235 64.564628560630808 0 64.564628560630808 73.092776061199402 0 0 0 0 -182.30732534248818 372.2106186434321 0 372.2106186434321 -446.2811175906736 0 0 0 0 1.4126502349275398 -2.7831695061366446 0 -2.7831695061366446 -25.471899950824692 0 0 0 0 220.56172012592651 -6.4531210510149322 0 -6.4531210510149322 -53.371777769309119 0 0 0 0 -496.16933682600938 432.04675507598495 0 432.04675507598495 -309.43453730601323 0 0 0 0 -182.16672923753504 222.23570794749867 0 222.23570794749867 -221.53137592082271 0 0 0 0 -47.744314005947672 326.6118650832741 0 326.6118650832741 -284.5273278803561 0 0 0 0 -91.729956910785404 324.4024622380457 0 324.4024622380457 -392.57196719387139 0 0 0 0 -82.634663058608567 378.59159377147034 0 378.59159377147034 -341.28069903096548 0 0 0 0 -184.31419535842815 323.50094818918046 0 323.50094818918046 -362.19765662130521 0 0 0 0 -94.774548963978305 345.90439742779563 0 345.90439742779563 -404.46759322005391 0 0 0 0 -102.18889036938344 274.54394359507069 0 274.54394359507069 -261.95136978906885 0 0 0 0 -66.124292214055458 311.53757679336468 0 311.53757679336468 -380.94675958429798 0 0 0 0 48.489649105526638 29.278621131994434 0 29.278621131994434 16.952117772711915 0 0 0 0 -118.27586444807821 375.63206507198993 0 375.63206507198993 -319.71835692080822 0 0 0 0 -78.09069875102432 369.03580572698957 0 369.03580572698957 -326.95777608218305 0 0 0 0 -40.999123772038729 419.6144039345636 0 419.6144039345636 -299.5055480498304 0 0 0 0 -122.72703522105985 398.60487755819395 0 398.60487755819395 -255.20724726546177 0 0 0 0 -69.111796462428174 403.11768151910474 0 403.11768151910474 -276.15201253546002 0 0 0 0 -52.312938137565652 459.46881962023372 0 459.46881962023372 -290.13258171772759 0 0 0 0 53.054805855240375 425.83373856983519 0 425.83373856983519 -292.49252469720523 0 0 0 0 19.906694910961278 496.628244803884 0 496.628244803884 -296.97346682365605 0 0 0 0 16.76094520521292 371.39335889816266 0 371.39335889816266 -251.37598834807613 0 0 0 0 402.955030120429 51.312744678918534 0 51.312744678918534 -267.69248232493828 0 0 0 0 301.76951464905869 253.25730353104518 0 253.25730353104518 -369.72314050656951 0 0 0 0 90.481585431421991 399.15709841913667 0 399.15709841913667 -275.4402234855952 0 0 0 0 121.41226987561095 167.78533358404457 0 167.78533358404457 -68.351141546932922 0 0 0 0 -4.5971498947110376 71.506944273531644 0 71.506944273531644 -73.304031142175518 0 0 0 0 679.01482412577025 -168.44024891576646 0 -168.44024891576646 -206.91468121730395 0 0 0 0 515.29663030891243 -72.843223213376405 0 -72.843223213376405 -116.68310789887983 0 0 0 0 6.1566757516117008 12.041293370390093 0 12.041293370390093 -0.17681509593730027 0 0 0 0 443.09512774946052 -18.101316656331619 0 -18.101316656331619 197.2417123693449 0 0 0 0 6.1333279619651648 -0.70379252379528623 0 -0.70379252379528623 -8.4340572181246394 0 0 0 0 -103.07871308203903 64.977571850418826 0 64.977571850418826 -80.888314921379788 0 0 0 0 94.891313105232257 190.0308274418876 0 190.0308274418876 -234.67488506783775 0 0 0 0 55.512233762943652 238.03894488647893 0 238.03894488647893 -130.13796959226602 0 0 0 0 152.05011590098729 316.65917449151493 0 316.65917449151493 -268.91996667773674 0 0 0 0 258.01731634620228 233.99887036822111 0 233.99887036822111 -230.18063363539113 0 0 0 0 15.273008146541542 344.98663906414185 0 344.98663906414185 -284.59397814893237 0 0 0 0 34.544644006944509 304.4839774864804 0 304.4839774864804 -249.56756410722301 0 0 0 0 -0.12944105506176129 168.23535970615922 0 168.23535970615922 -223.13818856995289 0 0 0 0 62.196025196801202 3.4332137297442387 0 3.4332137297442387 -47.970513712105458 0 0 0 0 53.546549403945392 25.464858532383914 0 25.464858532383914 -63.184168918422074 0 0 0 0 3.8397228358473967 -6.5853197017669771 0 -6.5853197017669771 -43.962494188599422 0 0 0 0 79.811350839518127 2.0447093507282261 0 2.0447093507282261 -62.75106672303113 0 0 0 0 10.050942181569496 17.99466082912376 0 17.99466082912376 -47.005907755463063 0 0 0 0 77.07609400407091 5.236034503501287 0 5.236034503501287 -58.735005456484942 0 0 0 0 104.61977663783182 2.2530751662961848 0 2.2530751662961848 -68.748688740288344 0 0 0 0 52.804711231481633 39.283082356028899 0 39.283082356028899 -61.310334188292472 0 0 0 0 101.20771153792157 27.801778555061901 0 27.801778555061901 -77.490019383782055 0 0 0 0 112.59973494008227 21.920607848245254 0 21.920607848245254 -75.191940121818334 0 0 0 0 106.90522542716644 -31.850100899842801 0 -31.850100899842801 -31.094126223848434 0 0 0 0 119.42451758580864 31.489973074749287 0 31.489973074749287 -68.849560231577925 0 0 0 0 133.99892636882578 1.7007217385730655 0 1.7007217385730655 -37.999007965336205 0 0 0 0 25.879479950082896 60.878172556258505 0 60.878172556258505 -45.633796665675618 0 0 0 0 49.419811784355261 29.983892037875194 0 29.983892037875194 -44.609584800365383 0 0 0 0 109.78698983009963 211.11117418080357 0 211.11117418080357 -145.1217107442717 0 0 0 0 48.83936381802971 25.254822837600329 0 25.254822837600329 13.027117467299512 0 0 0 0 9.7789177710074 72.843009445699863 0 72.843009445699863 -60.216826020481676 0 0 0 0 33.068101400887826 73.160109749809635 0 73.160109749809635 -61.606502280717905 0 0 0 0 -45.406908435332298 23.897094735666997 0 23.897094735666997 -99.081767570387456 0 0 0 0 18.19053422388015 62.142970619288377 0 62.142970619288377 -91.96700329297164 0 0 0 0 18.354199606350448 79.706177645937714 0 79.706177645937714 -114.38016358674213 0 0 0 0 39.43709194958501 72.6196564223319 0 72.6196564223319 -101.21867473149905 0 0 0 0 29.078325722392037 38.296216431508583 0 38.296216431508583 -80.144625460459793 0 0 0 0 42.461986676396918 67.892460114442656 0 67.892460114442656 -104.25004973007526 0 0 0 0 43.892145160261862 61.798278180191119 0 61.798278180191119 -79.347211565487669 0 0 0 0 50.333865666936617 78.283940159264603 0 78.283940159264603 -92.887733872081299 0 0 0 0 44.855576567548269 68.25470387734822 0 68.25470387734822 -103.20986104950134 0 0 0 0 47.188151155844807 26.939699732816305 0 26.939699732816305 14.24877855225418 0 0 0 0 61.025947411435482 85.404928927615401 0 85.404928927615401 -98.417336382917711 0 0 0 0 41.010121324230568 58.990889639513625 0 58.990889639513625 -56.666424289868246 0 0 0 0 44.099411789356964 85.015533263795078 0 85.015533263795078 -97.973156986297909 0 0 0 0 28.424672724488119 72.995357372436047 0 72.995357372436047 -55.294606375533476 0 0 0 0 13.230824399041012 90.145311485883212 0 90.145311485883212 -67.475951975266071 0 0 0 0 39.055211389255419 74.683310649990744 0 74.683310649990744 -70.862090846278079 0 0 0 0 -243.8544948129711 324.77461673793005 0 324.77461673793005 -279.21790407995195 0 0 0 0 19.682933548898561 8.1880689626898686 0 8.1880689626898686 -3.0662257382281126 0 0 0 0 -249.48052431249926 326.31857877911943 0 326.31857877911943 -194.60235964037565 0 0 0 0 -388.52232909371378 330.1600932469446 0 330.1600932469446 -192.90525122307554 0 0 0 0 -253.59161649768066 422.28293231340194 0 422.28293231340194 -180.34044604326482 0 0 0 0 -240.29687272320734 430.68222088496259 0 430.68222088496259 -263.84503243388644 0 0 0 0 159.62682462739758 16.393459384518792 0 16.393459384518792 -130.02777974349192 0 0 0 0 -69.179298443414154 -36.240474178151999 0 -36.240474178151999 134.43054392613885 0 0 0 0 341.66048382499139 -126.4305085109263 0 -126.4305085109263 -40.437619378421914 0 0 0 0 1.7352051803540576 2.3608568479464367 0 2.3608568479464367 0.66471608075418231 0 0 0 0 -498.70278646125553 231.08550687834827 0 231.08550687834827 21.745160318514536 0 0 0 0 -535.88248801567534 324.03465137664989 0 324.03465137664989 -110.13877630547358 0 0 0 0 -655.03850207317737 321.18893947642391 0 321.18893947642391 129.77435919546406 0 0 0 0 -235.09520057233749 551.96690100731212 0 551.96690100731212 -281.53973337044954 0 0 0 0 -414.49543778203952 454.3179794074822 0 454.3179794074822 -183.59788574800541 0 0 0 0 -433.28642765726545 426.61438160668149 0 426.61438160668149 -9.2195737919755629 0 0 0 0 -760.96162438824831 546.64551479510919 0 546.64551479510919 -44.802691617756864 0 0 0 0 -654.46799907882814 911.30208077169118 0 911.30208077169118 -421.36991797488963 0 0 0 0 219.05977601326595 254.55400824505978 0 254.55400824505978 -1022.3965285267714 0 0 0 0 -283.4801041219107 682.59762564830817 0 682.59762564830817 -330.36946634708329 0 0 0 0 -200.6625934294425 -53.779695430683205 0 -53.779695430683205 53.772836031959741 0 0 0 0 -12.051975182310457 4.752632638838044 0 4.752632638838044 -3.2362513906941857 0 0 0 0 -956.14449495167355 514.49336673467587 0 514.49336673467587 45.06981774372116 0 0 0 0 -24.155906641426554 100.88413049741484 0 100.88413049741484 -96.087954811865984 0 0 0 0 -22.345289883887745 201.14422448298683 0 201.14422448298683 -1224.1257061692604 0 0 0 0 279.33426371275527 157.3912850809877 0 157.3912850809877 -3.4953102683830366 0 0 0 0 7.1761881087877555 51.232757859615958 0 51.232757859615958 99.425690969001153 0 0 0 0 72.110086275497451 0.64711333673221816 0 0.64711333673221816 -119.18529862381547 0 0 0 0 0.5360392496586428 16.792041786546179 0 16.792041786546179 -13.292820479387956 0 0 0 0 4.0627569618859525 88.323533507033403 0 88.323533507033403 16.610056901443386 0 0 0 0 41.546661418737301 30.83343854570094 0 30.83343854570094 3.9079759665322022 0 0 0 0 -72.154714255233557 138.98482811112444 0 138.98482811112444 24.568013929554581 0 0 0 0 -30.108087845522135 20.35999251775732 0 20.35999251775732 -5.2864074736348421 0 0 0 0 25.155895430551027 43.884962851623641 0 43.884962851623641 -140.71013796259558 0 0 0 0 43.393523752575675 243.39541468056075 0 243.39541468056075 -290.75253241812425 0 0 0 0 53.876000683550956 464.76478621391288 0 464.76478621391288 40.284574805570628 0 0 0 0 -318.60870886982593 629.46614105291246 0 629.46614105291246 -31.627545636395553 0 0 0 0 -218.87572367277426 400.44737082117285 0 400.44737082117285 -21.651319060811147 0 0 0 0 -795.12809975646087 1020.6228602182628 0 1020.6228602182628 -523.74132530853831 0 0 0 0 -739.18250754861947 -82.432101169819362 0 -82.432101169819362 -118.79239294839863 0 0 0 0 169.16437888410354 246.97529304165914 0 246.97529304165914 -0.90848215515325137 0 0 0 0 168.48490009726083 55.439945822904065 0 55.439945822904065 260.53196733414552 0 0 0 0 -99.787884229444899 833.1344548244565 0 833.1344548244565 414.37879714808014 0 0 0 0 -0.74836415647945387 1.0434267942714968 0 1.0434267942714968 0.52482864356075609 0 0 0 0 301.56298463310668 503.8272192289096 0 503.8272192289096 491.11914047635582 0 0 0 0 -443.45179304447083 197.08602566158606 0 197.08602566158606 388.55076143891347 0 0 0 0 188.53991322965885 116.10886735701615 0 116.10886735701615 395.58169004921365 0 0 0 0 -3.0943769580463538 1.832074968586042 0 1.832074968586042 1.9903041434604312 0 0 0 0 27.604584228582098 265.60280323466304 0 265.60280323466304 571.71629974760162 0 0 0 0 36.653957094982616 451.98814906053713 0 451.98814906053713 760.58120728520589 0 0 0 0 118.74429596449045 585.88510505628892 0 585.88510505628892 521.99482628252099 0 0 0 0 18.27747920015463 665.44944669893084 0 665.44944669893084 523.42588500378406 0 0 0 0 116.05873842724395 701.40456064869613 0 701.40456064869613 184.85292197426497 0 0 0 0 -22.885977038764395 -7.3601342693650622 0 -7.3601342693650622 -11.255310970227583 0 0 0 0 6.0698227439861512 12.12562271556726 0 12.12562271556726 -59.418460002194479 0 0 0 0 2.1412838148535229 -44.001204440420224 0 -44.001204440420224 -34.672522649476832 0 0 0 0 107.629083505366 213.99141915763903 0 213.99141915763903 -45.032793742779177 0 0 0 0 9.9188021520586176 27.664911448872729 0 27.664911448872729 -39.102924589521876 0 0 0 0 11.354728877944581 -12.656506576907304 0 -12.656506576907304 56.449430114051211 0 0 0 0 73.117619674725574 -22.86283257485411 0 -22.86283257485411 -18.584086314203887 0 0 0 0 4.874052860919619 159.41794837783527 0 159.41794837783527 -118.78128860535435 0 0 0 0 -22.424367484756658 115.71249888836883 0 115.71249888836883 136.62740169848985 0 0 0 0 74.157231100631179 2.8834965145706519 0 2.8834965145706519 -3.2421476885065204 0 0 0 0 29.140460091613932 42.098276255106612 0 42.098276255106612 -67.944744400263517 0 0 0 0 22.926062818267383 38.893764467437904 0 38.893764467437904 -86.269030269559153 0 0 0 0 66.719721500776359 30.278762869682396 0 30.278762869682396 -84.832620772089285 0 0 0 0 30.776390965758765 69.474655929871005 0 69.474655929871005 -91.003634836550191 0 0 0 0 136.97601861811563 45.006542653518409 0 45.006542653518409 -88.146366538614529 0 0 0 0 97.08414280640136 3.1621003023565208 0 3.1621003023565208 35.898568074335344 0 0 0 0 72.594308821098821 -3.1705780653601323 0 -3.1705780653601323 -20.787564536985883 0 0 0 0 65.960463022143813 37.612157774487059 0 37.612157774487059 -1.1459886937045667 0 0 0 0 308.88154127370217 247.67475653326437 0 247.67475653326437 16.966022266839218 0 0 0 0 -22.383608778971393 178.28645427763877 0 178.28645427763877 9.4028650408808971 0 0 0 0 -192.52138861736603 117.51236377351961 0 117.51236377351961 8.3637693290011157 0 0 0 0 1.3622886319719498 1.0958260065960133 0 1.0958260065960133 2.1431459970041189 0 0 0 0 39.219889781146776 82.465956065259888 0 82.465956065259888 -71.025363959748574 0 0 0 0 637.90185977087731 122.51397676230806 0 122.51397676230806 -265.1186482910889 0 0 0 0 958.1886421733725 -367.56182949611912 0 -367.56182949611912 82.879035998553718 0 0 0 0 104.73525636580234 235.08620756723622 0 235.08620756723622 27.41769382421262 0 0 0 0 791.92564656614559 176.46389606693765 0 176.46389606693765 -394.9603434603323 0 0 0 0 169.25694155405148 74.221807345919103 0 74.221807345919103 287.50414282948259 0 0 0 0 438.5542358866951 9.8476974008881371 0 9.8476974008881371 252.46637968163145 0 0 0 0 387.30956295961005 265.15009368313474 0 265.15009368313474 200.57368817292081 0 0 0 0 402.05387326347409 340.70746117990393 0 340.70746117990393 432.31060254939848 0 0 0 0 284.32717886396495 139.51357542687265 0 139.51357542687265 183.08015329960017 0 0 0 0 381.77089914871613 283.02877534952904 0 283.02877534952904 173.5172302537203 0 0 0 0 501.89751092859115 113.90068722748697 0 113.90068722748697 100.10969998097244 0 0 0 0 176.98398402494422 -23.77594087685975 0 -23.77594087685975 -14.481309335093101 0 0 0 0 264.33891584302182 179.84833669278441 0 179.84833669278441 105.855537669348 0 0 0 0 71.145061790957698 -51.483696672339647 0 -51.483696672339647 36.412145459640215 0 0 0 0 43.66214327205671 158.10253062177298 0 158.10253062177298 132.08851809707858 0 0 0 0 -47.749358793400461 -32.592060183991634 0 -32.592060183991634 60.773443915213647 0 0 0 0 78.201698094344465 53.995567451137504 0 53.995567451137504 14.150218392676834 0 0 0 0 2.6485593578165378 5.3636468976350642 0 5.3636468976350642 9.0165983628620321 0 0 0 0 -625.80527366344177 442.34044077135945 0 442.34044077135945 601.60908543079495 0 0 0 0 1398.9746411988453 561.86674410641353 0 561.86674410641353 278.33821835594608 0 0 0 0 4.876087632035528 11.117074139776193 0 11.117074139776193 23.727627852781822 0 0 0 0 594.77676378670731 -59.534319208190482 0 -59.534319208190482 -174.12100164349431 0 0 0 0 549.23510934663682 482.31663129499555 0 482.31663129499555 554.7227280532461 0 0 0 0 -0.17087742006879125 0.97639050873610245 0 0.97639050873610245 4.1060774413632615 0 0 0 0 565.6171942656656 801.51565609849558 0 801.51565609849558 959.87124572276116 0 0 0 0 961.59519672876922 799.65020952687019 0 799.65020952687019 408.61387319771961 0 0 0 0 339.91064625087893 1940.7503872652524 0 1940.7503872652524 759.3943802637441 0 0 0 0 580.85493777004558 808.88973298906308 0 808.88973298906308 861.91485894375728 0 0 0 0 552.08135798685544 643.56128623213499 0 643.56128623213499 723.34128178598621 0 0 0 0 -2.8090928015132306 2.0598694513623883 0 2.0598694513623883 2.5940782118650461 0 0 0 0 485.72936423333522 500.72115686221423 0 500.72115686221423 418.34177671781572 0 0 0 0 535.05763589904382 326.91475290013022 0 326.91475290013022 93.843074558340049 0 0 0 0 294.15465030363339 604.389137688956 0 604.389137688956 762.22128617630915 0 0 0 0 218.91295714221633 618.61348656292739 0 618.61348656292739 714.1636773500486 0 0 0 0 332.45298565074336 539.86079805099098 0 539.86079805099098 741.80713800308877 0 0 0 0 225.39346929796011 471.55286448015704 0 471.55286448015704 626.53312433991414 0 0 0 0 293.46163795930624 547.84972222950864 0 547.84972222950864 679.85169147386114 0 0 0 0 200.21812029687862 454.66943086105675 0 454.66943086105675 681.91943654930014 0 0 0 0 220.82422801681969 464.18665478065168 0 464.18665478065168 560.76336636559245 0 0 0 0 170.17989592344384 361.63865168813936 0 361.63865168813936 526.86059990128888 0 0 0 0 149.84275525124394 383.83310754246486 0 383.83310754246486 506.40412747437222 0 0 0 0 174.28045128136 356.79140543796893 0 356.79140543796893 472.59242325553168 0 0 0 0 146.97044695771183 305.79906497808224 0 305.79906497808224 459.08270621821703 0 0 0 0 195.33927957297055 407.89968505348497 0 407.89968505348497 601.93530805421324 0 0 0 0 174.29609427937248 332.91762040794492 0 332.91762040794492 513.84050240475335 0 0 0 0 219.88340472898562 429.66062668589984 0 429.66062668589984 560.35829000003469 0 0 0 0 283.56274750566809 484.98083910151126 0 484.98083910151126 633.85939923254045 0 0 0 0 197.34964133969333 418.91286779701386 0 418.91286779701386 642.64937323127015 0 0 0 0 264.31021811277242 512.72642261359852 0 512.72642261359852 745.62385037654531 0 0 0 0 333.2298952396086 482.36561265298405 0 482.36561265298405 668.85996969064217 0 0 0 0 240.32600721195922 450.77997339169815 0 450.77997339169815 692.28448456735896 0 0 0 0 233.74273671614355 436.28474820000883 0 436.28474820000883 603.17668476059407 0 0 0 0 261.90993636961502 424.80901151169019 0 424.80901151169019 582.68811716308846 0 0 0 0 307.0557357367943 494.45785173240074 0 494.45785173240074 661.57987791111736 0 0 0 0 206.21037178204278 337.27757535373166 0 337.27757535373166 519.22748685912666 0 0 0 0 368.07613045789185 519.7437654243904 0 519.7437654243904 668.63972629149612 0 0 0 0 269.87722469802247 478.99718679603029 0 478.99718679603029 712.33116272745701 0 0 0 0 283.07499730281415 408.420549765533 0 408.420549765533 618.4018929469803 0 0 0 0 383.13315834550303 533.85358352870844 0 533.85358352870844 703.05235615244237 0 0 0 0 384.60608474603214 528.92462930698548 0 528.92462930698548 790.84926993386398 0 0 0 0 302.60630255150318 472.89580630981709 0 472.89580630981709 715.06472904081602 0 0 0 0 363.7693067008513 563.38066747869561 0 563.38066747869561 743.50333884198244 0 0 0 0 422.46944924191575 651.7149721316996 0 651.7149721316996 826.60245024949836 0 0 0 0 409.81086874645553 529.60309914800655 0 529.60309914800655 709.34586199065507 0 0 0 0 278.70774462603003 537.12574445894279 0 537.12574445894279 788.8070189851278 0 0 0 0 530.25443978319527 624.18692378575724 0 624.18692378575724 799.7992416842244 0 0 0 0 637.02632501593325 630.24408116186169 0 630.24408116186169 988.98735595234439 0 0 0 0 964.37559041191707 842.06044298330835 0 842.06044298330835 799.60470583937968 0 0 0 0 795.4176574285957 614.9830518360468 0 614.9830518360468 892.33800032849467 0 0 0 0 569.34362724557286 630.34754717532996 0 630.34754717532996 844.19618143682851 0 0 0 0 686.53504779927607 719.53961750298186 0 719.53961750298186 838.45284561902918 0 0 0 0 527.39069088619726 700.84889024824588 0 700.84889024824588 967.5217680292244 0 0 0 0 514.71734882862074 590.89113216894202 0 590.89113216894202 754.81406592477651 0 0 0 0 491.93806173891062 662.59726470730675 0 662.59726470730675 849.58695771779458 0 0 0 0 365.35349702171516 532.0265767756373 0 532.0265767756373 771.45443421985556 0 0 0 0 502.3289341909549 594.61416814799668 0 594.61416814799668 727.74719165253919 0 0 0 0 318.72122165790643 546.03301474538057 0 546.03301474538057 743.6921372621423 0 0 0 0 464.61236591236957 620.97330313869224 0 620.97330313869224 729.83209871503823 0 0 0 0 490.78934380189457 604.83740697494432 0 604.83740697494432 737.06143209241782 0 0 0 0 600.27786843176364 856.10433827339943 0 856.10433827339943 908.90219830580281 0 0 0 0 434.73287931269442 620.72497955751896 0 620.72497955751896 818.14358039857689 0 0 0 0 666.92133204852871 663.15201196638918 0 663.15201196638918 786.12629361309882 0 0 0 0 600.67046337216743 690.37819136858343 0 690.37819136858343 795.96009693793712 0 0 0 0 436.70542887858755 786.84223072645909 0 786.84223072645909 900.62906931711314 0 0 0 0 613.51645633096632 782.52613524895423 0 782.52613524895423 831.67679117410989 0 0 0 0 444.49537414243969 959.42140273142104 0 959.42140273142104 1104.3344213445889 0 0 0 0 758.82655506656738 1099.6798511697752 0 1099.6798511697752 996.33032607111818 0 0 0 0 203.26612527587577 853.81633735739297 0 853.81633735739297 714.48755058208917 0 0 0 0 1167.9539678265573 293.99946147890296 0 293.99946147890296 849.01454459087108 0 0 0 0 2.774925677651396 0.40887232971061849 0 0.40887232971061849 1.6908898493805271 0 0 0 0 245.70310013862763 1030.9884229288655 0 1030.9884229288655 431.22716566011968 0 0 0 0 128.92177993706719 657.51105159099279 0 657.51105159099279 -268.91920157508957 0 0 0 0 3.8015596402217966 5.2870833976976606 0 5.2870833976976606 5.8588817672705673 0 0 0 0 -66.047700745984912 -72.627430175817949 0 -72.627430175817949 1848.294459274839 0 0 0 0 -81.065722058417123 68.373229232337735 0 68.373229232337735 534.54709059345623 0 0 0 0 65.144488070349325 780.38528774956194 0 780.38528774956194 1205.1382220621981 0 0 0 0 423.03466921955987 346.28852868565355 0 346.28852868565355 612.87876582562785 0 0 0 0 194.87314022253122 238.85114960847659 0 238.85114960847659 1035.6496270248572 0 0 0 0 248.87039540424303 529.59319093787053 0 529.59319093787053 805.67554117280361 0 0 0 0 181.37486221599829 555.31278630744418 0 555.31278630744418 651.05600801682567 0 0 0 0 46.805914877506439 652.13774502976457 0 652.13774502976457 735.30472209071559 0 0 0 0 -9.8916489888506476 703.23551768665038 0 703.23551768665038 1247.3765048151818 0 0 0 0 184.20767195038206 641.02139092118796 0 641.02139092118796 552.22692253717287 0 0 0 0 192.07631779467192 643.99284664209767 0 643.99284664209767 401.44119967645929 0 0 0 0 8.1414262780017452 404.73254042561621 0 404.73254042561621 249.6584966661012 0 0 0 0 210.81582923815586 427.47418543436379 0 427.47418543436379 478.15129111323176 0 0 0 0 176.83636149039376 463.45279758463585 0 463.45279758463585 643.50609527755569 0 0 0 0 211.66830610534453 426.50806093624033 0 426.50806093624033 471.07532651009024 0 0 0 0 190.6483823141607 397.70625489687518 0 397.70625489687518 489.46941447017252 0 0 0 0 234.09838314597437 290.36994846882476 0 290.36994846882476 246.88401529984912 0 0 0 0 158.51137800671859 174.12746888736365 0 174.12746888736365 209.67098046482442 0 0 0 0 195.78794502429082 282.6630898490821 0 282.6630898490821 321.13991554527092 0 0 0 0 149.50773394118005 285.18526850497256 0 285.18526850497256 363.15672693169654 0 0 0 0 185.38272313720518 347.04642542409101 0 347.04642542409101 418.28440346325806 0 0 0 0 348.04412524394866 483.99718893715908 0 483.99718893715908 189.94044231990119 0 0 0 0 327.11173544184567 396.8234600248602 0 396.8234600248602 368.3221778632942 0 0 0 0 -110.03608332891599 -26.438740485879407 0 -26.438740485879407 9.2209165180356649 0 0 0 0 0.2166090296930463 0.11435229871071328 0 0.11435229871071328 0.14757520486411124 0 0 0 0 -6.2228861748583029 2.2051680035597911 0 2.2051680035597911 -0.81474788580295154 0 0 0 0 -33.969881191071181 162.42862056011927 0 162.42862056011927 -339.95663533526158 0 0 0 0 51.771473847999005 463.07580091691079 0 463.07580091691079 -8.3534747483954561 0 0 0 0 -666.47968951473013 520.7640679005026 0 520.7640679005026 5.1261004632547156 0 0 0 0 -483.54428749546059 273.34202119880774 0 273.34202119880774 -24.796621009271348 0 0 0 0 -295.87805843471506 -42.91750686751493 0 -42.91750686751493 28.250348176861735 0 0 0 0 -280.31237106693152 20.881102999963332 0 20.881102999963332 27.911367803975736 0 0 0 0 -643.65931566352901 -181.52270773245067 0 -181.52270773245067 -74.711189612302405 0 0 0 0 -447.30308154718659 327.82772008759639 0 327.82772008759639 -431.15577135741296 0 0 0 0 -275.86623336172488 -8.7567558719406406 0 -8.7567558719406406 47.910463517687276 0 0 0 0 55.170293842998944 -163.39750449524013 0 -163.39750449524013 97.653032791540682 0 0 0 0 88.90794815303525 -72.010471989866346 0 -72.010471989866346 -205.62577880550725 0 0 0 0 156.46701638540253 47.502618933336635 0 47.502618933336635 -194.17877721760692 0 0 0 0 142.13529966183705 46.435276526876805 0 46.435276526876805 -122.17183402937371 0 0 0 0 297.72095967181667 96.912097105943758 0 96.912097105943758 -155.07432273715131 0 0 0 0 32.930569580727024 176.6463794914971 0 176.6463794914971 -74.429201584591283 0 0 0 0 39.22044332457881 50.984777487834663 0 50.984777487834663 46.429396325456764 0 0 0 0 13.32801043282079 5.8910840210382247 0 5.8910840210382247 -4.2086761188284179 0 0 0 0 -3.6089033125829815 16.754595781840081 0 16.754595781840081 -13.62854775709747 0 0 0 0 241.1193712270906 157.91081541248604 0 157.91081541248604 -49.318026698876565 0 0 0 0 121.43405968257866 -100.38638995605834 0 -100.38638995605834 -196.41377692321385 0 0 0 0 179.94730266385886 106.86686350130458 0 106.86686350130458 24.808796001741939 0 0 0 0 217.65459708571143 99.888762715316261 0 99.888762715316261 -94.695901356804825 0 0 0 0 133.13073862835881 1.8244138547397597 0 1.8244138547397597 -60.739139744677232 0 0 0 0 104.64191900397418 0.84931314866298635 0 0.84931314866298635 30.344821207952918 0 0 0 0 163.65421259419963 59.764708632341353 0 59.764708632341353 47.787956438047331 0 0 0 0 0.81304575904209742 19.528635917924127 0 19.528635917924127 -10.434518683101146 0 0 0 0 8.7138517281127861 28.111207478622418 0 28.111207478622418 -9.8445371042244005 0 0 0 0 19.970859227194893 14.105914295982167 0 14.105914295982167 -6.843492843162359 0 0 0 0 10.214727216109168 28.444788229535334 0 28.444788229535334 -18.8821623411568 0 0 0 0 -260.78455578592548 -4.2329813108763119 0 -4.2329813108763119 57.829039088290301 0 0 0 0 12.770699214855966 15.025133317202993 0 15.025133317202993 8.2454846683234955 0 0 0 0 3.1955581150145917 3.4444639676999174 0 3.4444639676999174 -1.0541231209711128 0 0 0 0 -303.31297323251056 -63.190134882395796 0 -63.190134882395796 2.7005982385926472 0 0 0 0 12.256272454105783 65.65083706185942 0 65.65083706185942 40.663509091071319 0 0 0 0 143.76281791078509 8.6145281448552851 0 8.6145281448552851 -106.44698364399301 0 0 0 0 25.473165082046762 -164.98934824689968 0 -164.98934824689968 122.27871068385139 0 0 0 0 201.21885445574299 -94.25330926605784 0 -94.25330926605784 -88.665321340028186 0 0 0 0 -89.306144607926399 158.1643861647035 0 158.1643861647035 -142.96436688707246 0 0 0 0 -37.946819831679932 146.24339181746529 0 146.24339181746529 46.934981333310134 0 0 0 0 -56.53501685678566 -14.275416100387588 0 -14.275416100387588 -19.065812987255413 0 0 0 0 -71.815474800569064 44.380526355999791 0 44.380526355999791 -94.867164304494509 0 0 0 0 21.370182690632646 61.01769143186084 0 61.01769143186084 -148.78744018897982 0 0 0 0 -66.600798724197375 82.825956642375786 0 82.825956642375786 -145.40093369237366 0 0 0 0 11.773574889088707 -2.2205876818212822 0 -2.2205876818212822 -5.6894120810804161 0 0 0 0 -117.52542599399749 102.03450911152868 0 102.03450911152868 -151.54521599844702 0 0 0 0 72.462280892291687 30.031745451840841 0 30.031745451840841 -20.762190849617632 0 0 0 0 57.63687743240007 7.5515308911444663 0 7.5515308911444663 4.3378451584430877 0 0 0 0 38.282774487655843 95.642725189872181 0 95.642725189872181 -28.179118960992582 0 0 0 0 15.518203586300842 -53.918996758465255 0 -53.918996758465255 -99.491334399643165 0 0 0 0 35.335449798667014 36.834138449339491 0 36.834138449339491 -13.954571435793447 0 0 0 0 103.18649643815479 -13.597451730521584 0 -13.597451730521584 -77.411930269137883 0 0 0 0 31.101999257400166 95.414367380388626 0 95.414367380388626 3.557975374351372 0 0 0 0 5.8355872148822527 31.016572990710301 0 31.016572990710301 -0.072631377217476256 0 0 0 0 -10.281464361025783 28.169802779851672 0 28.169802779851672 -20.401021074976676 0 0 0 0 96.622811699176964 227.42737410588097 0 227.42737410588097 6.3639535073812112 0 0 0 0 -11.492182168546861 27.901277208888693 0 27.901277208888693 -18.15342797987222 0 0 0 0 207.02516335257496 -226.44525567968503 0 -226.44525567968503 -215.42170020959384 0 0 0 0 268.8285187387919 66.607452105597986 0 66.607452105597986 -139.58628896949631 0 0 0 0 -97.416933515510209 92.552854207428425 0 92.552854207428425 237.03352932385928 0 0 0 0 51.857662643706135 310.49374504009086 0 310.49374504009086 -38.364867621334426 0 0 0 0 28.446808067285019 109.25719944333377 0 109.25719944333377 99.927956803221605 0 0 0 0 -27.428822245266943 19.145099177212067 0 19.145099177212067 -9.4029391245040355 0 0 0 0 -10.161276065219639 25.39042186216237 0 25.39042186216237 -22.822696987681734 0 0 0 0 -0.48172518389765173 47.704308130358186 0 47.704308130358186 20.606223296244934 0 0 0 0 3.3970727101477678 180.69189947754876 0 180.69189947754876 255.38105437892227 0 0 0 0 41.069809758926567 154.00679654963915 0 154.00679654963915 184.63600657990082 0 0 0 0 117.09323976094311 378.18887250066928 0 378.18887250066928 341.15139234258686 0 0 0 0 72.878487840387606 288.76720726810936 0 288.76720726810936 206.01996355295159 0 0 0 0 35.849961540297954 132.19255840246478 0 132.19255840246478 144.41942964214832 0 0 0 0 47.215853428402625 288.44080615157691 0 288.44080615157691 222.9116702817355 0 0 0 0 70.029322932554351 280.10580459892299 0 280.10580459892299 -13.464202217846832 0 0 0 0 85.638460951740853 230.34565529739302 0 230.34565529739302 -258.59459860746574 0 0 0 0 -33.370011773513397 85.989925593876251 0 85.989925593876251 92.002876975740946 0 0 0 0 -1.2513713150656258 60.458307364136999 0 60.458307364136999 440.28415870045501 0 0 0 0 3.7702751879332936 81.461535855836701 0 81.461535855836701 514.4474335903833 0 0 0 0 -16.283959561769734 183.78007487613286 0 183.78007487613286 425.52060378394322 0 0 0 0 11.002518854002119 211.02200453585465 0 211.02200453585465 376.17294498394313 0 0 0 0 38.361422878289886 43.865952364416444 0 43.865952364416444 162.72459029782931 0 0 0 0 -7.4683411782680196 444.07966221256083 0 444.07966221256083 448.37017198278136 0 0 0 0 -43.699620886683988 202.98159919293266 0 202.98159919293266 566.74921327710035 0 0 0 0 -52.416506713212584 156.81271940337956 0 156.81271940337956 713.25309632354765 0 0 0 0 0.47651527694688411 526.38184595740495 0 526.38184595740495 843.43244938052021 0 0 0 0 138.36531213941998 623.52775074334204 0 623.52775074334204 295.11657991626635 0 0 0 0 141.89552209966132 602.80397336273745 0 602.80397336273745 346.34923236786562 0 0 0 0 167.19367439632697 559.78287598880979 0 559.78287598880979 401.7405836089365 0 0 0 0 39.56122083495211 439.58832703459211 0 439.58832703459211 376.64730598073402 0 0 0 0 163.85156355601794 370.28296206344748 0 370.28296206344748 262.9575207791604 0 0 0 0 139.91750843043701 289.42860232517069 0 289.42860232517069 242.31572967031025 0 0 0 0 164.68121813517791 287.06917069810697 0 287.06917069810697 230.4585634679388 0 0 0 0 276.11739537118046 316.47783500703326 0 316.47783500703326 188.58465032241293 0 0 0 0 234.9086976165745 389.75906722388163 0 389.75906722388163 231.6469928437582 0 0 0 0 238.54519287720177 393.99383261117146 0 393.99383261117146 236.57807042927334 0 0 0 0 165.77523006812044 522.13887984879329 0 522.13887984879329 295.3369477820961 0 0 0 0 347.27711270986765 534.55111326738097 0 534.55111326738097 275.18276013329023 0 0 0 0 307.28651219334279 477.86928806949845 0 477.86928806949845 273.3640864444933 0 0 0 0 435.6944410731594 537.64610916359015 0 537.64610916359015 301.19135291684506 0 0 0 0 302.78035575380636 369.68064338200111 0 369.68064338200111 230.60495891548999 0 0 0 0 394.10626765865891 439.05680152117384 0 439.05680152117384 235.03929328742709 0 0 0 0 507.76904097865008 380.23947974412658 0 380.23947974412658 224.07185920169468 0 0 0 0 385.25053438971372 347.86657773128354 0 347.86657773128354 313.70671029314326 0 0 0 0 545.69355135530532 618.87204702658914 0 618.87204702658914 532.11763469544167 0 0 0 0 668.9860683956158 303.2095387853783 0 303.2095387853783 318.37069689632699 0 0 0 0 422.18428244157985 467.47844617781357 0 467.47844617781357 353.75932874267892 0 0 0 0 306.71193577754093 628.1309622836061 0 628.1309622836061 660.6419320364239 0 0 0 0 215.7377782796575 466.30603271575364 0 466.30603271575364 375.28715661281058 0 0 0 0 208.70654428642592 515.86437974688124 0 515.86437974688124 105.27432443532871 0 0 0 0 76.735345825341938 397.66877622060383 0 397.66877622060383 298.77273616673688 0 0 0 0 53.764599387508945 631.60714632676752 0 631.60714632676752 303.26459291038009 0 0 0 0 250.06905440071569 637.01716532426008 0 637.01716532426008 271.9976804424532 0 0 0 0 16.778568346264365 128.78339164401314 0 128.78339164401314 136.8080468760636 0 0 0 0 92.605112246811586 159.93708259342486 0 159.93708259342486 115.76193617585886 0 0 0 0 21.859826695690572 140.33631092377163 0 140.33631092377163 59.799947691487432 0 0 0 0 -12.503565485552826 108.57809424655943 0 108.57809424655943 46.148301506298594 0 0 0 0 -18.638210685890954 238.64373968717973 0 238.64373968717973 9.8316625030620344 0 0 0 0 -47.200438128122187 150.75396203729906 0 150.75396203729906 77.836936273588435 0 0 0 0 11.902929090130783 186.75805325570764 0 186.75805325570764 95.969956682077736 0 0 0 0 47.662401658781164 246.03122257710538 0 246.03122257710538 138.43730610797866 0 0 0 0 67.602115628447791 218.47894869661741 0 218.47894869661741 170.57765506605574 0 0 0 0 98.319466589280637 225.13891559069998 0 225.13891559069998 98.168202469340031 0 0 0 0 122.87477733069682 198.7305074092219 0 198.7305074092219 124.79706798845837 0 0 0 0 236.18464354456228 278.85924356361556 0 278.85924356361556 184.43188670178915 0 0 0 0 137.89036378489891 266.23408357395681 0 266.23408357395681 263.22563520535368 0 0 0 0 255.84229917600442 360.70776280963912 0 360.70776280963912 373.16087236931889 0 0 0 0 454.33520821225829 421.04136990551615 0 421.04136990551615 568.43074495290512 0 0 0 0 291.59824264149211 195.83010592181927 0 195.83010592181927 273.15420609611101 0 0 0 0 420.66856596140497 311.98145833571198 0 311.98145833571198 220.90139735099365 0 0 0 0 255.3266178243066 243.28401048383421 0 243.28401048383421 177.69758923065456 0 0 0 0 246.85328465829662 243.32929072191109 0 243.32929072191109 215.04894303227422 0 0 0 0 349.56938578140034 319.84686842353358 0 319.84686842353358 193.68201029956253 0 0 0 0 179.16092979408131 184.84950558233868 0 184.84950558233868 174.17287582334575 0 0 0 0 214.3943323712374 265.27591615495749 0 265.27591615495749 221.95935555664983 0 0 0 0 142.97200673667976 190.08338154108424 0 190.08338154108424 215.12777278402939 0 0 0 0 86.9651381898002 179.18139200120117 0 179.18139200120117 197.07347077341183 0 0 0 0 152.1811708036912 167.2192258639061 0 167.2192258639061 143.4172188278535 0 0 0 0 63.744399721603259 151.91103429353643 0 151.91103429353643 164.83368876811801 0 0 0 0 119.30323769130882 212.15615094887517 0 212.15615094887517 162.36191539784704 0 0 0 0 78.152879385957931 110.06232106917196 0 110.06232106917196 110.25724854565124 0 0 0 0 7.6525041555796633 85.882170331626185 0 85.882170331626185 133.84648569924502 0 0 0 0 210.59042013033468 280.20546642139379 0 280.20546642139379 197.85463621225767 0 0 0 0 149.44639168361755 186.9946342329149 0 186.9946342329149 178.25622236418073 0 0 0 0 226.31791989009798 268.99364190441247 0 268.99364190441247 184.78437679722992 0 0 0 0 114.41171542712982 203.22073045764409 0 203.22073045764409 168.07236173282399 0 0 0 0 -54.529724788379099 37.895448249031688 0 37.895448249031688 152.82056947234241 0 0 0 0 66.018021435636911 208.55665691855484 0 208.55665691855484 389.91655458245805 0 0 0 0 130.43636175732536 194.85693548813106 0 194.85693548813106 162.38248389478667 0 0 0 0 -81.797559449660184 4.4636647000879748 0 4.4636647000879748 39.490870794870943 0 0 0 0 33.163832067963085 72.054027455710639 0 72.054027455710639 47.25761588113528 0 0 0 0 13.454951557076129 57.887516622768089 0 57.887516622768089 85.490361800040773 0 0 0 0 -2.4256123117011157 136.99230448966955 0 136.99230448966955 162.8619983808801 0 0 0 0 -1.1731827119219815 -11.328074735089103 0 -11.328074735089103 -43.865627569677144 0 0 0 0 -14.644758109490795 30.578098845769546 0 30.578098845769546 51.006572017580766 0 0 0 0 -14.123016492056195 51.190032138219976 0 51.190032138219976 -16.202451655801269 0 0 0 0 19.221120928181335 87.940265181227005 0 87.940265181227005 80.307021454962523 0 0 0 0 3.9401639677962521 108.51127987458221 0 108.51127987458221 93.755320413263689 0 0 0 0 39.257539967496996 82.029388862480118 0 82.029388862480118 109.7554141939122 0 0 0 0 -29.047624828708649 68.132104405854989 0 68.132104405854989 5.1444756388518726 0 0 0 0 -14.113591430188535 52.725017837000678 0 52.725017837000678 45.134074191711989 0 0 0 0 -34.634222091619449 78.196661928766844 0 78.196661928766844 89.312968245130833 0 0 0 0 -52.16405825833499 53.002171424683183 0 53.002171424683183 59.440653256951919 0 0 0 0 -38.793291445777868 30.705811539237402 0 30.705811539237402 17.578261254402605 0 0 0 0 -50.413244776300417 32.026614677888574 0 32.026614677888574 28.98670866241082 0 0 0 0 -81.346540654063574 20.258905260632673 0 20.258905260632673 28.292489775824833 0 0 0 0 -29.36225974313129 64.770124335758737 0 64.770124335758737 -25.831868762994418 0 0 0 0 -72.114003446542483 58.439362472392531 0 58.439362472392531 4.9864888381544006 0 0 0 0 -33.508099108468741 25.775296023424744 0 25.775296023424744 32.367670629702843 0 0 0 0 -3.5662825410859114 61.089081645316412 0 61.089081645316412 -1.6613388786755081 0 0 0 0 157.10763529409087 -102.6046088037383 0 -102.6046088037383 -229.80646092534198 0 0 0 0 -14.665089361389711 10.048080770262271 0 10.048080770262271 -0.99481742726373579 0 0 0 0 12.640979547951417 5.0692955196922336 0 5.0692955196922336 -1.3276000840878752 0 0 0 0 3.1741438111494062 -107.72056725388416 0 -107.72056725388416 53.022620359334269 0 0 0 0 -44.528071903179409 27.498854869849382 0 27.498854869849382 -13.589525473683722 0 0 0 0 -3.5585911647622197 115.47253246721084 0 115.47253246721084 -8.5635643626046658 0 0 0 0 -7.9736870017171668 17.716559259274643 0 17.716559259274643 -8.8401113213090916 0 0 0 0 27.584752955681324 70.909811265706026 0 70.909811265706026 181.21165740028482 0 0 0 0 50.716059377627971 90.861951573113856 0 90.861951573113856 188.28776555022512 0 0 0 0 -4.7026986377774236 4.6151755396063088 0 4.6151755396063088 0.85547420374228533 0 0 0 0 432.07140860634536 96.351156239053807 0 96.351156239053807 -25.812362260732129 0 0 0 0 12.971098611511479 72.641450093568096 0 72.641450093568096 269.87390893190923 0 0 0 0 91.507063007029501 188.93298663322958 0 188.93298663322958 230.61611315670189 0 0 0 0 44.245204660906893 91.103221380913055 0 91.103221380913055 240.03572727902736 0 0 0 0 -0.18874538895857995 0.83352636901115673 0 0.83352636901115673 0.38498532130002872 0 0 0 0 144.00041564118874 154.94676541626359 0 154.94676541626359 -398.26286344815526 0 0 0 0 -53.873651585136031 127.99173583522406 0 127.99173583522406 135.58556977712942 0 0 0 0 -45.053832259574847 46.776758538569993 0 46.776758538569993 71.551452712190439 0 0 0 0 -21.601774373484659 -49.410909468475438 0 -49.410909468475438 -170.90427281239317 0 0 0 0 25.725729761077673 105.64973020102479 0 105.64973020102479 -35.398791479025022 0 0 0 0 -164.48393255332485 232.70100001968558 0 232.70100001968558 461.58643129297957 0 0 0 0 -49.512012716075787 139.38111283520811 0 139.38111283520811 -60.782019919937738 0 0 0 0 -52.89346985729776 38.079855735992474 0 38.079855735992474 -19.109364650871775 0 0 0 0 -5.7794062985769443 12.295947117055537 0 12.295947117055537 -11.038662086309307 0 0 0 0 -4.1373405190086174 1.2287672111812817 0 1.2287672111812817 -0.21032623238004255 0 0 0 0 -2141.355575743888 -406.56957750913853 0 -406.56957750913853 392.97171905482344 0 0 0 0 -755.68630226887399 225.03630025793154 0 225.03630025793154 322.19944651817445 0 0 0 0 421.11196103029579 -114.84104774576792 0 -114.84104774576792 -370.35107022727607 0 0 0 0 675.36054724515998 -153.76132467361504 0 -153.76132467361504 -662.80799892314735 0 0 0 0 -35.25894209658145 133.30543778937681 0 133.30543778937681 135.56037891024607 0 0 0 0 -51.774092841523512 41.429248492837814 0 41.429248492837814 -21.484086139590776 0 0 0 0 -11.033475390614967 5.4838672859345969 0 5.4838672859345969 -4.6089308736024224 0 0 0 0 -400.62624058202346 48.057602366477568 0 48.057602366477568 179.97514923466952 0 0 0 0 -512.82688125730419 156.50519435459591 0 156.50519435459591 59.4709737654739 0 0 0 0 -442.34318602442727 -254.44473669142053 0 -254.44473669142053 42.107335580505605 0 0 0 0 -160.25438942290202 -15.412547092701971 0 -15.412547092701971 -15.543608372983272 0 0 0 0 -26.379374496442324 -373.54345891132698 0 -373.54345891132698 -117.17819961457462 0 0 0 0 -256.94314619588476 250.49226267962376 0 250.49226267962376 -1.9420518830338551 0 0 0 0 -109.23219002148107 238.44190714340903 0 238.44190714340903 -47.71905052312195 0 0 0 0 -28.408189343783306 183.20527616454956 0 183.20527616454956 0.021029339918641199 0 0 0 0 96.914558702623253 83.581611746918725 0 83.581611746918725 4.3878163716485687 0 0 0 0 10.749657003172615 193.36928824666916 0 193.36928824666916 40.603931950235165 0 0 0 0 -30.152267571113043 139.15443900542323 0 139.15443900542323 -24.563116233089204 0 0 0 0 22.152640141375741 204.6804027146286 0 204.6804027146286 -36.165895370664884 0 0 0 0 -106.47133988539281 171.94961715688441 0 171.94961715688441 -65.671055544627507 0 0 0 0 -223.19883145676431 105.99926634526946 0 105.99926634526946 39.028121908928824 0 0 0 0 -167.7058269462068 102.86150276845046 0 102.86150276845046 20.410967594446902 0 0 0 0 -149.59891672987214 64.722587246058538 0 64.722587246058538 -85.9077474642163 0 0 0 0 100.33610759369549 195.02179726087911 0 195.02179726087911 173.63297192759455 0 0 0 0 186.10789318527895 269.40430570694889 0 269.40430570694889 145.61591389354487 0 0 0 0 116.22730005257108 203.78564451310172 0 203.78564451310172 74.913185257875853 0 0 0 0 65.36509968556129 120.11204546027398 0 120.11204546027398 79.492518286401719 0 0 0 0 105.96963003115889 167.11274375149628 0 167.11274375149628 -36.444150198517946 0 0 0 0 27.796190646702598 164.29335590765913 0 164.29335590765913 -19.792453578127152 0 0 0 0 138.21763583780375 185.61576252396594 0 185.61576252396594 1.659688086549977 0 0 0 0 210.85469943486896 228.92562844030817 0 228.92562844030817 -54.321779315386721 0 0 0 0 180.34041513970442 203.46051841406029 0 203.46051841406029 -69.852339730616222 0 0 0 0 161.5988951795498 175.23280834399645 0 175.23280834399645 -101.19196795674361 0 0 0 0 150.04336711638007 188.31828311819322 0 188.31828311819322 -61.520168119966911 0 0 0 0 216.09179590014537 196.51235519474949 0 196.51235519474949 -101.01336740334192 0 0 0 0 170.25929154592995 120.88427735521009 0 120.88427735521009 -97.419850578893602 0 0 0 0 -59.007048737827063 135.79940647565911 0 135.79940647565911 47.358632629071508 0 0 0 0 -98.20029823422783 143.96955890154823 0 143.96955890154823 -0.24796518727998773 0 0 0 0 -51.993469873239519 142.69820418960944 0 142.69820418960944 -1.3040102124346049 0 0 0 0 24.788129545295305 99.563558484301666 0 99.563558484301666 -82.864830682126012 0 0 0 0 4.6094163271529851 159.6639267932224 0 159.6639267932224 -193.20367969161998 0 0 0 0 18.558693609225308 8.9004804888907181 0 8.9004804888907181 6.2193265089234337 0 0 0 0 -25.594460805570634 57.13999250161288 0 57.13999250161288 -110.8802227281476 0 0 0 0 -79.853553532935621 25.678107299045223 0 25.678107299045223 691.22232826069649 0 0 0 0 5.8741989470084022 4.1358416669455806 0 4.1358416669455806 2.3537149760841505 0 0 0 0 -28.882776352388646 47.774212310065423 0 47.774212310065423 219.128017123463 0 0 0 0 32.185517193007399 107.79705013579678 0 107.79705013579678 60.408444944499934 0 0 0 0 190.06708501044704 212.40657764667117 0 212.40657764667117 -75.604466997615418 0 0 0 0 230.20684351925593 251.15323793579682 0 251.15323793579682 -77.527163755322363 0 0 0 0 395.78322591420874 176.82063234312227 0 176.82063234312227 -263.66655437556756 0 0 0 0 344.12788642368059 441.91927080963569 0 441.91927080963569 186.11371364345905 0 0 0 0 74.462215071485844 227.06516131732587 0 227.06516131732587 460.09348808515733 0 0 0 0 159.83973049277847 -10.429339139187505 0 -10.429339139187505 316.57354739172024 0 0 0 0 108.46469432362755 93.625116644074524 0 93.625116644074524 114.6499384312865 0 0 0 0 258.59339162543029 55.307825483839025 0 55.307825483839025 -95.010634605772793 0 0 0 0 271.10865665133628 379.25540083195824 0 379.25540083195824 126.99384965005993 0 0 0 0 1.8762247447477591 1.920605024102862 0 1.920605024102862 -0.64332069907285927 0 0 0 0 16.628957784698287 224.22697113038521 0 224.22697113038521 764.59195839263657 0 0 0 0 574.94382065832451 19.639534833941752 0 19.639534833941752 -570.23014777132721 0 0 0 0 -15.596220439496392 377.14293783866196 0 377.14293783866196 470.65579850999302 0 0 0 0 34.749990716885804 349.02067928773704 0 349.02067928773704 32.579982746420683 0 0 0 0 -34.326290979144687 269.71989775301608 0 269.71989775301608 284.31472873422558 0 0 0 0 10.623740336373885 243.60791676410599 0 243.60791676410599 145.6355510309495 0 0 0 0 42.573452304550301 132.01271968539004 0 132.01271968539004 180.31256535782632 0 0 0 0 3.9342346363199567 4.7910219677471924 0 4.7910219677471924 -1.7798925336184128 0 0 0 0 95.071505773768877 175.01165083923706 0 175.01165083923706 -155.39331909151952 0 0 0 0 -99.627728111066972 268.93484800994156 0 268.93484800994156 414.79386667612789 0 0 0 0 183.33758147939807 236.47253334108609 0 236.47253334108609 146.16564834681958 0 0 0 0 -8.508582547392507 132.94978298506408 0 132.94978298506408 123.3935060975964 0 0 0 0 30.650888847179885 203.6241414369556 0 203.6241414369556 57.136357224866515 0 0 0 0 93.234129977408884 209.53935807202652 0 209.53935807202652 17.518124212344446 0 0 0 0 -378.90481222580456 231.01127630228348 0 231.01127630228348 131.52750816789376 0 0 0 0 -104.71037157806313 202.61206806979453 0 202.61206806979453 11.316542166128784 0 0 0 0 -172.76495078526204 111.81501731645403 0 111.81501731645403 285.19688821390992 0 0 0 0 -134.28094034673268 146.32225215009021 0 146.32225215009021 39.900825151773461 0 0 0 0 -68.945050338021247 105.90578002182519 0 105.90578002182519 -111.33291919355543 0 0 0 0 -189.47937354540045 60.800580071787863 0 60.800580071787863 -39.224666302108744 0 0 0 0 13.432720126887943 100.93019821882012 0 100.93019821882012 -102.6585049815003 0 0 0 0 23.876757133708452 109.00809222243743 0 109.00809222243743 -119.36451280752863 0 0 0 0 -14.403819450490118 167.23625072189589 0 167.23625072189589 -71.95940948435782 0 0 0 0 -16.512757232321746 -11.29642030299874 0 -11.29642030299874 -145.68452255268994 0 0 0 0 -17.135190781182416 40.819055149754597 0 40.819055149754597 -33.928404250840472 0 0 0 0 89.516432458434792 -17.054567401015447 0 -17.054567401015447 -365.61412980709883 0 0 0 0 10.648269175646419 74.926080046767311 0 74.926080046767311 95.110059262959112 0 0 0 0 -2.9743920127090648 51.483721276830089 0 51.483721276830089 -24.321877412086138 0 0 0 0 -268.63098268301655 -125.24227912770277 0 -125.24227912770277 -185.51795013807714 0 0 0 0 -272.36284656127737 -58.816222373050778 0 -58.816222373050778 -183.07317853725544 0 0 0 0 -146.76178086601385 -138.66964961540509 0 -138.66964961540509 -231.40153492613172 0 0 0 0 -153.926358048564 4.6755598104155069 0 4.6755598104155069 -149.10822211311461 0 0 0 0 -128.97788859865977 82.582147855753647 0 82.582147855753647 -182.88688705556888 0 0 0 0 72.997972237346403 123.58320004390407 0 123.58320004390407 -192.16475039924808 0 0 0 0 -67.644463475084194 -80.851091570470089 0 -80.851091570470089 -111.8348104335164 0 0 0 0 38.629992617399694 -40.31357682612088 0 -40.31357682612088 -177.59419556369539 0 0 0 0 -43.383521983829269 45.327752626506481 0 45.327752626506481 -43.188157565336041 0 0 0 0 39.232227304724802 55.605358990835157 0 55.605358990835157 57.957291107260971 0 0 0 0 208.75062605610947 71.436984606059013 0 71.436984606059013 -179.41907955619718 0 0 0 0 144.27174580241262 99.265460973161794 0 99.265460973161794 14.77510453033301 0 0 0 0 -13.637698890903266 256.65979511702108 0 256.65979511702108 54.562636064531944 0 0 0 0 20.940135455126438 236.63803650202135 0 236.63803650202135 57.901289003226339 0 0 0 0 3.1435056492809963 182.42532802202641 0 182.42532802202641 40.867055342001095 0 0 0 0 44.021329914723538 266.42908224316716 0 266.42908224316716 -180.03215200425984 0 0 0 0 70.562821454885125 133.70445141181062 0 133.70445141181062 18.051523778358842 0 0 0 0 61.449913688353263 180.77271350434421 0 180.77271350434421 65.096301719018811 0 0 0 0 365.78874785391963 364.25230015467741 0 364.25230015467741 -69.240841496472058 0 0 0 0 -304.59034660582074 21.790883433970976 0 21.790883433970976 151.02689641628967 0 0 0 0 -471.78794774901326 322.59845492067598 0 322.59845492067598 348.5297509440752 0 0 0 0 684.40279543477664 -130.81261624580929 0 -130.81261624580929 -72.508513588999449 0 0 0 0 632.4475124697874 121.56834868524857 0 121.56834868524857 -123.64528330397661 0 0 0 0 0.20123491610516098 0.81248807012772062 0 0.81248807012772062 -1.3169265690552479 0 0 0 0 -258.31099197961885 145.75192256016726 0 145.75192256016726 351.83129263784758 0 0 0 0 458.38752247094089 22.18503512325151 0 22.18503512325151 21.21955140785758 0 0 0 0 1.0687118760569163 0.119531577370104 0 0.119531577370104 3.6479245410698553 0 0 0 0 573.26532350711932 438.74919572192539 0 438.74919572192539 -491.16142961984042 0 0 0 0 162.56706153431151 484.06102061465299 0 484.06102061465299 66.874154124405322 0 0 0 0 1.9034199816172759 2.0196884590892061 0 2.0196884590892061 -0.57809980750704959 0 0 0 0 -73.014073964193813 222.20899795663172 0 222.20899795663172 897.97518062738936 0 0 0 0 154.16804040721399 -0.78616723797949817 0 -0.78616723797949817 -534.87292558418267 0 0 0 0 -158.99400324923045 120.97488515800342 0 120.97488515800342 32.508933010820783 0 0 0 0 195.75590806771288 248.09699165605889 0 248.09699165605889 239.0450836563632 0 0 0 0 81.042852300219238 203.40819989752163 0 203.40819989752163 238.30720422871056 0 0 0 0 -16.026843120573176 -61.260045537860606 0 -61.260045537860606 113.54292799946779 0 0 0 0 143.42016187796253 224.31918625652997 0 224.31918625652997 173.75225752995902 0 0 0 0 3.981793250019706 4.9352743962256005 0 4.9352743962256005 -1.7356653695877586 0 0 0 0 44.690162753351615 271.31309576420426 0 271.31309576420426 413.66219490806088 0 0 0 0 7.9694411738528288 142.84544230111896 0 142.84544230111896 340.99161754795023 0 0 0 0 67.412841952293093 203.42013559075076 0 203.42013559075076 87.769471308496577 0 0 0 0 48.679313679948791 156.67443578799043 0 156.67443578799043 158.42674230045304 0 0 0 0 54.989590905875957 95.651491738446566 0 95.651491738446566 -151.57355012920652 0 0 0 0 139.59183167198353 142.83794279154745 0 142.83794279154745 300.87574808482259 0 0 0 0 0.44572129679210093 0.002380767978671372 0 0.002380767978671372 -0.29702228858818458 0 0 0 0 -43.086923454211501 88.759518312882392 0 88.759518312882392 -76.047081867148336 0 0 0 0 -78.156544042518362 32.285180841806323 0 32.285180841806323 69.959391909780607 0 0 0 0 -10.923576795985724 16.167877613067894 0 16.167877613067894 -11.661605447799589 0 0 0 0 -107.56222443820297 140.81496378108295 0 140.81496378108295 1.2199792999144847 0 0 0 0 189.05271769962383 193.53412238782175 0 193.53412238782175 92.032799930748297 0 0 0 0 -113.23649835328979 475.72079614430004 0 475.72079614430004 499.46132484179179 0 0 0 0 -15.506925773053808 116.26666096350891 0 116.26666096350891 -145.31737135635831 0 0 0 0 -3.169282271731916 7.9749609133567052 0 7.9749609133567052 -6.5920261692962514 0 0 0 0 118.38390700695163 151.81284701889581 0 151.81284701889581 164.61208968727624 0 0 0 0 -13.446397329417756 1.8184629233040681 0 1.8184629233040681 3.7483352033753867 0 0 0 0 -47.281811900065804 54.033647882137302 0 54.033647882137302 108.3071523403496 0 0 0 0 -46.415090249127388 67.340820451265017 0 67.340820451265017 -61.057510554392593 0 0 0 0 -40.460068883093044 42.322713180056859 0 42.322713180056859 -37.352968107541599 0 0 0 0 -27.57224667203991 53.992335241733599 0 53.992335241733599 -75.912289960139788 0 0 0 0 6.8699629858529079 171.88818466462817 0 171.88818466462817 108.30538486051682 0 0 0 0 -70.46756302470385 95.769237445339172 0 95.769237445339172 283.03651011844249 0 0 0 0 -72.144420818403887 118.83292338412275 0 118.83292338412275 -87.972102406162776 0 0 0 0 -6.9410156747961196 12.672057097912685 0 12.672057097912685 -8.6509689704074209 0 0 0 0 -17.910914324604164 55.554528832193682 0 55.554528832193682 -54.430661591220996 0 0 0 0 -32.361357975299839 45.639079320515904 0 45.639079320515904 -49.354526220267722 0 0 0 0 -28.924582497536903 52.162972490667016 0 52.162972490667016 -46.058897776043523 0 0 0 0 405.14317888917867 185.5069429017949 0 185.5069429017949 -24.599173535902082 0 0 0 0 -24.879640119766655 50.358793508232715 0 50.358793508232715 -53.287200827772963 0 0 0 0 -25.456344050639018 46.901881450147812 0 46.901881450147812 -45.330475224486577 0 0 0 0 305.14089062912535 389.7716391751776 0 389.7716391751776 -6.8489962113117144 0 0 0 0 39.609089545047027 188.09749168233066 0 188.09749168233066 106.25494432960897 0 0 0 0 -228.46773673423741 189.41754848664959 0 189.41754848664959 86.034439511722667 0 0 0 0 -270.57019147823303 215.15591702210941 0 215.15591702210941 212.58260425957587 0 0 0 0 -38.945104131067637 259.13870628500376 0 259.13870628500376 74.786053277392057 0 0 0 0 -2.2605248865293106 54.382242440696245 0 54.382242440696245 16.037342810919654 0 0 0 0 23.145413100897713 57.848076811991632 0 57.848076811991632 -60.188636184459028 0 0 0 0 -35.561665403103689 55.397596796403377 0 55.397596796403377 -27.261869334235598 0 0 0 0 -11.003269854714745 31.793262889632388 0 31.793262889632388 -33.794615104975492 0 0 0 0 -17.364330841916853 133.50030170741388 0 133.50030170741388 -93.172452057617193 0 0 0 0 -10.597503427339689 64.945905820998632 0 64.945905820998632 -61.415985270872625 0 0 0 0 20.389286928104255 24.882913100557751 0 24.882913100557751 -1.8526260424577075 0 0 0 0 -64.918941452460786 83.238246883503962 0 83.238246883503962 -48.297493787043095 0 0 0 0 -41.1965568352025 94.759596424590654 0 94.759596424590654 6.5674692079383021 0 0 0 0 -19.845383699528611 84.154515811268084 0 84.154515811268084 -48.309877030729972 0 0 0 0 -49.552687773603978 58.444450051750216 0 58.444450051750216 -32.454676314775924 0 0 0 0 280.30488573021285 264.5583515260073 0 264.5583515260073 -29.769933824272812 0 0 0 0 7.719377384204563 97.087046034097966 0 97.087046034097966 -77.98242872548235 0 0 0 0 -31.103224384824003 54.139655149404071 0 54.139655149404071 -31.475754942398282 0 0 0 0 194.33450608846033 121.51704215594282 0 121.51704215594282 -86.904804587407853 0 0 0 0 261.44544148584828 222.04028140058699 0 222.04028140058699 30.326740402765608 0 0 0 0 207.15584477680386 30.483901598727698 0 30.483901598727698 -121.82720553124454 0 0 0 0 156.22534845850896 31.880000141297501 0 31.880000141297501 -59.477837356639611 0 0 0 0 -4.6399170721452663 5.0779599812392675 0 5.0779599812392675 -2.903049495692974 0 0 0 0 -16.545167442702223 45.095393404207471 0 45.095393404207471 16.2337874103996 0 0 0 0 -51.668220907933573 25.110693090739005 0 25.110693090739005 87.161056756704056 0 0 0 0 -589.51796266646852 552.11443510631398 0 552.11443510631398 -278.31606243570786 0 0 0 0 69.852069570304593 52.816080160449928 0 52.816080160449928 -205.59341139281923 0 0 0 0 4.7418624457786791 152.79569018645543 0 152.79569018645543 -348.21927166288697 0 0 0 0 4.9578865059920645 83.834410758067861 0 83.834410758067861 -803.66614181070508 0 0 0 0 70.26850298725185 300.38663855002051 0 300.38663855002051 210.40373587692557 0 0 0 0 50.263894297655497 394.64444444691389 0 394.64444444691389 -187.86210853531702 0 0 0 0 366.67268893732398 462.95172627435841 0 462.95172627435841 322.397138213586 0 0 0 0 496.25427146653601 113.94462003761112 0 113.94462003761112 -148.1758607301399 0 0 0 0 -19.593592010549173 23.326606048552826 0 23.326606048552826 1.4632299089891951 0 0 0 0 204.51291895510803 136.66957432942581 0 136.66957432942581 -117.53152201735429 0 0 0 0 230.00664331276494 115.79079661353126 0 115.79079661353126 -311.78223436549706 0 0 0 0 51.852691850552219 -34.671000980506506 0 -34.671000980506506 -229.02087805795509 0 0 0 0 85.185076689405832 33.037799804421411 0 33.037799804421411 -242.01777958032289 0 0 0 0 203.43191478667359 16.457787959791744 0 16.457787959791744 -318.79237887910858 0 0 0 0 299.61190558616363 83.492459447235433 0 83.492459447235433 -235.76510556665835 0 0 0 0 200.98797148551603 64.43806723808531 0 64.43806723808531 -163.2782881997955 0 0 0 0 171.31537325137469 -57.64839443688561 0 -57.64839443688561 -190.11204691952719 0 0 0 0 158.62836790527217 -30.194350195235074 0 -30.194350195235074 -237.8576150531544 0 0 0 0 -104.83754101208615 -378.3493518684736 0 -378.3493518684736 56.613278074739355 0 0 0 0 -5.7189141770422509 3.9261361933007919 0 3.9261361933007919 -4.3951182674219247 0 0 0 0 -70.545208045845357 -294.01828180055509 0 -294.01828180055509 -600.41302836636714 0 0 0 0 -668.71888712904911 280.76528496880383 0 280.76528496880383 58.164829247949626 0 0 0 0 -100.2844920635107 -209.12678709072043 0 -209.12678709072043 -404.16149856759785 0 0 0 0 120.57492913980968 5.8358555270035595 0 5.8358555270035595 -509.35370392128061 0 0 0 0 -820.55218193581095 338.21970796091409 0 338.21970796091409 10.78869802590043 0 0 0 0 -714.94714017135993 427.26506289899828 0 427.26506289899828 -155.27917081476699 0 0 0 0 -688.88894838529814 -221.35159972099541 0 -221.35159972099541 63.117120516210434 0 0 0 0 -213.18757590898895 -158.03831509445126 0 -158.03831509445126 -477.56863884202176 0 0 0 0 -208.89099887748534 -92.613952739439128 0 -92.613952739439128 -53.026907519462839 0 0 0 0 -35.76564868290734 -130.75273740573266 0 -130.75273740573266 -171.42180693036539 0 0 0 0 128.81926249217213 79.922247712821445 0 79.922247712821445 -254.2075330234411 0 0 0 0 -513.48525355567836 -57.213021024974068 0 -57.213021024974068 169.28495601025315 0 0 0 0 -13.045846068246334 7.6222134586404451 0 7.6222134586404451 -3.2423601119539072 0 0 0 0 17.715042345174879 144.96197720890268 0 144.96197720890268 89.974339156598944 0 0 0 0 -34.479607435190701 16.311694806866399 0 16.311694806866399 30.342900523417484 0 0 0 0 -4.9510597768155975 0.94926270043656302 0 0.94926270043656302 2.9733088834119421 0 0 0 0 27.268376112435362 17.67914562304577 0 17.67914562304577 63.284783714174637 0 0 0 0 66.363039564850624 147.83527322781174 0 147.83527322781174 20.819296193094488 0 0 0 0 141.01691701404343 244.10913234087275 0 244.10913234087275 256.08084426914502 0 0 0 0 109.34139079310989 253.12725842389227 0 253.12725842389227 345.73844036137962 0 0 0 0 144.5728340443784 261.1356083886044 0 261.1356083886044 328.78777859940601 0 0 0 0 121.95558827806235 252.5610270098523 0 252.5610270098523 227.20326100678722 0 0 0 0 125.5191121763346 161.53663187856364 0 161.53663187856364 232.43964751922613 0 0 0 0 130.30087199000627 174.12413674585378 0 174.12413674585378 154.30123348112102 0 0 0 0 68.85095926298527 190.4928753896329 0 190.4928753896329 277.59288666923567 0 0 0 0 -1.289138039763202 5.8239595102077146 0 5.8239595102077146 1.8521788618127175 0 0 0 0 -5.6624537036477705 5.9602172043765336 0 5.9602172043765336 -1.5940613182633321 0 0 0 0 11.689259626204148 8.7884989662270527 0 8.7884989662270527 -12.016960487217148 0 0 0 0 136.67281545250444 150.61987760671946 0 150.61987760671946 145.56561991321269 0 0 0 0 125.14672287250869 170.57002685922998 0 170.57002685922998 193.37641886476558 0 0 0 0 7.1998843206945367 201.63737165073866 0 201.63737165073866 193.04718141396006 0 0 0 0 100.29320908778755 204.70128013790145 0 204.70128013790145 266.80225319605597 0 0 0 0 -4.7812778045091058 6.2227705582149895 0 6.2227705582149895 -2.8389192406169528 0 0 0 0 -1.8162958757311571 6.3373389136800142 0 6.3373389136800142 -4.7981643850234832 0 0 0 0 -8.532896429122907 4.6301479099372358 0 4.6301479099372358 0.71776135905185612 0 0 0 0 -8.8698207674379574 7.7248626101967517 0 7.7248626101967517 -1.757807905090484 0 0 0 0 68.385499154494028 34.436002724592072 0 34.436002724592072 -9.4593784796197724 0 0 0 0 8.3449570395096089 1.0209108874673802 0 1.0209108874673802 -7.4811876760610971 0 0 0 0 -2.016511694766919 4.2190435446247676 0 4.2190435446247676 -4.7407782893821242 0 0 0 0 60.464759011752903 36.0468835037791 0 36.0468835037791 -110.18586101964047 0 0 0 0 2.7934191672102315 -13.005509978084319 0 -13.005509978084319 -42.794644273939412 0 0 0 0 16.499220380857878 -45.528872037629299 0 -45.528872037629299 -75.978569238932323 0 0 0 0 -78.672247002534277 -88.791697584449139 0 -88.791697584449139 4.8226138995546535 0 0 0 0 -77.032424570416424 -53.844883582099783 0 -53.844883582099783 45.077469692874729 0 0 0 0 0.29652179175900528 8.7362119944507413 0 8.7362119944507413 -1.145284970782086 0 0 0 0 27.060998016961094 9.6706399944821442 0 9.6706399944821442 -15.713773927322109 0 0 0 0 -68.425806030558306 -4.0965107733700279 0 -4.0965107733700279 7.79089518228011 0 0 0 0 1.565356821435671 6.4459421937569346 0 6.4459421937569346 -12.307644174860798 0 0 0 0 -1.6960717465376547 0.95806994340372142 0 0.95806994340372142 -2.3656826853353028 0 0 0 0 -1.570206289244382 6.3058070980116412 0 6.3058070980116412 -5.9087237455368751 0 0 0 0 -4.5856118860647257 6.2609012261800672 0 6.2609012261800672 -4.7136883857783687 0 0 0 0 -82.95672442830255 25.162395890773723 0 25.162395890773723 -12.483795286138957 0 0 0 0 -106.46504066260968 -31.952831882917735 0 -31.952831882917735 -3.2741942870820822 0 0 0 0 -184.97809817156667 -26.059416491289539 0 -26.059416491289539 38.28823214695467 0 0 0 0 -233.57379530362232 8.4416366502614437 0 8.4416366502614437 33.156908644237774 0 0 0 0 -188.63667579594767 214.08888169837837 0 214.08888169837837 -207.38084263499832 0 0 0 0 1.3432184806060548 -1.1665793953878278 0 -1.1665793953878278 0.35207032239761027 0 0 0 0 -134.70897585914554 -242.43250530815925 0 -242.43250530815925 412.34821600264104 0 0 0 0 -302.2387968844123 33.401341006602252 0 33.401341006602252 203.70297137951229 0 0 0 0 -98.555997741255851 -132.6407836519802 0 -132.6407836519802 -79.177179564224389 0 0 0 0 106.16587651032751 402.73974769752203 0 402.73974769752203 761.36554491612605 0 0 0 0 128.64775158385532 416.06566676664806 0 416.06566676664806 728.9858390265963 0 0 0 0 136.57256447157124 243.21660896754838 0 243.21660896754838 428.96786917781355 0 0 0 0 381.35944443138578 824.57399990931344 0 824.57399990931344 967.13232700305844 0 0 0 0 186.34327314916413 633.6873349180363 0 633.6873349180363 1043.124889104125 0 0 0 0 411.05080931838347 821.84133712149674 0 821.84133712149674 923.2596698173038 0 0 0 0 347.32367321474158 665.64166745057832 0 665.64166745057832 832.3299473845309 0 0 0 0 188.31578802819411 435.61799919488072 0 435.61799919488072 723.10967112776052 0 0 0 0 346.5527207761188 663.17300969229564 0 663.17300969229564 838.41541354137462 0 0 0 0 278.48630657909234 477.03441317170223 0 477.03441317170223 656.41874902729433 0 0 0 0 301.98714996312629 550.85272187091959 0 550.85272187091959 743.96246952250522 0 0 0 0 170.55174291579169 418.09613046291997 0 418.09613046291997 684.70259704056753 0 0 0 0 248.9409001985332 371.03189667241622 0 371.03189667241622 502.77047306634995 0 0 0 0 157.54084006251651 383.38935705281256 0 383.38935705281256 555.18768970336714 0 0 0 0 100.37433149944627 258.56860414402081 0 258.56860414402081 513.26885885617958 0 0 0 0 210.85436744734761 357.32632847567402 0 357.32632847567402 564.61913324694615 0 0 0 0 212.25261066603707 463.30656730592455 0 463.30656730592455 634.89384066712955 0 0 0 0 120.92104693309193 253.37155064482863 0 253.37155064482863 465.59606149164028 0 0 0 0 135.10341182252159 351.14499104921015 0 351.14499104921015 627.7894688819955 0 0 0 0 -29.501179768485599 107.16928877557439 0 107.16928877557439 391.12111462291796 0 0 0 0 4.4609649490157608 311.59489232726082 0 311.59489232726082 441.74197283274225 0 0 0 0 96.097309587232303 91.897537436980201 0 91.897537436980201 268.21283715004483 0 0 0 0 0.46683816035596237 1.9557934374340604 0 1.9557934374340604 -1.7667278475304027 0 0 0 0 100.88345833783387 117.33352896448559 0 117.33352896448559 284.57568678382268 0 0 0 0 80.365886870597024 197.82672874639502 0 197.82672874639502 447.93655112408851 0 0 0 0 139.13531525968574 171.74189188361197 0 171.74189188361197 227.35045713876752 0 0 0 0 115.65009049244691 271.90546881308364 0 271.90546881308364 463.80957606836637 0 0 0 0 147.87400434643496 220.88973257909947 0 220.88973257909947 317.68823187809539 0 0 0 0 61.149656975496328 244.2240822019703 0 244.2240822019703 227.79380454351485 0 0 0 0 112.80297414000961 225.20568463429663 0 225.20568463429663 232.62133307407203 0 0 0 0 114.1024474381411 198.56216789752398 0 198.56216789752398 340.13942945972667 0 0 0 0 144.0690743723826 265.48983361929822 0 265.48983361929822 332.20094876485791 0 0 0 0 150.93889964174014 264.0205826825495 0 264.0205826825495 408.69128627354166 0 0 0 0 129.36997951002559 192.62845074594225 0 192.62845074594225 377.95400109545153 0 0 0 0 206.30838198804122 308.33252131773952 0 308.33252131773952 425.22324749164909 0 0 0 0 149.89853614797175 321.31753233357449 0 321.31753233357449 557.47128277880074 0 0 0 0 242.22110098678968 400.41323056049237 0 400.41323056049237 648.92113849607995 0 0 0 0 269.18043882430356 423.85192998259117 0 423.85192998259117 543.76916444660083 0 0 0 0 195.11019779778144 326.06213499034084 0 326.06213499034084 551.15394002830726 0 0 0 0 193.90517625348002 358.50080497611634 0 358.50080497611634 489.68493021930772 0 0 0 0 160.59956946442253 281.35721695932625 0 281.35721695932625 456.38351379383676 0 0 0 0 124.67540718338569 276.74197197847025 0 276.74197197847025 483.23131439305735 0 0 0 0 145.01819697290193 290.72571936505665 0 290.72571936505665 413.99119896393677 0 0 0 0 84.783702110158629 229.69426358826604 0 229.69426358826604 397.1918088063976 0 0 0 0 92.993134358897805 247.01231221350099 0 247.01231221350099 380.53576527020778 0 0 0 0 81.757022511388641 164.63700293339753 0 164.63700293339753 320.5384141052491 0 0 0 0 134.92856304996531 250.07572741233525 0 250.07572741233525 369.36609277940079 0 0 0 0 152.32260305611999 298.10390977098723 0 298.10390977098723 432.29221785791924 0 0 0 0 119.18324803826545 228.1146942073733 0 228.1146942073733 391.85278464273142 0 0 0 0 120.48380379631271 239.15198093280742 0 239.15198093280742 410.26061898167245 0 0 0 0 179.35779999469378 310.3068632751465 0 310.3068632751465 424.77639015217574 0 0 0 0 151.71639771209448 341.25651630577704 0 341.25651630577704 527.36787441906563 0 0 0 0 160.20904586721736 321.82628152777352 0 321.82628152777352 399.60875964510342 0 0 0 0 133.41693675133865 271.83041446190964 0 271.83041446190964 437.9108446585924 0 0 0 0 153.66654522034514 288.75601348595956 0 288.75601348595956 367.54667142058679 0 0 0 0 122.47231769803329 238.49533974638689 0 238.49533974638689 347.81623625405882 0 0 0 0 122.09672906110063 204.50218226922152 0 204.50218226922152 295.019248776327 0 0 0 0 135.50180463129072 175.49506016226042 0 175.49506016226042 191.52369233942227 0 0 0 0 113.76233991939807 195.18638761354669 0 195.18638761354669 316.00577328670079 0 0 0 0 74.353917944768909 128.24329534701428 0 128.24329534701428 272.28942557257506 0 0 0 0 97.07716606399481 171.61876736733802 0 171.61876736733802 292.80802199147001 0 0 0 0 109.73271865170682 111.78960847370035 0 111.78960847370035 216.28676057615485 0 0 0 0 -0.91975831840682076 7.6957789952248277 0 7.6957789952248277 -4.953977381500863 0 0 0 0 -5.6827585674971317 5.4481820731784438 0 5.4481820731784438 -3.0958972726774618 0 0 0 0 100.49642490307451 62.321493067720439 0 62.321493067720439 192.27720836200933 0 0 0 0 32.923289028723957 99.148554726460134 0 99.148554726460134 275.60473984841883 0 0 0 0 60.068824178000796 170.23590383124974 0 170.23590383124974 297.44898735637253 0 0 0 0 6.7778735515894368 208.46658620150265 0 208.46658620150265 341.3768816977863 0 0 0 0 110.11359269810782 204.23644397355747 0 204.23644397355747 325.81650572884246 0 0 0 0 -87.474663533590501 171.62857187455302 0 171.62857187455302 314.26330855628294 0 0 0 0 64.074386863678228 183.50681268866902 0 183.50681268866902 299.36301055440708 0 0 0 0 -42.403952202410437 238.85004000108529 0 238.85004000108529 272.23335012128518 0 0 0 0 -31.618564682896249 161.04823352435778 0 161.04823352435778 170.1973544293578 0 0 0 0 -22.562182785186451 94.190412049927545 0 94.190412049927545 291.59413570754259 0 0 0 0 1.4161020905491739 4.6032248393520234 0 4.6032248393520234 -4.5451005479110087 0 0 0 0 3.4714444595447276 -1.4116524633500376 0 -1.4116524633500376 2.2586042353032099 0 0 0 0 -0.8529231773391075 8.3724432847559456 0 8.3724432847559456 -16.558241150512913 0 0 0 0 -3.4011220560278161 5.4843469133095368 0 5.4843469133095368 -3.6322432159840901 0 0 0 0 -1.6169066081546113 4.0277274173109845 0 4.0277274173109845 -7.6156500709056942 0 0 0 0 -1.0955062716384418 5.4777878345557838 0 5.4777878345557838 -6.7847635020443704 0 0 0 0 -3.054453464491246 5.593406746947494 0 5.593406746947494 -5.2901363008846118 0 0 0 0 2.1534529374844169 9.4453996083063032 0 9.4453996083063032 -6.9096854843537585 0 0 0 0 2.5830737405631226 3.1012251355550688 0 3.1012251355550688 -6.4985700720326349 0 0 0 0 -2.2141530516018975 9.8447348299155237 0 9.8447348299155237 -5.6951649349975924 0 0 0 0 -5.2133207054321815 8.5992784415098811 0 8.5992784415098811 -0.92033161420521115 0 0 0 0 -19.740087813668652 10.471230625411408 0 10.471230625411408 -1.1364591674876579 0 0 0 0 -61.195691580302082 33.734634732217273 0 33.734634732217273 0.78617033682075999 0 0 0 0 3.6690981651772745 41.337261965064499 0 41.337261965064499 -43.48894326599293 0 0 0 0 -4.5496428345445565 8.0181299307805229 0 8.0181299307805229 -3.4304031777680617 0 0 0 0 -28.999021500116214 13.998093623040404 0 13.998093623040404 6.0457116980041974 0 0 0 0 -13.549603187656714 27.231964006545482 0 27.231964006545482 6.2437937343036722 0 0 0 0 -0.029827274061972275 34.414568591824718 0 34.414568591824718 -40.809910230240348 0 0 0 0 -0.92055648356515007 16.153714380038821 0 16.153714380038821 -6.9309138376279815 0 0 0 0 6.2596498005332251 12.230818759516296 0 12.230818759516296 -1.3525046607173863 0 0 0 0 -0.20628625421683822 12.264715107733295 0 12.264715107733295 -14.767513899185595 0 0 0 0 -3.0575030125614262 15.660803779008209 0 15.660803779008209 -20.219920671763937 0 0 0 0 4.1545157289365306 8.8106191368115105 0 8.8106191368115105 -48.237089506630582 0 0 0 0 -3.186307503984608 31.543706184232292 0 31.543706184232292 -53.603597874151092 0 0 0 0 6.8573645161569345 18.689927369690921 0 18.689927369690921 2.6828479011930382 0 0 0 0 11.174113174245576 28.325534379941928 0 28.325534379941928 -7.9011701897065905 0 0 0 0 21.854567172078532 13.884697697093088 0 13.884697697093088 1.1200017294395366 0 0 0 0 0.51122158843645593 21.955183950733499 0 21.955183950733499 -6.3427528506090312 0 0 0 0 -1.2689663235874775 4.5253326313963207 0 4.5253326313963207 -1.9964098958027066 0 0 0 0 -4.5122480751888361 9.9165898744390688 0 9.9165898744390688 -12.463301042258536 0 0 0 0 -2.3752231071121059 5.0685716195275745 0 5.0685716195275745 -27.315375691829104 0 0 0 0 0.51547568626847351 9.7756817998943006 0 9.7756817998943006 -20.79193293548451 0 0 0 0 -11.925515626717242 -0.52031301255192375 0 -0.52031301255192375 -16.431086209935529 0 0 0 0 -11.10420253261691 1.4011233388973778 0 1.4011233388973778 -14.380107256018164 0 0 0 0 -0.8630106760239471 1.4814015557413072 0 1.4814015557413072 2.0315059751449098 0 0 0 0 -3.2997789812507108 60.979670884589723 0 60.979670884589723 -83.208408486996632 0 0 0 0 81.765395178357721 176.79579448534696 0 176.79579448534696 486.62153420101822 0 0 0 0 -44.027131153532537 -69.325419759276883 0 -69.325419759276883 -46.205941531956796 0 0 0 0 -12.005246895292657 -6.1559482869215572 0 -6.1559482869215572 160.33440345066447 0 0 0 0 4.8645555308953021 16.266688508325274 0 16.266688508325274 9.6329576235327643 0 0 0 0 -0.7003589577616367 27.709384414255851 0 27.709384414255851 -23.167787265867446 0 0 0 0 9.0218570079960045 36.324987127646864 0 36.324987127646864 -41.97813855496679 0 0 0 0 20.824549176477376 59.393952718202058 0 59.393952718202058 -85.561768311872584 0 0 0 0 19.773089262846497 12.004387495016445 0 12.004387495016445 -1.2251845369290528 0 0 0 0 -116.02318443960394 180.7181356216222 0 180.7181356216222 -149.84988848256876 0 0 0 0 -38.694265004189219 101.26282952444262 0 101.26282952444262 -109.71348396294889 0 0 0 0 -63.966258656641003 71.849558280084693 0 71.849558280084693 -18.690611579390861 0 0 0 0 -152.62167538340145 102.03003959224134 0 102.03003959224134 -22.932385278580114 0 0 0 0 24.343018590041027 17.919494263355006 0 17.919494263355006 6.8459628150763319 0 0 0 0 32.924033488074201 -6.2592875966383872 0 -6.2592875966383872 196.30818242260102 0 0 0 0 9.8134882594615931 2.2223695332211122 0 2.2223695332211122 -10.603762483338347 0 0 0 0 57.38582192861395 277.96419917267713 0 277.96419917267713 656.09302609528277 0 0 0 0 -31.270001119297376 12.251757793143042 0 12.251757793143042 38.959291335415401 0 0 0 0 -11.998355749259645 -7.028150939122952 0 -7.028150939122952 24.308638225835239 0 0 0 0 -9.9625900692662981 42.748839581131733 0 42.748839581131733 -30.739340239366356 0 0 0 0 -24.994301704554346 57.871674436755029 0 57.871674436755029 -51.937664696953107 0 0 0 0 -44.411213507773937 45.197570689397253 0 45.197570689397253 -24.204795145973549 0 0 0 0 -28.94092324678968 35.630255231353033 0 35.630255231353033 -2.9777467365875054 0 0 0 0 -12.674796023929957 55.24803153225821 0 55.24803153225821 -35.745051638327709 0 0 0 0 -34.826958233417827 69.652079764520067 0 69.652079764520067 -34.428055176987073 0 0 0 0 -57.587666566083499 45.25870352171296 0 45.25870352171296 -36.90983295409842 0 0 0 0 -57.557039248364163 74.101350200367051 0 74.101350200367051 -32.882241563074786 0 0 0 0 -48.553879637620412 81.946698661459777 0 81.946698661459777 -45.408611807361012 0 0 0 0 -53.8357875142392 79.146694269200907 0 79.146694269200907 -27.583987234633696 0 0 0 0 -21.416509748320095 35.699474258277405 0 35.699474258277405 12.433483360181071 0 0 0 0 -0.74879338695532738 5.7544303801055889 0 5.7544303801055889 -1.3064354480007978 0 0 0 0 -53.665288442789461 83.032096158074637 0 83.032096158074637 -32.02143159715888 0 0 0 0 -42.312523443979444 83.409978731690899 0 83.409978731690899 -98.333648194905891 0 0 0 0 -50.195688419209546 96.981658873954331 0 96.981658873954331 -69.287169004369389 0 0 0 0 -31.627627895199112 41.282774564937426 0 41.282774564937426 -37.463159760199915 0 0 0 0 -3.6717214787349803 34.730020270341939 0 34.730020270341939 -27.002939406585373 0 0 0 0 36.596800477273064 63.517409431501164 0 63.517409431501164 -34.698856771045229 0 0 0 0 41.991563552728621 78.422064530679336 0 78.422064530679336 -103.58051073670185 0 0 0 0 6.0930370941991754 22.90150610924556 0 22.90150610924556 -17.111571353422683 0 0 0 0 -11.219451148615917 25.18803851288294 0 25.18803851288294 -8.027749853737987 0 0 0 0 48.615753571706591 -3.5703956907182146 0 -3.5703956907182146 -28.165264999555575 0 0 0 0 1.0858888671755835 28.74486064056579 0 28.74486064056579 -13.626779820298957 0 0 0 0 8.6805612347424983 0.52441923642601296 0 0.52441923642601296 -2.8090094553711094 0 0 0 0 40.631860910274554 6.7280592100250942 0 6.7280592100250942 -22.035851290282153 0 0 0 0 39.417456110168132 7.4256300070896941 0 7.4256300070896941 17.878166653550579 0 0 0 0 -8.8448710528442192 15.633972918182351 0 15.633972918182351 0.14529125419271161 0 0 0 0 -8.410430695861578 35.107532991622065 0 35.107532991622065 -19.809207410668023 0 0 0 0 4.3026724388953426 12.673831645698939 0 12.673831645698939 -6.2834592399216138 0 0 0 0 13.929602146425168 31.242151852354709 0 31.242151852354709 -6.1646510918044441 0 0 0 0 16.237061491323402 25.871935787948473 0 25.871935787948473 -0.85300226696244863 0 0 0 0 3.9523332454264164 17.004813179084522 0 17.004813179084522 -10.144062194869093 0 0 0 0 20.530583268085394 23.872834189549721 0 23.872834189549721 -19.889491854435168 0 0 0 0 -3.1383468403329715 20.535278089295261 0 20.535278089295261 -7.9310022584429678 0 0 0 0 24.585739151997373 20.381143105677509 0 20.381143105677509 -11.988755501743896 0 0 0 0 12.742216719174266 15.284076446189744 0 15.284076446189744 2.2884601678307668 0 0 0 0 14.334976705751615 25.116371170845014 0 25.116371170845014 -6.5521001228884472 0 0 0 0 10.192981810570927 24.675622667281232 0 24.675622667281232 -1.016754200691139 0 0 0 0 -2.3382509389088568 27.57304400667595 0 27.57304400667595 -11.634279308636463 0 0 0 0 -36.995202702157258 28.706564276727022 0 28.706564276727022 2.7207448542376369 0 0 0 0 -17.950257797350787 26.507087117247977 0 26.507087117247977 -4.3353139683667905 0 0 0 0 -33.443295102821139 37.010887113435729 0 37.010887113435729 -7.9335091694351831 0 0 0 0 -25.712765240547014 31.041749512703518 0 31.041749512703518 -5.1244498544076578 0 0 0 0 -15.549597080441703 10.587997614996951 0 10.587997614996951 5.8503667841624853 0 0 0 0 -27.431018111325102 19.354403537032113 0 19.354403537032113 7.1118072493865157 0 0 0 0 -19.647410099415367 20.347712160273908 0 20.347712160273908 -5.5200485234692174 0 0 0 0 -34.600293146882905 36.233075689365251 0 36.233075689365251 -15.184483208047141 0 0 0 0 -28.879661629252041 26.918387632036286 0 26.918387632036286 -10.968887269010338 0 0 0 0 -12.85031784262415 18.948871062026988 0 18.948871062026988 -3.7837340542463203 0 0 0 0 -16.291382095906108 30.876430187413966 0 30.876430187413966 -19.320509665644771 0 0 0 0 -15.610466489221608 7.1001405111490143 0 7.1001405111490143 -2.8340245770584787 0 0 0 0 -256.49965255802817 -18.044778202918678 0 -18.044778202918678 26.203270496429468 0 0 0 0 -8.623802331140908 38.437521082140137 0 38.437521082140137 -21.832696810994108 0 0 0 0 -26.734630742204899 45.73324099616957 0 45.73324099616957 -17.592022043539373 0 0 0 0 -144.84780541821783 -34.91567750277909 0 -34.91567750277909 -77.142618339131332 0 0 0 0 -17.396072744641714 29.113540472620404 0 29.113540472620404 2.0119085095183298 0 0 0 0 1.3257008307940339 42.020630412138843 0 42.020630412138843 -27.591667420924633 0 0 0 0 -5.4359542929960014 38.466054213663583 0 38.466054213663583 -26.049945250094691 0 0 0 0 -6.884230121060682 41.892466970452915 0 41.892466970452915 -25.789670049996857 0 0 0 0 -26.024204489425756 45.230283000005556 0 45.230283000005556 -25.837130232323034 0 0 0 0 -26.78039786925001 54.043680677083216 0 54.043680677083216 -8.4726577922065189 0 0 0 0 -36.848371969797881 48.907703484063404 0 48.907703484063404 -9.1824219478694431 0 0 0 0 -32.561394912700052 48.761259355410402 0 48.761259355410402 -4.9334054683486102 0 0 0 0 -22.725298340228619 60.043082785351999 0 60.043082785351999 -9.0079327965759148 0 0 0 0 -22.813470348859028 42.238383036567427 0 42.238383036567427 13.723296717975245 0 0 0 0 -54.002807410841342 115.41435412606529 0 115.41435412606529 -30.213152584826659 0 0 0 0 -38.475091398446239 65.684479288052557 0 65.684479288052557 -53.782686230020147 0 0 0 0 12.913667134851153 25.104079797925408 0 25.104079797925408 11.471894932229342 0 0 0 0 6.2294166276124088 18.367107725126502 0 18.367107725126502 4.5979449903063081 0 0 0 0 -24.210905913847455 27.633491870970346 0 27.633491870970346 -23.323462889600705 0 0 0 0 19.911191222781781 60.160541263509003 0 60.160541263509003 0.16092433492303826 0 0 0 0 32.30327073961962 49.179536680542242 0 49.179536680542242 -47.661920329594523 0 0 0 0 -37.442209371565696 51.513714496144274 0 51.513714496144274 -149.89575958383375 0 0 0 0 16.844645638951647 11.586897623793178 0 11.586897623793178 9.8240694473986636 0 0 0 0 15.947354593718728 9.6235064338539615 0 9.6235064338539615 7.3130691614239351 0 0 0 0 11.586690765892854 67.9292911746752 0 67.9292911746752 -29.303368905162642 0 0 0 0 22.127851773169823 15.488774238874612 0 15.488774238874612 -23.717429026514992 0 0 0 0 -20.921211304084864 17.878692245489219 0 17.878692245489219 -91.863811006830474 0 0 0 0 -70.890220447343808 16.038710711327909 0 16.038710711327909 1.7372691535731204 0 0 0 0 -46.836131966293578 96.399746958177161 0 96.399746958177161 -85.982956084415491 0 0 0 0 -72.958077426661319 21.76176930440225 0 21.76176930440225 -2.5247307892636717 0 0 0 0 -171.23045366281076 54.105353915422711 0 54.105353915422711 -2.2472107806152053 0 0 0 0 -88.796865776819686 55.008044153852211 0 55.008044153852211 -63.828229193671632 0 0 0 0 -102.10195140546421 67.951072140495853 0 67.951072140495853 52.917161810732324 0 0 0 0 -55.764773699527723 108.30277582213239 0 108.30277582213239 -43.761759475241433 0 0 0 0 -150.39250143717436 -4.1268773023518861 0 -4.1268773023518861 149.14544923984909 0 0 0 0 -88.171313897168147 82.434801517513733 0 82.434801517513733 -34.470592061551827 0 0 0 0 -158.64100110048457 7.833047817807028 0 7.833047817807028 -13.510618381160384 0 0 0 0 -53.021384856845543 -109.13235373367752 0 -109.13235373367752 25.892338073812425 0 0 0 0 -70.597531636347412 -51.752639854880044 0 -51.752639854880044 120.99416917741519 0 0 0 0 -20.952269654664633 3.2663967499677256 0 3.2663967499677256 38.761388005607841 0 0 0 0 -4.9957091113901697 -13.775775166560834 0 -13.775775166560834 -51.480166999266658 0 0 0 0 -67.812940317989103 20.243303414009954 0 20.243303414009954 0.78261447909489767 0 0 0 0 -107.32833772739468 7.4699072487710509 0 7.4699072487710509 -46.961815654809413 0 0 0 0 -94.275866822586977 22.68410951619137 0 22.68410951619137 -29.3799493855131 0 0 0 0 -70.021413090411443 -13.417841141327699 0 -13.417841141327699 -62.824091657972531 0 0 0 0 -32.647689070905471 24.166450476417594 0 24.166450476417594 -94.768078901522529 0 0 0 0 -56.349746238785883 -19.821131087679532 0 -19.821131087679532 -61.783625307618422 0 0 0 0 -12.689943194680382 -48.282146129748071 0 -48.282146129748071 -76.026612205536367 0 0 0 0 -149.6579256089899 -78.738456261095052 0 -78.738456261095052 -67.409548169495793 0 0 0 0 -237.74269003242443 27.281503787273323 0 27.281503787273323 -16.812388631497015 0 0 0 0 -35.126737994163705 -50.615554519044963 0 -50.615554519044963 -115.17433515506673 0 0 0 0 -193.50135047879303 36.495846538019578 0 36.495846538019578 -20.082192468447829 0 0 0 0 -244.39320073950694 -39.699760203786809 0 -39.699760203786809 47.707715249158355 0 0 0 0 103.77305551479731 -77.076083510651188 0 -77.076083510651188 -41.196488249651338 0 0 0 0 -42.696893907232152 -6.7904854261032597 0 -6.7904854261032597 -59.288595221214109 0 0 0 0 151.58802513526098 83.765533678655629 0 83.765533678655629 -64.514028046207841 0 0 0 0 34.840895469858879 113.41064949039992 0 113.41064949039992 51.419459827191531 0 0 0 0 4.6013924645449151 34.806335198879424 0 34.806335198879424 -72.733693253898309 0 0 0 0 31.070505144831259 31.619278116922942 0 31.619278116922942 -88.295775756027069 0 0 0 0 62.419299790753939 92.694969726554064 0 92.694969726554064 -86.331260848657621 0 0 0 0 -119.6956455082618 117.70646062033575 0 117.70646062033575 16.663777520407166 0 0 0 0 85.191455823565775 218.26723617824427 0 218.26723617824427 64.715252428956774 0 0 0 0 0.83225386310732574 171.95237854249444 0 171.95237854249444 124.05957155343776 0 0 0 0 107.82927049909631 323.50929438062713 0 323.50929438062713 328.68697045224599 0 0 0 0 -58.805496488279459 37.683663910365794 0 37.683663910365794 443.77584641850626 0 0 0 0 2.9063342367629446 2.3963883611304624 0 2.3963883611304624 5.7065076603599181 0 0 0 0 428.1627404624669 186.84368927978176 0 186.84368927978176 28.60240815083489 0 0 0 0 307.38046349598608 -148.91871025448961 0 -148.91871025448961 135.63554595603273 0 0 0 0 -55.203155337629141 -9.0906847386877416 0 -9.0906847386877416 84.724702001793048 0 0 0 0 -51.528876684914849 -30.751776811384275 0 -30.751776811384275 3.8153394779365044 0 0 0 0 -243.71097662342072 10.235818827097319 0 10.235818827097319 33.709533532273781 0 0 0 0 -194.10982874918773 -52.000356114802344 0 -52.000356114802344 109.04485942983592 0 0 0 0 -254.92200181642693 62.940408232372647 0 62.940408232372647 127.99913892760378 0 0 0 0 -115.42132461796427 62.100148473572517 0 62.100148473572517 71.603754819818278 0 0 0 0 -358.93670012356597 226.40782728273825 0 226.40782728273825 269.08075874152019 0 0 0 0 255.27866969023307 407.64866490206077 0 407.64866490206077 209.32384370031969 0 0 0 0 -136.7662710785371 35.606824014754238 0 35.606824014754238 460.71118883033614 0 0 0 0 38.834845769804815 128.33782779492412 0 128.33782779492412 -110.91695157217328 0 0 0 0 -147.64129710656198 258.81063872366667 0 258.81063872366667 -12.867490782240566 0 0 0 0 66.108238197783066 173.4712071990798 0 173.4712071990798 19.902187079921532 0 0 0 0 92.553384353266665 141.77749424935291 0 141.77749424935291 -26.262108354414522 0 0 0 0 30.621293783508008 86.203146371614821 0 86.203146371614821 -67.047232066286597 0 0 0 0 0.46386797939521784 71.253591550837584 0 71.253591550837584 -40.389814447097038 0 0 0 0 49.85886665108319 53.503212141518361 0 53.503212141518361 -77.329766662285692 0 0 0 0 0.52625197566885618 110.78486419836918 0 110.78486419836918 103.72696527608059 0 0 0 0 10.37199976448575 18.290751921620753 0 18.290751921620753 -8.5293665458125005 0 0 0 0 443.05771261176778 16.618279583074809 0 16.618279583074809 -72.822369093271845 0 0 0 0 -43.212976680231804 15.68978964145299 0 15.68978964145299 -45.272949848125791 0 0 0 0 -73.987089228774494 93.249538919958354 0 93.249538919958354 -13.165466446616847 0 0 0 0 31.853335083374986 80.077125438877829 0 80.077125438877829 -11.899167690206014 0 0 0 0 -30.228912461432628 58.195202219619205 0 58.195202219619205 2.1490929290330314 0 0 0 0 -29.392726259255141 47.645913857115374 0 47.645913857115374 18.398120210074012 0 0 0 0 10.042406759770529 69.466367131012248 0 69.466367131012248 8.9787721767352195 0 0 0 0 74.537801141603268 74.842443941246984 0 74.842443941246984 -68.896437144962874 0 0 0 0 48.773296326908167 39.161465292924731 0 39.161465292924731 -112.24576152956342 0 0 0 0 -18.402181248151749 55.432420380376541 0 55.432420380376541 -1.1043373016349527 0 0 0 0 -80.958513961373683 28.572576153545469 0 28.572576153545469 16.237045062208381 0 0 0 0 -52.838794184674043 58.824178730786571 0 58.824178730786571 -19.790339763268207 0 0 0 0 -42.059399640836091 61.390714257186005 0 61.390714257186005 -20.810118001122646 0 0 0 0 -21.621227997560254 28.813778618099271 0 28.813778618099271 1.3668553394344869 0 0 0 0 -15.724027910061718 41.428315632585431 0 41.428315632585431 -20.67869090388464 0 0 0 0 -241.39569213228242 23.609640082308943 0 23.609640082308943 -29.659687764677074 0 0 0 0 -322.01013057234377 -50.798144936401513 0 -50.798144936401513 -6.5385631511526299 0 0 0 0 -18.220855629927755 10.946148841796749 0 10.946148841796749 6.3120516877483759 0 0 0 0 -341.7506239762879 3.1178076237629284 0 3.1178076237629284 21.192689065686864 0 0 0 0 -246.47567643223374 -2.4131496984073237 0 -2.4131496984073237 -8.3086217603813566 0 0 0 0 -248.85325211356394 76.263151967485783 0 76.263151967485783 -19.92000605953217 0 0 0 0 -278.15782349555229 46.566927916557688 0 46.566927916557688 24.502714087748245 0 0 0 0 -251.53598528767179 43.485924171516672 0 43.485924171516672 -55.85069823404956 0 0 0 0 -15.03227537097138 61.342675525632146 0 61.342675525632146 1.4607296260637739 0 0 0 0 -292.45843095992677 301.17816209924467 0 301.17816209924467 -91.50818148108192 0 0 0 0 -13.656076395047656 6.9350903321284747 0 6.9350903321284747 -4.3906932020878493 0 0 0 0 -49.719709321976552 71.70426768494417 0 71.70426768494417 22.286436776987102 0 0 0 0 -93.796361632139451 18.806618377038831 0 18.806618377038831 44.111929915828114 0 0 0 0 -89.14465107410615 76.291492408532577 0 76.291492408532577 49.20150657191698 0 0 0 0 -18.338370113569169 54.917192800811421 0 54.917192800811421 15.090285321597698 0 0 0 0 126.45594843892468 51.230240246233734 0 51.230240246233734 -17.281218316551531 0 0 0 0 56.628179390922014 -36.479434842414776 0 -36.479434842414776 32.840380801855645 0 0 0 0 51.396691543885026 45.019989041094959 0 45.019989041094959 -74.002178593944336 0 0 0 0 -49.644301222513604 117.90780735665339 0 117.90780735665339 54.389356488862177 0 0 0 0 -55.437461412206176 148.42462163579876 0 148.42462163579876 -21.114784168535152 0 0 0 0 -73.92616697946869 117.91385231375216 0 117.91385231375216 32.1773412644161 0 0 0 0 -142.50650179711374 -12.134113910990891 0 -12.134113910990891 78.234178360424266 0 0 0 0 -21.243573222726845 58.438259425010699 0 58.438259425010699 -19.248291770983698 0 0 0 0 52.512591541482834 16.09702469064905 0 16.09702469064905 -24.478167254113032 0 0 0 0 -79.851910020784999 123.51280008404501 0 123.51280008404501 68.79114963633765 0 0 0 0 -1.5894804448986264 2.0111380956042524 0 2.0111380956042524 -0.25688871070601138 0 0 0 0 -57.305712098324875 152.96386813901245 0 152.96386813901245 38.143895723265814 0 0 0 0 31.964840593620465 52.760453003691964 0 52.760453003691964 -121.58105319149581 0 0 0 0 95.020424380323675 274.74536589347736 0 274.74536589347736 -167.34170068389358 0 0 0 0 -149.45893178763072 7.9158815055625382 0 7.9158815055625382 60.585922605262567 0 0 0 0 -20.300720331319397 64.644772879385883 0 64.644772879385883 -38.360471203942566 0 0 0 0 68.977843156766539 104.46536831255526 0 104.46536831255526 -55.611942882096628 0 0 0 0 200.28338914181222 124.4983761731055 0 124.4983761731055 5.3111136409279425 0 0 0 0 -220.27733527134114 12.683571023786499 0 12.683571023786499 105.29042450361158 0 0 0 0 -10.949023084836135 12.973023962814722 0 12.973023962814722 8.1691160155879601 0 0 0 0 28.363077273255797 21.780104262769711 0 21.780104262769711 -20.826658550412894 0 0 0 0 160.13988202974724 184.97666344813842 0 184.97666344813842 46.633989480640594 0 0 0 0 -32.022533981568813 125.73765418008838 0 125.73765418008838 130.04113445041003 0 0 0 0 -32.825061267105646 67.341337425903049 0 67.341337425903049 37.53439315115412 0 0 0 0 4.2114970810944214 302.54195672166406 0 302.54195672166406 -217.36666616699222 0 0 0 0 -220.10788981221413 77.202546231621454 0 77.202546231621454 164.09680411038062 0 0 0 0 18.23612748753294 79.777372491535971 0 79.777372491535971 31.541012719243554 0 0 0 0 1.6887994918806157 72.937800297147675 0 72.937800297147675 -54.349056410576196 0 0 0 0 44.051516330375307 130.700602148092 0 130.700602148092 -18.581259936501738 0 0 0 0 110.8726024730604 173.62480368687829 0 173.62480368687829 -1.048131560368347 0 0 0 0 34.584371759341593 202.80473715052722 0 202.80473715052722 28.18022681518778 0 0 0 0 102.80402396498175 231.10956196077314 0 231.10956196077314 22.50301687810861 0 0 0 0 81.933506179928372 210.13901227725728 0 210.13901227725728 29.288773133454015 0 0 0 0 165.17854955072471 136.55581476630323 0 136.55581476630323 25.520907914615236 0 0 0 0 95.394549220143745 169.0443442026517 0 169.0443442026517 10.419729807930707 0 0 0 0 -10.558500333484137 32.358894367619712 0 32.358894367619712 -28.892313248263463 0 0 0 0 62.036200207570801 62.312363511031435 0 62.312363511031435 11.297600653098925 0 0 0 0 -143.86274654808494 74.89318537935651 0 74.89318537935651 43.861026031314395 0 0 0 0 -58.667743936997368 59.775235962062737 0 59.775235962062737 -19.310853921903458 0 0 0 0 102.69680384200183 91.331542185635044 0 91.331542185635044 51.0250079229736 0 0 0 0 -27.055642428837437 60.668245426476439 0 60.668245426476439 24.229964228082139 0 0 0 0 52.571426627275031 60.363822319062734 0 60.363822319062734 -11.906378268537011 0 0 0 0 -25.489134767334843 58.679017756187925 0 58.679017756187925 -4.4688493714012338 0 0 0 0 -35.733838255899173 163.07589790325255 0 163.07589790325255 -1.4853159326958121 0 0 0 0 -26.906784142621092 39.944254523219811 0 39.944254523219811 24.392626387697675 0 0 0 0 -2.403514296067442 93.578617433354339 0 93.578617433354339 58.837000347280991 0 0 0 0 -5.0363500023818233 44.564780854202176 0 44.564780854202176 -23.816263926692471 0 0 0 0 -23.930690018557698 46.656419795309702 0 46.656419795309702 -32.91879508466149 0 0 0 0 16.685635100100626 81.951485962646984 0 81.951485962646984 43.135163939648919 0 0 0 0 -12.799603125022259 135.95904758096731 0 135.95904758096731 40.91886197681356 0 0 0 0 -42.158163041312946 96.168659199858666 0 96.168659199858666 105.55395781217726 0 0 0 0 -45.441403566728695 61.284678543324844 0 61.284678543324844 83.914281349985686 0 0 0 0 -6.5167672669631429 85.992456869184025 0 85.992456869184025 93.771966048923787 0 0 0 0 -2.0358449738378113 84.345451400349702 0 84.345451400349702 84.404574367406894 0 0 0 0 -2.1794585152442778 67.221793705729695 0 67.221793705729695 -55.177700168744437 0 0 0 0 16.729854480985523 126.63651222908447 0 126.63651222908447 106.79504208088065 0 0 0 0 -8.5644120044453302 139.41659879531835 0 139.41659879531835 143.36376338630362 0 0 0 0 -3.8316450374768181 66.985964216920109 0 66.985964216920109 -53.055660737775398 0 0 0 0 -37.092822360687023 194.15724057244643 0 194.15724057244643 119.67342047119746 0 0 0 0 10.786042687064764 171.38824715916053 0 171.38824715916053 98.537386890646303 0 0 0 0 47.94332953540561 160.13139226777139 0 160.13139226777139 63.646950480120722 0 0 0 0 25.348751703693779 123.18964595552461 0 123.18964595552461 101.8035182252097 0 0 0 0 -3.1012930023025547 141.27407272339042 0 141.27407272339042 91.629850218516367 0 0 0 0 10.702110757880291 187.99552359231893 0 187.99552359231893 59.293841390598573 0 0 0 0 -33.245495555143862 200.82560429857404 0 200.82560429857404 62.056084159052261 0 0 0 0 3.620483307449831 253.27569292429871 0 253.27569292429871 47.870417040059692 0 0 0 0 -23.517311575820713 209.62806863607329 0 209.62806863607329 66.76059608135256 0 0 0 0 -57.51949457655337 143.40103621819435 0 143.40103621819435 89.360993083668291 0 0 0 0 -133.9806959237867 57.473730773330317 0 57.473730773330317 80.606843783869408 0 0 0 0 -148.57142144643876 152.79693286179099 0 152.79693286179099 92.920513051180023 0 0 0 0 -62.784523855892303 74.930345986039811 0 74.930345986039811 81.953232136729639 0 0 0 0 -70.588121088658227 139.97605189292881 0 139.97605189292881 91.744081271186587 0 0 0 0 -27.870724814907589 91.854123850993346 0 91.854123850993346 89.731245994036726 0 0 0 0 -71.769662602933295 27.765952073893914 0 27.765952073893914 56.058676163571363 0 0 0 0 -79.838727685659251 78.112302589492174 0 78.112302589492174 85.661281112646975 0 0 0 0 -27.53933822788531 25.874444557819515 0 25.874444557819515 42.924339910001436 0 0 0 0 -19.236661216360517 29.75547220610315 0 29.75547220610315 34.155138935733703 0 0 0 0 -25.724750259576467 23.521717050086409 0 23.521717050086409 28.304430397816759 0 0 0 0 -10.127949827328848 24.633301837879117 0 24.633301837879117 23.145978001120966 0 0 0 0 -2.9617023046957911 36.792716592717625 0 36.792716592717625 31.136510946955241 0 0 0 0 -27.363381705190477 46.731843743888021 0 46.731843743888021 60.127036519450485 0 0 0 0 -23.514063105478272 54.684466714006703 0 54.684466714006703 69.97275902911133 0 0 0 0 0.6811984829546418 71.350144701216777 0 71.350144701216777 76.319170423412288 0 0 0 0 -25.287718251551269 65.095936889039876 0 65.095936889039876 85.768422115055728 0 0 0 0 10.369391452244599 51.651042752710055 0 51.651042752710055 36.312611601199023 0 0 0 0 -11.525515410256048 45.569059280651345 0 45.569059280651345 62.580598422136973 0 0 0 0 0.56832775880320696 -7.7236517821656889 0 -7.7236517821656889 142.85825223391203 0 0 0 0 77.807758763970924 68.872197412412788 0 68.872197412412788 67.985473597240343 0 0 0 0 -22.075193569879048 45.431000143973506 0 45.431000143973506 88.94311097067839 0 0 0 0 -11.945912166796916 85.011656580798444 0 85.011656580798444 106.60774477251107 0 0 0 0 -35.971826191795117 115.26874498406687 0 115.26874498406687 152.35052084791823 0 0 0 0 15.300014029962767 71.365981511866266 0 71.365981511866266 -15.419461073004641 0 0 0 0 110.8911265338229 21.034944459635881 0 21.034944459635881 -95.91858483471151 0 0 0 0 6.2994720095747851 3.8256749009124178 0 3.8256749009124178 -10.85371591766247 0 0 0 0 16.238201793723704 34.952624287383614 0 34.952624287383614 31.442814187320323 0 0 0 0 -30.721585098857759 14.252811325364746 0 14.252811325364746 9.0610126075771404 0 0 0 0 14.032599212936475 82.529832913343853 0 82.529832913343853 -93.551209344950621 0 0 0 0 -23.222705097203288 64.395659717487433 0 64.395659717487433 71.389764102597837 0 0 0 0 22.655009845329914 124.67254197881266 0 124.67254197881266 55.770208385032674 0 0 0 0 -22.908122084234492 57.026192292367341 0 57.026192292367341 63.545331327569329 0 0 0 0 -19.488196256979791 59.662436183612954 0 59.662436183612954 75.399164934220607 0 0 0 0 -22.542983512292267 62.744388955514296 0 62.744388955514296 73.654717725599767 0 0 0 0 -26.463209917896165 34.429339799338777 0 34.429339799338777 27.93103647276439 0 0 0 0 2.437100417676195 26.082259387666141 0 26.082259387666141 16.628632341870713 0 0 0 0 -9.8626608408231107 31.924851478047728 0 31.924851478047728 1.1254570825695112 0 0 0 0 -16.377137593499995 11.732256492571935 0 11.732256492571935 13.944636222728334 0 0 0 0 8.9121760116951094 40.32272012958714 0 40.32272012958714 21.170534555728786 0 0 0 0 12.869672568427632 59.496545606438303 0 59.496545606438303 -35.619682947759429 0 0 0 0 -11.170596836669574 117.30233202413365 0 117.30233202413365 13.944976250553736 0 0 0 0 -14.339708235327834 28.296159098799183 0 28.296159098799183 37.014434879815809 0 0 0 0 -23.630640484450851 31.163063502717705 0 31.163063502717705 72.614469563151943 0 0 0 0 -44.658194317676134 29.800599501459146 0 29.800599501459146 72.327869905915577 0 0 0 0 -9.5192997003468918 28.576375610900868 0 28.576375610900868 62.432581913624745 0 0 0 0 -13.096782938355318 -8.5388394129477092 0 -8.5388394129477092 62.161640960082877 0 0 0 0 -35.284601182451297 27.469855612380343 0 27.469855612380343 4.3227067605766933 0 0 0 0 -84.318558293238311 57.580785385376657 0 57.580785385376657 53.308799467657082 0 0 0 0 -96.520923145980305 11.515957693444761 0 11.515957693444761 157.56084946751071 0 0 0 0 106.8735197345668 30.106684886726725 0 30.106684886726725 -52.305341454728477 0 0 0 0 -15.816587637357539 23.905913664855873 0 23.905913664855873 31.43399001268287 0 0 0 0 21.477270245344698 58.902750707555242 0 58.902750707555242 1.896885938498599 0 0 0 0 -24.018970150744281 21.952149179662229 0 21.952149179662229 33.006946818495635 0 0 0 0 2.0013784458273491 5.8277097447621742 0 5.8277097447621742 7.7916365769796982 0 0 0 0 -62.99163618886314 15.440978571247797 0 15.440978571247797 34.336580149727524 0 0 0 0 15.698965229636883 23.795733410153389 0 23.795733410153389 23.379553745107842 0 0 0 0 -86.427472407940513 83.81549178145724 0 83.81549178145724 -3.1423039269393485 0 0 0 0 -4.9814695720043076 1.9361966625739129 0 1.9361966625739129 1.2736908433073779 0 0 0 0 15.969674356958421 29.194552508568449 0 29.194552508568449 -14.324478536565948 0 0 0 0 66.527640468375466 -8.5498098097305046 0 -8.5498098097305046 -2.0304368054894439 0 0 0 0 83.337692409175361 89.001061235376255 0 89.001061235376255 50.096638263625209 0 0 0 0 52.264104935929936 51.399845275744156 0 51.399845275744156 43.873188249748637 0 0 0 0 2.391490425347051 10.612448558202757 0 10.612448558202757 7.3548526029632058 0 0 0 0 -0.02627426576873404 28.759084683071706 0 28.759084683071706 74.596341708936961 0 0 0 0 0.32778492551005911 31.203708333618124 0 31.203708333618124 50.892483304894995 0 0 0 0 21.040714766168094 73.86811018215667 0 73.86811018215667 57.548870587243073 0 0 0 0 2.4494253011071123 60.190398636870668 0 60.190398636870668 63.539522748709715 0 0 0 0 17.194710533796751 74.510593142578728 0 74.510593142578728 106.54302265244769 0 0 0 0 79.263863176416635 -41.833582220800963 0 -41.833582220800963 68.988087954785442 0 0 0 0 0.16585561700412654 30.012318866705755 0 30.012318866705755 81.913454111898318 0 0 0 0 10.167982019454939 1.270489143935265 0 1.270489143935265 152.95009607617249 0 0 0 0 -42.806929223617772 3.0060781985594076 0 3.0060781985594076 94.939222185610561 0 0 0 0 -43.186559830531223 42.486845688279573 0 42.486845688279573 67.827207394700963 0 0 0 0 -25.416919361909095 22.625471965693578 0 22.625471965693578 135.13765758533555 0 0 0 0 -30.343714888003888 14.077204391591295 0 14.077204391591295 128.49654943733185 0 0 0 0 -16.111007193903788 17.557859359680151 0 17.557859359680151 115.77684548762772 0 0 0 0 -22.462521626966918 -2.6034707148028247 0 -2.6034707148028247 65.179864748528416 0 0 0 0 11.393141198835119 31.16881084342242 0 31.16881084342242 57.837436802688956 0 0 0 0 -57.645701708780507 31.913029625140553 0 31.913029625140553 65.876669227553066 0 0 0 0 -48.918729889359383 10.33783863816825 0 10.33783863816825 86.188346455674036 0 0 0 0 2.474134794640122 11.22161807835073 0 11.22161807835073 39.23077086237754 0 0 0 0 -23.170963050339196 5.6444487290427787 0 5.6444487290427787 62.901205868372926 0 0 0 0 -12.200309213163564 -3.6540153865280445 0 -3.6540153865280445 69.972117150937265 0 0 0 0 -4.2916255925488684 3.6487116111370739 0 3.6487116111370739 1.3569477489458492 0 0 0 0 76.00083087515668 -55.535174677806936 0 -55.535174677806936 20.062766584400379 0 0 0 0 45.128849724787869 65.781817745133594 0 65.781817745133594 -70.886502128199936 0 0 0 0 7.6566687343038211 48.27969840971673 0 48.27969840971673 23.024615461996291 0 0 0 0 212.51563598722623 -75.641992686909362 0 -75.641992686909362 -145.88420502787631 0 0 0 0 89.089688976102821 171.2333395974847 0 171.2333395974847 -247.84268458152656 0 0 0 0 95.414802506608453 36.501149971384166 0 36.501149971384166 -56.595133380789775 0 0 0 0 275.7387712696418 41.891780365365776 0 41.891780365365776 -336.51471424974443 0 0 0 0 65.990111786912166 19.332051461165975 0 19.332051461165975 -9.0308976782835089 0 0 0 0 8.6391592969080762 17.95330546753555 0 17.95330546753555 -21.084220024700315 0 0 0 0 -8.7831036840507295 28.658848197010229 0 28.658848197010229 7.7080339317326434 0 0 0 0 10.242225513255107 25.391817764088046 0 25.391817764088046 26.551246813338366 0 0 0 0 18.716990451073798 27.715392481404706 0 27.715392481404706 6.7317520940268878 0 0 0 0 11.730162215817437 26.041534824443389 0 26.041534824443389 22.370648075518346 0 0 0 0 9.7131680730490189 19.543571847104012 0 19.543571847104012 -5.1976396121854478 0 0 0 0 39.000353613449988 40.024431207621092 0 40.024431207621092 61.431470159761375 0 0 0 0 41.711929009634332 38.997102683850244 0 38.997102683850244 33.450643149000825 0 0 0 0 18.761919373932464 22.652143310951082 0 22.652143310951082 0.43471552937050717 0 0 0 0 7.2253843976596315 20.586387562524386 0 20.586387562524386 7.9257786065710576 0 0 0 0 45.517411751392501 45.7461027368754 0 45.7461027368754 8.075992741913069 0 0 0 0 24.601766098930966 71.313613988557336 0 71.313613988557336 34.441736587668856 0 0 0 0 41.524740311931055 78.601374103822309 0 78.601374103822309 25.176780786408926 0 0 0 0 94.954665014476632 61.555356580183798 0 61.555356580183798 23.593623522290727 0 0 0 0 55.353069676515588 106.60637687793314 0 106.60637687793314 41.6986681814451 0 0 0 0 1.1413712812940986 6.6921469739673398 0 6.6921469739673398 3.871120256469041 0 0 0 0 14.537969447326759 40.569203584302159 0 40.569203584302159 3.7291662543648272 0 0 0 0 -73.855415705344058 -24.391542868834222 0 -24.391542868834222 259.94706931110704 0 0 0 0 14.237098374527704 103.26642562605412 0 103.26642562605412 71.722264161653584 0 0 0 0 29.406839035982557 98.377771012761514 0 98.377771012761514 55.742581498750951 0 0 0 0 17.952220212518341 24.982719010508845 0 24.982719010508845 -46.603984200606646 0 0 0 0 77.429018953051127 59.164971728843739 0 59.164971728843739 10.256068040733226 0 0 0 0 1.3095091549809652 8.6378489998049659 0 8.6378489998049659 -0.53600043664678765 0 0 0 0 49.851799596661294 21.714543100708397 0 21.714543100708397 -39.280916553132556 0 0 0 0 10.781303070202142 19.677195974086658 0 19.677195974086658 13.806928059466614 0 0 0 0 -13.439745740990475 59.248775185609702 0 59.248775185609702 47.136352015397279 0 0 0 0 15.640409852960147 54.698882606018742 0 54.698882606018742 46.603599037975073 0 0 0 0 9.3438302083704912 69.576257717653789 0 69.576257717653789 23.882387058678432 0 0 0 0 -20.283429559771321 39.884539494869387 0 39.884539494869387 20.143000944779487 0 0 0 0 21.525205073412508 41.768244369246531 0 41.768244369246531 44.16542533255415 0 0 0 0 7.286397111696715 59.530303542644106 0 59.530303542644106 38.015317808400141 0 0 0 0 21.546479434240609 49.558212938631186 0 49.558212938631186 42.771316685877537 0 0 0 0 19.408710497797074 21.275772395076274 0 21.275772395076274 -2.0025178084033541 0 0 0 0 17.314200301165474 34.17896444661578 0 34.17896444661578 23.03555321487687 0 0 0 0 2.2419406184149615 35.276261270191561 0 35.276261270191561 31.088326636474562 0 0 0 0 0.58224127025459893 19.74863067138358 0 19.74863067138358 -2.2991536710323999 0 0 0 0 20.254731380793601 38.230522887871317 0 38.230522887871317 6.5469361687882568 0 0 0 0 11.592204258166504 26.287410719179803 0 26.287410719179803 16.588037297409826 0 0 0 0 6.8482981260143845 25.256850023613509 0 25.256850023613509 23.071391133318073 0 0 0 0 0.83685723422240699 25.634110212340602 0 25.634110212340602 8.522388301040337 0 0 0 0 17.128970130706552 31.347653508940155 0 31.347653508940155 20.628072885569622 0 0 0 0 19.517461201950027 56.345714924220374 0 56.345714924220374 42.516687091203494 0 0 0 0 -1.4919433877330448 24.905458994981018 0 24.905458994981018 40.993670698502683 0 0 0 0 11.787592608334307 32.87383374516503 0 32.87383374516503 8.2452386481818394 0 0 0 0 -1.6617052792980758 24.995018966223142 0 24.995018966223142 3.8623460301023442 0 0 0 0 -11.202595990394911 34.966377792899948 0 34.966377792899948 16.857292499902542 0 0 0 0 -14.405450683654635 39.944130150119236 0 39.944130150119236 10.431254573276647 0 0 0 0 11.091521394949917 20.442344011938459 0 20.442344011938459 9.7091506308217532 0 0 0 0 -7.9485086858085197 33.950702419846493 0 33.950702419846493 8.9442293608153705 0 0 0 0 -19.376772367915692 25.611042683372943 0 25.611042683372943 3.0686102967592888 0 0 0 0 -29.655855285105645 38.714659447479789 0 38.714659447479789 -2.187601077985164 0 0 0 0 -12.101578952676391 18.067891946525378 0 18.067891946525378 -30.229835444653872 0 0 0 0 -25.899824466921928 37.236456873784846 0 37.236456873784846 -25.457453338574851 0 0 0 0 4.727764897617817 27.34744351416839 0 27.34744351416839 -14.207994142238022 0 0 0 0 -4.4573244123930635 34.756635515597736 0 34.756635515597736 -4.0425658554613619 0 0 0 0 8.8319792027476076 21.483895119543611 0 21.483895119543611 -8.6001599548958438 0 0 0 0 29.13423751110895 50.141831242875924 0 50.141831242875924 -7.6505975139443763 0 0 0 0 21.16996662379097 60.107454773456993 0 60.107454773456993 -20.06775844450749 0 0 0 0 13.02972305162416 55.596840016989063 0 55.596840016989063 4.6743701895757113 0 0 0 0 12.612519412730762 63.812967917314381 0 63.812967917314381 -4.3769594188415795 0 0 0 0 12.861566189076711 52.642092053173883 0 52.642092053173883 -5.689220826010569 0 0 0 0 61.088445124809368 47.526813846434379 0 47.526813846434379 -22.933229757036315 0 0 0 0 90.376703571955659 583.50662138766074 0 583.50662138766074 -173.92827964929165 0 0 0 0 17.451542330421944 11.3338104218019 0 11.3338104218019 -52.910700102060218 0 0 0 0 -22.759833886855631 29.993525301062618 0 29.993525301062618 24.837390144413803 0 0 0 0 1.0033843167620944 54.014625611263909 0 54.014625611263909 5.6539420193730621 0 0 0 0 7.5139966718415963 66.748299222927017 0 66.748299222927017 29.827507922404038 0 0 0 0 -17.314743729955808 42.780459564073681 0 42.780459564073681 52.338457593985368 0 0 0 0 -4.5392245251496206 79.620168984722113 0 79.620168984722113 86.703540171110944 0 0 0 0 14.537672420854506 73.899003446567804 0 73.899003446567804 34.640027965011541 0 0 0 0 8.7556339528637182 71.996518572588684 0 71.996518572588684 39.97501859877957 0 0 0 0 14.968954293719435 58.27969867966749 0 58.27969867966749 17.74498770347418 0 0 0 0 10.370309824873402 68.570267905348373 0 68.570267905348373 10.066851688214228 0 0 0 0 13.484692931931932 59.882731673656963 0 59.882731673656963 -3.7094063196273055 0 0 0 0 11.281119401217438 68.744882641149161 0 68.744882641149161 -15.048467506021552 0 0 0 0 6.2251501046921476 54.284129646563088 0 54.284129646563088 -4.6821041648927348 0 0 0 0 16.802940449214475 57.665716177915783 0 57.665716177915783 -3.9224494064983446 0 0 0 0 14.5780723614956 56.014244016852857 0 56.014244016852857 26.002557962288847 0 0 0 0 8.5995478938239103 64.100691014064068 0 64.100691014064068 17.559744837308244 0 0 0 0 12.393497899171052 38.671159734149114 0 38.671159734149114 4.8031740996029839 0 0 0 0 -13.782451963053063 47.517119570661634 0 47.517119570661634 1.8657477713641129 0 0 0 0 -40.829417809203733 55.083433312345733 0 55.083433312345733 -10.542202155891573 0 0 0 0 -16.673356779207097 41.170583075429022 0 41.170583075429022 -3.6148463878853363 0 0 0 0 -16.770869429376035 63.175988690452868 0 63.175988690452868 -41.888150661492546 0 0 0 0 0.42010964903056447 80.383573794930271 0 80.383573794930271 -60.188494550318865 0 0 0 0 -18.195418524273919 60.655478636626867 0 60.655478636626867 -24.157101203585626 0 0 0 0 -0.61394163834847859 61.377503384495867 0 61.377503384495867 -24.334420359853539 0 0 0 0 -4.6468828760444012 62.045924228852527 0 62.045924228852527 -9.8697077007091139 0 0 0 0 15.057560575769458 60.281271054067474 0 60.281271054067474 -19.025736262661667 0 0 0 0 11.728660254870192 69.548208443506155 0 69.548208443506155 -36.291636619789642 0 0 0 0 14.81396275435327 61.315404419896367 0 61.315404419896367 -35.753200511955129 0 0 0 0 27.963006690006296 58.032650705390552 0 58.032650705390552 -36.034532338817371 0 0 0 0 17.694550747989979 73.490665682669714 0 73.490665682669714 -56.305109936627559 0 0 0 0 19.513715520446567 68.617994539443316 0 68.617994539443316 -35.481867577727826 0 0 0 0 25.885298168650479 57.774797061021673 0 57.774797061021673 -20.028865794495346 0 0 0 0 36.950915443687336 56.179837719098941 0 56.179837719098941 -87.588678454252658 0 0 0 0 26.531363567053631 61.111731185774261 0 61.111731185774261 -57.261724140555089 0 0 0 0 37.682432771009189 52.421275768683699 0 52.421275768683699 -68.461776104522869 0 0 0 0 30.556304870993699 67.40231669334753 0 67.40231669334753 -58.394791738654021 0 0 0 0 14.583643978487089 62.510038584961876 0 62.510038584961876 -65.526308305701605 0 0 0 0 16.947170803552581 71.414937759582244 0 71.414937759582244 -68.119750076504715 0 0 0 0 27.915821648057317 48.012709153808828 0 48.012709153808828 -115.82946675217318 0 0 0 0 28.17182762995435 51.746370593678876 0 51.746370593678876 -75.671223354256654 0 0 0 0 1.8684574039016297 54.025296259296738 0 54.025296259296738 -110.03676704301324 0 0 0 0 4.7729789459699532 61.155022169954464 0 61.155022169954464 -207.18983302287234 0 0 0 0 -12.040131322370826 65.424345079387876 0 65.424345079387876 -87.858795483305585 0 0 0 0 -9.8562022772784985 86.721902161625621 0 86.721902161625621 -89.188801573618548 0 0 0 0 -50.526812892901944 78.497872545667633 0 78.497872545667633 -47.00620694025929 0 0 0 0 -42.8411580851498 73.791454972360953 0 73.791454972360953 -70.379591191725922 0 0 0 0 -65.1703434639021 75.557593612218625 0 75.557593612218625 -70.247329939025803 0 0 0 0 -23.272060769668315 69.921937207036535 0 69.921937207036535 -137.31693808702948 0 0 0 0 -34.756372751517119 131.01507559747915 0 131.01507559747915 -277.73918238745682 0 0 0 0 -37.337681110911944 100.46048073081693 0 100.46048073081693 -132.4950619828669 0 0 0 0 -1.7250301953401674 -0.082628731738928707 0 -0.082628731738928707 -0.17327356062860844 0 0 0 0 18.261709192076523 12.87029052867365 0 12.87029052867365 -298.6651922286037 0 0 0 0 11.938807694969 57.812009374552872 0 57.812009374552872 120.3919067516108 0 0 0 0 34.35694057037108 48.980079283992382 0 48.980079283992382 119.16149274020154 0 0 0 0 1.9475089970801491 -28.85177421433491 0 -28.85177421433491 -123.24058230299852 0 0 0 0 3.9889739973878022 -29.098740792302124 0 -29.098740792302124 -179.92355469286849 0 0 0 0 35.93190681887063 32.235404099677908 0 32.235404099677908 -44.958322033595323 0 0 0 0 13.48248527560645 32.907470803264005 0 32.907470803264005 -13.023522086521552 0 0 0 0 2.7797003388819519 9.1237710105852869 0 9.1237710105852869 1.006693666513705 0 0 0 0 8.8646358229889302 4.3970930924551794 0 4.3970930924551794 -27.682884469380951 0 0 0 0 33.614621056593023 14.688974192562455 0 14.688974192562455 -86.570858630097064 0 0 0 0 -6.9908460619728459 28.172787868414797 0 28.172787868414797 -20.960186931147206 0 0 0 0 -3.3015055712021422 64.634533497994198 0 64.634533497994198 -40.38839860023154 0 0 0 0 -99.071858975414216 112.08275922522216 0 112.08275922522216 121.64661394535869 0 0 0 0 13.884365272031573 33.300023675195916 0 33.300023675195916 -70.534464074577045 0 0 0 0 14.000543992361617 22.562589873527251 0 22.562589873527251 -66.543038852127594 0 0 0 0 95.681165329222495 -54.260594828267131 0 -54.260594828267131 -53.969102161747287 0 0 0 0 5.8595460869707381 5.1285483913882661 0 5.1285483913882661 -7.0250594837098284 0 0 0 0 34.095929322509619 61.902383366001231 0 61.902383366001231 -41.842915312521654 0 0 0 0 -22.848674095894239 -9.0295783493929775 0 -9.0295783493929775 -9.7776747574316687 0 0 0 0 6.7611140610394784 5.829725014892162 0 5.829725014892162 -12.727558639846301 0 0 0 0 -52.4882519349012 24.327585810671735 0 24.327585810671735 -16.543913795187109 0 0 0 0 -85.088453682405088 71.117631215776782 0 71.117631215776782 -49.09259368419589 0 0 0 0 -68.281427161375177 44.90984680847032 0 44.90984680847032 -20.843809168845837 0 0 0 0 -199.5265977130839 75.840896726294886 0 75.840896726294886 -42.10462694729722 0 0 0 0 -60.265626453347068 79.804815867199068 0 79.804815867199068 -117.37571953865699 0 0 0 0 -146.57652098117251 170.75095151397545 0 170.75095151397545 -130.95611347473641 0 0 0 0 7.0394689768290846 3.4920817931051715 0 3.4920817931051715 -62.661802844108024 0 0 0 0 -23.187920977593478 41.610507338107865 0 41.610507338107865 -33.808739304497792 0 0 0 0 -72.914769324102963 196.18496152190346 0 196.18496152190346 -67.252143765443179 0 0 0 0 -42.697998571704375 93.831298123379383 0 93.831298123379383 -120.45259372670807 0 0 0 0 -79.732815693379962 123.03819955594781 0 123.03819955594781 -100.25111255039178 0 0 0 0 -4.3184262541585987 13.405668410253995 0 13.405668410253995 6.3919880826258222 0 0 0 0 181.82922629670429 -29.311911446467093 0 -29.311911446467093 -314.05274225722678 0 0 0 0 -18.933406505722814 192.99623970350422 0 192.99623970350422 203.22407986347389 0 0 0 0 13.040346511104872 66.812636486773044 0 66.812636486773044 -201.24150950033186 0 0 0 0 -61.318995926667412 47.056488544621971 0 47.056488544621971 -205.63126773484328 0 0 0 0 4.639203040227585 205.65749248400061 0 205.65749248400061 56.678005390831458 0 0 0 0 104.56415534694679 70.236472356454669 0 70.236472356454669 49.843966480180825 0 0 0 0 -132.40214264176575 23.790981230961734 0 23.790981230961734 34.040928065111075 0 0 0 0 2.3628824933019708 5.2515037938620353 0 5.2515037938620353 -5.5838069981881944 0 0 0 0 115.7847085049325 58.106417562060869 0 58.106417562060869 10.339039021640929 0 0 0 0 2.1674022965588051 3.4491669123980131 0 3.4491669123980131 -0.2816067976767016 0 0 0 0 99.477735608205876 35.188035649331823 0 35.188035649331823 -21.041275957504695 0 0 0 0 66.549477771390229 63.6201413785775 0 63.6201413785775 -27.147015743048541 0 0 0 0 -34.67320572292374 -6.8269708521384018 0 -6.8269708521384018 -33.367807977920165 0 0 0 0 2.4547109621344134 48.552675145288958 0 48.552675145288958 -13.398200700667076 0 0 0 0 82.257184860154666 99.49485048979659 0 99.49485048979659 22.37435874349103 0 0 0 0 57.87208773013117 55.022249894152992 0 55.022249894152992 -11.993800378097148 0 0 0 0 87.945022090959355 86.878053500120132 0 86.878053500120132 15.230133260045477 0 0 0 0 69.861553932676543 152.04269532377339 0 152.04269532377339 74.195908968558797 0 0 0 0 131.77716755282745 77.747949801639152 0 77.747949801639152 16.889116643647412 0 0 0 0 222.74061664826149 224.74188881487862 0 224.74188881487862 42.794116555513028 0 0 0 0 268.30540091363218 21.262476737771067 0 21.262476737771067 60.841288793482818 0 0 0 0 107.3935920744334 148.24511529843585 0 148.24511529843585 74.436596136963999 0 0 0 0 57.080925198839395 149.92942531410881 0 149.92942531410881 100.83048840252559 0 0 0 0 10.273307562332775 162.31278467833818 0 162.31278467833818 97.59621731723928 0 0 0 0 61.924517966501298 205.69381309779783 0 205.69381309779783 49.544013493551574 0 0 0 0 -18.146726224407757 203.03223807748213 0 203.03223807748213 148.38667308457843 0 0 0 0 -16.874813982467458 90.413503047221639 0 90.413503047221639 190.44791190958199 0 0 0 0 -11.184952852649985 33.531924375843118 0 33.531924375843118 51.329058308485401 0 0 0 0 -4.9834405791734753 85.225431747147013 0 85.225431747147013 50.372895274445909 0 0 0 0 9.8575087805947987 103.38419321465881 0 103.38419321465881 70.146406262708297 0 0 0 0 16.259280519326239 82.29447594300666 0 82.29447594300666 50.268446645779477 0 0 0 0 16.927615532898926 52.659335175540491 0 52.659335175540491 10.516622186099085 0 0 0 0 2.3121015895994788 77.750683276901327 0 77.750683276901327 32.15177061249824 0 0 0 0 14.913590385753196 61.621792917361745 0 61.621792917361745 -3.877718394396652 0 0 0 0 19.388272507363581 117.02439722156851 0 117.02439722156851 127.75219726751675 0 0 0 0 -1.2655148799415485 0.59481757679256475 0 0.59481757679256475 11.180302071049724 0 0 0 0 20.406674165738771 56.826399916017678 0 56.826399916017678 9.066304441364224 0 0 0 0 19.546938140527345 108.54384843564185 0 108.54384843564185 78.726530351967085 0 0 0 0 4.178556193398947 37.387653094297256 0 37.387653094297256 -20.692186994515922 0 0 0 0 15.95068566082773 69.527942175940552 0 69.527942175940552 -0.237538107259752 0 0 0 0 28.648992730653845 55.424729707374354 0 55.424729707374354 -6.3404187024425482 0 0 0 0 -5.0611108196535497 56.998225605571861 0 56.998225605571861 -5.3597436858908623 0 0 0 0 -0.31835737508663442 59.655162352590196 0 59.655162352590196 -1.5592582881508861 0 0 0 0 6.414388720291754 36.475509368317944 0 36.475509368317944 20.227986732956197 0 0 0 0 21.60890696635397 20.048369300731792 0 20.048369300731792 -6.4554850005515618 0 0 0 0 -4.6180221080176125 53.15008104818844 0 53.15008104818844 9.8551477121554854 0 0 0 0 2.2780665627627474 22.985673229563169 0 22.985673229563169 -4.2944445516550047 0 0 0 0 -17.442680992360692 25.138450297281452 0 25.138450297281452 7.6321111611905508 0 0 0 0 -6.3625564198329556 24.760330266200281 0 24.760330266200281 14.684108289170084 0 0 0 0 35.530369433701708 38.148170457985543 0 38.148170457985543 -0.92667355001321994 0 0 0 0 -0.24378995008110849 38.252623596936537 0 38.252623596936537 12.032309658556457 0 0 0 0 18.188190228519833 28.921657255378001 0 28.921657255378001 -19.934032954207794 0 0 0 0 21.204607425995192 26.136856950286134 0 26.136856950286134 -8.5910205065260428 0 0 0 0 30.651698940269853 55.810409474568587 0 55.810409474568587 33.147081412014813 0 0 0 0 7.1955381750276501 52.315572657946404 0 52.315572657946404 3.1049026708260499 0 0 0 0 22.042907998396544 27.321546434154968 0 27.321546434154968 -28.784897744608749 0 0 0 0 57.963877451009466 35.668942094815066 0 35.668942094815066 -41.335958023825697 0 0 0 0 12.930319978288026 55.800270632957108 0 55.800270632957108 33.335870253469693 0 0 0 0 -6.2150468343688772 5.8850134474313194 0 5.8850134474313194 -7.4110340785776643 0 0 0 0 35.363162648194702 60.430713940824717 0 60.430713940824717 28.704583949950575 0 0 0 0 7.2801750441576587 29.23828704067455 0 29.23828704067455 26.96280989751267 0 0 0 0 29.12795789190568 35.891666914440066 0 35.891666914440066 24.962739446090836 0 0 0 0 -2.9319122950909957 2.2304720672494085 0 2.2304720672494085 -1.5119657087068532 0 0 0 0 0.053353135408542585 30.361266317428999 0 30.361266317428999 33.86609128737291 0 0 0 0 14.247407935930823 -21.16045425199809 0 -21.16045425199809 -200.67135702333508 0 0 0 0 209.74117927612679 246.9110849308845 0 246.9110849308845 -165.85774938510258 0 0 0 0 103.23643754250224 191.50076862272726 0 191.50076862272726 -14.348339642948304 0 0 0 0 138.70681007439271 295.45150474994989 0 295.45150474994989 248.1701697125136 0 0 0 0 77.459114564167976 18.402346253310498 0 18.402346253310498 87.215805243163231 0 0 0 0 115.36589894241115 150.91663157077983 0 150.91663157077983 54.310564590108697 0 0 0 0 30.444135688708769 19.064190405856074 0 19.064190405856074 1.9050636479822138 0 0 0 0 -1.2079525845543344 16.549675917935886 0 16.549675917935886 -7.165518546018447 0 0 0 0 22.018430624069879 -0.57010780036762299 0 -0.57010780036762299 -1.0051100692126056 0 0 0 0 39.068531018514477 58.783034223176401 0 58.783034223176401 -0.82710112068525632 0 0 0 0 32.923702524012896 24.000460194023255 0 24.000460194023255 6.15574851359756 0 0 0 0 80.475056272654911 75.021103273350491 0 75.021103273350491 -3.1831852003306267 0 0 0 0 -160.00489525804005 156.96390372791166 0 156.96390372791166 -54.923794060171531 0 0 0 0 -179.82808763008507 96.681223062991648 0 96.681223062991648 -16.399658788014221 0 0 0 0 4.5899944287135384 8.7312498947038648 0 8.7312498947038648 0.59364704432038629 0 0 0 0 46.28387008846039 -55.628635568018808 0 -55.628635568018808 -2.5762583968426043 0 0 0 0 51.10630302442587 44.31637811408109 0 44.31637811408109 -31.42107050991126 0 0 0 0 58.095081352483248 235.00522036857956 0 235.00522036857956 227.47042374406692 0 0 0 0 -15.022013591333234 27.514133787586161 0 27.514133787586161 121.43107053738095 0 0 0 0 16.662593396551216 12.821192997831098 0 12.821192997831098 7.2295267537775922 0 0 0 0 -22.694794500057469 127.54065161172912 0 127.54065161172912 275.78989699706199 0 0 0 0 -18.127560433575042 -2.3370103041368075 0 -2.3370103041368075 6.7965649652919611 0 0 0 0 5.8292999433615478 57.012790128821507 0 57.012790128821507 69.936524541221843 0 0 0 0 32.937265271291835 38.726406548138584 0 38.726406548138584 -44.038530857614205 0 0 0 0 32.696798478978963 25.660821341160954 0 25.660821341160954 -30.36337694332542 0 0 0 0 14.729363230406307 33.498947089139619 0 33.498947089139619 18.259920891963702 0 0 0 0 -0.022464343870524317 46.619501782188763 0 46.619501782188763 -1.1257959023514559 0 0 0 0 21.138072851885227 41.791448834886069 0 41.791448834886069 -57.972063116532809 0 0 0 0 0.56161200251889909 -0.98908901622344558 0 -0.98908901622344558 4.7515276090444161 0 0 0 0 0.010234217857941985 15.509101589952479 0 15.509101589952479 17.472634423644195 0 0 0 0 -0.51911621394125973 0.75372446415296679 0 0.75372446415296679 7.0557066840042566 0 0 0 0 6.1657989101659041 4.5202094067826692 0 4.5202094067826692 -84.391214772840613 0 0 0 0 -25.688357613093103 30.05506827238878 0 30.05506827238878 422.05074757983948 0 0 0 0 67.961410611052997 87.398218258076213 0 87.398218258076213 -63.825403706428915 0 0 0 0 -0.035583412027335726 118.74778010346563 0 118.74778010346563 154.81661895525394 0 0 0 0 -50.649473345038132 19.75836559751815 0 19.75836559751815 219.26468562409764 0 0 0 0 -0.23142159720634936 -1.188426711506974 0 -1.188426711506974 0.17830123822714894 0 0 0 0 35.189005389729573 64.733799089442527 0 64.733799089442527 20.986680197303031 0 0 0 0 0.093794563557326821 90.053700615397048 0 90.053700615397048 40.673207082170848 0 0 0 0 0.059168887178685736 -1.8405096747720577 0 -1.8405096747720577 -0.037186664004983161 0 0 0 0 -27.933706622177851 -19.346054404221832 0 -19.346054404221832 269.41904064239043 0 0 0 0 5.9281275505636586 28.692390775611784 0 28.692390775611784 -44.82764011225845 0 0 0 0 6.132557834716863 117.84260192844101 0 117.84260192844101 -91.920426216936335 0 0 0 0 -72.786552606761688 42.167207694694298 0 42.167207694694298 17.609260014702159 0 0 0 0 -74.057807211691397 75.829196364418976 0 75.829196364418976 -102.54165744633565 0 0 0 0 -18.208509148459598 107.88104214837404 0 107.88104214837404 -135.46482359818037 0 0 0 0 -87.636451853410108 123.97877938059503 0 123.97877938059503 -95.701825318390149 0 0 0 0 -142.71428309190378 78.742016078893144 0 78.742016078893144 -125.19750679596473 0 0 0 0 -99.788747651531594 132.03138673673175 0 132.03138673673175 -122.00190083790812 0 0 0 0 -71.475113157794112 86.447563221289784 0 86.447563221289784 -92.059571402260417 0 0 0 0 0.015317076475184876 93.590381739585837 0 93.590381739585837 -99.29651002894434 0 0 0 0 -16.51860300845874 81.792675840198171 0 81.792675840198171 -104.07323318470503 0 0 0 0 4.1713782508450095 7.6484064473024773 0 7.6484064473024773 -57.364460886420602 0 0 0 0 16.998056418640772 20.953954581633752 0 20.953954581633752 -44.830562369761537 0 0 0 0 7.6660666186362505 23.289919512298638 0 23.289919512298638 -18.517442834508302 0 0 0 0 58.076670240669046 43.260445890601204 0 43.260445890601204 -51.380123827832904 0 0 0 0 1.9176269453193981 -0.44653260715224974 0 -0.44653260715224974 -2.3164967175311695 0 0 0 0 70.743240003474057 5.5006013593333591 0 5.5006013593333591 -4.8935032775211766 0 0 0 0 1.9749337041284889 6.1233847653224984 0 6.1233847653224984 3.5724083147501915 0 0 0 0 8.0679433551702573 6.8723826157834225 0 6.8723826157834225 -1.3184635749726832 0 0 0 0 -0.48915345038608393 0.47580420154463354 0 0.47580420154463354 1.5884384615383409 0 0 0 0 -54.875293851626338 -60.223679677783366 0 -60.223679677783366 121.07304234049934 0 0 0 0 -0.46536393284239352 2.5445312657882653 0 2.5445312657882653 3.6165310962231167 0 0 0 0 -5.8575687575648772 45.695481732772919 0 45.695481732772919 -113.2428155191501 0 0 0 0 2.9103194722747503 -9.3242473541117334 0 -9.3242473541117334 -51.353181955779291 0 0 0 0 28.846029460546561 25.286238473573121 0 25.286238473573121 -14.088175293384211 0 0 0 0 51.839749258069787 -47.214767874215795 0 -47.214767874215795 -155.07773049600473 0 0 0 0 -304.55135922407499 203.46626076236362 0 203.46626076236362 -64.584828774113021 0 0 0 0 -154.85221566813561 134.91317094427714 0 134.91317094427714 -35.290153594610729 0 0 0 0 18.299884357547853 5.7404673513538 0 5.7404673513538 -63.336851428087357 0 0 0 0 68.456020155055739 -0.37063997631423717 0 -0.37063997631423717 -83.487533171917676 0 0 0 0 0.64808859346734948 1.062882238908827 0 1.062882238908827 -2.4775590465132744 0 0 0 0 -124.36612568854798 229.78418751355053 0 229.78418751355053 -156.81249362442395 0 0 0 0 2.8828601971908938 102.53592399195759 0 102.53592399195759 -198.96747814984019 0 0 0 0 22.81288329185918 111.40073709266471 0 111.40073709266471 -184.10391022282101 0 0 0 0 52.001917619301821 24.559638485335199 0 24.559638485335199 -119.29411772408366 0 0 0 0 20.225784019567072 44.946259221874243 0 44.946259221874243 -62.23028548577895 0 0 0 0 23.608918070727668 26.727233128739897 0 26.727233128739897 -55.252671848780665 0 0 0 0 35.195907227509451 62.338575778416384 0 62.338575778416384 -63.434792178077259 0 0 0 0 38.175811122971936 64.294078300252295 0 64.294078300252295 -62.979714144250465 0 0 0 0 -77.089720758041949 141.60448698425171 0 141.60448698425171 -39.816019449061059 0 0 0 0 -33.554581949701969 130.8027673159246 0 130.8027673159246 -4.4967479404676851 0 0 0 0 -9.230922237620689 134.88615926744751 0 134.88615926744751 -49.903356463516047 0 0 0 0 -49.93607162751141 185.71761912208058 0 185.71761912208058 -110.12853412514232 0 0 0 0 -34.409713814093266 191.58825814160627 0 191.58825814160627 18.459541395660835 0 0 0 0 -128.09160364008858 21.301037547259966 0 21.301037547259966 233.74788435289702 0 0 0 0 -219.47335945344821 78.758082109886573 0 78.758082109886573 5.9920142456403482 0 0 0 0 41.746851097253966 71.5903533725741 0 71.5903533725741 -5.2787718883209891 0 0 0 0 -36.673650991695155 3.9514176624527266 0 3.9514176624527266 2.6039217115799422 0 0 0 0 49.689149031335546 69.730180349367856 0 69.730180349367856 147.50228070085086 0 0 0 0 -33.55451004630595 88.725692349144083 0 88.725692349144083 412.26093472193315 0 0 0 0 53.909680059703533 97.869498432952241 0 97.869498432952241 394.32199676217328 0 0 0 0 -0.055236952485131496 -1.0364628411827361 0 -1.0364628411827361 0.095937977294949572 0 0 0 0 398.65172206211719 341.12998318807968 0 341.12998318807968 -516.25447184182667 0 0 0 0 -395.61540313153819 -515.66001182595505 0 -515.66001182595505 204.02617595299125 0 0 0 0 -49.078401531905143 6.9140029349093162 0 6.9140029349093162 1.5547991892099748 0 0 0 0 -73.486238562079961 239.4590251020677 0 239.4590251020677 238.38119710006777 0 0 0 0 -251.57822670115274 62.779936340336917 0 62.779936340336917 465.23063356910416 0 0 0 0 42.090476672601653 61.051786004608402 0 61.051786004608402 46.056297723220581 0 0 0 0 -69.836735096134362 2.5828358858311731 0 2.5828358858311731 17.137808765484806 0 0 0 0 -39.667245305410688 -48.72360495123246 0 -48.72360495123246 90.461736965165528 0 0 0 0 -20.199110021305387 54.500661924543238 0 54.500661924543238 68.735948276498675 0 0 0 0 -51.758144081762225 11.410925387123545 0 11.410925387123545 5.4986340768293065 0 0 0 0 11.233631964809319 85.225948343571986 0 85.225948343571986 81.755033082447881 0 0 0 0 -44.079707722150488 107.41610776771176 0 107.41610776771176 258.37360166810197 0 0 0 0 -36.448352684972633 183.7259598050083 0 183.7259598050083 70.067236455804959 0 0 0 0 41.092032224289142 44.608506974017246 0 44.608506974017246 80.173056771390293 0 0 0 0 33.044767020386644 90.178046656515107 0 90.178046656515107 50.662503305344671 0 0 0 0 41.665998299067724 79.579425557844843 0 79.579425557844843 -19.393792215460053 0 0 0 0 2.6722800270181324 91.3643605415715 0 91.3643605415715 82.811336431928794 0 0 0 0 39.425826641856474 54.260474967419896 0 54.260474967419896 -10.982432345345842 0 0 0 0 53.791656947769297 18.35344512267622 0 18.35344512267622 -26.233990642351273 0 0 0 0 38.250930505411816 39.521428634168387 0 39.521428634168387 -38.102461215512903 0 0 0 0 37.320131449670498 55.325616252348169 0 55.325616252348169 8.263719152358135 0 0 0 0 27.876661066547967 52.845357485764453 0 52.845357485764453 9.9996652395557248 0 0 0 0 -5.5456088708597235 50.870987560395861 0 50.870987560395861 20.468396278527507 0 0 0 0 22.560437224786256 47.732298226395201 0 47.732298226395201 -14.642566742485087 0 0 0 0 30.443048004020966 76.955907846461656 0 76.955907846461656 29.782214281631241 0 0 0 0 21.253243895596825 37.616800611052895 0 37.616800611052895 -10.058352968584586 0 0 0 0 22.215414304970182 29.776427900329622 0 29.776427900329622 -23.159769551881709 0 0 0 0 9.4056585419457406 19.810187081679942 0 19.810187081679942 16.579221299821086 0 0 0 0 16.764543340024829 48.798951977896081 0 48.798951977896081 -14.674548029109701 0 0 0 0 20.364885518391901 18.411021566833185 0 18.411021566833185 10.6629510456243 0 0 0 0 4.9765089922296681 5.5805594128260054 0 5.5805594128260054 4.9916158169141589 0 0 0 0 -7.6899676109605934 36.294210345653028 0 36.294210345653028 15.159524579317292 0 0 0 0 15.392146015467006 49.578737931029309 0 49.578737931029309 -20.829569004201403 0 0 0 0 33.862844979739748 26.136108407645679 0 26.136108407645679 0.52603538343964829 0 0 0 0 27.826482085307362 22.243441620928479 0 22.243441620928479 -7.6379804478569895 0 0 0 0 28.613301831195713 20.774162643125692 0 20.774162643125692 -21.211352376438299 0 0 0 0 6.9707212669891305 40.291085676637977 0 40.291085676637977 -10.519738087132737 0 0 0 0 -18.399247342778835 27.624910490679099 0 27.624910490679099 30.217009032854548 0 0 0 0 -4.7141602077801537 15.352394934502001 0 15.352394934502001 10.667025975973752 0 0 0 0 -6.9288796575710876 7.946251130528708 0 7.946251130528708 33.248567590979292 0 0 0 0 -56.16188187134685 28.235264257522431 0 28.235264257522431 38.472857675622436 0 0 0 0 42.759756527666468 9.6863948034042551 0 9.6863948034042551 -29.335275106720701 0 0 0 0 -6.3993625155588063 0.002347468837569977 0 0.002347468837569977 0.24743930279244708 0 0 0 0 -4.2082899656088557 14.34010501215738 0 14.34010501215738 12.744401007473414 0 0 0 0 -5.8020589049738192 56.662324425349681 0 56.662324425349681 18.995409414242204 0 0 0 0 11.336644553065128 17.357487931518733 0 17.357487931518733 15.210133111608922 0 0 0 0 -28.638774705046671 38.110405686556987 0 38.110405686556987 37.513780614095595 0 0 0 0 -2.4767609586435242 14.836712401704858 0 14.836712401704858 18.936244008833398 0 0 0 0 1.267587480819202 26.379864750495472 0 26.379864750495472 23.556803030393894 0 0 0 0 3.369036183328717 14.076658367094751 0 14.076658367094751 29.45088597697395 0 0 0 0 7.3310394840446804 10.94139592158534 0 10.94139592158534 9.5421580667309165 0 0 0 0 1.308740604959894 11.588344933390999 0 11.588344933390999 9.6897860949427468 0 0 0 0 -17.320111938189626 18.258718713744173 0 18.258718713744173 19.586124874265696 0 0 0 0 -7.274133184265736 9.5535068435802728 0 9.5535068435802728 11.493205805646474 0 0 0 0 -14.193281934851257 11.85433735911721 0 11.85433735911721 18.612995272698754 0 0 0 0 -6.2588900343543941 -4.3198427176697862 0 -4.3198427176697862 15.765258736554337 0 0 0 0 -10.918062676631962 3.9664121335257505 0 3.9664121335257505 22.315867395509031 0 0 0 0 -1.9660607538164925 -0.68591733676752398 0 -0.68591733676752398 3.6335542015996589 0 0 0 0 269.51595731503039 -169.77289200500809 0 -169.77289200500809 -164.14098904070613 0 0 0 0 2.4207230823400891 1.5537123832828428 0 1.5537123832828428 2.2672499875017671 0 0 0 0 1.0295383282045805 11.976860077457019 0 11.976860077457019 12.869270634173972 0 0 0 0 696.38039498240687 122.42870473153039 0 122.42870473153039 -64.491765390385353 0 0 0 0 -150.80409679855802 -49.065101258063351 0 -49.065101258063351 625.30619997651411 0 0 0 0 -21.895408014606801 207.90187269278158 0 207.90187269278158 655.55392212645438 0 0 0 0 979.15677551235569 193.00183565501956 0 193.00183565501956 151.16587455144509 0 0 0 0 105.17668172794947 -267.56039642519181 0 -267.56039642519181 -77.79528933167694 0 0 0 0 -557.58893953586812 -102.35762167207122 0 -102.35762167207122 444.01743043129204 0 0 0 0 -485.81458054459654 -41.324061738511773 0 -41.324061738511773 815.16663772936045 0 0 0 0 -189.42848238354782 -126.78392345778775 0 -126.78392345778775 443.37133976143514 0 0 0 0 -57.150280152531195 -180.92222063259726 0 -180.92222063259726 126.12223391881162 0 0 0 0 15.97135691963922 339.55852804183405 0 339.55852804183405 705.70671331519588 0 0 0 0 -23.211924127725069 -25.874639026506429 0 -25.874639026506429 504.48156231211487 0 0 0 0 -108.38521220865368 125.73367015237 0 125.73367015237 339.80532493564306 0 0 0 0 10.973335491798935 -115.65987991272277 0 -115.65987991272277 -86.194430454099802 0 0 0 0 11.754798387471965 -67.451517354590806 0 -67.451517354590806 380.15031792466198 0 0 0 0 -0.28470205069115195 -0.8591816866166333 0 -0.8591816866166333 2.8509866393634447 0 0 0 0 -0.12931682754290819 0.22618171806055898 0 0.22618171806055898 4.0949679283768337 0 0 0 0 -276.46560580810183 325.01101113556342 0 325.01101113556342 538.31949959254007 0 0 0 0 -112.49252235253516 31.354383016134307 0 31.354383016134307 -37.208929033823097 0 0 0 0 -185.76215787379442 82.708748342651688 0 82.708748342651688 84.488608083165673 0 0 0 0 -150.41818774853891 -90.463234186267073 0 -90.463234186267073 51.123875315909828 0 0 0 0 -185.64164892827102 167.64364589047273 0 167.64364589047273 26.198400096555815 0 0 0 0 -123.74689714711894 -17.605625904251269 0 -17.605625904251269 -187.27938439684294 0 0 0 0 163.61539407471719 653.40418231220747 0 653.40418231220747 -763.22341210429886 0 0 0 0 31.530974851053742 19.800645433733131 0 19.800645433733131 8.0034254561435851 0 0 0 0 533.34499720379245 131.1070914037864 0 131.1070914037864 94.669284700221397 0 0 0 0 -568.81066016897967 662.21331419849048 0 662.21331419849048 3.8974791899231604 0 0 0 0 66.558508171616268 192.11785281664379 0 192.11785281664379 394.28324516716566 0 0 0 0 89.959222127290559 55.693920540043109 0 55.693920540043109 597.75185866797028 0 0 0 0 2.3611202214633522 90.025937173045804 0 90.025937173045804 345.36574257202665 0 0 0 0 169.28002231757273 541.54351825375215 0 541.54351825375215 190.40579458549473 0 0 0 0 51.045380466086499 358.78276812783861 0 358.78276812783861 496.2899743709022 0 0 0 0 296.27572757958114 668.3174185115322 0 668.3174185115322 577.40261687681232 0 0 0 0 208.71176484353782 711.98794461234138 0 711.98794461234138 763.36364855649185 0 0 0 0 746.0654109099487 1219.3302781321336 0 1219.3302781321336 1251.4245870726554 0 0 0 0 913.47385876491899 593.01854431892934 0 593.01854431892934 605.57724544820758 0 0 0 0 1244.1612864220551 706.06498627536666 0 706.06498627536666 365.5876105949028 0 0 0 0 3098.2580966726382 1833.0236670629802 0 1833.0236670629802 1126.8746430682768 0 0 0 0 1993.4237936516506 1430.1286375656621 0 1430.1286375656621 -1047.0533929342155 0 0 0 0 -15.453283456037752 201.27695682487138 0 201.27695682487138 1666.6801080913287 0 0 0 0 15.268382997075975 7.3584615319148554 0 7.3584615319148554 3.2006097924347952 0 0 0 0 162.06299711689644 844.5747264818765 0 844.5747264818765 2924.219553192057 0 0 0 0 1.1788040685327985 1.5914082650523227 0 1.5914082650523227 0.4525632622694431 0 0 0 0 -158.63382126872602 397.96589965920998 0 397.96589965920998 395.79328745270686 0 0 0 0 -1103.313794122736 -325.12010242176211 0 -325.12010242176211 -1483.9426797214619 0 0 0 0 -701.72351105796406 350.69958034772435 0 350.69958034772435 -364.96762879363769 0 0 0 0 1991.7514829851607 1465.5399021180417 0 1465.5399021180417 1098.4632868032186 0 0 0 0 1652.2124208342575 -197.11205491421242 0 -197.11205491421242 27.610863335063186 0 0 0 0 -1668.0142420820121 692.29254069002866 0 692.29254069002866 1669.7161651932538 0 0 0 0 4.0743165261563377 11.434706509310971 0 11.434706509310971 17.400138887691952 0 0 0 0 1354.3777011261991 332.69465673146806 0 332.69465673146806 23.403879056069854 0 0 0 0 168.09997975244187 -117.04133189679578 0 -117.04133189679578 459.56598664699595 0 0 0 0 -912.90670303587103 552.272719622772 0 552.272719622772 -220.86985507394002 0 0 0 0 6.712114046660254 22.709285795915136 0 22.709285795915136 38.873947027299984 0 0 0 0 -77.355111010947439 392.06073745491403 0 392.06073745491403 -510.06986904583346 0 0 0 0 223.4845515624329 332.85491289911238 0 332.85491289911238 -493.27355139798055 0 0 0 0 -60.801817462932377 99.429834059965742 0 99.429834059965742 -139.53841860614853 0 0 0 0 4.1658579456776295 2.0609182948837912 0 2.0609182948837912 0.066032504655525237 0 0 0 0 96.934749282278062 119.26360177821039 0 119.26360177821039 -156.5184772766122 0 0 0 0 -135.20621914838557 494.22469352340346 0 494.22469352340346 665.85604241609917 0 0 0 0 34.477536956022959 641.91975617814671 0 641.91975617814671 627.89695825525359 0 0 0 0 156.61161019905558 344.62653142609196 0 344.62653142609196 438.16454792052878 0 0 0 0 535.36421245587917 508.26472769984167 0 508.26472769984167 329.85540160741766 0 0 0 0 385.35839372281043 854.1157350451756 0 854.1157350451756 1110.7348219940791 0 0 0 0 191.67856245493749 940.41294382918159 0 940.41294382918159 1105.3802203006544 0 0 0 0 -330.89024918005452 1076.6647956812978 0 1076.6647956812978 1406.1672086265307 0 0 0 0 413.11203908827156 1269.1997648621725 0 1269.1997648621725 1165.1458026986986 0 0 0 0 453.71406402283174 1137.516745566214 0 1137.516745566214 703.00029369443678 0 0 0 0 -1612.1847987910733 731.26460005035642 0 731.26460005035642 1391.3887357268031 0 0 0 0 160.47011630944326 1612.0360735648103 0 1612.0360735648103 1727.6479873442686 0 0 0 0 3156.501365108561 1900.0256265537746 0 1900.0256265537746 577.72961357361419 0 0 0 0 967.90341226661997 981.57599840055263 0 981.57599840055263 2250.5384392638962 0 0 0 0 1619.9000855541235 460.6250352519578 0 460.6250352519578 457.81911419804146 0 0 0 0 1498.3551265503484 1696.8699290376001 0 1696.8699290376001 1001.9140158754917 0 0 0 0 340.25811522238655 427.42925985371039 0 427.42925985371039 522.46688068633057 0 0 0 0 411.37269833744722 543.90014176404372 0 543.90014176404372 720.08929059614889 0 0 0 0 578.62673665278999 335.85071460181916 0 335.85071460181916 222.78439299629008 0 0 0 0 -169.79171489874716 532.10325215715829 0 532.10325215715829 218.39220319744845 0 0 0 0 721.63932116623619 1030.3311565425122 0 1030.3311565425122 743.13498317158519 0 0 0 0 5.6390819423818641 0.88167454595101447 0 0.88167454595101447 -6.310688833619964 0 0 0 0 395.21606910051923 659.54146790100458 0 659.54146790100458 559.32203139509261 0 0 0 0 284.5875164276149 731.87045267078338 0 731.87045267078338 1210.1376418719756 0 0 0 0 201.39338222553488 1014.3958353488268 0 1014.3958353488268 910.41571804575347 0 0 0 0 17.6301880957908 16.058291082244978 0 16.058291082244978 18.424435832199833 0 0 0 0 12.898823527556658 9.5777701262301562 0 9.5777701262301562 -5.332430398611586 0 0 0 0 12.877581386172096 21.852432292931553 0 21.852432292931553 24.588667819944476 0 0 0 0 13.3561673170625 18.308309507182003 0 18.308309507182003 19.920497080812311 0 0 0 0 10.949504802774754 19.608583367165465 0 19.608583367165465 20.273799654455615 0 0 0 0 11.899246690925793 17.799502486618167 0 17.799502486618167 20.52771283252423 0 0 0 0 16.76406125361973 16.035956947100658 0 16.035956947100658 20.605333518731612 0 0 0 0 3.6136905800042882 4.8183962234979276 0 4.8183962234979276 -0.21717851972614444 0 0 0 0 19.496299114296562 11.682171903742528 0 11.682171903742528 22.394264156147983 0 0 0 0 129.51182131668611 15.010892511667407 0 15.010892511667407 15.417158734679106 0 0 0 0 -63.698022749085794 16.855208179425063 0 16.855208179425063 438.87850818881452 0 0 0 0 5.8788459545344267 2.3295123716079686 0 2.3295123716079686 -2.7967973268831638 0 0 0 0 5.1231951570225647 34.264078946468544 0 34.264078946468544 47.0516326873867 0 0 0 0 16.39416271794471 11.574716579585427 0 11.574716579585427 34.214898834679843 0 0 0 0 -21.786802312606596 43.591392180206185 0 43.591392180206185 77.205457285589546 0 0 0 0 -61.991947486463687 11.711129737647639 0 11.711129737647639 253.41120519450305 0 0 0 0 86.620711125811795 175.29354440104817 0 175.29354440104817 63.814024373220491 0 0 0 0 -2.7761207493531401 197.8830102658311 0 197.8830102658311 77.291591484288801 0 0 0 0 46.487578358508472 59.352660777597976 0 59.352660777597976 29.274642468350066 0 0 0 0 47.526762189991132 81.77285802180154 0 81.77285802180154 -142.93766408816919 0 0 0 0 217.34842765823851 148.78572219082616 0 148.78572219082616 -378.60031415615776 0 0 0 0 108.04822381142367 -57.438720046408207 0 -57.438720046408207 -352.2014400693788 0 0 0 0 77.406599021225702 -613.86298887760768 0 -613.86298887760768 -980.38738997350811 0 0 0 0 -64.668517919722944 57.145682803467025 0 57.145682803467025 32.822383497274132 0 0 0 0 0.961558597892477 1.3107857049037364 0 1.3107857049037364 2.5849463549205858 0 0 0 0 -25.566497618769063 45.843612852160732 0 45.843612852160732 12.69230892251835 0 0 0 0 288.7669578595378 395.33655394650214 0 395.33655394650214 -12.955937242250002 0 0 0 0 2.4508228187332861 242.19308275773619 0 242.19308275773619 445.02222782150386 0 0 0 0 20.438575626481907 49.635926134736565 0 49.635926134736565 -35.477575935400637 0 0 0 0 8.4228810378792787 1.6141463974521884 0 1.6141463974521884 -1.9348947678770143 0 0 0 0 80.928787576340255 38.562963176949324 0 38.562963176949324 78.33333655286981 0 0 0 0 13.26562029006891 31.172690419751234 0 31.172690419751234 72.274066417548511 0 0 0 0 33.871923308630357 32.635018609440976 0 32.635018609440976 -15.182616110144068 0 0 0 0 30.356265580019681 19.480488569049385 0 19.480488569049385 28.844670338619835 0 0 0 0 50.874467874295078 34.637783998583473 0 34.637783998583473 -59.404443398789134 0 0 0 0 13.378745873531443 43.119047374513457 0 43.119047374513457 15.434294866919572 0 0 0 0 -25.856112334266072 23.635226348034848 0 23.635226348034848 76.766243731504119 0 0 0 0 508.77680347317619 538.99570796352634 0 538.99570796352634 1589.1137374280486 0 0 0 0 10.248469807102282 6.5212968647630376 0 6.5212968647630376 -4.3129023964151454 0 0 0 0 17.327937579142599 17.665632428043182 0 17.665632428043182 7.8374607314667628 0 0 0 0 371.57945305136673 765.76048755748457 0 765.76048755748457 1470.7204843172997 0 0 0 0 198.41198659809015 654.58815829212108 0 654.58815829212108 1399.6038248982786 0 0 0 0 186.46919496604824 889.48578416613464 0 889.48578416613464 1342.5233785638125 0 0 0 0 355.99387097662839 929.26591171601922 0 929.26591171601922 1665.561275918285 0 0 0 0 152.66726652217039 323.64820666939613 0 323.64820666939613 936.36986448841935 0 0 0 0 563.44473804309382 1010.6731866087814 0 1010.6731866087814 1200.3156148289986 0 0 0 0 10.202638700202471 6.001643389834129 0 6.001643389834129 4.1958737150882675 0 0 0 0 1125.3240657959977 1163.3051066223393 0 1163.3051066223393 2023.826326097703 0 0 0 0 1313.5245908037905 1188.263390979107 0 1188.263390979107 965.72846692487133 0 0 0 0 992.53759734288496 1740.4971986521223 0 1740.4971986521223 1646.6911934481736 0 0 0 0 1291.2158456343896 1109.9551224431611 0 1109.9551224431611 1698.6772460301406 0 0 0 0 4.6435813856549828 2.9395768124351278 0 2.9395768124351278 -0.51920516555034846 0 0 0 0 89.675093022968213 -45.08481203305314 0 -45.08481203305314 9.2324985713075876 0 0 0 0 204.35529991771909 -25.997831793164096 0 -25.997831793164096 11.834776307234733 0 0 0 0 1076.906068731987 1296.0713500718698 0 1296.0713500718698 1830.1577633444997 0 0 0 0 949.30991898012871 977.24152711328907 0 977.24152711328907 1037.2795051513804 0 0 0 0 1603.9354733142027 840.98954701054708 0 840.98954701054708 1031.4002273675201 0 0 0 0 1063.4155630351888 769.22200151802599 0 769.22200151802599 790.7581753771301 0 0 0 0 1100.3154342366834 824.27739150925709 0 824.27739150925709 615.6090121978059 0 0 0 0 962.84259311900678 1047.4463646308468 0 1047.4463646308468 757.07374591759799 0 0 0 0 5.5086308482805464 1.3414367431490248 0 1.3414367431490248 -0.82309131468469232 0 0 0 0 606.96896568705415 873.46716677202039 0 873.46716677202039 994.91995665794229 0 0 0 0 380.67792282965024 877.07679267084109 0 877.07679267084109 1031.6036776263509 0 0 0 0 605.07903047365835 922.95874459694915 0 922.95874459694915 1153.7405840849201 0 0 0 0 1008.6732494867392 1022.0835642848788 0 1022.0835642848788 902.89151334053895 0 0 0 0 1127.4627958709243 1452.5577737932933 0 1452.5577737932933 1606.2521788409776 0 0 0 0 116.30140644992207 723.15745523542637 0 723.15745523542637 1570.0587181752617 0 0 0 0 -70.7795270713832 88.795674748153942 0 88.795674748153942 923.20154239685144 0 0 0 0 235.58910072121216 164.84414468799878 0 164.84414468799878 253.40199254560684 0 0 0 0 133.5528880423808 690.30772913761393 0 690.30772913761393 2683.9061446198452 0 0 0 0 9.8158592071401358 7.4951173631765542 0 7.4951173631765542 4.831142257417401 0 0 0 0 906.12070823189379 802.29583848136656 0 802.29583848136656 -388.01557480846668 0 0 0 0 -33.02891041887051 -77.205576157018186 0 -77.205576157018186 100.17995321256694 0 0 0 0 491.70288944822505 157.6450842339359 0 157.6450842339359 186.56589323519984 0 0 0 0 -102.81423507683212 -134.86777250219984 0 -134.86777250219984 131.71281709082245 0 0 0 0 -67.029325174968108 -131.34326142275904 0 -131.34326142275904 47.564662496494748 0 0 0 0 -137.35323254726245 -117.89794948213876 0 -117.89794948213876 439.85214103069438 0 0 0 0 -108.17498469119892 -363.89495816893032 0 -363.89495816893032 195.94606372929593 0 0 0 0 -267.57217008856242 165.60327763999749 0 165.60327763999749 -14.593020659814101 0 0 0 0 -277.16071144751913 36.593673997630731 0 36.593673997630731 169.48891329474009 0 0 0 0 -148.67418403687407 -60.772138901463336 0 -60.772138901463336 29.507139376030864 0 0 0 0 -133.09382391464897 51.422132961515672 0 51.422132961515672 48.842310334140166 0 0 0 0 -123.95798297009605 16.95892883396391 0 16.95892883396391 11.298208817036084 0 0 0 0 -32.993043697380926 24.333415698050885 0 24.333415698050885 -21.674689142875422 0 0 0 0 -107.15098431050865 27.507864607333659 0 27.507864607333659 -20.484280330400907 0 0 0 0 -33.186969813978067 -98.890433396918525 0 -98.890433396918525 -15.715178788111189 0 0 0 0 -29.605928068922367 -39.641057257348621 0 -39.641057257348621 -78.807645060705909 0 0 0 0 6.7079437135253102 -56.931865929327614 0 -56.931865929327614 -126.33089653515253 0 0 0 0 -0.093576184037374333 25.793767622664745 0 25.793767622664745 -91.670329448043049 0 0 0 0 8.2139039329922525 15.776539241214778 0 15.776539241214778 -147.49461479817364 0 0 0 0 -52.1899263399755 -5.8089463482795054 0 -5.8089463482795054 -66.583406735622702 0 0 0 0 5.8778066090599168 39.085430438262847 0 39.085430438262847 -62.084528516672435 0 0 0 0 -36.264132258758764 66.569408777360877 0 66.569408777360877 39.547631213322347 0 0 0 0 8.8855950577999465 94.925125416296396 0 94.925125416296396 -21.115312405696784 0 0 0 0 -94.080602303904016 226.3667806267257 0 226.3667806267257 -10.286839955640289 0 0 0 0 -22.569227595085977 45.227009280263701 0 45.227009280263701 -21.919464850170698 0 0 0 0 7.9911591970740119 48.761294659127088 0 48.761294659127088 -95.472207202637946 0 0 0 0 21.829241337807616 77.034365574346339 0 77.034365574346339 -53.2711409408912 0 0 0 0 138.98942377463391 -24.059159598133419 0 -24.059159598133419 33.767905231777434 0 0 0 0 4.9314895984455234 3.5745049418465982 0 3.5745049418465982 1.6871813792244796 0 0 0 0 -95.424848658829035 68.435872082337937 0 68.435872082337937 -380.89584299058663 0 0 0 0 166.19952262262814 -77.922953952614989 0 -77.922953952614989 27.981495155345328 0 0 0 0 179.85697955024079 -75.128942220393583 0 -75.128942220393583 24.876269865198765 0 0 0 0 94.88723222273984 -84.889630118603236 0 -84.889630118603236 0.36060788377153585 0 0 0 0 147.58552556649374 16.947648053017701 0 16.947648053017701 160.51855559549585 0 0 0 0 67.473917539988179 -13.581277104063702 0 -13.581277104063702 -296.91013450716855 0 0 0 0 -162.90622228500433 577.66776381160344 0 577.66776381160344 189.33768588555108 0 0 0 0 17.588287889679833 13.226340021369168 0 13.226340021369168 8.9390321349527238 0 0 0 0 20.959835540008498 32.722839671360816 0 32.722839671360816 -176.03521345617082 0 0 0 0 53.362120899633737 -100.36847806453534 0 -100.36847806453534 -264.3054968412689 0 0 0 0 11.02790266914235 -74.173104304807225 0 -74.173104304807225 -101.09896667352768 0 0 0 0 -31.382270533780684 -183.67911678526207 0 -183.67911678526207 43.991616026050906 0 0 0 0 -36.981312797346618 -119.43748123660407 0 -119.43748123660407 -126.62779148407981 0 0 0 0 94.672811805605306 -203.70303028184344 0 -203.70303028184344 -420.39938677026475 0 0 0 0 7.899517811863916 -368.95183002258455 0 -368.95183002258455 -256.57347302507333 0 0 0 0 64.982823747239308 -155.85662370302498 0 -155.85662370302498 -141.92961968482268 0 0 0 0 -8.6314087653590832 -223.98502613175697 0 -223.98502613175697 48.041853065835312 0 0 0 0 16.903076980292099 -234.34014379386917 0 -234.34014379386917 -167.53562984406881 0 0 0 0 -48.286264250258682 -384.33577988180969 0 -384.33577988180969 25.591043776443257 0 0 0 0 821.54493992726202 -271.49961777991496 0 -271.49961777991496 -140.38175062491746 0 0 0 0 -201.25410224622465 -460.87487673831629 0 -460.87487673831629 333.67784914581989 0 0 0 0 -757.79113915233756 -239.68465653749365 0 -239.68465653749365 1138.9770370877641 0 0 0 0 1345.4060253317293 279.44535937183457 0 279.44535937183457 26.731075693572393 0 0 0 0 1067.0182161969133 1102.5574114918998 0 1102.5574114918998 966.78611667666587 0 0 0 0 316.08700022760604 -66.698795858746053 0 -66.698795858746053 210.30364476285695 0 0 0 0 527.73144369370857 28.928920425252954 0 28.928920425252954 -64.597095200056174 0 0 0 0 395.3351143562686 -143.87166657079979 0 -143.87166657079979 44.600010675829708 0 0 0 0 136.43462674471084 80.109457069997461 0 80.109457069997461 504.74585906186599 0 0 0 0 108.00826380403305 -73.278526020848403 0 -73.278526020848403 172.85388686869919 0 0 0 0 157.69810471925302 -257.69202703860788 0 -257.69202703860788 388.46179371943265 0 0 0 0 192.83473591368966 -38.830235718088602 0 -38.830235718088602 111.54313019271922 0 0 0 0 225.97493544423196 -130.55878584933134 0 -130.55878584933134 15.285051436117101 0 0 0 0 250.47208960303215 -35.184658188972463 0 -35.184658188972463 -32.294335460444927 0 0 0 0 -33.649550593392632 197.53607345289106 0 197.53607345289106 -114.4154422732679 0 0 0 0 159.38036778604146 -161.83694520670906 0 -161.83694520670906 -140.14318543551963 0 0 0 0 315.59828177985037 69.933347077701001 0 69.933347077701001 -382.37336260676716 0 0 0 0 272.7604818859254 -109.19517647096609 0 -109.19517647096609 -317.39998868765497 0 0 0 0 3.2459392305878509 0.17148747394960395 0 0.17148747394960395 -0.729805579014835 0 0 0 0 130.94250473300053 22.968327112416773 0 22.968327112416773 -99.531275624793011 0 0 0 0 279.94806478368992 101.16527556374558 0 101.16527556374558 -83.242975837579479 0 0 0 0 26.420268586969542 36.211227166388369 0 36.211227166388369 -20.155956059765231 0 0 0 0 36.198173602577299 59.337985110033969 0 59.337985110033969 -23.101228389856317 0 0 0 0 74.154152065671042 -11.623763582977091 0 -11.623763582977091 -38.309386205977717 0 0 0 0 108.96614444465376 -18.116943928162073 0 -18.116943928162073 -37.574565437658748 0 0 0 0 70.273454461925212 43.207793282895864 0 43.207793282895864 -27.682046876678214 0 0 0 0 -26.080469482138142 42.479213192283254 0 42.479213192283254 -10.448789223966742 0 0 0 0 -18.537650115027645 -49.266033407095961 0 -49.266033407095961 -3.4638228133781013 0 0 0 0 164.15008383497479 -60.557053647691191 0 -60.557053647691191 -45.261199615768419 0 0 0 0 106.77538934099721 -61.998473884281339 0 -61.998473884281339 -45.128823525620533 0 0 0 0 220.35973386289334 -21.67789380295892 0 -21.67789380295892 -90.177357282372213 0 0 0 0 235.20874758454738 -64.072980179158321 0 -64.072980179158321 -113.54677928292676 0 0 0 0 225.59337770925777 -100.14905001972329 0 -100.14905001972329 -84.623803712950576 0 0 0 0 213.18952430770878 5.8246059807847814 0 5.8246059807847814 -57.249379599606527 0 0 0 0 136.61645516453427 94.178601712423188 0 94.178601712423188 -135.81086491818951 0 0 0 0 136.83617149991915 54.736811906592266 0 54.736811906592266 -76.358261533943733 0 0 0 0 86.049372940353351 49.971913626848618 0 49.971913626848618 -31.318915580895919 0 0 0 0 91.614915715612369 76.94315630737691 0 76.94315630737691 20.558637270224608 0 0 0 0 28.43040279403067 194.50519200019517 0 194.50519200019517 56.587032312310384 0 0 0 0 -41.848283505096333 98.904069833787389 0 98.904069833787389 -21.186357101873 0 0 0 0 31.463347592683931 202.14667027711096 0 202.14667027711096 -88.857855987535004 0 0 0 0 245.96526800790889 151.22563247713515 0 151.22563247713515 -94.64422039541023 0 0 0 0 68.696146009573567 104.46096384545262 0 104.46096384545262 -60.098545660045602 0 0 0 0 96.446304463119304 110.56869900599395 0 110.56869900599395 -66.849003153558442 0 0 0 0 -57.431222877557957 163.30407460689548 0 163.30407460689548 -20.87111283759441 0 0 0 0 -35.365713322495139 106.03246870355645 0 106.03246870355645 13.428785537491422 0 0 0 0 108.16879590564531 53.071313253211258 0 53.071313253211258 14.883083834732133 0 0 0 0 194.72150177380536 105.81561290779882 0 105.81561290779882 -12.646642604305271 0 0 0 0 174.14102549579547 43.631741651796801 0 43.631741651796801 -109.921675401431 0 0 0 0 156.91396363227977 13.669090730374592 0 13.669090730374592 -64.868797153136256 0 0 0 0 171.65206433673302 159.40229038423149 0 159.40229038423149 -16.681227813900477 0 0 0 0 -1.9016324403156659 3.0641781626541729 0 3.0641781626541729 -1.8681734099064258 0 0 0 0 24.458486820403778 31.685377639677426 0 31.685377639677426 66.532166660261282 0 0 0 0 51.582706644072459 190.37991757928876 0 190.37991757928876 -17.21243907682765 0 0 0 0 -1.4087946057948528 2.0403501158063477 0 2.0403501158063477 -0.4225315823339173 0 0 0 0 47.347985618711391 -1.5889306347007732 0 -1.5889306347007732 62.975715733446123 0 0 0 0 186.92223102267599 129.33923076085193 0 129.33923076085193 -63.46970252801475 0 0 0 0 24.66502479724295 27.917471968232348 0 27.917471968232348 96.26404333087703 0 0 0 0 161.86694148764946 334.01344254250944 0 334.01344254250944 -86.208303532252557 0 0 0 0 -25.4742771178488 34.847095402293625 0 34.847095402293625 -29.602494447135598 0 0 0 0 200.93252658470101 -21.583451841642272 0 -21.583451841642272 26.176120751766575 0 0 0 0 -24.797640834876802 181.89005177961371 0 181.89005177961371 50.009770663564268 0 0 0 0 -9.7151530894219604 36.495866822997513 0 36.495866822997513 -28.639068083874072 0 0 0 0 11.990224036591826 76.689436998967722 0 76.689436998967722 93.625185827600944 0 0 0 0 23.393140038053389 63.153252273135877 0 63.153252273135877 11.366563953175501 0 0 0 0 -0.79967501542705577 -13.503929777288249 0 -13.503929777288249 94.591167995738942 0 0 0 0 -156.39255536200653 297.93057835991931 0 297.93057835991931 497.32825316930939 0 0 0 0 -6.9151049311226132 36.688122543809023 0 36.688122543809023 -26.626614219508369 0 0 0 0 32.849625423817997 14.250896786541489 0 14.250896786541489 150.5046591705468 0 0 0 0 -1.2914983438677154 168.68792416615179 0 168.68792416615179 66.392106987957959 0 0 0 0 -101.20590944636933 380.59685489984622 0 380.59685489984622 159.84496530452816 0 0 0 0 -16.239555133569638 31.062331526363639 0 31.062331526363639 -28.842232934669994 0 0 0 0 90.28474852029467 190.67803781283146 0 190.67803781283146 -141.79059508466526 0 0 0 0 107.56081600849029 101.44648599954007 0 101.44648599954007 -289.37429941384107 0 0 0 0 -41.152816322013678 178.93090763319469 0 178.93090763319469 -238.66771338118269 0 0 0 0 -4.3529573873342713 -1.7697327989275387 0 -1.7697327989275387 0.12803606453885941 0 0 0 0 -225.33729996297188 172.52749905183282 0 172.52749905183282 -12.320268229912472 0 0 0 0 25.356289498842671 47.319497554439295 0 47.319497554439295 -242.54747395585309 0 0 0 0 16.735258016575244 109.37100152910898 0 109.37100152910898 -204.8394301522876 0 0 0 0 -28.162150230222323 153.53160757481692 0 153.53160757481692 0.50401927919529044 0 0 0 0 -81.596258841798772 121.78220100044678 0 121.78220100044678 -0.92173931849902146 0 0 0 0 -108.74960627726796 175.73844132227168 0 175.73844132227168 -7.5296602980688476 0 0 0 0 -145.52488636230555 124.38477175103435 0 124.38477175103435 4.3522402109520044 0 0 0 0 -72.670289636334928 79.147592884337428 0 79.147592884337428 30.010250311623167 0 0 0 0 -73.092965205316432 156.50043263590669 0 156.50043263590669 -64.349360466288999 0 0 0 0 -1.5292645274166716 81.815017605011235 0 81.815017605011235 -17.134696425860966 0 0 0 0 -6.8492032268416096 8.7253058039153579 0 8.7253058039153579 17.523090140740933 0 0 0 0 -35.456157088156033 75.289938090391843 0 75.289938090391843 36.651526473722697 0 0 0 0 -9.7595624662062619 61.439844230354538 0 61.439844230354538 -0.17647017837953172 0 0 0 0 6.5112774446540556 30.49033083032262 0 30.49033083032262 41.153056889177378 0 0 0 0 -89.037089670575369 25.317731499923866 0 25.317731499923866 40.505801528350275 0 0 0 0 -35.972187650651904 74.597298756703822 0 74.597298756703822 181.65321935277279 0 0 0 0 -36.756423930964957 38.924401212053453 0 38.924401212053453 265.70249837018491 0 0 0 0 -10.314308885921491 15.992575474598198 0 15.992575474598198 59.677456664634519 0 0 0 0 -38.270094581108424 47.074208478348737 0 47.074208478348737 196.60749603258591 0 0 0 0 -53.668517811573111 7.5579791266100074 0 7.5579791266100074 4.1972340926477045 0 0 0 0 -21.549037562410035 43.5479863571097 0 43.5479863571097 0.017797445488398012 0 0 0 0 -44.173202205623966 -8.5698160504543921 0 -8.5698160504543921 31.224349850726867 0 0 0 0 -28.815840110046338 46.384658421158292 0 46.384658421158292 55.082137978432002 0 0 0 0 -79.517720183917845 9.0481878147647876 0 9.0481878147647876 67.996553854121885 0 0 0 0 -14.416459018466412 40.916129167047984 0 40.916129167047984 46.676504122072402 0 0 0 0 -109.06958727430901 52.240702123241135 0 52.240702123241135 102.25809247686993 0 0 0 0 8.8429581443591445 26.596875979234142 0 26.596875979234142 43.945891339915221 0 0 0 0 -6.5308953399589882 96.070758090450113 0 96.070758090450113 195.51723125318676 0 0 0 0 39.386711543244019 130.2659919567036 0 130.2659919567036 74.201937946061662 0 0 0 0 77.443806466682872 98.142643221299295 0 98.142643221299295 45.130404605784861 0 0 0 0 467.97478913587838 130.34545071975754 0 130.34545071975754 -17.657879387431421 0 0 0 0 8.5179848234472146 27.130778982389273 0 27.130778982389273 44.083354446812066 0 0 0 0 -163.14095321903005 166.10389434711396 0 166.10389434711396 -23.790614183207708 0 0 0 0 -138.47239899828855 128.42662464826799 0 128.42662464826799 6.6020472237223657 0 0 0 0 -299.82558478211467 156.54033369781394 0 156.54033369781394 14.868010221803161 0 0 0 0 -142.11111020667886 167.92215388805198 0 167.92215388805198 10.14055673734947 0 0 0 0 -163.96280902385479 165.47331264221748 0 165.47331264221748 -11.5868705925418 0 0 0 0 -304.97501382329938 142.67506252907924 0 142.67506252907924 -7.9770724323157083 0 0 0 0 -75.474299692126806 181.88722132376199 0 181.88722132376199 -215.95679643299809 0 0 0 0 -693.35994563680288 269.7678940111532 0 269.7678940111532 -52.417570063676067 0 0 0 0 724.70039359128714 -15.007112292055353 0 -15.007112292055353 -131.44512407524417 0 0 0 0 211.49375282613073 96.840628908679037 0 96.840628908679037 3.0332526664024044 0 0 0 0 7.9285111240546939 25.539701269709852 0 25.539701269709852 43.073366456589582 0 0 0 0 -412.04559514054563 238.18296373592193 0 238.18296373592193 -52.428216337997583 0 0 0 0 838.23306631662126 442.57632989797276 0 442.57632989797276 -120.83688155859181 0 0 0 0 917.33992617242257 562.63015140836569 0 562.63015140836569 43.459340959401743 0 0 0 0 718.69331425213022 581.11169335262821 0 581.11169335262821 346.12210903578762 0 0 0 0 602.10400062757617 419.07628696618804 0 419.07628696618804 133.152186307394 0 0 0 0 463.5573756685335 695.6736579438043 0 695.6736579438043 -213.12193913034207 0 0 0 0 509.55336851128595 548.77669730970752 0 548.77669730970752 201.58089804920564 0 0 0 0 375.75701932349693 873.02801796922222 0 873.02801796922222 340.70128216741796 0 0 0 0 316.32830633127014 602.58217612492263 0 602.58217612492263 215.43949682717357 0 0 0 0 -2.6813844508072009 3.0222148595559659 0 3.0222148595559659 -0.52485779030055113 0 0 0 0 246.32570970283996 649.94059964583812 0 649.94059964583812 700.32113955661771 0 0 0 0 405.78671807499632 573.32957591478407 0 573.32957591478407 593.21458589483882 0 0 0 0 257.20876832305657 271.1292470591743 0 271.1292470591743 440.73929850034892 0 0 0 0 97.14594124006544 254.16737030576587 0 254.16737030576587 319.34937649420772 0 0 0 0 243.72977497389388 559.90861330982329 0 559.90861330982329 123.43228447864021 0 0 0 0 357.81090347843565 446.74975569146227 0 446.74975569146227 -107.29058225453127 0 0 0 0 220.5550668534197 342.6398858697703 0 342.6398858697703 320.50679653167208 0 0 0 0 165.49108401961712 188.12955936690742 0 188.12955936690742 88.310763403929741 0 0 0 0 32.900862571888865 107.96559307004645 0 107.96559307004645 292.35741827488346 0 0 0 0 75.618901117915811 124.54756960290797 0 124.54756960290797 107.25967698172099 0 0 0 0 18.287410710552649 15.219785296134432 0 15.219785296134432 75.701579224401939 0 0 0 0 -52.560772216122132 16.81596917416573 0 16.81596917416573 101.89617714645988 0 0 0 0 40.522923700333195 8.3773577260772072 0 8.3773577260772072 -128.02089080460792 0 0 0 0 -21.207233152132346 37.971952018866745 0 37.971952018866745 -20.250557130126872 0 0 0 0 -4.5784229316705023 -33.45529515263479 0 -33.45529515263479 -82.785507449661964 0 0 0 0 -43.588500616984675 70.218395759664418 0 70.218395759664418 118.03135156725875 0 0 0 0 74.885257241083309 33.080313606185882 0 33.080313606185882 120.99740960538657 0 0 0 0 60.95954706552493 218.49812521160459 0 218.49812521160459 215.06737174556838 0 0 0 0 92.833620185479958 372.64431971751128 0 372.64431971751128 537.74659481896742 0 0 0 0 182.1039917195958 209.52170700484749 0 209.52170700484749 223.83463796368142 0 0 0 0 354.89724016247055 376.22510177441109 0 376.22510177441109 472.63791797074464 0 0 0 0 -4.4429029806904339 4.5491174786379815 0 4.5491174786379815 -0.70900748032748595 0 0 0 0 425.5292332801655 547.41885779374479 0 547.41885779374479 501.54666744223141 0 0 0 0 733.53521537303459 557.42853322294286 0 557.42853322294286 497.83554841991463 0 0 0 0 92.02869798105894 476.47976187485915 0 476.47976187485915 799.58726937678148 0 0 0 0 19.106806747338851 127.5239684530934 0 127.5239684530934 362.72712054085241 0 0 0 0 -329.03418363199307 -40.654877143300837 0 -40.654877143300837 331.84780774945284 0 0 0 0 0.54888767660867899 1.4877671236773153 0 1.4877671236773153 7.6945194968700861 0 0 0 0 35.464570338037447 142.65440732368734 0 142.65440732368734 0.15000299072198686 0 0 0 0 15.717519038400496 29.502472125182976 0 29.502472125182976 82.389997496773503 0 0 0 0 -18.737186863050738 509.01786247512973 0 509.01786247512973 599.86753602258977 0 0 0 0 245.43379634539451 500.98581906004438 0 500.98581906004438 425.26461423169894 0 0 0 0 585.46329753807368 229.09418614979404 0 229.09418614979404 32.161598304886866 0 0 0 0 264.76943231298355 545.575726869356 0 545.575726869356 470.09011474812451 0 0 0 0 686.996973047746 895.63349001352981 0 895.63349001352981 869.31576569424215 0 0 0 0 312.73605046138982 358.6725894585652 0 358.6725894585652 646.63068338954417 0 0 0 0 476.80965848513006 499.58781545214515 0 499.58781545214515 475.6246186699691 0 0 0 0 1346.0233669859135 700.55512394631887 0 700.55512394631887 295.50914016130264 0 0 0 0 202.83109231217531 659.15140131218686 0 659.15140131218686 641.40291949624952 0 0 0 0 -0.19515480658164572 406.33237096729943 0 406.33237096729943 525.743559737748 0 0 0 0 7.5871967922812473 452.16333877534043 0 452.16333877534043 747.5132031637695 0 0 0 0 0.15179455566249089 421.11483351514835 0 421.11483351514835 777.48458463731731 0 0 0 0 -2.4861866368900394 1.3335297330138332 0 1.3335297330138332 1.8841008947465383 0 0 0 0 208.51538092110422 476.72728026010554 0 476.72728026010554 1126.6243233519272 0 0 0 0 331.43359504928958 694.67773277824017 0 694.67773277824017 786.76011676549751 0 0 0 0 226.58980603172677 443.60693098650154 0 443.60693098650154 697.96987071338845 0 0 0 0 0.025654603698058054 534.44070703850866 0 534.44070703850866 663.8930173001645 0 0 0 0 216.11596295337222 513.28905604522697 0 513.28905604522697 326.88640526659196 0 0 0 0 416.82561505919875 704.39995084990642 0 704.39995084990642 570.66084644577131 0 0 0 0 170.28661526271026 513.21487016953688 0 513.21487016953688 723.25217023065125 0 0 0 0 462.86754735235445 519.84260065406488 0 519.84260065406488 288.03635486348321 0 0 0 0 -5.288515073339596 6.0496588647012288 0 6.0496588647012288 -2.5407335797157629 0 0 0 0 245.45475486074429 549.8158038710344 0 549.8158038710344 296.44209146735739 0 0 0 0 169.14991413686948 355.14823330154104 0 355.14823330154104 103.42134315312433 0 0 0 0 360.60990639331612 391.11971551334943 0 391.11971551334943 -14.157853459713806 0 0 0 0 131.82520017337811 236.14826861323854 0 236.14826861323854 -68.821405195218176 0 0 0 0 142.31091344971355 90.084963231004622 0 90.084963231004622 -1162.8053450951084 0 0 0 0 -0.12897625556271275 641.66102405009667 0 641.66102405009667 -0.63374596411085804 0 0 0 0 -10.004865016016993 520.85429940251015 0 520.85429940251015 329.60777685221797 0 0 0 0 287.08191108138999 508.48246842798017 0 508.48246842798017 -246.53667559408132 0 0 0 0 -431.23032768273697 899.29583393040593 0 899.29583393040593 -1437.6674471398292 0 0 0 0 -291.79565540290059 1067.1533599609029 0 1067.1533599609029 -1239.1574450259577 0 0 0 0 -0.50409137835231377 1125.6817882519863 0 1125.6817882519863 -1546.6310709143036 0 0 0 0 -97.052594168926589 1115.2402430685615 0 1115.2402430685615 -1239.9345717078927 0 0 0 0 -0.13639170293026837 1296.4677465926616 0 1296.4677465926616 -975.97770376453263 0 0 0 0 -231.65032151959167 1438.4382617845949 0 1438.4382617845949 -960.20193851640943 0 0 0 0 -310.83937401534058 1321.9214675884359 0 1321.9214675884359 -1119.8705686748908 0 0 0 0 -357.95298260634445 1503.95629744709 0 1503.95629744709 -884.04923245028476 0 0 0 0 -358.9324431081186 1209.1494873109768 0 1209.1494873109768 -962.50831037737589 0 0 0 0 -464.14816849169074 1375.357707450414 0 1375.357707450414 -1031.0145719328211 0 0 0 0 -572.3598562692714 1278.3928770745915 0 1278.3928770745915 -1085.5987901641165 0 0 0 0 -349.88424021198443 1022.7113935545149 0 1022.7113935545149 -1351.7348681755102 0 0 0 0 -371.1464186584235 1293.5730866965405 0 1293.5730866965405 -1348.2608893883298 0 0 0 0 -413.03940946434886 1178.1212073570932 0 1178.1212073570932 -926.27308468610136 0 0 0 0 -54.221462208603043 807.43460762709765 0 807.43460762709765 -1087.6117033919072 0 0 0 0 -247.11156756227865 1082.209013997046 0 1082.209013997046 -1470.5184598184715 0 0 0 0 317.38827448320808 404.88909981093821 0 404.88909981093821 -1522.1974340325237 0 0 0 0 -35.506176969734952 326.68402140611579 0 326.68402140611579 -862.06859691521095 0 0 0 0 -731.7436301558846 1385.7476071202582 0 1385.7476071202582 -1696.6384094926179 0 0 0 0 41.855172973584558 888.46901609041015 0 888.46901609041015 -2359.0656094226688 0 0 0 0 -921.67665538169058 486.06560114403123 0 486.06560114403123 -1849.5406507855805 0 0 0 0 -114.89970358074061 985.14227222967747 0 985.14227222967747 -1716.4161192478969 0 0 0 0 0.30533624935924308 722.82864202750352 0 722.82864202750352 -2480.7511298554455 0 0 0 0 -365.09906067002157 1245.7259727412056 0 1245.7259727412056 -2014.2363355084071 0 0 0 0 -1447.4036972645135 891.27141659898871 0 891.27141659898871 -257.81617004153668 0 0 0 0 -1.3191158455364231 2.7829696031258209 0 2.7829696031258209 -17.331915907776477 0 0 0 0 -68.379195340705337 -61.014206832118361 0 -61.014206832118361 -398.98366856169105 0 0 0 0 -0.5862759290394024 454.6244624075207 0 454.6244624075207 -729.30073646025266 0 0 0 0 125.09160101924499 265.52038641769832 0 265.52038641769832 333.65740295924843 0 0 0 0 -256.52502803495736 445.16485571959311 0 445.16485571959311 -439.83469950543076 0 0 0 0 -1.1922632973901841 -1.628772230553075 0 -1.628772230553075 1.0573991894659684 0 0 0 0 0.68279405712479502 14.099362954349075 0 14.099362954349075 -42.256205155837705 0 0 0 0 137.1380888220101 119.69128357872523 0 119.69128357872523 86.712682210898492 0 0 0 0 -49.093157348281238 67.052208966837497 0 67.052208966837497 -79.376039165777911 0 0 0 0 1.4839701416330513 1.6222186713310265 0 1.6222186713310265 -3.873449000156441 0 0 0 0 207.32801376502175 205.93925552273686 0 205.93925552273686 186.33808582588972 0 0 0 0 0.47008624102594243 347.12534932694786 0 347.12534932694786 337.61457911553589 0 0 0 0 -3.0580189588771596 9.5950113779703372 0 9.5950113779703372 21.705418074354014 0 0 0 0 -79.364368666952942 97.352644670092559 0 97.352644670092559 -5.9156816782306123 0 0 0 0 231.2712462005793 119.35325156548151 0 119.35325156548151 -141.37791062704491 0 0 0 0 -6.4033263714098894 40.165408511309522 0 40.165408511309522 -22.303149325260435 0 0 0 0 -53.235638456215383 206.52139938990513 0 206.52139938990513 121.51617404239005 0 0 0 0 89.53059944360939 29.355775003429699 0 29.355775003429699 5.5057313124125358 0 0 0 0 -93.177389643745528 -116.67770943367549 0 -116.67770943367549 -454.65838128353789 0 0 0 0 -88.551477599219652 217.83772867630614 0 217.83772867630614 -166.13489405875953 0 0 0 0 278.20666740038541 -559.28574010948296 0 -559.28574010948296 -1430.9217688121862 0 0 0 0 37.245335076542688 154.83876451161996 0 154.83876451161996 -919.49485414107767 0 0 0 0 -88.313430584923481 263.61133469297056 0 263.61133469297056 -750.63039830576599 0 0 0 0 47.38565528728941 41.765578951581119 0 41.765578951581119 -591.17120871574298 0 0 0 0 -95.938191470355378 98.107690671018645 0 98.107690671018645 -543.38846582421684 0 0 0 0 -44.605022346266196 111.28524901008495 0 111.28524901008495 -561.1594678479596 0 0 0 0 25.857279511608795 22.305034978013282 0 22.305034978013282 -518.92550268785271 0 0 0 0 -27.092282633799186 9.6236373857536819 0 9.6236373857536819 -128.50427181959094 0 0 0 0 -33.654047579999315 44.628594009875087 0 44.628594009875087 -402.85175336562224 0 0 0 0 46.312000709644053 69.555637491208472 0 69.555637491208472 -406.15134465812298 0 0 0 0 52.624733159143943 27.616707128046983 0 27.616707128046983 -381.91276516327707 0 0 0 0 -46.429663989096298 105.85150573626379 0 105.85150573626379 -407.69293180848035 0 0 0 0 -98.128158905194141 170.62428963597995 0 170.62428963597995 -70.961643756152625 0 0 0 0 -20.449690158493468 182.29478936843589 0 182.29478936843589 1.4144750290543016 0 0 0 0 122.04565157597972 64.27666406116623 0 64.27666406116623 75.386404280019633 0 0 0 0 -12.840028211950653 40.592729581773725 0 40.592729581773725 -19.225984566265144 0 0 0 0 82.502680522156879 67.469991185769686 0 67.469991185769686 -175.88466483219236 0 0 0 0 -85.251507367887825 230.53645865038561 0 230.53645865038561 321.10969889843182 0 0 0 0 29.404559827547928 33.673609257134558 0 33.673609257134558 89.108728982275352 0 0 0 0 -68.694666144663643 -40.163568202091483 0 -40.163568202091483 191.38184166320571 0 0 0 0 -17.643432781122328 39.894492047761403 0 39.894492047761403 -18.478825193637931 0 0 0 0 -47.707868935071019 213.37194887835085 0 213.37194887835085 211.80168354726629 0 0 0 0 -121.22857386090618 124.07535900111543 0 124.07535900111543 471.74974326899974 0 0 0 0 1.3766711903299438 -2.0755074467233499 0 -2.0755074467233499 1.2827942408184754 0 0 0 0 -85.808468229079153 156.20892881163309 0 156.20892881163309 -169.67816310487251 0 0 0 0 -49.724796887734556 56.189234090925311 0 56.189234090925311 -178.51407277381804 0 0 0 0 -268.3136148287449 85.301461029826896 0 85.301461029826896 -32.749490534257347 0 0 0 0 -226.82252850483201 71.812085250145174 0 71.812085250145174 85.56782369279972 0 0 0 0 -102.41176177653688 -26.889938254254957 0 -26.889938254254957 84.397725938368239 0 0 0 0 -77.058577463714755 -8.8468149081018055 0 -8.8468149081018055 -6.584612165010185 0 0 0 0 -160.28643453569384 238.51964985110681 0 238.51964985110681 -599.49385798812727 0 0 0 0 -172.34953528598999 3.6672438742971281 0 3.6672438742971281 -502.87558060406445 0 0 0 0 -162.54668010821479 -14.877241700511149 0 -14.877241700511149 -675.41313127457397 0 0 0 0 -72.702679418260232 41.716228074772516 0 41.716228074772516 -581.58254470712563 0 0 0 0 -217.12035957639455 -89.990197268009069 0 -89.990197268009069 -513.82087982229132 0 0 0 0 -86.716933731018798 118.76225962903118 0 118.76225962903118 -1017.2236654911976 0 0 0 0 -430.52225843703491 255.06713502273487 0 255.06713502273487 -731.96181572925707 0 0 0 0 -609.35034003230976 -101.20221659833624 0 -101.20221659833624 -565.63802380325797 0 0 0 0 -7.9835048501263373 -7.7316029501744197 0 -7.7316029501744197 -305.85498723389173 0 0 0 0 -165.62282067218621 176.41029814524154 0 176.41029814524154 -276.43956716789398 0 0 0 0 -44.809635476733092 3.4235657035169424 0 3.4235657035169424 -534.09842270325316 0 0 0 0 -32.66729980620039 66.524841105966516 0 66.524841105966516 -411.82644115902076 0 0 0 0 -9.5663992304471321 -24.795951588399475 0 -24.795951588399475 -515.68476980781998 0 0 0 0 -93.124190694698427 -34.916057504517312 0 -34.916057504517312 -492.84884011009126 0 0 0 0 -93.347541073802859 -25.618915694583848 0 -25.618915694583848 -481.83374937479675 0 0 0 0 -114.72635874449043 -23.48610468453262 0 -23.48610468453262 -413.35889086511452 0 0 0 0 -46.156460723163036 37.989806226756627 0 37.989806226756627 -484.83607869685511 0 0 0 0 -103.23994210525416 -12.694990824573324 0 -12.694990824573324 -475.31340477701087 0 0 0 0 -381.86767342554231 63.395703696885903 0 63.395703696885903 -472.24358892535383 0 0 0 0 -106.42505128748599 5.796724023486604 0 5.796724023486604 -464.8128690970043 0 0 0 0 -154.50155865866691 32.606542622874258 0 32.606542622874258 -627.5203086792244 0 0 0 0 -176.29864641636959 -25.377093770446663 0 -25.377093770446663 -610.47433505597292 0 0 0 0 -134.40589642798295 -61.64566468699195 0 -61.64566468699195 -478.71128628022052 0 0 0 0 -242.07225777940766 -24.627917899237218 0 -24.627917899237218 -342.00374844594626 0 0 0 0 -94.112077194702579 -11.218895776284626 0 -11.218895776284626 -268.97561059906729 0 0 0 0 -178.75032855379686 6.7227828513059649 0 6.7227828513059649 -285.81273776896705 0 0 0 0 -119.12521338526858 38.311965077489731 0 38.311965077489731 -340.20664511240989 0 0 0 0 -172.96621921173937 91.592866819904884 0 91.592866819904884 -145.34587088818807 0 0 0 0 -161.10229448381142 100.02057047256676 0 100.02057047256676 -288.1106264275586 0 0 0 0 -43.863684196865506 83.651039185690934 0 83.651039185690934 -169.97804752715456 0 0 0 0 -257.21376773712836 220.11420161735077 0 220.11420161735077 38.128771136889554 0 0 0 0 -253.80055480227747 239.51346343608748 0 239.51346343608748 -179.49688005617645 0 0 0 0 -290.52849891323422 258.76606794423788 0 258.76606794423788 -188.22609485975408 0 0 0 0 -171.22181767845177 76.50538092226634 0 76.50538092226634 -342.45257255078468 0 0 0 0 -161.92781420698157 19.162103279741132 0 19.162103279741132 -424.11114323622314 0 0 0 0 -185.75798967739684 134.30090341129107 0 134.30090341129107 -489.22790438323841 0 0 0 0 -154.26254640919069 64.306805041385815 0 64.306805041385815 -335.22565837719594 0 0 0 0 -88.686992270304472 172.70107305487181 0 172.70107305487181 -623.41936633829027 0 0 0 0 -327.6435978487425 395.73064679917297 0 395.73064679917297 -515.06293198421918 0 0 0 0 -258.37928252763959 688.16292978355341 0 688.16292978355341 -962.32845822769377 0 0 0 0 -4.8259521564323222 279.78935252086922 0 279.78935252086922 -797.69434976052435 0 0 0 0 -197.20219040105076 513.69426129353997 0 513.69426129353997 -488.52919282122457 0 0 0 0 -481.86113490246498 779.1173213908005 0 779.1173213908005 -677.21957565303819 0 0 0 0 -611.51964699465316 553.9458134972374 0 553.9458134972374 -163.31130853555078 0 0 0 0 -258.10330074177909 309.04313012566672 0 309.04313012566672 -409.75250686005165 0 0 0 0 -564.57706074183807 978.08110586694238 0 978.08110586694238 -373.59520017125033 0 0 0 0 -464.24230992271623 1364.8274032145678 0 1364.8274032145678 -652.69375277385552 0 0 0 0 -509.86698549454013 1180.1892022498105 0 1180.1892022498105 -859.78503654996894 0 0 0 0 -724.33183857936092 1535.364374657911 0 1535.364374657911 -760.11518334073116 0 0 0 0 -824.36885516873735 1343.7228651175246 0 1343.7228651175246 -364.99506079224375 0 0 0 0 -761.30394700271427 881.65031166195786 0 881.65031166195786 15.308986997901229 0 0 0 0 -897.71174446312943 1472.9449676432632 0 1472.9449676432632 -570.85338515330659 0 0 0 0 -877.90904093590507 1205.6166440268862 0 1205.6166440268862 -506.85121618888297 0 0 0 0 -1341.7078512958105 1345.0195656815849 0 1345.0195656815849 14.289803148956992 0 0 0 0 -332.42454510624157 42.794289899746218 0 42.794289899746218 494.83744016096898 0 0 0 0 -1441.4768661878115 840.81641917530578 0 840.81641917530578 665.44743066324827 0 0 0 0 409.34454922027362 382.50827796483645 0 382.50827796483645 116.07521359019529 0 0 0 0 -86.335145562086836 68.607891521915008 0 68.607891521915008 147.45263198397879 0 0 0 0 -966.02581426684628 761.4634866574379 0 761.4634866574379 5.846186423477775 0 0 0 0 -486.64538632007316 361.83638990196232 0 361.83638990196232 129.89782852530334 0 0 0 0 241.92166769714095 208.43496441903699 0 208.43496441903699 395.96434419355137 0 0 0 0 271.91131115116877 682.1828890381621 0 682.1828890381621 637.72273631984172 0 0 0 0 -7.4840646489612368 9.497963694331748 0 9.497963694331748 -8.3738516019729161 0 0 0 0 69.336874251559493 -40.632383348700387 0 -40.632383348700387 41.693734983382456 0 0 0 0 13.783463473679149 39.684290915112797 0 39.684290915112797 10.51563582084782 0 0 0 0 -27.319607667828677 24.86732312843742 0 24.86732312843742 18.995587219957088 0 0 0 0 1.833820753814507 22.625399826412831 0 22.625399826412831 2.6187710432132008 0 0 0 0 -2.7563491919377068 13.632660233119168 0 13.632660233119168 5.7245300798934124 0 0 0 0 -29.763646644598339 9.8888370621352806 0 9.8888370621352806 8.7916818845415037 0 0 0 0 -1.6453172074798381 15.019785905038603 0 15.019785905038603 6.6713130113109003 0 0 0 0 -33.58309008185006 5.5664694700917607 0 5.5664694700917607 -22.712002313339326 0 0 0 0 3.4171815834415611 27.078211245083367 0 27.078211245083367 5.5847269660916936 0 0 0 0 0.017975369578863365 9.5098263125713913 0 9.5098263125713913 -10.190338970499127 0 0 0 0 354.63372817759227 457.53570096924159 0 457.53570096924159 347.36304410155572 0 0 0 0 381.26319428195711 463.70391577031114 0 463.70391577031114 265.02885890348989 0 0 0 0 612.20865580749523 343.59252217208996 0 343.59252217208996 287.68095533508676 0 0 0 0 334.99108044957757 242.9724281092515 0 242.9724281092515 159.0682291850826 0 0 0 0 -11.148586026712735 12.13521515574767 0 12.13521515574767 -4.8178106207703877 0 0 0 0 -6.6236786552938156 52.464507321577344 0 52.464507321577344 236.2073025893842 0 0 0 0 -112.24556628557912 20.904318020307983 0 20.904318020307983 11.247641042391479 0 0 0 0 -2.0211768879363659 5.0932973679069988 0 5.0932973679069988 1.304343285878133 0 0 0 0 175.20838372579601 327.13928634168769 0 327.13928634168769 177.60552271327469 0 0 0 0 462.00240853957439 276.25743668335235 0 276.25743668335235 -61.249280399046256 0 0 0 0 259.8129972248862 204.63279819412128 0 204.63279819412128 -81.573975003742817 0 0 0 0 274.66325623083685 314.98733684376202 0 314.98733684376202 80.124110730321263 0 0 0 0 323.7546124564542 395.68653112708853 0 395.68653112708853 360.11740465510229 0 0 0 0 372.9802371409387 95.98185378670496 0 95.98185378670496 150.67768188462651 0 0 0 0 355.5931707945274 257.57286178403592 0 257.57286178403592 -94.638153103187506 0 0 0 0 322.86897775322723 122.14765109426662 0 122.14765109426662 -66.037111028548679 0 0 0 0 263.58198008431918 222.00337796640429 0 222.00337796640429 -184.1368115326477 0 0 0 0 269.39320096023039 141.35718473543898 0 141.35718473543898 -259.70789694592531 0 0 0 0 177.76175159806735 114.02501804565691 0 114.02501804565691 -225.14739233674482 0 0 0 0 160.58265278195904 217.21096832790499 0 217.21096832790499 -68.370644521804934 0 0 0 0 272.27829025370011 186.83486454335798 0 186.83486454335798 -71.852945282647852 0 0 0 0 424.01089578508254 280.65609843527272 0 280.65609843527272 172.75740278621379 0 0 0 0 240.71446431867662 353.32917349003401 0 353.32917349003401 168.88069583062315 0 0 0 0 212.49041443858732 166.00001141926987 0 166.00001141926987 -77.399015903261898 0 0 0 0 183.38604191185732 322.01779295146844 0 322.01779295146844 256.19447125864826 0 0 0 0 258.72954590384779 213.18814376881755 0 213.18814376881755 -89.244568664900726 0 0 0 0 -58.520181042105833 177.29429356778928 0 177.29429356778928 0.40440373940509744 0 0 0 0 82.116729291286902 60.884799035418837 0 60.884799035418837 -179.62378727084433 0 0 0 0 73.693866849760525 194.87729927884357 0 194.87729927884357 -34.671242509488366 0 0 0 0 -86.293031583550601 126.33869044272683 0 126.33869044272683 -199.07616057967243 0 0 0 0 -166.41238383299788 106.47511742078495 0 106.47511742078495 -362.92078393953852 0 0 0 0 35.58313944528345 34.081390290550189 0 34.081390290550189 -336.977463519921 0 0 0 0 19.328913849598393 164.89971783120336 0 164.89971783120336 -236.90481201866351 0 0 0 0 39.315051779325586 106.10932580017106 0 106.10932580017106 -501.63272328925086 0 0 0 0 37.311631342890905 64.957950626878301 0 64.957950626878301 -362.86941480668611 0 0 0 0 17.593780469178455 -7.0328232338215457 0 -7.0328232338215457 -496.47462285688471 0 0 0 0 -65.389233748137485 19.11523734984803 0 19.11523734984803 -524.16906581573494 0 0 0 0 8.972526161607675 26.134522049273073 0 26.134522049273073 -528.24692053043691 0 0 0 0 -102.01753084873053 125.15272946588084 0 125.15272946588084 -717.7330138553225 0 0 0 0 173.0029477076896 115.57900324439834 0 115.57900324439834 -246.85350173967163 0 0 0 0 253.19851125311106 164.57293597586977 0 164.57293597586977 -346.81912381736038 0 0 0 0 183.48573481546919 148.48706485815273 0 148.48706485815273 -378.35839881830907 0 0 0 0 117.51541326506413 60.76226792523812 0 60.76226792523812 -366.53699301264714 0 0 0 0 100.59962638393336 77.666132374593872 0 77.666132374593872 -348.94034137084964 0 0 0 0 120.76431918612798 89.186857399836299 0 89.186857399836299 -490.63211042169132 0 0 0 0 203.51361304582679 93.355265879516082 0 93.355265879516082 -437.43580971327901 0 0 0 0 186.28978288265353 94.427572539709217 0 94.427572539709217 -343.89900057378691 0 0 0 0 169.08662077179179 40.202308872751018 0 40.202308872751018 -439.49997306553996 0 0 0 0 93.186301101872232 45.330639180363505 0 45.330639180363505 -394.68743561209703 0 0 0 0 19.453386998327915 -61.051405861857347 0 -61.051405861857347 -472.71072470831859 0 0 0 0 122.41784953685419 37.212646934196528 0 37.212646934196528 -516.48560454859398 0 0 0 0 46.79139674876933 14.51470427752065 0 14.51470427752065 -441.09033405601076 0 0 0 0 9.3453862023743568 -134.58492934911919 0 -134.58492934911919 -621.56971738801803 0 0 0 0 22.353727629146306 -58.89809015515857 0 -58.89809015515857 -483.66762484930223 0 0 0 0 -143.59973176612402 -295.64346442884562 0 -295.64346442884562 -517.07322665765241 0 0 0 0 -210.76833997838548 -206.94924031604023 0 -206.94924031604023 -331.44571346437442 0 0 0 0 -6.836449176131282 -133.02786735873087 0 -133.02786735873087 -527.45502534604748 0 0 0 0 -80.645031863416079 -109.66333424588083 0 -109.66333424588083 -318.62452024668164 0 0 0 0 -35.544539936963702 -85.231104466627585 0 -85.231104466627585 -391.44607049302431 0 0 0 0 76.177090114360908 -39.533017678317265 0 -39.533017678317265 -478.9957947084622 0 0 0 0 73.654731882507804 16.88579604528968 0 16.88579604528968 -364.4239777099574 0 0 0 0 43.898563513255795 -42.877114252958563 0 -42.877114252958563 -375.72608743325691 0 0 0 0 33.079906497936463 -37.298427491929033 0 -37.298427491929033 -363.56966056698002 0 0 0 0 90.889906915650499 40.404370119556916 0 40.404370119556916 -258.27601551898988 0 0 0 0 82.474730579793686 -0.78254243434639648 0 -0.78254243434639648 -329.99790211944492 0 0 0 0 20.996181320602773 -201.18899088740727 0 -201.18899088740727 -938.7292000542966 0 0 0 0 -70.313286262102338 236.37632202537134 0 236.37632202537134 -170.12684842882663 0 0 0 0 -74.33216487581376 9.6872201648948248 0 9.6872201648948248 143.41852945988649 0 0 0 0 -2.133557042697305 2.2224053031201763 0 2.2224053031201763 -4.3337408437192835 0 0 0 0 25.070849271651241 -20.175617668235645 0 -20.175617668235645 -805.98011673211295 0 0 0 0 -21.993673653050791 -46.499145775858779 0 -46.499145775858779 -718.75308821871295 0 0 0 0 18.86739340951317 42.279698126047151 0 42.279698126047151 -682.92485357041005 0 0 0 0 21.718398323428119 -89.192710955670918 0 -89.192710955670918 -660.19353704873174 0 0 0 0 70.80480236945732 8.6774885506747523 0 8.6774885506747523 -591.05848594149575 0 0 0 0 40.136656140210107 -131.17208450080943 0 -131.17208450080943 -716.77854437864153 0 0 0 0 20.275760123564396 -52.429561143697356 0 -52.429561143697356 -615.58591177675407 0 0 0 0 -14.443613038747571 -59.303489443176659 0 -59.303489443176659 -526.99741152988281 0 0 0 0 -28.864133536597365 -305.18861935793393 0 -305.18861935793393 -746.78191688028528 0 0 0 0 -2.7829941875392876 -0.66238832833746386 0 -0.66238832833746386 -0.54136569445019234 0 0 0 0 -74.20152736712771 -19.100963306056656 0 -19.100963306056656 -19.145965195639292 0 0 0 0 11.523969969566679 -15.156187933724141 0 -15.156187933724141 -20.950416640975163 0 0 0 0 -15.082884068309795 -31.523136570307543 0 -31.523136570307543 -1.1942952546523884 0 0 0 0 -28.387854310509283 37.230450107221259 0 37.230450107221259 104.05082327417404 0 0 0 0 17.81996422886732 1.030325369341881 0 1.030325369341881 46.963768418234395 0 0 0 0 14.969728541385848 17.046140584294335 0 17.046140584294335 -1.8157785946823424 0 0 0 0 -7.1088920791517012 -2.9878722665307578 0 -2.9878722665307578 48.482911045663059 0 0 0 0 -4.3949585999444025 5.8500064104526714 0 5.8500064104526714 5.5973986336025945 0 0 0 0 100.08478631228718 125.51039519691949 0 125.51039519691949 107.71137590523722 0 0 0 0 5.8588961289315193 3.2370141961146146 0 3.2370141961146146 55.087812119338196 0 0 0 0 -130.6523247610312 -73.195043859392172 0 -73.195043859392172 -190.18159364609164 0 0 0 0 -139.60740399322822 -92.541849024521071 0 -92.541849024521071 -212.24768196087098 0 0 0 0 -59.157338519406039 -23.254450942738913 0 -23.254450942738913 -171.7906155840974 0 0 0 0 39.587727538309991 1.2992638050927781 0 1.2992638050927781 -233.98836981735803 0 0 0 0 43.451509854668984 6.5381635119629209 0 6.5381635119629209 -271.96099832365871 0 0 0 0 -3.9870487896259874 -26.710763450479135 0 -26.710763450479135 -238.87977846959257 0 0 0 0 -5.028923497069627 -33.673973757366184 0 -33.673973757366184 -254.55945192332729 0 0 0 0 -6.3536203170879162 14.998269210922444 0 14.998269210922444 59.168905041544349 0 0 0 0 2.4327965574157133 22.385596204009744 0 22.385596204009744 55.926765454052656 0 0 0 0 -5.1518768510613882 25.142691446486424 0 25.142691446486424 117.37418700550916 0 0 0 0 -19.417316003135056 16.721747181938554 0 16.721747181938554 127.66912151742144 0 0 0 0 -40.541209240735043 96.286096009960602 0 96.286096009960602 318.63872542723766 0 0 0 0 -4.5899618984549306 -17.382275833653694 0 -17.382275833653694 90.068387044186238 0 0 0 0 6.8425949696356838 140.37210567316833 0 140.37210567316833 117.12406256599206 0 0 0 0 16.790794512777211 44.439485313722798 0 44.439485313722798 107.36213880683499 0 0 0 0 -16.854897358833114 143.31450526919798 0 143.31450526919798 278.55378667285709 0 0 0 0 97.62596835946897 106.99105908974889 0 106.99105908974889 -1.9993120072758757 0 0 0 0 3.4449022030794367 61.75150272703344 0 61.75150272703344 -21.34886203338786 0 0 0 0 0.21208837525512081 37.469628841164635 0 37.469628841164635 101.20423937519395 0 0 0 0 -19.16051483413321 63.698915567365475 0 63.698915567365475 112.24346393470478 0 0 0 0 13.79345221267431 16.865405458884197 0 16.865405458884197 -184.46019176459959 0 0 0 0 3.0499591254798233 17.190945764600286 0 17.190945764600286 -6.555468324105334 0 0 0 0 171.82712398716831 87.653766603878466 0 87.653766603878466 -31.099401279265294 0 0 0 0 -6.1797719512435378 10.741969156502734 0 10.741969156502734 2.7258942792046668 0 0 0 0 -33.317974380952364 87.994809577796332 0 87.994809577796332 -21.836926722928183 0 0 0 0 32.194539639662253 17.699674430892628 0 17.699674430892628 -199.00444439862622 0 0 0 0 70.010638543753885 52.945400160169811 0 52.945400160169811 -191.03393842581136 0 0 0 0 148.58658958901651 118.32041056580056 0 118.32041056580056 -218.10224170971196 0 0 0 0 155.34583090877277 159.58700882679841 0 159.58700882679841 -205.53006002557595 0 0 0 0 104.06820526312367 135.96019640371378 0 135.96019640371378 -46.883975394754088 0 0 0 0 127.604468695572 125.48658024969336 0 125.48658024969336 -42.653474572711275 0 0 0 0 71.692951196797367 150.00186843511256 0 150.00186843511256 -19.735860402841354 0 0 0 0 86.712707670783857 183.91755688880221 0 183.91755688880221 -153.2170728410274 0 0 0 0 52.430627024386922 137.87607509998816 0 137.87607509998816 15.454280328951427 0 0 0 0 82.000980228956905 266.34546586313809 0 266.34546586313809 -242.76861865249521 0 0 0 0 155.1440841022777 188.56352579417216 0 188.56352579417216 -270.76277317485074 0 0 0 0 143.68183115392458 191.44691195699124 0 191.44691195699124 -152.57693520361863 0 0 0 0 244.43048809436732 218.05395610936102 0 218.05395610936102 -307.22788872700767 0 0 0 0 194.87549550802214 188.22478553716792 0 188.22478553716792 -279.82762179421115 0 0 0 0 186.85048301289498 276.57559933451921 0 276.57559933451921 -315.77520915675268 0 0 0 0 177.61810203180357 270.44968067028458 0 270.44968067028458 -252.57205877191154 0 0 0 0 112.21325024051475 43.600298492186994 0 43.600298492186994 -324.31643565694685 0 0 0 0 200.42553644630243 107.19580302658142 0 107.19580302658142 -347.55499349077581 0 0 0 0 143.82151679671369 96.27753284915525 0 96.27753284915525 -251.38827043297351 0 0 0 0 203.80706595786614 159.6224895651394 0 159.6224895651394 -287.2786842343321 0 0 0 0 133.62878493878088 118.3203760327342 0 118.3203760327342 -282.44050471356604 0 0 0 0 277.19150093280768 173.53448520188249 0 173.53448520188249 -350.44372758939062 0 0 0 0 189.19979906201479 134.4105439554769 0 134.4105439554769 -327.5462896519748 0 0 0 0 159.4007117209112 74.992883178842021 0 74.992883178842021 -367.00925623904914 0 0 0 0 251.19987641391344 143.52300408406882 0 143.52300408406882 -380.22549911869464 0 0 0 0 241.43318317455123 146.41018922101648 0 146.41018922101648 -325.17343481950229 0 0 0 0 253.06002841611189 215.31615795943799 0 215.31615795943799 -326.55058467938215 0 0 0 0 308.55795454478357 185.60586626485019 0 185.60586626485019 -310.71710539275955 0 0 0 0 303.68437406715384 227.00158929513054 0 227.00158929513054 -269.33047452593746 0 0 0 0 374.40360842780501 143.43280635702104 0 143.43280635702104 -201.44282994809328 0 0 0 0 342.86701153210015 175.23885741125559 0 175.23885741125559 -323.8963706760378 0 0 0 0 256.66697388626926 126.74207332805963 0 126.74207332805963 -221.0415329203388 0 0 0 0 41.822810630212189 365.41006427758111 0 365.41006427758111 -288.61572913212149 0 0 0 0 297.34158763740561 266.18569982804183 0 266.18569982804183 -326.85634534791461 0 0 0 0 266.36389658387634 245.75016556062474 0 245.75016556062474 -284.79901391913882 0 0 0 0 362.39039152117584 273.23599526261069 0 273.23599526261069 -277.64167649393494 0 0 0 0 231.4212581193824 361.59475414838653 0 361.59475414838653 -388.49858536363172 0 0 0 0 277.24368506563042 218.51451994200943 0 218.51451994200943 -346.21565239867778 0 0 0 0 -340.10387274219102 583.96793555228214 0 583.96793555228214 -370.21049019657949 0 0 0 0 21.269607956586697 326.11545884259249 0 326.11545884259249 -229.06485263060313 0 0 0 0 -220.91534471983323 78.319504073821008 0 78.319504073821008 -812.58638445238466 0 0 0 0 -774.4437022181919 125.98571131325843 0 125.98571131325843 -38.225521843283786 0 0 0 0 -202.03734179738967 118.2608195517314 0 118.2608195517314 -47.386830657032988 0 0 0 0 -238.44770437288389 113.31359809241258 0 113.31359809241258 -2.2322317512371228 0 0 0 0 -103.69444988494797 352.6623619271777 0 352.6623619271777 -201.19038728666419 0 0 0 0 -294.77168559061101 197.42750517371678 0 197.42750517371678 -23.581422306189779 0 0 0 0 42.969160832479247 229.68142515286308 0 229.68142515286308 -119.60675939000794 0 0 0 0 -21.838394083781168 235.27461169537855 0 235.27461169537855 -112.27002920782252 0 0 0 0 -81.685426160733186 149.36298090789023 0 149.36298090789023 25.206046743434854 0 0 0 0 -102.32045633060625 182.86399257124867 0 182.86399257124867 -27.72236821237675 0 0 0 0 -48.109573109504709 69.236047379010415 0 69.236047379010415 62.474127895795391 0 0 0 0 -153.18436451591515 42.111385581430113 0 42.111385581430113 56.169071810261812 0 0 0 0 -21.043019513832405 103.68739897043997 0 103.68739897043997 162.12090255237854 0 0 0 0 -42.751832758149249 34.789181520560305 0 34.789181520560305 115.42269446204591 0 0 0 0 -6.5099976212745219 28.150581175908211 0 28.150581175908211 -9.2886944726535745 0 0 0 0 -2.0670943899259271 33.330784659420502 0 33.330784659420502 -38.274575527164359 0 0 0 0 36.362271489051636 52.450430552169564 0 52.450430552169564 206.15676186799828 0 0 0 0 36.908744406915503 133.76524025690378 0 133.76524025690378 26.74551028414362 0 0 0 0 -4.6941103624631069 187.40578462252961 0 187.40578462252961 36.620361558381774 0 0 0 0 21.215511214046273 11.009654593173764 0 11.009654593173764 32.884158026352452 0 0 0 0 11.220016705046874 -1.8388830430776579 0 -1.8388830430776579 16.724482071935199 0 0 0 0 17.628725576469151 26.193704721827089 0 26.193704721827089 29.601862365670968 0 0 0 0 -33.453150164394174 8.183306721271947 0 8.183306721271947 71.767867576509161 0 0 0 0 3.3545572661823826 38.852836930713238 0 38.852836930713238 73.270723521040054 0 0 0 0 -2.1715881620475557 37.100088625469652 0 37.100088625469652 77.150136152884443 0 0 0 0 -68.653853513707872 -18.486744690933847 0 -18.486744690933847 52.394676715804962 0 0 0 0 -11.297408418846317 -22.052475077449344 0 -22.052475077449344 13.246507319316152 0 0 0 0 -49.54602564877132 -10.304517058495549 0 -10.304517058495549 14.059310338158411 0 0 0 0 91.986367401725147 -17.728665228176396 0 -17.728665228176396 -11.96754329273972 0 0 0 0 40.02867195563158 -19.258157936448697 0 -19.258157936448697 -10.362831063161138 0 0 0 0 10.116452047674102 -8.643981375353178 0 -8.643981375353178 17.66663072918891 0 0 0 0 48.088527490839624 17.155043037782889 0 17.155043037782889 -5.1145397669606609 0 0 0 0 18.433329159379355 20.74759655919479 0 20.74759655919479 5.4426782568334602 0 0 0 0 71.908499180026411 18.373302071106082 0 18.373302071106082 -7.599246432815562 0 0 0 0 172.15490400223462 3.1871659349067158 0 3.1871659349067158 -56.855901466144132 0 0 0 0 159.06371941036923 -103.91299449153303 0 -103.91299449153303 -53.07273206723039 0 0 0 0 -3.1822281382546578 4.0307116325412835 0 4.0307116325412835 -15.365261590976786 0 0 0 0 393.68572363212297 -0.98477966590871802 0 -0.98477966590871802 -25.140682453769841 0 0 0 0 -2.2991053629375529 -76.335669040487119 0 -76.335669040487119 -13.482869393657893 0 0 0 0 -25.200382377863207 -131.33784131980337 0 -131.33784131980337 78.963432515083696 0 0 0 0 -198.3671140732713 -102.09488332923729 0 -102.09488332923729 6.6584939698368544 0 0 0 0 -47.63464238330198 -37.145498336518358 0 -37.145498336518358 -168.38518339589064 0 0 0 0 -2.5939751344922115 253.47230168036549 0 253.47230168036549 -182.42394498453359 0 0 0 0 -214.76696031305619 150.68736856739997 0 150.68736856739997 -152.40386785884766 0 0 0 0 -138.56707204980194 185.32636488424032 0 185.32636488424032 -157.54291035584902 0 0 0 0 -114.29373863197725 88.38398381243951 0 88.38398381243951 98.014851996587822 0 0 0 0 173.59591303554225 388.93784742305252 0 388.93784742305252 126.43531858049391 0 0 0 0 0.50484675152073066 1.112586661696767 0 1.112586661696767 -5.4931462446434978 0 0 0 0 57.510903443650022 -208.94491276023336 0 -208.94491276023336 -32.197345239124843 0 0 0 0 791.7150241861309 115.99564443228337 0 115.99564443228337 -305.8077570687019 0 0 0 0 563.26278073396679 -313.77774957222937 0 -313.77774957222937 -356.49442414658552 0 0 0 0 -26.285094891965358 82.834236996699559 0 82.834236996699559 -65.549230851776883 0 0 0 0 366.74335043132305 378.8205048937125 0 378.8205048937125 -100.10736137147978 0 0 0 0 -437.60535159629944 471.19820898605394 0 471.19820898605394 -32.312082236021524 0 0 0 0 -174.93247766838613 256.41961576154972 0 256.41961576154972 -382.08103145511268 0 0 0 0 -16.407248313902528 184.74171517868217 0 184.74171517868217 -514.70737059673411 0 0 0 0 -675.06898106231529 413.15839456261529 0 413.15839456261529 -239.22212972445777 0 0 0 0 83.701457148054033 165.81244830928699 0 165.81244830928699 -0.57286710860353196 0 0 0 0 -5.1636469705140087 3.2363300684109255 0 3.2363300684109255 -2.7662943761189638 0 0 0 0 -639.82956664418452 -144.04059050279466 0 -144.04059050279466 -10.404284767937497 0 0 0 0 83.392788234530599 207.22833655682189 0 207.22833655682189 -637.07650478576761 0 0 0 0 -119.14047305618442 -52.499830775468581 0 -52.499830775468581 -40.941619724017073 0 0 0 0 -317.26578169330969 121.59995502304628 0 121.59995502304628 -9.8181928231424536 0 0 0 0 -338.77656623120311 -12.940113443216433 0 -12.940113443216433 52.886282562903943 0 0 0 0 -283.82215524786443 152.14435250042516 0 152.14435250042516 7.6667648380644096 0 0 0 0 -165.52315717531019 21.071117393828899 0 21.071117393828899 56.547384573845193 0 0 0 0 -156.79586557841685 47.99105571608743 0 47.99105571608743 14.582663455534203 0 0 0 0 -192.66173621692724 19.243224620742694 0 19.243224620742694 33.707821240765043 0 0 0 0 -207.22827578908618 42.538668005123327 0 42.538668005123327 48.699193713488057 0 0 0 0 -139.66068826468836 167.41562627565145 0 167.41562627565145 78.767360784375342 0 0 0 0 52.385776089133287 190.28556820321683 0 190.28556820321683 -14.607285471985961 0 0 0 0 197.15680314141036 36.989591114821451 0 36.989591114821451 -183.33541906236496 0 0 0 0 -34.244064561822661 85.224708283484262 0 85.224708283484262 -65.744839140576545 0 0 0 0 -164.0916052206303 94.309346400637878 0 94.309346400637878 28.166458971281827 0 0 0 0 -170.9959515195369 141.90858081774059 0 141.90858081774059 71.165618501108838 0 0 0 0 -114.17067057170061 127.57234935380984 0 127.57234935380984 42.465744036846445 0 0 0 0 17.122175052594685 60.358185135842177 0 60.358185135842177 -15.927237502823118 0 0 0 0 -36.77093216405774 47.470614972149633 0 47.470614972149633 -10.544535616820212 0 0 0 0 110.62908890528115 110.57033392451922 0 110.57033392451922 -58.014377894614881 0 0 0 0 -25.029438488211458 48.301838694530126 0 48.301838694530126 -16.175936038130828 0 0 0 0 15.439933320726311 11.46003403487552 0 11.46003403487552 -12.006314423405684 0 0 0 0 -18.145310640742537 172.6970269016856 0 172.6970269016856 10.801701092022995 0 0 0 0 -42.465446388653419 50.710662003668865 0 50.710662003668865 -33.439793933587211 0 0 0 0 6.2136462248963653 81.291012078818312 0 81.291012078818312 -103.18407555673184 0 0 0 0 -57.978903370240005 -48.532417065660411 0 -48.532417065660411 -36.51566781996371 0 0 0 0 -1.8527903314944751 1.4057377423096113 0 1.4057377423096113 1.7520260744387954 0 0 0 0 -136.01964970111658 92.094831389491446 0 92.094831389491446 -28.15753643039352 0 0 0 0 -106.33214505416254 -46.488927134592814 0 -46.488927134592814 12.146984595128743 0 0 0 0 -79.856085804065515 7.2673346299598052 0 7.2673346299598052 116.77321260003373 0 0 0 0 -51.907464915482109 31.978596986766263 0 31.978596986766263 -19.860397024941037 0 0 0 0 -166.54105720362713 154.41892003334578 0 154.41892003334578 162.84260821186035 0 0 0 0 -33.778220254589542 39.861817251488901 0 39.861817251488901 -6.669985258646193 0 0 0 0 -54.508698248013388 31.174223318696022 0 31.174223318696022 -10.105036049055343 0 0 0 0 -37.929787708659518 29.66915941843385 0 29.66915941843385 -19.483037536218347 0 0 0 0 -55.080269836491311 57.996353608505558 0 57.996353608505558 -55.943017051424249 0 0 0 0 -78.074628767899412 38.795514995475969 0 38.795514995475969 -31.292313947225921 0 0 0 0 -123.56840245779313 82.10417878332737 0 82.10417878332737 -30.439940478172502 0 0 0 0 33.681333431377425 43.378497550511383 0 43.378497550511383 -87.846191470009217 0 0 0 0 -35.97419579675261 47.182151042832629 0 47.182151042832629 8.8026140622387175 0 0 0 0 4.2206850836003582 9.0055524034238772 0 9.0055524034238772 -7.1099077698711426 0 0 0 0 -41.845491127482092 63.854343818704365 0 63.854343818704365 -36.065514799382072 0 0 0 0 -7.6780826744946769 43.862414638200676 0 43.862414638200676 -28.165141636737673 0 0 0 0 -0.21100727842713241 44.705677099547756 0 44.705677099547756 -15.045046099843603 0 0 0 0 134.78645562699739 36.570239611733996 0 36.570239611733996 -135.34326437868003 0 0 0 0 62.652135049640492 82.758916773127567 0 82.758916773127567 -38.902916695293243 0 0 0 0 92.337002982629201 40.767882407031721 0 40.767882407031721 -28.640038177538372 0 0 0 0 54.447978342711878 -0.010912617708100925 0 -0.010912617708100925 -8.2936291506079058 0 0 0 0 108.80645363359145 -36.619818695337017 0 -36.619818695337017 -73.559736374663771 0 0 0 0 79.197417182207573 35.110409841559886 0 35.110409841559886 -32.106609382812167 0 0 0 0 10.017146514313936 11.743689862432802 0 11.743689862432802 13.170148144512495 0 0 0 0 54.252654026071468 29.509542462070385 0 29.509542462070385 -80.19807736526127 0 0 0 0 3.7718752449469974 14.647030521396054 0 14.647030521396054 -27.370059387674701 0 0 0 0 17.161306091631559 19.799790532142652 0 19.799790532142652 -41.940252555701591 0 0 0 0 -6.6200267287998074 13.86551862106527 0 13.86551862106527 -22.576317769539003 0 0 0 0 7.0941206167517521 36.906754993722643 0 36.906754993722643 -17.689741378650069 0 0 0 0 5.9682307343173306 13.400650309355115 0 13.400650309355115 -38.249755160442874 0 0 0 0 4.1932456616147959 3.7176522048929712 0 3.7176522048929712 -6.0260384488731091 0 0 0 0 0.98613053628709224 0.92737100513794246 0 0.92737100513794246 -1.2200840286308647 0 0 0 0 47.490006499847368 -58.166170166372467 0 -58.166170166372467 -81.099599662018591 0 0 0 0 -74.547240113053704 -17.172870780676021 0 -17.172870780676021 48.27725822920911 0 0 0 0 313.99047972837434 40.444425830784894 0 40.444425830784894 50.128816164298769 0 0 0 0 238.59801885495835 348.07257428238336 0 348.07257428238336 399.13444883705233 0 0 0 0 297.8539534608135 -91.573508453730028 0 -91.573508453730028 -37.795635062633664 0 0 0 0 2.6858975281904378 2.0597205882774574 0 2.0597205882774574 -0.0053787819955299909 0 0 0 0 14.578091647948895 18.617780909022258 0 18.617780909022258 95.993743531318614 0 0 0 0 98.315804307872895 26.69921457102464 0 26.69921457102464 -26.831455165968691 0 0 0 0 13.826271347817965 2.601582000090275 0 2.601582000090275 -34.344662654293643 0 0 0 0 -46.243700965481366 55.583431426179231 0 55.583431426179231 -29.234522906539496 0 0 0 0 -38.836110735359398 -6.1132058248003887 0 -6.1132058248003887 7.4540980666290579 0 0 0 0 6.2011545878083609 4.6180407942470652 0 4.6180407942470652 -2.7267119661076418 0 0 0 0 -6.8920395283673628 12.867065069489328 0 12.867065069489328 -2.0442695854129624 0 0 0 0 -0.68188320636684807 15.14582225452699 0 15.14582225452699 -12.795103673487921 0 0 0 0 4.9211206732943538 13.555611225085158 0 13.555611225085158 2.828972008661367 0 0 0 0 -7.2975109101251121 18.126054077930348 0 18.126054077930348 -9.5482131183819376 0 0 0 0 78.768560383934528 67.660719848026929 0 67.660719848026929 23.450780471903272 0 0 0 0 0.42005569804591403 -1.1828814888087962 0 -1.1828814888087962 -0.62273284819221431 0 0 0 0 62.834144206961355 73.373309775150119 0 73.373309775150119 86.99279120585561 0 0 0 0 156.90649355353526 90.598997367571428 0 90.598997367571428 0.17943498789827572 0 0 0 0 329.23738966093242 221.70140655694922 0 221.70140655694922 88.295969513521413 0 0 0 0 326.91056160998414 208.14172429218888 0 208.14172429218888 80.168528673850233 0 0 0 0 52.680599973933568 112.38571115976447 0 112.38571115976447 173.54406883323099 0 0 0 0 -0.67912884448813315 2.4856402456010613 0 2.4856402456010613 -1.7988857593643957 0 0 0 0 -203.17013311985647 36.713871354411822 0 36.713871354411822 -36.822748371603666 0 0 0 0 -106.71335302187072 142.38570129251457 0 142.38570129251457 -345.044461995858 0 0 0 0 -237.0344099785143 173.51535686481657 0 173.51535686481657 -18.956086453072203 0 0 0 0 109.33293147484801 -54.836534621099418 0 -54.836534621099418 -202.17950965079945 0 0 0 0 -699.72742580513295 552.22193950689689 0 552.22193950689689 -328.77634083945713 0 0 0 0 -7.7958455482876161 93.933999915010645 0 93.933999915010645 -0.543517637255718 0 0 0 0 -49.042125203362957 58.671489300366375 0 58.671489300366375 -19.401981284550857 0 0 0 0 -1.2945299204257026 6.296477951855195 0 6.296477951855195 -3.5802036518871319 0 0 0 0 -2.7273121612226134 -0.50945083906208311 0 -0.50945083906208311 0.99366935964727077 0 0 0 0 -9.8862080219046504 10.355617025926676 0 10.355617025926676 -4.5480341103109794 0 0 0 0 -22.547818252976867 21.518185015804193 0 21.518185015804193 -10.837954231233198 0 0 0 0 -3.3110306189482799 8.224862914881669 0 8.224862914881669 -3.2230101999157341 0 0 0 0 -4.4479859062811329 6.7981321785874798 0 6.7981321785874798 -3.2481961972797251 0 0 0 0 -17.999102532907273 22.946571967026102 0 22.946571967026102 -19.27242247666436 0 0 0 0 -35.943932440626668 -45.061067088274285 0 -45.061067088274285 -13.008660109531775 0 0 0 0 -124.32141354515625 6.7885102356522111 0 6.7885102356522111 89.115790820935217 0 0 0 0 0.41160776292235823 14.813037170752068 0 14.813037170752068 -2.7511939827381866 0 0 0 0 -10.778306214210915 12.983663565262219 0 12.983663565262219 0.12559002923991969 0 0 0 0 -11.5304424589267 13.062992905746796 0 13.062992905746796 72.543829419941176 0 0 0 0 133.4540352294498 -7.8979998523427639 0 -7.8979998523427639 -4.9620761006954126 0 0 0 0 -9.6354240370541504 7.1450653177770675 0 7.1450653177770675 2.6594585947528913 0 0 0 0 -218.5421324235358 -52.621803253670805 0 -52.621803253670805 51.754478819682845 0 0 0 0 10.233425630503916 16.884595820156392 0 16.884595820156392 -4.574818461551331 0 0 0 0 -3.1938865660510629 2.6356475404257509 0 2.6356475404257509 1.166084955442301 0 0 0 0 2.7591670809997595 23.092249767367321 0 23.092249767367321 -0.033354675630107522 0 0 0 0 -36.815003407993572 26.870994704031546 0 26.870994704031546 -3.6128317002585391 0 0 0 0 -38.913733614936064 20.3690806826271 0 20.3690806826271 -8.8728102361346828 0 0 0 0 -26.852049975888804 45.130744489200879 0 45.130744489200879 -5.2676345547079109 0 0 0 0 11.262604259027285 14.929235764080659 0 14.929235764080659 -17.414646896922932 0 0 0 0 -51.875074442508776 63.360661238355533 0 63.360661238355533 -54.44072132864676 0 0 0 0 -71.87634087819788 34.959414463672147 0 34.959414463672147 -13.122263191777165 0 0 0 0 -64.390582436230034 26.015702242635598 0 26.015702242635598 -26.771265911243972 0 0 0 0 55.091807344429981 0.75162857444411202 0 0.75162857444411202 -40.629379335296107 0 0 0 0 -0.2056797581254699 -0.47971277170439919 0 -0.47971277170439919 1.4956080779414265 0 0 0 0 -738.44898544176249 386.12628175610007 0 386.12628175610007 -41.044905768212629 0 0 0 0 -809.96775379293831 104.42382231685224 0 104.42382231685224 192.05346347243176 0 0 0 0 -424.32627492715255 -223.58164461696288 0 -223.58164461696288 291.3225895767755 0 0 0 0 -1047.8091618220205 292.57335736702225 0 292.57335736702225 419.03020902342178 0 0 0 0 -1633.5715959166264 540.05687978316564 0 540.05687978316564 250.97333806421375 0 0 0 0 -1015.6138879190476 383.42147692704202 0 383.42147692704202 -70.581412645304226 0 0 0 0 -2940.2720362985783 547.60752220379072 0 547.60752220379072 352.5848819129169 0 0 0 0 -6.9291753868455999 24.574199928552844 0 24.574199928552844 1.3737148133732262 0 0 0 0 -3.9323857753557547 20.074567313668098 0 20.074567313668098 -2.1963288993392212 0 0 0 0 1.2318957122624852 49.810769467989303 0 49.810769467989303 -522.59409250593308 0 0 0 0 -12.302275949317846 19.977570547936921 0 19.977570547936921 4.2552876609843224 0 0 0 0 -7.8371152972176787 15.929290234427754 0 15.929290234427754 0.7611484650260536 0 0 0 0 -62.642709912295686 20.095165028280462 0 20.095165028280462 91.916035930495127 0 0 0 0 317.63560701420647 139.34711638931185 0 139.34711638931185 -46.00156719343795 0 0 0 0 -101.11291246852488 212.52058307903644 0 212.52058307903644 -46.204121048125671 0 0 0 0 -337.04727654307499 29.346682668430731 0 29.346682668430731 107.70656249875174 0 0 0 0 -248.41740194935119 1290.7487680400227 0 1290.7487680400227 -1104.6686618835774 0 0 0 0 413.32983260640867 -216.57551632038007 0 -216.57551632038007 -842.40636102069402 0 0 0 0 -7.0716014348401703 5.3804696501097311 0 5.3804696501097311 1.8158575129666019 0 0 0 0 -23.303152814657778 6.5061275692644074 0 6.5061275692644074 2.3435028768705699 0 0 0 0 -920.88510278123431 1260.2205754592724 0 1260.2205754592724 -2387.4747155431314 0 0 0 0 -1441.0477137916932 -729.3241297509885 0 -729.3241297509885 37.39235287142219 0 0 0 0 -2152.9120899278641 2063.832881361137 0 2063.832881361137 -1339.7527685970272 0 0 0 0 -3578.6951659213091 1552.1305848546922 0 1552.1305848546922 -114.36827736654959 0 0 0 0 -1924.8569218712291 930.91876565954954 0 930.91876565954954 -0.60128357446956215 0 0 0 0 -628.46771393674135 565.32756929192692 0 565.32756929192692 -557.24345002726386 0 0 0 0 455.44856465113116 30.245078965308494 0 30.245078965308494 -338.87954658425588 0 0 0 0 -646.865703875912 730.81102270118572 0 730.81102270118572 -568.27636248015915 0 0 0 0 -1932.5575926817655 1238.8183092334366 0 1238.8183092334366 -517.88899173866957 0 0 0 0 -517.35357526029111 807.1254843284114 0 807.1254843284114 -541.36463412515332 0 0 0 0 -1906.0028182596579 1366.3262990542717 0 1366.3262990542717 -688.69252051291551 0 0 0 0 -3557.9715643658601 766.10561120470663 0 766.10561120470663 -337.48735629323346 0 0 0 0 -2868.2010460012389 1248.4083488971301 0 1248.4083488971301 -0.97842233612693608 0 0 0 0 -2003.1338683610811 1775.264052481245 0 1775.264052481245 -1185.288730419883 0 0 0 0 -2387.5171671903954 912.12633878337874 0 912.12633878337874 -1375.0332884923191 0 0 0 0 -1895.6499756077828 1536.9110878886204 0 1536.9110878886204 -623.26959056473424 0 0 0 0 -1788.7808089081209 1703.1274468751828 0 1703.1274468751828 -671.16887311944447 0 0 0 0 -1782.6495745790817 1427.8533142032029 0 1427.8533142032029 -705.31659912580653 0 0 0 0 -2611.3507867000808 1845.7915914565747 0 1845.7915914565747 -510.51964810096979 0 0 0 0 -2299.5534026971218 1430.4672223585549 0 1430.4672223585549 -86.953066980648146 0 0 0 0 -1392.5234751169774 981.43734884920559 0 981.43734884920559 -58.895611674983229 0 0 0 0 -1505.5278785357805 1125.6525317014925 0 1125.6525317014925 -189.27818867380847 0 0 0 0 -1719.7006181759425 1433.1916503053744 0 1433.1916503053744 -436.716945662527 0 0 0 0 -1368.5606202578492 1416.3069478430407 0 1416.3069478430407 -714.97113993624225 0 0 0 0 -987.98869029797061 944.33360477248789 0 944.33360477248789 -309.40680925713968 0 0 0 0 -1486.1014605005257 1144.6342614073001 0 1144.6342614073001 -518.16684032875492 0 0 0 0 -475.76912342977448 583.79264007949678 0 583.79264007949678 -635.32212605312088 0 0 0 0 -185.32054026795959 73.482432131786481 0 73.482432131786481 -308.16522659488692 0 0 0 0 -1050.100858552978 791.11801305453992 0 791.11801305453992 -227.37821917857218 0 0 0 0 -961.26325369643155 850.49553376392942 0 850.49553376392942 -348.61565727496054 0 0 0 0 -959.23390803698385 429.00822403003099 0 429.00822403003099 29.794143659470137 0 0 0 0 -185.52341248809535 215.08380511160067 0 215.08380511160067 -184.78708979362273 0 0 0 0 -295.7262840346375 107.61864514257468 0 107.61864514257468 -71.915087678993586 0 0 0 0 -90.278077155193387 215.03136377397368 0 215.03136377397368 -101.43519659186131 0 0 0 0 -360.33631155767944 390.51207561571209 0 390.51207561571209 -325.15566774757463 0 0 0 0 -1.2628139389282669 19.165468303005795 0 19.165468303005795 -20.328250774365785 0 0 0 0 139.81399731344573 5.9298268423881382 0 5.9298268423881382 -30.412624006115948 0 0 0 0 7.3621794726859662 24.457186904684932 0 24.457186904684932 30.714235610677861 0 0 0 0 192.33836217321368 66.99820115728653 0 66.99820115728653 -198.63824198662769 0 0 0 0 -8.2498010136623634 -191.60692213186121 0 -191.60692213186121 -58.238283230748493 0 0 0 0 -0.45692771406022814 -0.61974782612159629 0 -0.61974782612159629 0.71781314241712835 0 0 0 0 26.656682830391219 -29.074061167928448 0 -29.074061167928448 31.489569767043577 0 0 0 0 -83.887574987078551 18.742128711004625 0 18.742128711004625 113.37032363773324 0 0 0 0 -5.4242203643661924 37.449505254189717 0 37.449505254189717 -51.502939883153886 0 0 0 0 86.602498265783652 107.89786047551388 0 107.89786047551388 -79.953788769431412 0 0 0 0 -139.85049109809916 -9.3080327825300628 0 -9.3080327825300628 191.5747758170728 0 0 0 0 -92.514643806207459 203.90651476701896 0 203.90651476701896 123.31588116812054 0 0 0 0 -273.59077239125327 104.95721272045193 0 104.95721272045193 -115.37524134364139 0 0 0 0 -125.59801899103331 -23.021657635239535 0 -23.021657635239535 20.249400471322588 0 0 0 0 6.3327132912236266 -140.75266857825773 0 -140.75266857825773 1.9958843848653487 0 0 0 0 -9.1074456341593759 9.900464300182648 0 9.900464300182648 -142.15642407650375 0 0 0 0 -258.53510745013045 134.06648964119086 0 134.06648964119086 -63.218158454241347 0 0 0 0 -34.151150444849918 14.355682498664464 0 14.355682498664464 166.87068687124702 0 0 0 0 -115.19922520042746 -105.75984432668338 0 -105.75984432668338 29.321495675074402 0 0 0 0 94.565326129923051 -74.023543869272544 0 -74.023543869272544 -25.578701897073188 0 0 0 0 -37.406747879300383 15.104803732110668 0 15.104803732110668 65.340699112966831 0 0 0 0 -56.113926569541945 -22.672723548290378 0 -22.672723548290378 -9.9832200553355506 0 0 0 0 -8.0921457539796471 3.3055804905024075 0 3.3055804905024075 15.740368623006191 0 0 0 0 -30.284863417503033 12.816545856504774 0 12.816545856504774 1.7397573395615282 0 0 0 0 -8.2260848988516955 30.187166872154194 0 30.187166872154194 16.359799684461905 0 0 0 0 -8.1397005842736689 29.593268144169997 0 29.593268144169997 19.255231060808001 0 0 0 0 138.36834359977365 159.57600277905294 0 159.57600277905294 133.18996693038935 0 0 0 0 21.267912774288561 -173.56022930384279 0 -173.56022930384279 -145.98378114604566 0 0 0 0 373.73147512246214 79.096336980313936 0 79.096336980313936 -347.80768612695101 0 0 0 0 -14.014910652658727 761.8728031337323 0 761.8728031337323 -1673.6054854388785 0 0 0 0 -354.93887724658271 145.21901108082056 0 145.21901108082056 -84.361517846249626 0 0 0 0 -244.47227773960185 262.04830218672578 0 262.04830218672578 16.568662248791952 0 0 0 0 -39.914962215734704 212.48229131010157 0 212.48229131010157 -198.24721178394248 0 0 0 0 -25.687864289797972 10.331860926650975 0 10.331860926650975 -3.4108035770600651 0 0 0 0 -1411.9191733285115 1350.9106641261533 0 1350.9106641261533 -1355.0910407772608 0 0 0 0 -1855.5988733140402 959.80906313173909 0 959.80906313173909 -1203.9576780716125 0 0 0 0 -2197.108421434481 1571.023341794411 0 1571.023341794411 -962.08656946792325 0 0 0 0 -570.3969249263173 1329.0974008025296 0 1329.0974008025296 -2197.1734290684435 0 0 0 0 -11.036700104871358 5.2304982701632099 0 5.2304982701632099 -2.2033893553539059 0 0 0 0 -795.21454075962538 149.74736361535906 0 149.74736361535906 635.36189609048233 0 0 0 0 -2740.4001496573183 1626.6715197234989 0 1626.6715197234989 -1106.4927339554197 0 0 0 0 -5.6581727802427224 4.4102620171104441 0 4.4102620171104441 -2.5415255481113377 0 0 0 0 -2357.7074698686483 1532.9053612557764 0 1532.9053612557764 -458.82646418625518 0 0 0 0 -218.87954884759165 254.75146069715811 0 254.75146069715811 -493.54878631630709 0 0 0 0 -1277.7683215412435 1496.9170830749854 0 1496.9170830749854 -449.57034911346273 0 0 0 0 -1208.5648818618065 1267.8526755605271 0 1267.8526755605271 -870.35947441586177 0 0 0 0 -1298.8509452757989 1595.2476363055803 0 1595.2476363055803 -580.9782623336796 0 0 0 0 -840.8229850975913 1575.630920939464 0 1575.630920939464 -945.11415467996267 0 0 0 0 -475.08488583146391 1588.2113178936124 0 1588.2113178936124 -777.34638513350001 0 0 0 0 -918.79514123919034 1735.1505797807677 0 1735.1505797807677 -805.79582545908488 0 0 0 0 -872.43138016854937 1466.5606202933013 0 1466.5606202933013 -1160.0693163587312 0 0 0 0 -1589.5262873906177 1584.220279919231 0 1584.220279919231 -872.69655133471315 0 0 0 0 -1644.6986394155056 1751.9847684619756 0 1751.9847684619756 -1197.6026963405093 0 0 0 0 -1693.9691286805805 1106.2019747591553 0 1106.2019747591553 -1084.8999350272352 0 0 0 0 -976.63771222278228 1623.9496393768595 0 1623.9496393768595 -699.06963334500324 0 0 0 0 -1.4422676846635589 9.9981598278641712 0 9.9981598278641712 -5.9067693809464856 0 0 0 0 -4331.6553665220854 1272.1782048753848 0 1272.1782048753848 -201.3422084711201 0 0 0 0 -2487.8717299690325 1959.0653765691677 0 1959.0653765691677 -1120.8364394271866 0 0 0 0 -2166.4230989975913 1319.4223296563941 0 1319.4223296563941 -749.30467085022246 0 0 0 0 -1883.56930249992 1292.3165708116358 0 1292.3165708116358 -776.97556431354315 0 0 0 0 -1937.079556456818 1484.9167702015438 0 1484.9167702015438 -521.8667257274501 0 0 0 0 -1976.8603495707648 1172.3468789620601 0 1172.3468789620601 -1080.7920963539946 0 0 0 0 -2044.6635251328971 1389.2783318480097 0 1389.2783318480097 -688.58778937692114 0 0 0 0 -1539.3890566897171 1314.7496089828419 0 1314.7496089828419 -1025.5702002272992 0 0 0 0 -1681.592663431511 1370.559237784717 0 1370.559237784717 -382.46542358375882 0 0 0 0 -1693.9513552016797 1440.0880117066772 0 1440.0880117066772 -772.1449916338097 0 0 0 0 -1655.6047460123882 1543.7242946037477 0 1543.7242946037477 -526.06993722866173 0 0 0 0 -1708.1861940929375 1570.0988967169724 0 1570.0988967169724 -469.03582013346022 0 0 0 0 -1659.6423711863536 1499.3846251063515 0 1499.3846251063515 -545.8476768282344 0 0 0 0 -1902.8110629895891 1409.56224498749 0 1409.56224498749 -348.91537190027884 0 0 0 0 -1528.3916094453107 1314.6737208963368 0 1314.6737208963368 -466.45703358607716 0 0 0 0 -1323.2557411092348 1174.9166791398129 0 1174.9166791398129 -377.20370598186128 0 0 0 0 -1688.1822983558377 1557.6005681514143 0 1557.6005681514143 -464.07482512330535 0 0 0 0 -1595.760481560028 1541.3735178006573 0 1541.3735178006573 -710.3360068146867 0 0 0 0 -1528.9086251588742 1477.3398550010897 0 1477.3398550010897 -812.01190179769765 0 0 0 0 -1315.9703910122553 1355.5118426169201 0 1355.5118426169201 -848.07814615766983 0 0 0 0 -1540.1057466996863 1444.0321880771298 0 1444.0321880771298 -625.97245834267233 0 0 0 0 -1096.8666103749856 1260.0269802663897 0 1260.0269802663897 -718.1208554096811 0 0 0 0 -1299.7461128380673 1271.6429645659809 0 1271.6429645659809 -671.93822839678614 0 0 0 0 -837.73661435730901 1499.757912754023 0 1499.757912754023 -1743.3606091206966 0 0 0 0 -55.54598483434529 131.67973133215855 0 131.67973133215855 336.14800162609936 0 0 0 0 0.30534710848505142 4.1338293265018251 0 4.1338293265018251 0.6526453310905751 0 0 0 0 -529.92791358959221 962.94539285326755 0 962.94539285326755 -1279.2342648470949 0 0 0 0 -946.31201994500589 2315.8149208384566 0 2315.8149208384566 1.6182959602312368 0 0 0 0 -1597.2559772364184 1833.5643552501497 0 1833.5643552501497 -81.539922560501509 0 0 0 0 -1171.5758782306002 1558.5579785480622 0 1558.5579785480622 -913.693517067426 0 0 0 0 -7.629409255659084 17.998059767561017 0 17.998059767561017 -22.763094211928546 0 0 0 0 -8.3636795465667415 4.6659244798324266 0 4.6659244798324266 -0.17875471889456662 0 0 0 0 32.20485113322502 -35.322651419890462 0 -35.322651419890462 0.63300687700317193 0 0 0 0 -488.54054701431596 218.47896596436476 0 218.47896596436476 -47.875659214312691 0 0 0 0 -163.73083630332985 383.22420006640095 0 383.22420006640095 -719.28387625547475 0 0 0 0 4.462078735821791 12.446253485780659 0 12.446253485780659 -0.33443862488978482 0 0 0 0 -1084.0753486148767 927.78825219433782 0 927.78825219433782 -327.98035568688647 0 0 0 0 -178.1725427184283 334.74370036497567 0 334.74370036497567 -465.96954097432172 0 0 0 0 77.258343987418129 223.07849614561042 0 223.07849614561042 296.26024826923094 0 0 0 0 -3.2105736927704229 26.700871909894929 0 26.700871909894929 -10.348840137684988 0 0 0 0 -1.0602433420269373 22.272162573960301 0 22.272162573960301 -12.09663883261436 0 0 0 0 -1526.3044559412301 756.4247544492755 0 756.4247544492755 -268.84397471964621 0 0 0 0 1210.315837491027 549.04527963470639 0 549.04527963470639 7.4970482163043926 0 0 0 0 -1030.7905324064268 292.50374361761351 0 292.50374361761351 78.652248658174358 0 0 0 0 -1345.2907480489885 1124.9901058051073 0 1124.9901058051073 -474.34538860969042 0 0 0 0 -2018.7297432628084 676.89798981096237 0 676.89798981096237 -68.765497670072364 0 0 0 0 -1880.9483979443758 1495.8741082600027 0 1495.8741082600027 -540.77995209339133 0 0 0 0 -880.94018004315149 766.54503711572397 0 766.54503711572397 -1.4463531277760922 0 0 0 0 427.5920252493961 878.04981856811355 0 878.04981856811355 333.17250555549435 0 0 0 0 -87.425591798768437 922.57954993273415 0 922.57954993273415 616.78178278538689 0 0 0 0 105.52162629290979 633.58785227337648 0 633.58785227337648 295.6553675319883 0 0 0 0 -130.42524210082775 851.7817505588464 0 851.7817505588464 284.473061429469 0 0 0 0 193.50077478439198 385.00743341181806 0 385.00743341181806 2.3743889558209048 0 0 0 0 103.88200501973915 222.82115421224444 0 222.82115421224444 261.92705798329553 0 0 0 0 217.92693577026876 493.51145737455954 0 493.51145737455954 425.37176727113547 0 0 0 0 -0.27094435734090894 2.8529640625630179 0 2.8529640625630179 2.2879752613731341 0 0 0 0 -198.42717494754834 133.62757040724318 0 133.62757040724318 2553.158998423205 0 0 0 0 82.987740935721376 851.88325458125473 0 851.88325458125473 -281.15261984796962 0 0 0 0 56.918602489851764 122.05589224879805 0 122.05589224879805 427.24172117772088 0 0 0 0 -27.475176971050303 11.400565075920213 0 11.400565075920213 4.7637414847067561 0 0 0 0 -229.06028579960605 380.03607947495374 0 380.03607947495374 -639.78336884235614 0 0 0 0 -1009.690575526125 2420.9152776944247 0 2420.9152776944247 -1199.5885273937383 0 0 0 0 2.92560563475854 1787.3643979262015 0 1787.3643979262015 -1483.4129713497387 0 0 0 0 -324.79456600945559 -29.170699174763286 0 -29.170699174763286 2380.5470303393158 0 0 0 0 -8.0661062489498931 4.8118682112635156 0 4.8118682112635156 2.1896832446607561 0 0 0 0 -0.53574935793849932 3.5849567957527597 0 3.5849567957527597 1.7172512611086361 0 0 0 0 -863.98145684312476 1727.168232811593 0 1727.168232811593 -810.97487969754729 0 0 0 0 -228.80457684461726 694.72133664803914 0 694.72133664803914 1852.8510449395835 0 0 0 0 -224.2133069681804 601.78772304569429 0 601.78772304569429 271.50871139420633 0 0 0 0 -21.990261505095987 1114.3790422722996 0 1114.3790422722996 472.37835522794376 0 0 0 0 0.2057460247160634 1254.8109266428328 0 1254.8109266428328 792.99348207509684 0 0 0 0 12.639489724679152 978.68666264782223 0 978.68666264782223 458.34709540006224 0 0 0 0 -0.023872349552329961 1265.1727005916127 0 1265.1727005916127 69.436680027924012 0 0 0 0 23.581083471333841 1007.6912224615371 0 1007.6912224615371 -197.388367859563 0 0 0 0 166.62320735173853 1213.8896228337744 0 1213.8896228337744 -641.8282416635775 0 0 0 0 300.16171589939768 1068.1162942598821 0 1068.1162942598821 -37.207449246954639 0 0 0 0 466.95720915180573 732.94185560275582 0 732.94185560275582 360.50874400622615 0 0 0 0 2704.155743248481 1105.785197412248 0 1105.785197412248 -596.42578138835233 0 0 0 0 -39.509230925090378 1869.333791680343 0 1869.333791680343 -808.87527399686223 0 0 0 0 107.5676433608096 1069.3845051793869 0 1069.3845051793869 -36.689813448126642 0 0 0 0 516.44372225952975 1378.6513519042837 0 1378.6513519042837 -981.58455026789306 0 0 0 0 -245.18486221184139 1514.471094751756 0 1514.471094751756 -781.75677552214984 0 0 0 0 -306.16983343919856 1696.8327900947224 0 1696.8327900947224 -987.29500595737045 0 0 0 0 -473.13469919778163 1528.8970210117945 0 1528.8970210117945 -880.56407577929349 0 0 0 0 -23.150046863780517 1284.1239365787233 0 1284.1239365787233 -908.91142940490681 0 0 0 0 -129.13597469975502 1621.5070854840451 0 1621.5070854840451 -943.25020012684035 0 0 0 0 28.216980592522305 1130.8598112638465 0 1130.8598112638465 -885.20529673313285 0 0 0 0 0.13964680713695896 1279.3855817955719 0 1279.3855817955719 -589.53720334984973 0 0 0 0 -88.497984830406494 1345.6265033605559 0 1345.6265033605559 -641.02531473438285 0 0 0 0 -18.243297378427087 11.852571556271414 0 11.852571556271414 -7.0630111748786248 0 0 0 0 -80.690905524548725 98.445434909841424 0 98.445434909841424 134.96275191041786 0 0 0 0 18.610215860171593 79.855190014834079 0 79.855190014834079 79.025644435187132 0 0 0 0 28.831947188147751 114.65435773263744 0 114.65435773263744 111.72695536099127 0 0 0 0 217.42252528762037 111.59250060652266 0 111.59250060652266 72.272637120548097 0 0 0 0 118.82550339992486 126.66655437247391 0 126.66655437247391 70.106409022824664 0 0 0 0 -86.672136760062131 25.697518024098827 0 25.697518024098827 59.142658939847024 0 0 0 0 -300.0731439036972 43.531099443105632 0 43.531099443105632 66.106770192156546 0 0 0 0 -33.850266706784168 52.208032761500363 0 52.208032761500363 17.189976407535141 0 0 0 0 368.35865979240225 278.60518303121717 0 278.60518303121717 67.737759490148164 0 0 0 0 -11.210243960267583 23.092722061352028 0 23.092722061352028 6.9740457608749011 0 0 0 0 -88.210599220819859 10.573808765904687 0 10.573808765904687 73.914213328262122 0 0 0 0 8.8809816430275532 185.38185343514488 0 185.38185343514488 229.17028097745788 0 0 0 0 63.91194617457586 213.67270372106577 0 213.67270372106577 -451.85228798808384 0 0 0 0 194.23785085136842 -0.43386964507226367 0 -0.43386964507226367 13.820194286061451 0 0 0 0 -6.583573925873111 3.7491705281360765 0 3.7491705281360765 -1.9352955399068321 0 0 0 0 855.17035894101991 504.38685255810196 0 504.38685255810196 -1025.2555504602933 0 0 0 0 -8.2071829096330013 20.189035701048116 0 20.189035701048116 2.6161943663360034 0 0 0 0 145.38968094428492 -38.308275999144826 0 -38.308275999144826 645.92322594573488 0 0 0 0 -58.216847581060392 -27.544386706427758 0 -27.544386706427758 -7.8135428127570776 0 0 0 0 151.15348341798654 218.97790233892556 0 218.97790233892556 356.93849730034708 0 0 0 0 446.584185911026 -215.81057049780793 0 -215.81057049780793 450.96082002711046 0 0 0 0 0.59421903453776181 -2.5030342735187006 0 -2.5030342735187006 -1.3195949377781062 0 0 0 0 -1549.1888188561425 403.1564289702801 0 403.1564289702801 -157.0580355895072 0 0 0 0 73.313266648990975 473.54790646357287 0 473.54790646357287 -318.19040102243889 0 0 0 0 225.2683308789899 529.57799354060353 0 529.57799354060353 -296.84545159667323 0 0 0 0 248.64212760462397 223.45374292132328 0 223.45374292132328 -28.476760766119696 0 0 0 0 364.98670088622021 209.48245991968724 0 209.48245991968724 -102.12666642053227 0 0 0 0 -292.99405553642646 419.73920901280508 0 419.73920901280508 -126.89388610153401 0 0 0 0 77.806011612276052 116.85940028405457 0 116.85940028405457 20.586353554492234 0 0 0 0 -80.228319230853685 97.787801679061886 0 97.787801679061886 133.09419692454685 0 0 0 0 -98.696182843628776 89.673763689748739 0 89.673763689748739 336.98307556813961 0 0 0 0 19.6266949020428 114.59220221704163 0 114.59220221704163 125.38838140949156 0 0 0 0 41.854769697630218 69.155394639394217 0 69.155394639394217 43.727758400069433 0 0 0 0 28.167686819939263 41.192072456979076 0 41.192072456979076 -11.591268607146048 0 0 0 0 -36.516961979763437 -3.0960363415215397 0 -3.0960363415215397 47.041594563779654 0 0 0 0 147.06314096710412 138.87173047294345 0 138.87173047294345 33.467736553993745 0 0 0 0 46.762917340040076 -93.090895169689247 0 -93.090895169689247 197.59487577113759 0 0 0 0 1.6571485849061212 1.1662689207950621 0 1.1662689207950621 5.7364929149912314 0 0 0 0 -42.865417020583209 3.5581326477367838 0 3.5581326477367838 10.036760288072401 0 0 0 0 -56.389301647861771 20.460635043878483 0 20.460635043878483 8.5585601291095372 0 0 0 0 -5.1490832074034358 8.1243338247613366 0 8.1243338247613366 13.771542209007009 0 0 0 0 -53.132084931839927 -3.8327483235043474 0 -3.8327483235043474 26.6364075547026 0 0 0 0 -22.888397648088358 -8.0528655720409006 0 -8.0528655720409006 16.478173364685063 0 0 0 0 15.125309751469104 -18.456810858151584 0 -18.456810858151584 25.525878729451506 0 0 0 0 -163.87861394839456 17.673329774559534 0 17.673329774559534 85.602128396283661 0 0 0 0 -132.35131829421425 112.07957067172538 0 112.07957067172538 106.33299401334079 0 0 0 0 -90.484966012352402 55.043881658859846 0 55.043881658859846 -15.917878943640972 0 0 0 0 -57.771508800311494 104.49840428322204 0 104.49840428322204 70.784544145630207 0 0 0 0 -90.266391621693174 45.253100933089286 0 45.253100933089286 205.99670224051806 0 0 0 0 -78.449247875738365 123.63261845537636 0 123.63261845537636 98.055757161833753 0 0 0 0 -88.942054983777325 89.19386711966763 0 89.19386711966763 39.209422972111497 0 0 0 0 1.2619306251158111 16.954562915392383 0 16.954562915392383 34.627101650668209 0 0 0 0 13.218596494314891 25.017135557228031 0 25.017135557228031 35.045641843447186 0 0 0 0 -39.963160799038633 23.137874968550022 0 23.137874968550022 -5.4540106493950589 0 0 0 0 -14.779007925487349 196.57746006734124 0 196.57746006734124 253.87450145777257 0 0 0 0 -60.300758651804244 129.7333452752564 0 129.7333452752564 405.09864279683097 0 0 0 0 196.72118708272319 259.06999286263454 0 259.06999286263454 9.3990557787619764 0 0 0 0 -29.320581793539802 20.376632019338956 0 20.376632019338956 -15.748128661800365 0 0 0 0 8.7106982153327408 -220.13493854045373 0 -220.13493854045373 89.498512377083898 0 0 0 0 45.439331381159718 84.437273541785544 0 84.437273541785544 46.606820474749838 0 0 0 0 -4.0795947449114465 57.92222772216337 0 57.92222772216337 33.895222946535796 0 0 0 0 -43.269927261085208 34.626005128777081 0 34.626005128777081 -12.93984240030133 0 0 0 0 -17.609223553547054 82.856417950448304 0 82.856417950448304 16.953562653754489 0 0 0 0 15.640229105694743 52.273243514078786 0 52.273243514078786 -124.13212791008118 0 0 0 0 -47.390085819453816 36.231855431120493 0 36.231855431120493 195.9271339728366 0 0 0 0 -2.0456180810142541 82.113695589167037 0 82.113695589167037 414.77964070254893 0 0 0 0 -2.7384481433950612 9.1741242644627619 0 9.1741242644627619 0.77273565552236789 0 0 0 0 4.3913921558698092 -2.1314698874148519 0 -2.1314698874148519 -2.8448750953422177 0 0 0 0 165.48591432871035 145.02427715409067 0 145.02427715409067 -93.728359635766537 0 0 0 0 -11.943032456514976 42.524459319917234 0 42.524459319917234 45.20116446946318 0 0 0 0 11.584377035296029 89.804556427201533 0 89.804556427201533 87.927128349503619 0 0 0 0 26.573897778814597 72.753773890126212 0 72.753773890126212 49.487453050117836 0 0 0 0 -32.662720397744124 139.91318136530754 0 139.91318136530754 52.36190344337956 0 0 0 0 9.3858868756401357 62.707176097702771 0 62.707176097702771 48.691763410058613 0 0 0 0 -13.537926604527456 144.11467486781476 0 144.11467486781476 38.413817088622181 0 0 0 0 -17.190090784256768 49.616468838141373 0 49.616468838141373 35.539763013817719 0 0 0 0 -11.934811261735518 40.992469399760708 0 40.992469399760708 45.32018746725376 0 0 0 0 -29.379244113831191 134.69185430462403 0 134.69185430462403 -22.066692516193143 0 0 0 0 -5.6283308949605271 171.04976864316268 0 171.04976864316268 32.609970385608904 0 0 0 0 -17.238954656092794 51.246191939665579 0 51.246191939665579 50.45770565276888 0 0 0 0 -14.266264305126242 47.753704358587129 0 47.753704358587129 80.578402418788755 0 0 0 0 -46.683308598275744 39.316339612025331 0 39.316339612025331 118.86089009724674 0 0 0 0 -38.349007442204588 17.745031826022974 0 17.745031826022974 52.715841490887527 0 0 0 0 14.62488462323472 37.025045133319509 0 37.025045133319509 93.806193882653787 0 0 0 0 -12.751585925390827 42.787446763999469 0 42.787446763999469 66.325906355879852 0 0 0 0 -67.126458106231439 75.558970254467567 0 75.558970254467567 115.61661391891539 0 0 0 0 -13.787533057057741 36.279683643826367 0 36.279683643826367 64.479616319185553 0 0 0 0 85.388748599822065 85.071016954127117 0 85.071016954127117 101.18471165100345 0 0 0 0 7.7814286583616195 132.683317956471 0 132.683317956471 93.333264171140286 0 0 0 0 5.7927017277721182 17.49903409134555 0 17.49903409134555 -6.6831297409343478 0 0 0 0 -21.336506149717025 101.36172264116067 0 101.36172264116067 131.25220406266453 0 0 0 0 5.0990377173883985 46.305829418827933 0 46.305829418827933 108.09313632913863 0 0 0 0 -34.635648869266333 121.64828869055418 0 121.64828869055418 107.52130417535955 0 0 0 0 -16.616202519052401 26.247052164308162 0 26.247052164308162 8.252212820354508 0 0 0 0 -46.172097024762479 34.51130842173734 0 34.51130842173734 123.28913939841732 0 0 0 0 -94.530369605610758 69.295464030659787 0 69.295464030659787 143.46042267547455 0 0 0 0 16.476689504956116 38.819914310615417 0 38.819914310615417 83.118870669593377 0 0 0 0 -112.56587385991952 75.551086318568196 0 75.551086318568196 112.77438852970954 0 0 0 0 -72.046881419153578 80.082572511697435 0 80.082572511697435 86.625333129268256 0 0 0 0 -68.301719593333473 32.151525769728323 0 32.151525769728323 111.13969235905097 0 0 0 0 -10.860830200734199 74.940549219823879 0 74.940549219823879 71.828440411987685 0 0 0 0 -18.717824515380926 69.858627892645018 0 69.858627892645018 111.06596785918373 0 0 0 0 -12.640935183546617 88.156864439705259 0 88.156864439705259 136.56722410612565 0 0 0 0 173.86431612979587 148.59969682151893 0 148.59969682151893 84.421527846323443 0 0 0 0 175.00987768995503 76.79796564409429 0 76.79796564409429 47.034956850053277 0 0 0 0 1.265853891702136 60.915798095073114 0 60.915798095073114 128.01370134434546 0 0 0 0 53.685116991611267 66.280879960011589 0 66.280879960011589 53.270359432215628 0 0 0 0 36.003160925396514 111.79782318037905 0 111.79782318037905 85.98951567918084 0 0 0 0 102.55223134094194 108.70349370589247 0 108.70349370589247 90.096290732847592 0 0 0 0 89.346006521670006 36.854468785945301 0 36.854468785945301 55.511645277787466 0 0 0 0 -3.3744043532573684 1.4309210323788406 0 1.4309210323788406 2.5487873248134463 0 0 0 0 -69.042667970974435 37.6977354089031 0 37.6977354089031 40.57683912118955 0 0 0 0 -73.033770145124436 21.290057363909 0 21.290057363909 23.66264339326608 0 0 0 0 -4.2069662687827076 23.718818883957283 0 23.718818883957283 23.746565534856927 0 0 0 0 -21.736473020566336 11.431608222366776 0 11.431608222366776 33.153668932560322 0 0 0 0 -3.0364602406623362 16.409504747077335 0 16.409504747077335 31.900730748820934 0 0 0 0 -5.9494546311398153 43.987810357102717 0 43.987810357102717 34.946066946456995 0 0 0 0 -40.777861506848467 16.995659365112942 0 16.995659365112942 91.884964083175873 0 0 0 0 17.498440360912355 138.86252901897024 0 138.86252901897024 88.827727474410494 0 0 0 0 57.02323329781575 208.38776206449256 0 208.38776206449256 207.79264380026871 0 0 0 0 -42.626134286801971 70.876322461277596 0 70.876322461277596 235.06301712957793 0 0 0 0 15.550182755137939 104.8310013050359 0 104.8310013050359 150.3305003461719 0 0 0 0 2.0217661666556523 61.134949050446266 0 61.134949050446266 66.741666470305063 0 0 0 0 46.163574181531658 132.97918718300934 0 132.97918718300934 82.236918226728449 0 0 0 0 73.372093821501039 93.891824151683977 0 93.891824151683977 60.556949153404275 0 0 0 0 -282.90047110775777 122.21193208570912 0 122.21193208570912 23.786667456435225 0 0 0 0 3.432020214444492 83.514038060700841 0 83.514038060700841 -38.074520113907056 0 0 0 0 -11.261341176764619 22.006317066477397 0 22.006317066477397 14.028353450566584 0 0 0 0 -10.48772111084109 19.648892778629623 0 19.648892778629623 22.193571958127649 0 0 0 0 84.488540293519691 2.5706720753732952 0 2.5706720753732952 20.84216024914349 0 0 0 0 22.236338096881809 54.22989624019101 0 54.22989624019101 63.718259509012569 0 0 0 0 -154.06643515386531 -24.87633274433756 0 -24.87633274433756 31.023304060316605 0 0 0 0 67.903406066241587 -43.913024428511562 0 -43.913024428511562 -109.28368046159449 0 0 0 0 -212.56946226837681 177.01038058484119 0 177.01038058484119 -94.793584842816927 0 0 0 0 -13.879360087707113 4.4981078598148656 0 4.4981078598148656 -0.94966731375421887 0 0 0 0 -117.37397117898945 -76.861883660887543 0 -76.861883660887543 178.80194758809375 0 0 0 0 -6.1496685841282215 75.505180354016829 0 75.505180354016829 223.65891704231035 0 0 0 0 -49.375481517185108 23.538069329086284 0 23.538069329086284 29.315982603220618 0 0 0 0 4.9862600607812055 5.2071098903325037 0 5.2071098903325037 23.700233331808704 0 0 0 0 -9.5752096942647853 14.088761206523984 0 14.088761206523984 5.2821527704406321 0 0 0 0 -1.5055242550297407 29.412790941722051 0 29.412790941722051 28.851164675952532 0 0 0 0 7.7098158056887769 31.143848792487915 0 31.143848792487915 70.357469588314416 0 0 0 0 -12.596023230267271 18.214179946609384 0 18.214179946609384 31.957296294986662 0 0 0 0 -69.56888754702959 17.568065208964981 0 17.568065208964981 41.384101446599743 0 0 0 0 -21.030358527881617 0.62321126915776404 0 0.62321126915776404 18.494419440510683 0 0 0 0 -190.73707737864243 59.609225084843274 0 59.609225084843274 85.343486240279162 0 0 0 0 -121.1830217239858 -30.526309077416954 0 -30.526309077416954 18.877657225733856 0 0 0 0 -5.9660270675282874 2.0240236719723868 0 2.0240236719723868 0.095488262806270541 0 0 0 0 -535.43677441107866 -167.15967985369934 0 -167.15967985369934 -37.1365872361539 0 0 0 0 -40.041057320326217 9.7881139013770735 0 9.7881139013770735 4.5487307495259302 0 0 0 0 -217.34989831319035 -129.25905900289581 0 -129.25905900289581 -33.346794231823878 0 0 0 0 -742.3058244066342 237.59827192673401 0 237.59827192673401 17.346293241833337 0 0 0 0 -440.66367876666118 74.451163556910615 0 74.451163556910615 94.422426153949345 0 0 0 0 -303.90344098528294 174.43016922587412 0 174.43016922587412 24.507551615883131 0 0 0 0 -251.52483071761526 177.95526086727182 0 177.95526086727182 80.295624775564647 0 0 0 0 -243.5666166102601 41.83086962755624 0 41.83086962755624 98.155030282006919 0 0 0 0 -146.94109197778744 147.47885867986042 0 147.47885867986042 86.050628185003006 0 0 0 0 -110.58319534569455 235.08689178775421 0 235.08689178775421 68.02085293084383 0 0 0 0 -118.20875125018938 199.99734494086442 0 199.99734494086442 50.448264632927021 0 0 0 0 62.576431699970271 211.65426756803572 0 211.65426756803572 29.232146347771049 0 0 0 0 -44.504226869117701 289.0238265259577 0 289.0238265259577 14.134615771545214 0 0 0 0 -58.35649192438359 202.20487553785642 0 202.20487553785642 1.2407961444841931 0 0 0 0 46.155622164853412 242.4549770128724 0 242.4549770128724 -42.469818498910172 0 0 0 0 -243.43033726750582 288.4232523427454 0 288.4232523427454 12.667953805881552 0 0 0 0 -277.40836285822661 146.67708049179055 0 146.67708049179055 51.811383177584503 0 0 0 0 -88.562130786845955 266.9313236228827 0 266.9313236228827 -128.65012073909747 0 0 0 0 -239.94948765201116 157.73570450467378 0 157.73570450467378 -33.958773686725181 0 0 0 0 -152.54166134996194 125.21776630330714 0 125.21776630330714 -93.445550929354795 0 0 0 0 -147.93726166201668 155.13670636739698 0 155.13670636739698 -112.09434255602537 0 0 0 0 88.625053685973398 215.45099958926585 0 215.45099958926585 -26.493732297487441 0 0 0 0 -30.508671096460603 152.83045868733461 0 152.83045868733461 3.2549408441373089 0 0 0 0 -62.034216818483401 205.49195829598466 0 205.49195829598466 -52.397720212655258 0 0 0 0 -139.24560744908376 123.14351163113315 0 123.14351163113315 -15.561916936112539 0 0 0 0 -32.908370308779013 165.35807534271225 0 165.35807534271225 -34.873150075640297 0 0 0 0 -30.032675959356311 151.605310080864 0 151.605310080864 27.921776120478171 0 0 0 0 89.735498049405578 142.35930353889125 0 142.35930353889125 -33.495537995739141 0 0 0 0 -133.91979718569928 95.069782496851985 0 95.069782496851985 -8.2003572293324396 0 0 0 0 -42.416347163416503 175.96335423720302 0 175.96335423720302 3.801168169506127 0 0 0 0 -327.98113565586573 81.475788221490802 0 81.475788221490802 101.21206344822713 0 0 0 0 -278.391993451085 29.694720698549645 0 29.694720698549645 -44.315983432112262 0 0 0 0 -167.29165691978778 127.11090210883049 0 127.11090210883049 33.910018562397454 0 0 0 0 -306.28230833247653 81.271247157179459 0 81.271247157179459 96.559914707664575 0 0 0 0 -20.369623597922327 152.63758017888176 0 152.63758017888176 48.132090097016771 0 0 0 0 -307.15264183060935 60.800588866652106 0 60.800588866652106 182.66066634497838 0 0 0 0 61.09249762921354 -38.278010883710522 0 -38.278010883710522 57.982715063146316 0 0 0 0 -122.3763481434944 -38.588888961370685 0 -38.588888961370685 166.73602918778488 0 0 0 0 -1.3431996411931877 3.5138242217547955 0 3.5138242217547955 -1.8024993657781749 0 0 0 0 -912.97796956278762 103.32989248315062 0 103.32989248315062 170.59584898105823 0 0 0 0 357.35380222260028 324.89510528599567 0 324.89510528599567 -220.36141480709193 0 0 0 0 -262.88172334926276 81.752077225621179 0 81.752077225621179 -23.187872297363356 0 0 0 0 -529.72015001482214 -138.31829842219304 0 -138.31829842219304 68.805333362070087 0 0 0 0 -691.11785163413879 -97.065222814999288 0 -97.065222814999288 131.17053972216672 0 0 0 0 -662.92619574726268 228.55679199044243 0 228.55679199044243 -4.9916530142945703 0 0 0 0 -163.35356419515301 442.87667957246595 0 442.87667957246595 -42.345003907146747 0 0 0 0 -598.27514720007821 437.9102237216066 0 437.9102237216066 -203.73708846124646 0 0 0 0 306.27724514172587 25.172509034477116 0 25.172509034477116 -352.0109744384099 0 0 0 0 -239.47606943016893 176.71897897160056 0 176.71897897160056 -497.58918299389188 0 0 0 0 -434.56975572577721 -41.20793851777853 0 -41.20793851777853 -3.5995265404053498 0 0 0 0 -507.77732371015736 203.73375528071483 0 203.73375528071483 80.099973859461898 0 0 0 0 -85.530720913106052 650.87087460061593 0 650.87087460061593 -113.99324019458436 0 0 0 0 -33.97497175681292 67.669818205669955 0 67.669818205669955 6.8273895846389792 0 0 0 0 416.0653697012458 151.92842978876433 0 151.92842978876433 3.3201710723806173 0 0 0 0 15.785108537368998 12.094947372929013 0 12.094947372929013 -24.98778624677351 0 0 0 0 16.692678754290682 21.491006279899011 0 21.491006279899011 20.159397399773297 0 0 0 0 17.599872092308942 22.842455147918372 0 22.842455147918372 17.410641349742036 0 0 0 0 -328.71907981485492 -17.896744442397903 0 -17.896744442397903 53.27547407462589 0 0 0 0 -14.409397669605823 193.61038072973679 0 193.61038072973679 -44.543447843505419 0 0 0 0 -3.8843522122634049 14.036989596167725 0 14.036989596167725 -21.72432706391848 0 0 0 0 -570.95521282766822 -94.194910573256493 0 -94.194910573256493 104.22606267272567 0 0 0 0 296.9708313049523 141.99175632037077 0 141.99175632037077 69.026968428926921 0 0 0 0 266.84136030847003 120.89676547388081 0 120.89676547388081 3.0498585351742804 0 0 0 0 401.27189869820222 229.0964965054236 0 229.0964965054236 -0.20234429654374253 0 0 0 0 100.63989111359842 261.81073735690734 0 261.81073735690734 38.483826401767146 0 0 0 0 243.72050256829016 214.17042084799687 0 214.17042084799687 6.4837862126441905 0 0 0 0 206.12896598382213 196.73332487336302 0 196.73332487336302 16.359611772310018 0 0 0 0 300.84276112385123 232.06490845729422 0 232.06490845729422 -16.855094197802828 0 0 0 0 192.5405837099388 259.33608740974887 0 259.33608740974887 37.570105542225065 0 0 0 0 48.918281904340347 214.34063742231365 0 214.34063742231365 55.278085514117265 0 0 0 0 125.71528260001651 150.93184499407289 0 150.93184499407289 47.703713720882661 0 0 0 0 324.67265740996299 187.74002081858634 0 187.74002081858634 -28.646529082987399 0 0 0 0 97.918167960180199 185.08933829104535 0 185.08933829104535 48.009769678785233 0 0 0 0 227.90980502313323 124.76505645710131 0 124.76505645710131 -32.410645731586555 0 0 0 0 557.57249163555389 60.482578528564773 0 60.482578528564773 29.461015879944171 0 0 0 0 279.26808631105814 226.3739701684317 0 226.3739701684317 -15.221606127364794 0 0 0 0 327.78828107250729 213.0415263015343 0 213.0415263015343 123.9401390879575 0 0 0 0 678.66526588310626 226.35080499983451 0 226.35080499983451 -19.112732333556778 0 0 0 0 -3.6738151906023706 12.280257647236356 0 12.280257647236356 -10.371900621706374 0 0 0 0 974.22351018431709 317.22411988888507 0 317.22411988888507 -178.26702178253618 0 0 0 0 -1.4114454550542561 4.7543717918928134 0 4.7543717918928134 -2.9011268546651934 0 0 0 0 -920.58785909618746 -130.91679071886028 0 -130.91679071886028 199.39187257142476 0 0 0 0 78.012145566301115 272.56260756653865 0 272.56260756653865 -114.31590419957502 0 0 0 0 -24.191531088749851 74.610754630093453 0 74.610754630093453 -29.102456638278312 0 0 0 0 396.12016502216284 148.84020212935866 0 148.84020212935866 2.8598343883650159 0 0 0 0 113.3561748379434 -40.006460468797741 0 -40.006460468797741 -38.956295154061081 0 0 0 0 281.83942112124714 373.77965464938279 0 373.77965464938279 -354.03793766525632 0 0 0 0 -26.549561926846046 80.376009332361775 0 80.376009332361775 -54.742107846129443 0 0 0 0 295.51662953476443 422.26075189241237 0 422.26075189241237 -114.19696750882576 0 0 0 0 -77.610477525811802 226.06123821513393 0 226.06123821513393 -45.649817917161272 0 0 0 0 291.47950755203783 227.93794001632341 0 227.93794001632341 -181.87148117706238 0 0 0 0 419.2972302915914 193.13518276893228 0 193.13518276893228 -181.77842480833351 0 0 0 0 313.28989160847232 116.2170993645268 0 116.2170993645268 -58.501054729873431 0 0 0 0 216.34913536499516 212.64749388916243 0 212.64749388916243 -145.66265435174864 0 0 0 0 59.104328550412902 203.41628258044511 0 203.41628258044511 -44.94269092783361 0 0 0 0 163.3107590685795 143.15813412064563 0 143.15813412064563 -88.901227271169773 0 0 0 0 199.3831758966644 225.00161881003442 0 225.00161881003442 -215.50368091218115 0 0 0 0 43.267750851973688 185.63742734552943 0 185.63742734552943 -90.862294611724792 0 0 0 0 270.70327828327572 152.66397572925052 0 152.66397572925052 -156.04411106028692 0 0 0 0 191.56692773455507 171.6281394129328 0 171.6281394129328 -190.43241597666201 0 0 0 0 312.76615120547467 199.38631372781674 0 199.38631372781674 -221.65492319087207 0 0 0 0 100.36942997907317 24.92300659733155 0 24.92300659733155 -24.997953837890009 0 0 0 0 176.30957013054285 220.94628018129151 0 220.94628018129151 -33.361419000822934 0 0 0 0 232.54474168603701 77.925772272057657 0 77.925772272057657 -124.68421082363056 0 0 0 0 436.42450257934252 17.178219762630761 0 17.178219762630761 -106.73734602473633 0 0 0 0 296.79840763938023 106.46814424113018 0 106.46814424113018 -115.6373268384923 0 0 0 0 176.32355040835319 193.78474254111643 0 193.78474254111643 -176.94798634238396 0 0 0 0 168.93767327922978 75.935639548770268 0 75.935639548770268 -59.40021848930337 0 0 0 0 191.70162472353149 123.10740681788411 0 123.10740681788411 -15.861947528115707 0 0 0 0 223.17531199232371 44.293192038182497 0 44.293192038182497 -54.480734719749307 0 0 0 0 358.15479594181124 88.876103094687096 0 88.876103094687096 -94.146743984485511 0 0 0 0 167.99865476419473 106.56058146851865 0 106.56058146851865 -37.343758749477274 0 0 0 0 -379.8259025357911 95.946096304767707 0 95.946096304767707 -81.979678301926469 0 0 0 0 -476.97578886397605 208.67556745116599 0 208.67556745116599 31.178927766202833 0 0 0 0 -609.79097570877275 31.455710169269878 0 31.455710169269878 -94.179933123623414 0 0 0 0 -0.46150736939333115 -0.1771413422245729 0 -0.1771413422245729 -1.3889251014227852 0 0 0 0 58.039195119919896 -107.79441932063492 0 -107.79441932063492 27.371898123281426 0 0 0 0 -1089.0191791893321 490.9245881158804 0 490.9245881158804 401.71531385737762 0 0 0 0 -2.7665106842097167 6.584732165112527 0 6.584732165112527 -5.2391752420812168 0 0 0 0 -698.4043477428022 -155.5581696899244 0 -155.5581696899244 -233.58045201387722 0 0 0 0 -181.03782218030392 -187.632872368873 0 -187.632872368873 93.61220133092138 0 0 0 0 -252.55775900902154 -171.88411147477109 0 -171.88411147477109 105.11565501318546 0 0 0 0 -633.56552462778927 -7.5483900604012888 0 -7.5483900604012888 53.802679412254292 0 0 0 0 -406.88747339349084 118.71039735262184 0 118.71039735262184 62.049571713418118 0 0 0 0 -346.7885720985505 40.135287560675351 0 40.135287560675351 158.33398064755602 0 0 0 0 -371.88680884246241 173.04537130807785 0 173.04537130807785 93.897120865440229 0 0 0 0 -324.45462284344103 121.92423837940441 0 121.92423837940441 134.74332006629993 0 0 0 0 -284.93983862951791 160.41129176532559 0 160.41129176532559 62.546941785665695 0 0 0 0 -240.48914586965111 118.44393949192454 0 118.44393949192454 43.075502365281864 0 0 0 0 -204.02649560558712 236.2901900524339 0 236.2901900524339 -60.338692894758424 0 0 0 0 -316.6084537834322 168.26561989823676 0 168.26561989823676 39.152468672589748 0 0 0 0 -331.99724799334217 187.73550969296775 0 187.73550969296775 50.346654550798121 0 0 0 0 -2.1294814406028308 129.89229881705978 0 129.89229881705978 -13.623871318115562 0 0 0 0 -125.3847542937965 203.20646524983022 0 203.20646524983022 -18.456318428536179 0 0 0 0 -164.73816009821167 186.05768972257647 0 186.05768972257647 -17.473470681844447 0 0 0 0 -139.52139927757162 311.73055881464825 0 311.73055881464825 -177.05958157608256 0 0 0 0 34.142842071720224 227.39756155752912 0 227.39756155752912 -143.98331423381751 0 0 0 0 -252.0187602059159 221.57100570871989 0 221.57100570871989 -53.377934300297056 0 0 0 0 -280.46173560496754 267.36681514321026 0 267.36681514321026 -111.74602835475525 0 0 0 0 -210.14314788036791 309.87926945475556 0 309.87926945475556 -349.57713572333159 0 0 0 0 -614.96600052608846 361.77849963105109 0 361.77849963105109 -134.67413671924442 0 0 0 0 -198.07324720728775 344.57453470364089 0 344.57453470364089 -280.26072500221198 0 0 0 0 -5.4583154393330915 152.16881575512525 0 152.16881575512525 -327.77060153806269 0 0 0 0 -547.77659440612115 321.04700437735301 0 321.04700437735301 -293.96346142690163 0 0 0 0 6.3293870334673556 203.34322087991313 0 203.34322087991313 -222.84676106438201 0 0 0 0 89.40892395442097 277.26588674962477 0 277.26588674962477 -228.62370740044571 0 0 0 0 130.03354902898718 124.56372518558783 0 124.56372518558783 -232.29255419990682 0 0 0 0 20.196620293536398 -40.909914255280455 0 -40.909914255280455 -207.82091476419009 0 0 0 0 33.520388978029587 207.10174454130538 0 207.10174454130538 -250.83281961604371 0 0 0 0 -42.801266104779643 -58.681785410000884 0 -58.681785410000884 -336.29187151352744 0 0 0 0 -107.86085532553989 44.073147463406713 0 44.073147463406713 56.301919474492024 0 0 0 0 -156.58806892811481 403.51559000279667 0 403.51559000279667 -493.98528264343622 0 0 0 0 4.8506893144367496 277.53049665776052 0 277.53049665776052 -867.59401666888516 0 0 0 0 -663.89212107311323 772.65749548508757 0 772.65749548508757 -530.72226902620241 0 0 0 0 -1.7216745362088322 3.3856589012535387 0 3.3856589012535387 -3.3461812507454169 0 0 0 0 -1462.2039711465286 321.27881729663022 0 321.27881729663022 -6.6211970998847391 0 0 0 0 -6.7494501272540113 -4.7702290680424682 0 -4.7702290680424682 -5.9649708895832987 0 0 0 0 -511.12691515737606 -324.46982101483445 0 -324.46982101483445 -310.53433106674856 0 0 0 0 -838.97561206294631 329.47713290221509 0 329.47713290221509 -16.617016295873327 0 0 0 0 202.90032736420108 457.78097793676989 0 457.78097793676989 -439.47939771042729 0 0 0 0 -1069.072847487645 675.63117088565923 0 675.63117088565923 -309.25867408301565 0 0 0 0 -805.04753992937913 651.52491038254811 0 651.52491038254811 -345.07417628735129 0 0 0 0 -774.50707076835897 452.09074522940318 0 452.09074522940318 -298.64023247576552 0 0 0 0 -1190.5518088941499 465.17729603220505 0 465.17729603220505 -259.19053132300178 0 0 0 0 -976.50139511062298 217.4611765453883 0 217.4611765453883 -103.7749473125441 0 0 0 0 -1182.137776045598 438.44942977726896 0 438.44942977726896 -276.3192987574439 0 0 0 0 -1111.2928811933361 546.98022004938412 0 546.98022004938412 184.01955122053914 0 0 0 0 -423.0665949130489 55.010434314142913 0 55.010434314142913 -91.501971416117158 0 0 0 0 -237.91076799331495 124.08477223048976 0 124.08477223048976 -14.535236295763752 0 0 0 0 177.95567376481267 4.2182221203620429 0 4.2182221203620429 19.242290421811049 0 0 0 0 -86.066491034216597 63.616086442983942 0 63.616086442983942 -120.66068112091307 0 0 0 0 -322.08824646815992 213.6855249105065 0 213.6855249105065 -90.160401553905103 0 0 0 0 -603.72263650375862 37.569848502320383 0 37.569848502320383 685.65610366871988 0 0 0 0 -649.22283081456226 720.91624318244794 0 720.91624318244794 -673.96417611642391 0 0 0 0 -3.6252759267810575 2.6489964139662732 0 2.6489964139662732 -0.034470253682728824 0 0 0 0 -2.4843091892841329 4.0266379032780435 0 4.0266379032780435 -0.1411320203402564 0 0 0 0 -84.557512081541063 97.960231905279215 0 97.960231905279215 102.93707938346779 0 0 0 0 -160.13302734700846 429.84086852506152 0 429.84086852506152 -41.269098074233852 0 0 0 0 137.05546142544699 82.804424774447398 0 82.804424774447398 -101.0642468531878 0 0 0 0 -492.7308838715835 307.19920645978345 0 307.19920645978345 362.49544229191088 0 0 0 0 499.36722024889241 748.13197080389364 0 748.13197080389364 286.07396146585234 0 0 0 0 1.3776102761670757 2.6075798517045143 0 2.6075798517045143 3.2254165434036963 0 0 0 0 -186.09188924441287 68.829868903490024 0 68.829868903490024 288.49799378753232 0 0 0 0 47.794296836222202 312.61310438365763 0 312.61310438365763 19.023341645210166 0 0 0 0 -153.54537691798032 194.34680031799508 0 194.34680031799508 -10.313109577911746 0 0 0 0 -15.316393912402418 187.95094527807669 0 187.95094527807669 -155.31052250794892 0 0 0 0 1.9313021188312547 4.9058912389928224 0 4.9058912389928224 6.7822366770446081 0 0 0 0 -115.0713141087399 128.65357927144942 0 128.65357927144942 -162.73375423482503 0 0 0 0 352.77148259147361 -413.92725966439684 0 -413.92725966439684 -32.948521382422769 0 0 0 0 117.01920973391316 -424.6272431522957 0 -424.6272431522957 -220.04866152165414 0 0 0 0 -259.3608375689073 -102.68244439404953 0 -102.68244439404953 -46.07814290857641 0 0 0 0 3.8501906236742798 -0.29187458143829303 0 -0.29187458143829303 -2.085590154161423 0 0 0 0 -88.866819075995409 312.73705031936515 0 312.73705031936515 -66.919272533734329 0 0 0 0 95.91694642731818 -81.742476121602522 0 -81.742476121602522 -131.8360473036555 0 0 0 0 -227.65821080385831 109.05568062591919 0 109.05568062591919 -105.55932199164454 0 0 0 0 -112.66461210754642 159.76364166898566 0 159.76364166898566 -173.51735638204991 0 0 0 0 -437.69663487666912 213.68081177663407 0 213.68081177663407 -114.56448271837871 0 0 0 0 -206.27451248573016 211.50559743736085 0 211.50559743736085 -169.22344793666343 0 0 0 0 -900.55823286111627 245.56517954221272 0 245.56517954221272 -52.070692670124117 0 0 0 0 -335.10843699950419 221.91919442497601 0 221.91919442497601 -172.53730583264405 0 0 0 0 -161.01101799831304 144.23673268367565 0 144.23673268367565 -184.34005173706828 0 0 0 0 -328.04030680093172 109.91461683396437 0 109.91461683396437 -147.07539768960851 0 0 0 0 113.52724987266447 190.03954205165064 0 190.03954205165064 52.730310278508114 0 0 0 0 140.57151594852303 58.719323887106384 0 58.719323887106384 -80.738221281309961 0 0 0 0 151.67358507673271 76.977573687072436 0 76.977573687072436 -54.92601682706902 0 0 0 0 57.026949857145155 116.34643539747776 0 116.34643539747776 -115.78526871164286 0 0 0 0 272.99227830757081 42.546884582741768 0 42.546884582741768 -83.572430134583556 0 0 0 0 -18.471543906161969 -113.05702611786182 0 -113.05702611786182 -166.45987077434256 0 0 0 0 181.11289067834196 -37.529011597609497 0 -37.529011597609497 2.5391354914754629 0 0 0 0 277.84957182079961 281.84003127794858 0 281.84003127794858 260.78380119478243 0 0 0 0 1.1309148867488119 1.0399333059294804 0 1.0399333059294804 -0.47218194445034012 0 0 0 0 966.1850765185809 -237.65988915611524 0 -237.65988915611524 -928.64205945889353 0 0 0 0 280.55145970738022 61.750858512785271 0 61.750858512785271 -407.44676938706834 0 0 0 0 893.75923413694909 -28.337304179942294 0 -28.337304179942294 -415.50686680040235 0 0 0 0 1031.8849897346809 220.62982777887009 0 220.62982777887009 -200.67231007163355 0 0 0 0 -1.441043071954482 67.329886153413099 0 67.329886153413099 30.056037982310954 0 0 0 0 224.39234558973476 220.36053421887846 0 220.36053421887846 94.693463638344838 0 0 0 0 12.541290811805624 0.17072209711278674 0 0.17072209711278674 -0.38879151789268462 0 0 0 0 411.49043465110663 650.28102383760961 0 650.28102383760961 797.1502122166421 0 0 0 0 295.56013586787412 -219.81644291881457 0 -219.81644291881457 -387.88272095697175 0 0 0 0 33.390789122907236 -3.4874386576470613 0 -3.4874386576470613 0.50230956254865333 0 0 0 0 224.30919321483816 213.07126917146161 0 213.07126917146161 150.49600482264759 0 0 0 0 154.19915603712889 131.29736253271494 0 131.29736253271494 60.254105511150556 0 0 0 0 126.11915326201415 14.480304835604329 0 14.480304835604329 -24.804988967036479 0 0 0 0 84.054452843127365 -20.441274462344154 0 -20.441274462344154 -308.32175266783452 0 0 0 0 454.84421167942128 -69.922504353518889 0 -69.922504353518889 -69.968717127994751 0 0 0 0 608.83303871484532 301.20167363641667 0 301.20167363641667 -30.322777788133862 0 0 0 0 247.18269026388225 124.53610645949448 0 124.53610645949448 -36.832783301419113 0 0 0 0 256.14637994031364 107.63232044663528 0 107.63232044663528 -5.4181676992157008 0 0 0 0 296.24688330594563 263.48661107036241 0 263.48661107036241 60.18139273293491 0 0 0 0 342.72237260013571 209.7577717224558 0 209.7577717224558 7.1154727757420915 0 0 0 0 324.35380461462773 325.2921931632045 0 325.2921931632045 304.86477019943413 0 0 0 0 292.42989011728059 234.55385840380768 0 234.55385840380768 56.37137641551908 0 0 0 0 6.7397723440018638 0.035947700269048255 0 0.035947700269048255 -3.5987708907986757 0 0 0 0 268.35344069773419 252.49996037176606 0 252.49996037176606 68.932136145889672 0 0 0 0 314.88126233370576 13.07111737991454 0 13.07111737991454 -246.82529452315066 0 0 0 0 6.9675406911145217 -0.51739639687325223 0 -0.51739639687325223 -3.3646064279686243 0 0 0 0 136.192570575844 120.83205375170655 0 120.83205375170655 76.707926851242519 0 0 0 0 107.386015740532 71.935751752711894 0 71.935751752711894 20.10593761371274 0 0 0 0 104.47235057093349 89.672583879077138 0 89.672583879077138 11.48361722897971 0 0 0 0 107.8542910803335 95.18424195060652 0 95.18424195060652 -12.28857775839424 0 0 0 0 83.114259739853878 95.884982264658902 0 95.884982264658902 0.055071892245905474 0 0 0 0 107.49344477151408 72.140684485232214 0 72.140684485232214 -0.29243799168034457 0 0 0 0 124.02563418296268 78.747955962375272 0 78.747955962375272 2.1295523989974754 0 0 0 0 33.301818446441757 -35.795236412901431 0 -35.795236412901431 -80.671593224469689 0 0 0 0 4.1968700218678805 0.49332925316666376 0 0.49332925316666376 -2.6288821509763522 0 0 0 0 247.63389018332964 37.797835785488132 0 37.797835785488132 -86.157718137947086 0 0 0 0 511.52977806609124 192.59145147781965 0 192.59145147781965 -0.18775082350977146 0 0 0 0 701.16602799601242 270.40117937063769 0 270.40117937063769 84.283352148890117 0 0 0 0 716.72244714219414 350.7174981802018 0 350.7174981802018 306.49889361626992 0 0 0 0 -58.364971222101303 18.803493898984016 0 18.803493898984016 55.06931001342673 0 0 0 0 -92.861802087772048 46.399098547268295 0 46.399098547268295 222.89965581158322 0 0 0 0 -1.3486926805724693 1.2584813030542534 0 1.2584813030542534 3.457538610076341 0 0 0 0 -288.90103714498582 283.37366105882393 0 283.37366105882393 -185.09718058613362 0 0 0 0 -194.74431839787576 100.79095244407654 0 100.79095244407654 36.828866071329685 0 0 0 0 0.16362112390976336 3.5439251922489774 0 3.5439251922489774 6.1325940624908526 0 0 0 0 47.619660923046467 50.871191868413007 0 50.871191868413007 0.94972727182539529 0 0 0 0 45.980673127272894 63.649836103380949 0 63.649836103380949 96.641744159488553 0 0 0 0 356.19965536895324 235.42197756245332 0 235.42197756245332 72.112120008532656 0 0 0 0 124.18041554680713 49.128802619979979 0 49.128802619979979 41.007233685275423 0 0 0 0 42.749112944600654 69.987501095577727 0 69.987501095577727 76.179764199972851 0 0 0 0 42.582823888723254 77.616129640425982 0 77.616129640425982 39.383548094265279 0 0 0 0 104.83154675976039 92.958471106976504 0 92.958471106976504 -0.025898301777488086 0 0 0 0 79.825580006199743 74.666906032642146 0 74.666906032642146 33.564243293621985 0 0 0 0 53.311541618121737 109.36478200615238 0 109.36478200615238 0.06009300026926212 0 0 0 0 -4.6640969665604644 106.79192315107866 0 106.79192315107866 52.477000525868789 0 0 0 0 -66.642977515150051 177.18421369995849 0 177.18421369995849 145.52897475146892 0 0 0 0 -17.578481654292773 167.49378673550746 0 167.49378673550746 -0.0078527754594688304 0 0 0 0 -4.2684364086511835 129.1688290293111 0 129.1688290293111 62.505777093945653 0 0 0 0 -93.348438969829658 132.57318314936492 0 132.57318314936492 59.700227571665891 0 0 0 0 -187.54062107104528 213.25385376268969 0 213.25385376268969 0.1066330541507341 0 0 0 0 -32.773454956368369 167.04425650738995 0 167.04425650738995 47.259514137622318 0 0 0 0 -186.47128835532021 223.35913282644105 0 223.35913282644105 -0.020212781331792939 0 0 0 0 -187.12355723339715 216.92987972383708 0 216.92987972383708 13.706247038389847 0 0 0 0 -188.38421644910886 247.29464260066743 0 247.29464260066743 31.176355471383431 0 0 0 0 -188.00935456397178 252.10696770560207 0 252.10696770560207 -31.955085261331988 0 0 0 0 -308.97639886857905 352.07599586730794 0 352.07599586730794 -41.360775830144121 0 0 0 0 -102.11108226439433 314.78196147237145 0 314.78196147237145 -99.802196850083419 0 0 0 0 -389.10834946732211 511.65456098592404 0 511.65456098592404 -227.10064224222879 0 0 0 0 -241.63219264372674 369.32912687901262 0 369.32912687901262 -7.1273897470200609 0 0 0 0 -267.25981316877369 174.31039907069135 0 174.31039907069135 155.74973553715245 0 0 0 0 -370.17897714874562 182.09055049690869 0 182.09055049690869 -204.58782245575276 0 0 0 0 -142.88122727532027 192.09033416608872 0 192.09033416608872 -160.15290434892813 0 0 0 0 -211.722123358104 334.53992637950068 0 334.53992637950068 -177.0868135290948 0 0 0 0 -446.66562764290831 428.06951396914076 0 428.06951396914076 -214.11249863936973 0 0 0 0 -301.70438395336168 445.30913011676603 0 445.30913011676603 -258.19520985165582 0 0 0 0 -742.34060670068175 743.9605901547684 0 743.9605901547684 -447.48542296144296 0 0 0 0 -17.19675372250822 286.02042390905262 0 286.02042390905262 -52.717410113873484 0 0 0 0 -331.7062940934386 325.46258821950687 0 325.46258821950687 40.849204474754515 0 0 0 0 -429.59381758779273 539.43991900810215 0 539.43991900810215 -159.14685930250562 0 0 0 0 -233.60469843534747 420.82557550937781 0 420.82557550937781 -467.3957128104812 0 0 0 0 -358.0096339432821 190.44609757261787 0 190.44609757261787 242.03363711047859 0 0 0 0 -1.8433553799096103 3.6209788725719534 0 3.6209788725719534 -3.8811013275021651 0 0 0 0 131.55030569204973 256.61984083983771 0 256.61984083983771 -429.15969078348644 0 0 0 0 70.271066764909278 46.097632687677105 0 46.097632687677105 2.8197150061096181 0 0 0 0 -37.218040767355888 361.29622152845513 0 361.29622152845513 303.26192995073507 0 0 0 0 -5.4708262400478134 7.4497390560709675 0 7.4497390560709675 -6.7757634681827881 0 0 0 0 41.826641487565212 -119.15876823854342 0 -119.15876823854342 88.884450740615648 0 0 0 0 -2.9287135667348139 -21.982161351753462 0 -21.982161351753462 -38.899081079885946 0 0 0 0 -4.8048420262922633 1.4303641963349492 0 1.4303641963349492 0.19852174347056462 0 0 0 0 -226.2087051833787 292.69300964718786 0 292.69300964718786 -307.34611449600197 0 0 0 0 -17.677701847192111 266.66309466455277 0 266.66309466455277 -1084.5606434240035 0 0 0 0 -127.2712950481764 -25.545334507511143 0 -25.545334507511143 78.621834145043977 0 0 0 0 -321.77030885779004 227.00418376081689 0 227.00418376081689 -8.5186521562645794 0 0 0 0 308.05636713086278 93.850884242965549 0 93.850884242965549 -295.8954689763591 0 0 0 0 347.09854826952323 -69.453182940773331 0 -69.453182940773331 123.54325976321707 0 0 0 0 -1.8540025937614235 7.4444686122064851 0 7.4444686122064851 -5.6555113180832564 0 0 0 0 -1242.9184817842961 557.10817161623345 0 557.10817161623345 -259.53047985315789 0 0 0 0 1079.9817065882417 -303.9366268195663 0 -303.9366268195663 5.4298139218008146 0 0 0 0 -1248.5742633774353 523.13331305333122 0 523.13331305333122 -383.23194171863724 0 0 0 0 -1083.8470377235444 602.39284119681724 0 602.39284119681724 -345.19820332970994 0 0 0 0 643.44234573227186 88.45786523368588 0 88.45786523368588 -21.913736152579077 0 0 0 0 0.96019650310905647 2.3751134252614747 0 2.3751134252614747 -2.002749515969299 0 0 0 0 -1946.2665520117989 786.75159996567527 0 786.75159996567527 3.611488841001119 0 0 0 0 1108.3158335285825 -297.36959591004779 0 -297.36959591004779 17.047412669518963 0 0 0 0 747.76720491574815 163.59960838083498 0 163.59960838083498 -153.31822302770161 0 0 0 0 -13.585981575192363 415.00410664938681 0 415.00410664938681 -136.35018685686373 0 0 0 0 -482.03666810823688 896.916353692548 0 896.916353692548 -528.10873023621389 0 0 0 0 -56.049192058372057 24.872726009652979 0 24.872726009652979 54.07254433624621 0 0 0 0 -4.9197706572208109 8.0270581193778128 0 8.0270581193778128 4.5546322687528118 0 0 0 0 -62.475052341001884 42.344756419188343 0 42.344756419188343 12.045861579843404 0 0 0 0 -58.311903537212856 -2.1556759982959193 0 -2.1556759982959193 27.921489899570588 0 0 0 0 -38.665111978985806 13.339252195873996 0 13.339252195873996 28.668555325872148 0 0 0 0 -52.012177525086372 7.9335825518428464 0 7.9335825518428464 43.611047265891102 0 0 0 0 -40.69930772842639 8.3952754291361487 0 8.3952754291361487 9.5796708932090695 0 0 0 0 -1320.5718324709233 171.66562636394519 0 171.66562636394519 -683.05447638190526 0 0 0 0 -30.464506322002411 2.7395663010811688 0 2.7395663010811688 4.6223272664025785 0 0 0 0 -64.37382918016192 34.58212778876441 0 34.58212778876441 32.595535442276741 0 0 0 0 182.35701407977467 536.53866911964724 0 536.53866911964724 -1106.0905410071027 0 0 0 0 -16.084104604761798 2.2221286184331746 0 2.2221286184331746 0.538185191253163 0 0 0 0 -19.60252717563344 33.528323536193056 0 33.528323536193056 126.25788609385199 0 0 0 0 331.13803423239369 147.18484396192434 0 147.18484396192434 -768.59826469783729 0 0 0 0 -44.018536855353886 -120.2467211508847 0 -120.2467211508847 33.241184227139456 0 0 0 0 -1.9393559811333425 4.2471410064891444 0 4.2471410064891444 -4.937495412213508 0 0 0 0 -365.88824087033572 164.77490310318535 0 164.77490310318535 264.46200280064659 0 0 0 0 -696.77948168612295 311.9325281595502 0 311.9325281595502 220.4393940369846 0 0 0 0 186.18237202036744 289.40620163751737 0 289.40620163751737 -757.65755283001272 0 0 0 0 -106.8174343879864 -3.8406245815640432 0 -3.8406245815640432 172.84336187054578 0 0 0 0 -322.51490677221591 113.17957840600138 0 113.17957840600138 123.68395863138721 0 0 0 0 96.658181153413352 40.885030462875875 0 40.885030462875875 6.3100333087932086 0 0 0 0 107.5506976885963 260.79792880755849 0 260.79792880755849 144.93213151019154 0 0 0 0 -84.962156094536113 144.24026633727408 0 144.24026633727408 -32.034378236814518 0 0 0 0 -91.293355308784157 52.114139039695146 0 52.114139039695146 -45.41162001795783 0 0 0 0 -310.13861463846587 168.77224049873257 0 168.77224049873257 -61.070189545789617 0 0 0 0 -421.63273914138097 355.35375694165305 0 355.35375694165305 13.972377725178376 0 0 0 0 44.163326691110797 56.64919216895214 0 56.64919216895214 -61.551670189975994 0 0 0 0 -471.40411284514573 226.90268606173777 0 226.90268606173777 -18.288395796036639 0 0 0 0 2.1764311563102643 2.8616850371838112 0 2.8616850371838112 4.5897144538860744 0 0 0 0 -500.40383611259938 190.70860738523334 0 190.70860738523334 -20.295445494801243 0 0 0 0 -250.57448072804186 121.67728205610911 0 121.67728205610911 -87.45458347692329 0 0 0 0 -215.28007086770276 158.09614232117929 0 158.09614232117929 -80.142769119265722 0 0 0 0 -238.75245822071793 122.675597558562 0 122.675597558562 -70.929714123166377 0 0 0 0 -254.07397996286744 237.18301311985078 0 237.18301311985078 -18.758393699077715 0 0 0 0 -147.33209977509193 180.53263500775938 0 180.53263500775938 -35.553889198155957 0 0 0 0 0.53018584818664749 190.05366815124944 0 190.05366815124944 -184.81596994026768 0 0 0 0 -95.213648123990168 240.9135359907234 0 240.9135359907234 -132.14201721534482 0 0 0 0 -160.5769356699775 212.66671966548529 0 212.66671966548529 -94.782487831824255 0 0 0 0 -204.96995307964221 188.29006033702899 0 188.29006033702899 -36.220855418992869 0 0 0 0 -188.14143546216837 215.79016830559704 0 215.79016830559704 -13.667144732105953 0 0 0 0 -188.99444963493352 212.9276524714187 0 212.9276524714187 -0.029699056540266611 0 0 0 0 -216.19092380575165 187.49016731290249 0 187.49016731290249 0.014388942821824457 0 0 0 0 -197.20098102331093 204.66439922422614 0 204.66439922422614 -21.370841348907561 0 0 0 0 -161.09539861002986 174.00514873691645 0 174.00514873691645 -0.082370044816343579 0 0 0 0 -122.17906643791639 214.08384752566053 0 214.08384752566053 -25.038429443451605 0 0 0 0 -108.60512824644866 134.78929178359977 0 134.78929178359977 -34.617898992646587 0 0 0 0 -260.1882741932979 62.761727397179129 0 62.761727397179129 2.5942968980743899 0 0 0 0 -233.49014545696946 112.93298279542068 0 112.93298279542068 -36.63498379406883 0 0 0 0 -422.74240545975044 96.814612701127771 0 96.814612701127771 -9.873424174322281 0 0 0 0 -372.3881694850752 102.79647335447953 0 102.79647335447953 -0.025889076525345445 0 0 0 0 -276.10396971574073 145.75727212502898 0 145.75727212502898 -21.16556037554983 0 0 0 0 -117.47147157929703 80.094202931037216 0 80.094202931037216 65.849440516947652 0 0 0 0 26.685406908506593 6.1183627045656976 0 6.1183627045656976 -1.3796100971303531 0 0 0 0 18.609789440175437 -1.3032247630767095 0 -1.3032247630767095 -0.81838548009972101 0 0 0 0 -189.60631104338245 172.13839505190845 0 172.13839505190845 -124.00615614413982 0 0 0 0 1.3675583823097277 4.6097198951363652 0 4.6097198951363652 -0.22442103220243581 0 0 0 0 133.37247069678597 -40.792227374089634 0 -40.792227374089634 -121.5995741831066 0 0 0 0 9.6677481460832553 15.775606115069969 0 15.775606115069969 9.4946260523223884 0 0 0 0 -358.39683354398494 143.22648709947316 0 143.22648709947316 23.228327680160874 0 0 0 0 9.4186028424336232 19.413442547412604 0 19.413442547412604 17.282750244840258 0 0 0 0 -114.01712421355478 99.759262631690945 0 99.759262631690945 43.2214750891726 0 0 0 0 25.24676215209729 49.124449846840434 0 49.124449846840434 9.1072594005672727 0 0 0 0 -26.447152362283305 48.88583743548952 0 48.88583743548952 15.273499625262048 0 0 0 0 163.4921711813214 115.16707400987434 0 115.16707400987434 -83.735442386676368 0 0 0 0 -0.60822367941977307 0.40013880023762738 0 0.40013880023762738 2.3862535142108356 0 0 0 0 225.6406631706252 -55.456336100960471 0 -55.456336100960471 -27.497952683144831 0 0 0 0 -251.38723120413343 204.6319145100988 0 204.6319145100988 76.619944386431598 0 0 0 0 190.26226890162434 33.337325225722452 0 33.337325225722452 -707.89900948294235 0 0 0 0 -61.961436067496834 15.746498683256505 0 15.746498683256505 -324.60973076624578 0 0 0 0 6.8393648557488547 2.8568042341767352 0 2.8568042341767352 -0.97662560341083093 0 0 0 0 -23.894521442607584 -27.517108157713665 0 -27.517108157713665 -230.2587795847503 0 0 0 0 -16.559188359984546 -14.46417521420517 0 -14.46417521420517 -373.51362987880475 0 0 0 0 -83.105509315199015 -66.576583633817791 0 -66.576583633817791 -382.2468065039684 0 0 0 0 138.79641746641573 259.11961022621108 0 259.11961022621108 533.27802357807377 0 0 0 0 277.67385690981246 577.11992674514477 0 577.11992674514477 683.4916214322111 0 0 0 0 426.80044662017463 296.7363352091852 0 296.7363352091852 0.32755038340837928 0 0 0 0 513.83591343946682 493.93094120505702 0 493.93094120505702 142.01945416318631 0 0 0 0 59.828308030686458 86.121307398665522 0 86.121307398665522 307.60691686217615 0 0 0 0 79.47715371227514 20.92861014502023 0 20.92861014502023 4.550131679061451 0 0 0 0 -52.766067506978288 44.481999393581646 0 44.481999393581646 -235.43820386459993 0 0 0 0 -119.7940829267136 -30.386901479454536 0 -30.386901479454536 -315.47489037553896 0 0 0 0 135.59896207526253 191.68988298324257 0 191.68988298324257 -112.78293459009728 0 0 0 0 123.82750147879415 123.2658684843118 0 123.2658684843118 -320.57855009911873 0 0 0 0 93.858036234720203 29.620000817296386 0 29.620000817296386 -213.55722122357474 0 0 0 0 17.348135009033065 3.7363313404621294 0 3.7363313404621294 -1.7248337894493417 0 0 0 0 23.892507811160613 4.8799062812104239 0 4.8799062812104239 0.16022292964771623 0 0 0 0 74.577036019818479 56.856416647002334 0 56.856416647002334 -246.83368942016386 0 0 0 0 23.895840198976657 4.7340331314335344 0 4.7340331314335344 -0.058850949513725936 0 0 0 0 26.219714865674653 3.5294552109662476 0 3.5294552109662476 -2.0018256207287308 0 0 0 0 83.314239501272823 86.006953364638321 0 86.006953364638321 -58.975059369072369 0 0 0 0 86.371878365476732 111.15141440837033 0 111.15141440837033 -62.943563770329092 0 0 0 0 -133.87110090015631 -35.545197349053979 0 -35.545197349053979 3.5223604965722188 0 0 0 0 -0.80003304077797566 1.1491910918142452 0 1.1491910918142452 -1.4097223645452175 0 0 0 0 -29.869029626794145 19.272735199512681 0 19.272735199512681 25.842158540272067 0 0 0 0 -33.308883512394459 15.574766154757526 0 15.574766154757526 29.44914916138805 0 0 0 0 -3.2022789172060371 3.2606556076788422 0 3.2606556076788422 -2.8358527446430628 0 0 0 0 -32.26610288015695 5.0714059654767425 0 5.0714059654767425 15.576713228219887 0 0 0 0 84.625827371536843 74.829848187416474 0 74.829848187416474 78.099020248046145 0 0 0 0 91.002605768186186 99.569741612405778 0 99.569741612405778 112.29511737373468 0 0 0 0 1.876217550050697 1.8536678838909211 0 1.8536678838909211 -0.85335959967463282 0 0 0 0 19.596972343327252 189.44698455320486 0 189.44698455320486 400.8575052161832 0 0 0 0 12.155775637746046 32.766438963255496 0 32.766438963255496 -393.68281278464565 0 0 0 0 96.856369287065263 147.80080034855291 0 147.80080034855291 189.14803807516 0 0 0 0 75.731979401578428 50.31844617805109 0 50.31844617805109 122.53144213848645 0 0 0 0 -3.6522616876720377 11.695654974687329 0 11.695654974687329 -5.5146596667811991 0 0 0 0 7.1603022410131416 55.808879815157525 0 55.808879815157525 8.0263931929075625 0 0 0 0 18.505031837333263 23.218021087292072 0 23.218021087292072 2.0662755797093268 0 0 0 0 2.9623535736755002 36.159706541977357 0 36.159706541977357 -8.7090832198737189 0 0 0 0 27.098010946986051 95.356497649093399 0 95.356497649093399 81.05516701018496 0 0 0 0 -6.4186785798729957 5.0179200256582277 0 5.0179200256582277 -4.8367213766598525 0 0 0 0 7.6404625520444824 17.519474841334159 0 17.519474841334159 124.10951565870914 0 0 0 0 2.1288882882799953 29.689307002132409 0 29.689307002132409 26.672185396302666 0 0 0 0 1.1647068293259508 14.563567165921995 0 14.563567165921995 24.368141649370955 0 0 0 0 -4.5697531784335297 23.315765001578256 0 23.315765001578256 16.183833841962041 0 0 0 0 6.5530599835028625 19.184300967005584 0 19.184300967005584 5.8704901409510057 0 0 0 0 -6.8954867918764648 27.467910819208555 0 27.467910819208555 9.1378783388790907 0 0 0 0 -14.781135333765633 23.237533652994898 0 23.237533652994898 24.038151516495418 0 0 0 0 -23.842908862416152 22.570905781689362 0 22.570905781689362 24.467252445458143 0 0 0 0 -3.8060668863454339 12.479541668028105 0 12.479541668028105 16.30215912017411 0 0 0 0 -23.220852492562699 28.654360015321799 0 28.654360015321799 31.898575657127367 0 0 0 0 -14.683705935510126 28.138914801431838 0 28.138914801431838 -12.314813739253076 0 0 0 0 -33.294670761685666 75.918263823537927 0 75.918263823537927 97.581261017967336 0 0 0 0 8.5932895410296624 76.463966691731912 0 76.463966691731912 39.218193091008288 0 0 0 0 16.605997463647782 51.354133200428805 0 51.354133200428805 20.359010616964952 0 0 0 0 12.529330944980757 59.523898764418846 0 59.523898764418846 11.971530527152936 0 0 0 0 -3.927610228111007 27.189915074901364 0 27.189915074901364 8.4557080581435002 0 0 0 0 -11.541921003247097 28.401516183961078 0 28.401516183961078 -7.8911827372146846 0 0 0 0 -8.0299724997130397 33.189770704280818 0 33.189770704280818 0.33380834041236085 0 0 0 0 -0.70284902777225255 3.8452416209213283 0 3.8452416209213283 -11.631873173234283 0 0 0 0 -18.677342866314575 58.495151297618577 0 58.495151297618577 37.79740502768982 0 0 0 0 2.0016322539104294 67.351152217626804 0 67.351152217626804 44.174379129384761 0 0 0 0 2.4982541719933806 60.425929840777144 0 60.425929840777144 20.218448215659009 0 0 0 0 -12.621409298737944 48.098660617870337 0 48.098660617870337 -21.434945740780677 0 0 0 0 -18.118632798195904 66.069338972796686 0 66.069338972796686 16.162900073537458 0 0 0 0 -12.520785467931304 23.21030385119974 0 23.21030385119974 -5.6620866497097211 0 0 0 0 -13.248756043925113 22.987059447517467 0 22.987059447517467 -11.209242974541411 0 0 0 0 -0.10624012408152339 18.993979736573237 0 18.993979736573237 -10.597331519020372 0 0 0 0 -31.250950216115598 37.985252155282069 0 37.985252155282069 9.4808613013010472 0 0 0 0 -3.4960019551631092 23.430570071861226 0 23.430570071861226 -5.7456285377895426 0 0 0 0 -14.008057695904427 48.232642490038415 0 48.232642490038415 -7.7165479667037289 0 0 0 0 3.3823303253321058 3.30452120994849 0 3.30452120994849 3.0034035756205242 0 0 0 0 22.886510714186443 17.24131625064183 0 17.24131625064183 3.9379464630619623 0 0 0 0 -81.592340590313142 98.868431105438503 0 98.868431105438503 -81.445151890802663 0 0 0 0 2.1529036822100034 11.165915425226302 0 11.165915425226302 13.338567039379171 0 0 0 0 -48.826027106959373 102.78798792522866 0 102.78798792522866 -117.94523744434991 0 0 0 0 3.6043043793761171 62.332072083052481 0 62.332072083052481 97.155510028998833 0 0 0 0 -81.001735314416237 157.16970404598396 0 157.16970404598396 137.32549580429622 0 0 0 0 237.3218744203682 -152.88009511341807 0 -152.88009511341807 -33.680669984125416 0 0 0 0 -241.03533286101833 87.775478076546278 0 87.775478076546278 335.981273896934 0 0 0 0 -81.184494073714859 118.4265085644729 0 118.4265085644729 -29.577493703625805 0 0 0 0 3.8808127334918936 40.015498354463489 0 40.015498354463489 -62.400870710178424 0 0 0 0 -23.338114848523674 129.04894382072234 0 129.04894382072234 -91.015732163825305 0 0 0 0 -66.399971131651 120.78416722601105 0 120.78416722601105 -51.714869421426556 0 0 0 0 -0.28678246700991394 41.891443143544166 0 41.891443143544166 14.885722366874688 0 0 0 0 78.539562296012946 99.260961971012875 0 99.260961971012875 -63.421688316419022 0 0 0 0 -46.170667825230339 196.61348351275956 0 196.61348351275956 -63.979046124839442 0 0 0 0 -127.93039052895438 177.39822256613115 0 177.39822256613115 -29.744758130749688 0 0 0 0 10.501430944748684 25.154660391908564 0 25.154660391908564 22.431218796629054 0 0 0 0 -17.319741228267958 40.052670573280921 0 40.052670573280921 23.695099660282722 0 0 0 0 -43.725814780692417 34.97917797509399 0 34.97917797509399 27.495552776978002 0 0 0 0 -15.541453807760263 32.040980027955811 0 32.040980027955811 27.610668633562909 0 0 0 0 -22.564971669145962 43.47011817981911 0 43.47011817981911 30.055782717477996 0 0 0 0 -30.967769901119027 57.973308254338917 0 57.973308254338917 130.7870801399913 0 0 0 0 -16.028732156165383 32.703726543302196 0 32.703726543302196 0.85818866095110735 0 0 0 0 -7.0737893519508361 54.690583444971708 0 54.690583444971708 98.50812474367558 0 0 0 0 -14.600035088911682 31.705624329406419 0 31.705624329406419 54.378418283704377 0 0 0 0 -33.283448839029006 29.650855185769615 0 29.650855185769615 111.51003160785331 0 0 0 0 -15.790593394976895 41.507984076110006 0 41.507984076110006 87.806444205722073 0 0 0 0 -3.2530563800737582 64.0776914490325 0 64.0776914490325 49.900632170945755 0 0 0 0 -93.274882228903152 97.452785357610992 0 97.452785357610992 42.02519503134863 0 0 0 0 -37.88765544297712 28.941668787207163 0 28.941668787207163 26.277469798616949 0 0 0 0 -30.357901698285787 43.101747724256711 0 43.101747724256711 51.954887991032592 0 0 0 0 -9.018336395463848 18.780845594119455 0 18.780845594119455 16.993232123022608 0 0 0 0 -2.7661801343929255 32.379556015983326 0 32.379556015983326 39.9677944675459 0 0 0 0 10.671637475695585 22.849771396559674 0 22.849771396559674 34.981177669428405 0 0 0 0 -14.945248039378441 22.461603361696234 0 22.461603361696234 69.751566516642924 0 0 0 0 -3.0269744137417689 32.653563416596171 0 32.653563416596171 73.196009021543659 0 0 0 0 14.161467536231612 48.92432038876359 0 48.92432038876359 81.820442731841467 0 0 0 0 0.22890304396423744 36.056992799713043 0 36.056992799713043 70.859461271209511 0 0 0 0 -40.65848291296102 9.3360378727479656 0 9.3360378727479656 13.093707657741902 0 0 0 0 -61.778753381633578 17.642699678159261 0 17.642699678159261 45.306556063660537 0 0 0 0 57.747711800906018 52.935321703400405 0 52.935321703400405 -29.118996758043068 0 0 0 0 -6.8338879271448754 8.9564851485733818 0 8.9564851485733818 -0.74699998928855393 0 0 0 0 19.38921009913588 -57.752960035446449 0 -57.752960035446449 99.348993210609478 0 0 0 0 -10.239354804392899 26.030949776463387 0 26.030949776463387 38.750841550751609 0 0 0 0 -26.295213619716801 63.995250369212499 0 63.995250369212499 44.324529882753268 0 0 0 0 2.1742959981909582 21.526280441331792 0 21.526280441331792 25.087564540839821 0 0 0 0 -84.560702695218424 26.114169011452759 0 26.114169011452759 30.367302994432976 0 0 0 0 -23.44015167926176 25.480628256431373 0 25.480628256431373 22.796726699549254 0 0 0 0 -63.341062630659167 1.3979944802631508 0 1.3979944802631508 17.528092372098399 0 0 0 0 1.0462071704887421 33.525530626971886 0 33.525530626971886 18.051543232817494 0 0 0 0 -41.590628471098626 78.400505528699796 0 78.400505528699796 -14.41680630105111 0 0 0 0 9.309401303130743 20.331959895024049 0 20.331959895024049 35.052138916545744 0 0 0 0 5.5009326920202 18.752633036620633 0 18.752633036620633 32.702378291849811 0 0 0 0 -53.002828437083508 69.439380278843601 0 69.439380278843601 43.727275776094757 0 0 0 0 148.21240021339327 85.022550647328899 0 85.022550647328899 -65.366647840281075 0 0 0 0 -112.86316640623829 14.209962888584414 0 14.209962888584414 21.517935604322702 0 0 0 0 -150.90077604857106 -79.070102599376696 0 -79.070102599376696 242.05221603108657 0 0 0 0 239.94615496844563 -67.340054357358895 0 -67.340054357358895 -21.676181587477913 0 0 0 0 12.743928385139952 -58.175689403022261 0 -58.175689403022261 41.309765367521322 0 0 0 0 256.43248487867095 263.3999170586394 0 263.3999170586394 136.04492930215201 0 0 0 0 171.58620743524079 80.14273322794179 0 80.14273322794179 17.134341641756691 0 0 0 0 77.009516400398866 56.59182530547605 0 56.59182530547605 58.080732704300317 0 0 0 0 101.8699584002843 151.71818062897364 0 151.71818062897364 335.27406352572871 0 0 0 0 274.20084976734142 197.97944647633267 0 197.97944647633267 143.83125922069303 0 0 0 0 -4.8912652252066948 2.0420991724993769 0 2.0420991724993769 7.2803864137166556 0 0 0 0 391.07928584291221 167.82286863451009 0 167.82286863451009 2.7290628089467646 0 0 0 0 188.02615068032355 -13.171747277614486 0 -13.171747277614486 69.069841609831201 0 0 0 0 419.10553955261275 205.41562796029029 0 205.41562796029029 41.358104992541485 0 0 0 0 347.58331591865863 337.79888199473498 0 337.79888199473498 372.17674644774524 0 0 0 0 415.73815056440435 199.59086388800642 0 199.59086388800642 31.834599086287199 0 0 0 0 -1.8700752386286581 3.3136412074100576 0 3.3136412074100576 -2.8698157705483425 0 0 0 0 -74.620207801740435 24.436491533171647 0 24.436491533171647 21.828787890917738 0 0 0 0 -83.340835830062133 14.749382928908744 0 14.749382928908744 25.244609278306598 0 0 0 0 -191.24541418171248 41.656891500078927 0 41.656891500078927 91.156818892151932 0 0 0 0 -26.091709870557374 26.600005934076464 0 26.600005934076464 27.316102907783247 0 0 0 0 -5.4823326146995441 21.830982915149434 0 21.830982915149434 36.769306945832795 0 0 0 0 0.20232531184992908 1.0349402858357166 0 1.0349402858357166 -3.8520656264037427 0 0 0 0 16.689888133976638 99.403174111270346 0 99.403174111270346 -118.69081644697872 0 0 0 0 -511.61717664578828 -11.922566557819664 0 -11.922566557819664 62.091620988487193 0 0 0 0 -106.03820163165074 133.86483790201601 0 133.86483790201601 168.11907199684356 0 0 0 0 -26.618772236186487 200.77367254559431 0 200.77367254559431 -131.11546687410737 0 0 0 0 -196.87403766031548 274.86778155093998 0 274.86778155093998 41.415647992937011 0 0 0 0 -266.63772620955569 -85.412596039772325 0 -85.412596039772325 38.231411643788306 0 0 0 0 66.196586060050095 -59.236167633605646 0 -59.236167633605646 -161.89340098867251 0 0 0 0 -215.3811142039558 135.02946596820402 0 135.02946596820402 33.161227023869287 0 0 0 0 -59.629466881516237 61.22225942033765 0 61.22225942033765 27.423680735846574 0 0 0 0 -39.032016240784287 4.5364717609190848 0 4.5364717609190848 17.582168832168236 0 0 0 0 -35.294563324660885 -3.7534011887764791 0 -3.7534011887764791 17.91415232053987 0 0 0 0 -94.615605474381482 56.274159045404303 0 56.274159045404303 25.467133916259627 0 0 0 0 -102.1931206057202 46.526361452384663 0 46.526361452384663 22.761939594973228 0 0 0 0 135.10319078784596 114.37121191574624 0 114.37121191574624 27.560546957973202 0 0 0 0 -192.06862007898508 55.319254124049621 0 55.319254124049621 54.932836714826408 0 0 0 0 0.04187553026527624 -0.12845653298232662 0 -0.12845653298232662 -0.30622171029858691 0 0 0 0 58.37155109784544 49.378197710784661 0 49.378197710784661 21.211023089766968 0 0 0 0 22.683464831847232 83.85399671056075 0 83.85399671056075 31.966581568827678 0 0 0 0 -0.57879805364791537 62.457506190541608 0 62.457506190541608 17.734814778130385 0 0 0 0 7.7740634270012379 50.559445464910823 0 50.559445464910823 28.086445683904458 0 0 0 0 -0.0048229940843773633 0.24032904009318656 0 0.24032904009318656 -0.5328629356236263 0 0 0 0 -11.346501386545242 66.74769915156412 0 66.74769915156412 12.089005108151468 0 0 0 0 -7.8334645634386106 77.500345617969288 0 77.500345617969288 23.739765226167947 0 0 0 0 -8.8906115679947106 78.520255506413378 0 78.520255506413378 28.994557041905864 0 0 0 0 3.0048054357102956 69.689532230571785 0 69.689532230571785 30.595238789574069 0 0 0 0 -4.1064337121206336 78.380568294058321 0 78.380568294058321 21.140029699614388 0 0 0 0 1.0851335047173052 83.046962861804786 0 83.046962861804786 25.26910787208908 0 0 0 0 -4.3246754794208755 78.387597076445672 0 78.387597076445672 22.630647724712617 0 0 0 0 -7.253196942144541 79.304061688491856 0 79.304061688491856 35.977368067848147 0 0 0 0 -8.1711830134736374 74.49207461221522 0 74.49207461221522 21.226037973086932 0 0 0 0 -9.3052165063054417 74.935201147105545 0 74.935201147105545 22.624147690303289 0 0 0 0 -5.5321670887933578 77.433198063445161 0 77.433198063445161 7.2112614790457883 0 0 0 0 -14.556208583669104 49.533441021667386 0 49.533441021667386 0.04240370134357363 0 0 0 0 -11.286674197071989 47.129407954402268 0 47.129407954402268 33.349981770807062 0 0 0 0 -10.186705503025223 61.796314184641233 0 61.796314184641233 30.759184686874505 0 0 0 0 -10.170430086453052 62.222691645682062 0 62.222691645682062 28.830212594664772 0 0 0 0 -28.882499621460738 67.228358919281163 0 67.228358919281163 44.828071126707073 0 0 0 0 -15.500077983779192 64.970334716810612 0 64.970334716810612 45.166641135663667 0 0 0 0 23.717880264136511 97.457620754397794 0 97.457620754397794 -41.412027974191005 0 0 0 0 -25.393704231351876 44.06972473453061 0 44.06972473453061 4.4500047230540076 0 0 0 0 -70.731137819482683 103.3262757100274 0 103.3262757100274 21.789466146568884 0 0 0 0 -164.66792377992715 23.029977709473314 0 23.029977709473314 31.913985251650956 0 0 0 0 -64.062534317505197 52.638396280599409 0 52.638396280599409 36.088983259600354 0 0 0 0 135.03300779685378 63.892286788082856 0 63.892286788082856 -10.852287460023945 0 0 0 0 0.087061588271927448 -0.27955387387187614 0 -0.27955387387187614 -0.40352793110528751 0 0 0 0 -19.906110744215766 40.511248614981014 0 40.511248614981014 19.88315169569978 0 0 0 0 -21.444159023720204 39.407040555161075 0 39.407040555161075 19.096766360707988 0 0 0 0 -15.544224062830466 6.8406960004777488 0 6.8406960004777488 -10.63401242632666 0 0 0 0 -27.519351886875484 54.904667551869352 0 54.904667551869352 40.05743834648456 0 0 0 0 -18.321547915707924 88.956165822848561 0 88.956165822848561 -6.9555834216153016 0 0 0 0 26.108469953225722 14.597954102013318 0 14.597954102013318 33.83116638053616 0 0 0 0 -0.079844801955914591 56.837110840977402 0 56.837110840977402 -5.6501068123388904 0 0 0 0 -4.5019286302626824 38.535346154490981 0 38.535346154490981 -25.051307915455254 0 0 0 0 -97.504629844317265 210.58455718125515 0 210.58455718125515 -271.12760035806423 0 0 0 0 -18.606977251401077 37.571436232159613 0 37.571436232159613 -10.23640760907233 0 0 0 0 -11.711614939411792 40.810094949466546 0 40.810094949466546 -10.17406186190655 0 0 0 0 -3.8098239865430514 38.528597990632989 0 38.528597990632989 -328.84811050347525 0 0 0 0 -23.17884014656147 31.445939180457572 0 31.445939180457572 -39.898642104115424 0 0 0 0 -16.31264452947412 27.843694548747536 0 27.843694548747536 -17.476720592911832 0 0 0 0 55.165739276312706 -2.9310133757880976 0 -2.9310133757880976 -131.90675232521608 0 0 0 0 -48.696272270841582 74.875192457806904 0 74.875192457806904 -17.938070171733386 0 0 0 0 181.92705414791999 353.48032778981724 0 353.48032778981724 -736.57448774743716 0 0 0 0 -371.87520943441996 -450.83340957863038 0 -450.83340957863038 -300.38652136997553 0 0 0 0 -34.770934297608619 114.14533533843496 0 114.14533533843496 10.445389774336945 0 0 0 0 -13.935177763134561 100.4383249313978 0 100.4383249313978 -89.396040645893663 0 0 0 0 -31.942687814783312 68.252019253628532 0 68.252019253628532 49.889774811483221 0 0 0 0 -32.359107984608272 101.7818394606802 0 101.7818394606802 71.03546300753078 0 0 0 0 -21.066297932251473 51.592270681539958 0 51.592270681539958 74.377796054861392 0 0 0 0 -43.909394188525766 77.809920996274741 0 77.809920996274741 120.33516659178713 0 0 0 0 -39.227137308182137 6.9311730776826153 0 6.9311730776826153 169.21510639505505 0 0 0 0 -4.6111141905725361 2.0689275163030629 0 2.0689275163030629 1.1883713105533484 0 0 0 0 -14.569400316802785 27.524260265810881 0 27.524260265810881 83.938061936511076 0 0 0 0 -4.3312561065104092 56.270265514402126 0 56.270265514402126 21.05072991954512 0 0 0 0 -11.620352990505111 38.972206935835189 0 38.972206935835189 3.5707785614954801 0 0 0 0 -20.604751622328877 39.813769763606615 0 39.813769763606615 -10.125130960754177 0 0 0 0 27.271493239737538 -135.27256371758131 0 -135.27256371758131 -647.49154711442679 0 0 0 0 -4.6961967380593705 42.439990410173777 0 42.439990410173777 -16.234881972770381 0 0 0 0 -7.9421110792087788 31.416839804656789 0 31.416839804656789 13.814545993603748 0 0 0 0 10.693242552018091 -163.86333213970192 0 -163.86333213970192 464.00082624941933 0 0 0 0 -51.962177273894667 -151.20881926512084 0 -151.20881926512084 603.67839617006939 0 0 0 0 -32.322867704503778 -181.63971915990714 0 -181.63971915990714 644.52475835273435 0 0 0 0 3.0773514303427874 -35.64464057657824 0 -35.64464057657824 385.84399940107687 0 0 0 0 -4.1069165508301921 63.820060773641671 0 63.820060773641671 655.87806067971178 0 0 0 0 -3.5845459086831397 27.123250724122045 0 27.123250724122045 287.22270340711111 0 0 0 0 147.48513752624967 25.103738991718274 0 25.103738991718274 -40.324424709320738 0 0 0 0 5.9038701829608202 5.6876327270503495 0 5.6876327270503495 -1.9607069705862727 0 0 0 0 -164.93586234160853 -51.60803425663471 0 -51.60803425663471 456.37083247125338 0 0 0 0 92.655560678555048 1.741451736583258 0 1.741451736583258 -35.362748312138137 0 0 0 0 116.10293468624695 299.71855141440392 0 299.71855141440392 879.57462880985258 0 0 0 0 224.36759578862302 -217.46187776983061 0 -217.46187776983061 248.19324066109857 0 0 0 0 -15.371592614641242 30.427519608640353 0 30.427519608640353 8.0553602824179684 0 0 0 0 1.0405793822977565 0.43802941272732809 0 0.43802941272732809 6.2263822349285931 0 0 0 0 5.9009711939257841 157.65441119496245 0 157.65441119496245 284.23689690707033 0 0 0 0 499.25779177693244 -87.644158958630214 0 -87.644158958630214 370.75781317794826 0 0 0 0 -253.09044405010195 -155.42608504690361 0 -155.42608504690361 913.61922803568132 0 0 0 0 -191.73855290247116 -198.7469510988667 0 -198.7469510988667 564.50458482408067 0 0 0 0 -407.28845871568728 -194.14678991304118 0 -194.14678991304118 696.59474865386801 0 0 0 0 -267.22010914473935 -46.126315968767813 0 -46.126315968767813 660.95533307451842 0 0 0 0 90.334517193084139 -330.19494722603122 0 -330.19494722603122 937.93238015980933 0 0 0 0 755.26312835278895 942.17150051956196 0 942.17150051956196 314.68504795335684 0 0 0 0 -115.93652784521601 617.26591200469556 0 617.26591200469556 1090.8035814204832 0 0 0 0 2.0750720997623175 -2.6791076143897463 0 -2.6791076143897463 5.0760183235974381 0 0 0 0 -4.6537399369562991 490.83625774370557 0 490.83625774370557 -15.281563538170303 0 0 0 0 -686.36870570781412 264.2314702525764 0 264.2314702525764 396.77976054186729 0 0 0 0 47.809207012498518 400.12713151545904 0 400.12713151545904 326.33669779835327 0 0 0 0 162.83630617758536 -853.40539837636243 0 -853.40539837636243 -114.91636103703058 0 0 0 0 750.25563701598742 69.356277714320015 0 69.356277714320015 63.927769932080992 0 0 0 0 -161.26240517227689 893.65686093554177 0 893.65686093554177 -4.9353619318501387 0 0 0 0 395.61190288856596 148.02442222338505 0 148.02442222338505 -104.66678191220126 0 0 0 0 -0.81663876490802068 242.60815763903156 0 242.60815763903156 85.323705002811039 0 0 0 0 -156.25329315306544 87.009705732278235 0 87.009705732278235 222.59301268970739 0 0 0 0 -46.865838473848271 175.31983243443392 0 175.31983243443392 547.37068754633219 0 0 0 0 178.66919409675756 -172.05824064114859 0 -172.05824064114859 418.39842374684667 0 0 0 0 -157.84736615565816 -156.46820197182387 0 -156.46820197182387 225.86194738322229 0 0 0 0 -32.430650047961535 34.083132979423681 0 34.083132979423681 237.12137255094422 0 0 0 0 -3.6163183564769952 -50.701859581597091 0 -50.701859581597091 -379.38697926743771 0 0 0 0 80.039383648675539 355.32539587335123 0 355.32539587335123 -44.594304180043764 0 0 0 0 -576.19833814211142 -300.59880900397548 0 -300.59880900397548 339.10900990132723 0 0 0 0 -2.8443739997646293 2.8850425590137547 0 2.8850425590137547 -2.0099106773201214 0 0 0 0 -393.28845221238964 -633.16402030492463 0 -633.16402030492463 -165.84327339080482 0 0 0 0 -4.4070782226286234 1.6066440691975075 0 1.6066440691975075 0.088307308626369263 0 0 0 0 -773.77282546392053 -221.56253162427311 0 -221.56253162427311 416.38609467727656 0 0 0 0 -101.80917267382756 -293.96096742434747 0 -293.96096742434747 123.80130711298261 0 0 0 0 128.50407369782761 159.91039347409787 0 159.91039347409787 235.47730344717274 0 0 0 0 -12.571113307480424 7.3583345549917709 0 7.3583345549917709 -7.1831433120007091 0 0 0 0 64.781533079372821 136.66032673646259 0 136.66032673646259 182.98584378108171 0 0 0 0 114.85120937793727 130.88163809160687 0 130.88163809160687 200.04080873998828 0 0 0 0 67.980280676099937 102.76141346329314 0 102.76141346329314 184.96150609863253 0 0 0 0 14.587808054486231 76.662541441004578 0 76.662541441004578 168.02827615156275 0 0 0 0 -5.034144505578297 48.926264188034111 0 48.926264188034111 141.0838016323396 0 0 0 0 34.039958974160982 76.137831555937737 0 76.137831555937737 151.2724596545886 0 0 0 0 39.746646452789719 102.81100495175633 0 102.81100495175633 210.55461400722925 0 0 0 0 84.182826003197988 122.88272396881439 0 122.88272396881439 126.12348390024272 0 0 0 0 25.439085488105775 93.206264069878671 0 93.206264069878671 166.15108903510554 0 0 0 0 35.022908073086001 83.42934253448766 0 83.42934253448766 115.21471400876544 0 0 0 0 97.784113875875846 243.68661529195379 0 243.68661529195379 87.509280924077757 0 0 0 0 49.833678054557822 78.590522087935824 0 78.590522087935824 113.18994604503678 0 0 0 0 -14.564602632526658 15.152689396814822 0 15.152689396814822 224.20470776456932 0 0 0 0 -13.005348993171571 5.2802504245127864 0 5.2802504245127864 -1.5087898542701481 0 0 0 0 75.255497155151716 -78.018274392743479 0 -78.018274392743479 222.16199844144285 0 0 0 0 -215.40732325203589 -148.41113384308653 0 -148.41113384308653 68.970223705648095 0 0 0 0 -196.66233221699576 191.05098102383272 0 191.05098102383272 27.171816415360809 0 0 0 0 -72.178635978603779 69.874616344819515 0 69.874616344819515 364.54446594155888 0 0 0 0 123.69983249821564 42.33694611899773 0 42.33694611899773 52.562872957452782 0 0 0 0 2.5853515017058095 4.1571016926503006 0 4.1571016926503006 -3.8207108472472751 0 0 0 0 76.216492691612075 79.933588772910298 0 79.933588772910298 82.548117285448825 0 0 0 0 27.868748396813317 133.26117779598644 0 133.26117779598644 147.63265107900224 0 0 0 0 -216.95756633576138 35.924880908054547 0 35.924880908054547 588.7347387317277 0 0 0 0 -14.959503393842592 18.44037492186915 0 18.44037492186915 5.4577108448138034 0 0 0 0 0.8179945131399462 -3.2664531303105946 0 -3.2664531303105946 0.090347405344470388 0 0 0 0 -6.2948142441127857 169.76646196748334 0 169.76646196748334 -157.08796693189652 0 0 0 0 -28.74652550781002 54.130126952202772 0 54.130126952202772 -32.385652165943611 0 0 0 0 -25.280535225427457 69.278096327673666 0 69.278096327673666 -45.068127765938698 0 0 0 0 -29.259444922891461 39.169193533379072 0 39.169193533379072 -39.495241059753909 0 0 0 0 -26.580325249957241 229.0636400037838 0 229.0636400037838 39.808673679124695 0 0 0 0 -2.9015284445367797 60.19306660271468 0 60.19306660271468 13.743821762085645 0 0 0 0 -11.680375745352332 8.1796280479030514 0 8.1796280479030514 1.6173117100853744 0 0 0 0 -92.748542031239595 31.80258008198507 0 31.80258008198507 50.384439555455174 0 0 0 0 -137.32367112469001 127.44734523264196 0 127.44734523264196 -43.291919290746591 0 0 0 0 -588.48690077752531 98.604318180415248 0 98.604318180415248 124.89945711464316 0 0 0 0 -196.0389116169556 54.41996245004384 0 54.41996245004384 -21.738571564492304 0 0 0 0 -42.221667416472386 48.694972129187668 0 48.694972129187668 -10.807895674744923 0 0 0 0 -0.22971875661692565 8.019305783279826 0 8.019305783279826 -22.109900105088748 0 0 0 0 38.21285476982257 106.94870886408899 0 106.94870886408899 48.39306479672814 0 0 0 0 -171.79308727567241 263.00067748676156 0 263.00067748676156 -62.734293085217359 0 0 0 0 162.63253300077736 190.96058964639178 0 190.96058964639178 -100.42763960321463 0 0 0 0 -7.6839455474908274 -1.1259039169865055 0 -1.1259039169865055 24.811385496728747 0 0 0 0 141.8740502045016 367.75328315502702 0 367.75328315502702 293.68741581588256 0 0 0 0 160.36039275927942 161.31227952751942 0 161.31227952751942 187.90868930631314 0 0 0 0 6.1266674829826968 15.334476318914867 0 15.334476318914867 26.077725177904952 0 0 0 0 3.0327163172005385 383.02249848530755 0 383.02249848530755 585.46788814842512 0 0 0 0 58.972945792764222 16.799058056111789 0 16.799058056111789 211.49374191020433 0 0 0 0 -37.802590602859709 124.53812480029228 0 124.53812480029228 590.80115719686 0 0 0 0 32.958567109826618 85.686123519302782 0 85.686123519302782 104.54774765806451 0 0 0 0 34.479116931604025 81.396246227134469 0 81.396246227134469 25.872378713434646 0 0 0 0 -114.34529753231982 46.323409535408246 0 46.323409535408246 170.307270016443 0 0 0 0 17.142875098923739 98.678831498226131 0 98.678831498226131 35.856290261231592 0 0 0 0 51.569249586664228 134.64371076488169 0 134.64371076488169 -23.197470648092349 0 0 0 0 2.8575614739420416 195.46448313236942 0 195.46448313236942 87.273632584769075 0 0 0 0 42.871802232170012 228.02799483749914 0 228.02799483749914 -3.873159282051347 0 0 0 0 37.538115877276311 100.04043857065145 0 100.04043857065145 38.094889957261394 0 0 0 0 -70.951888793999387 359.16904657733039 0 359.16904657733039 280.10154490099376 0 0 0 0 -63.393396790117549 323.71231751872438 0 323.71231751872438 429.75337579289226 0 0 0 0 -78.007020225762972 168.97463622472424 0 168.97463622472424 251.46106554188191 0 0 0 0 -134.47093936058445 440.57625806040778 0 440.57625806040778 351.97803507650315 0 0 0 0 14.90510008579804 387.17731868463488 0 387.17731868463488 107.95433451706049 0 0 0 0 -112.58544876096857 267.6508927105242 0 267.6508927105242 131.5457340923931 0 0 0 0 -100.05498210605583 522.59652100880226 0 522.59652100880226 299.60041018269112 0 0 0 0 -277.35969109630969 129.59584043239738 0 129.59584043239738 22.759277583474613 0 0 0 0 -20.147000666896929 290.8896133197668 0 290.8896133197668 -364.15793094037872 0 0 0 0 -238.75574022318779 256.22911588573288 0 256.22911588573288 -458.49155853574484 0 0 0 0 -67.331066511833342 439.90928797140441 0 439.90928797140441 -291.39532469186452 0 0 0 0 -113.76729114234877 342.07426296245103 0 342.07426296245103 95.279335809405893 0 0 0 0 -89.050199808421894 473.44525829981285 0 473.44525829981285 -80.185452765437731 0 0 0 0 -185.33422354539653 585.09462017812621 0 585.09462017812621 -244.1879186283204 0 0 0 0 -496.42718673582931 329.7425722721182 0 329.7425722721182 226.63957621017562 0 0 0 0 -137.15836330072852 303.18319101129782 0 303.18319101129782 196.49570817238418 0 0 0 0 -190.93322557581087 193.45831972873748 0 193.45831972873748 514.9228588852784 0 0 0 0 -216.29152043414706 125.31597554555856 0 125.31597554555856 351.25878988583645 0 0 0 0 -135.35757973140426 251.18614624749716 0 251.18614624749716 459.12957270125844 0 0 0 0 -80.007257653454872 219.48316271328258 0 219.48316271328258 115.96139861928896 0 0 0 0 -142.46302760374965 -6.1499094693353982 0 -6.1499094693353982 12.12265286397087 0 0 0 0 -2.2338099718634652 0.41439185374745691 0 0.41439185374745691 9.9352966893543311 0 0 0 0 -108.129475331506 -201.59020355307848 0 -201.59020355307848 707.72767052952986 0 0 0 0 -46.671438999261227 -262.97143561196663 0 -262.97143561196663 388.60005705395088 0 0 0 0 57.393972873887833 262.30252474887311 0 262.30252474887311 202.06786090520836 0 0 0 0 -161.31875475431298 245.46410912121337 0 245.46410912121337 938.61355100151559 0 0 0 0 -45.584028185074203 49.454440084160524 0 49.454440084160524 5.23295358456744 0 0 0 0 -241.47106117446674 170.36350577174744 0 170.36350577174744 119.82662513129435 0 0 0 0 -24.076700777586666 -152.3475093211764 0 -152.3475093211764 232.30241582135386 0 0 0 0 -42.257414449533826 -3.1383107258661767 0 -3.1383107258661767 590.29728449727463 0 0 0 0 -6.060733320979125 -20.307031479805119 0 -20.307031479805119 452.23638333410236 0 0 0 0 -5.6190622806783779 39.295014063624421 0 39.295014063624421 0.65797835141826511 0 0 0 0 -9.038891655009138 37.859848127816804 0 37.859848127816804 -8.1905917448784749 0 0 0 0 3.8417158898810158 30.869467353011714 0 30.869467353011714 -4.2451211967745621 0 0 0 0 0.66612243878626032 39.707151343507576 0 39.707151343507576 -8.9135598145585391 0 0 0 0 -0.70643373939987697 35.707645533907254 0 35.707645533907254 14.056093412047939 0 0 0 0 -126.59698683405077 -120.65923403824763 0 -120.65923403824763 715.13577521134539 0 0 0 0 4.8284344783257183 40.473563770558044 0 40.473563770558044 15.970014546317381 0 0 0 0 32.435485030948257 74.690891835052753 0 74.690891835052753 24.401942682394292 0 0 0 0 27.446621830113145 55.612271263147704 0 55.612271263147704 61.845055128760578 0 0 0 0 26.51846875785327 74.121483840948713 0 74.121483840948713 37.235061221726937 0 0 0 0 -92.50010267538164 -16.474750215915265 0 -16.474750215915265 88.858672790293895 0 0 0 0 1.8841644510175684 90.335441246403207 0 90.335441246403207 26.933097998567973 0 0 0 0 -39.293989687387693 92.230873639729907 0 92.230873639729907 35.50929250610352 0 0 0 0 -23.930865387672384 69.233244771763566 0 69.233244771763566 22.38155058958364 0 0 0 0 272.67116038011955 252.95139003774966 0 252.95139003774966 103.75606330075971 0 0 0 0 150.40542016996915 -270.5213904584034 0 -270.5213904584034 731.77417713637533 0 0 0 0 -136.26589782950759 26.65959509523509 0 26.65959509523509 893.96733974884773 0 0 0 0 -29.559111104717886 265.93854794533763 0 265.93854794533763 691.93909884269851 0 0 0 0 8.1026135845979113 37.881296274075545 0 37.881296274075545 -7.9991061895714104 0 0 0 0 20.432239112884417 74.982434696677956 0 74.982434696677956 65.173081019172969 0 0 0 0 14.066115411966166 65.462764963958762 0 65.462764963958762 84.631387622931129 0 0 0 0 25.412823969374585 68.129128773958655 0 68.129128773958655 57.769962424346886 0 0 0 0 35.429746872578107 85.279716917159021 0 85.279716917159021 52.315663593959471 0 0 0 0 20.373707259298726 77.14987986065546 0 77.14987986065546 100.63209119843668 0 0 0 0 24.832777664763427 75.710198811281415 0 75.710198811281415 30.06637782737559 0 0 0 0 34.869007005312596 75.433588565487298 0 75.433588565487298 35.766724292261642 0 0 0 0 31.872275919502499 82.212119200446978 0 82.212119200446978 43.200662730174372 0 0 0 0 27.170873024675529 73.941468682703999 0 73.941468682703999 29.454294674113044 0 0 0 0 30.63680531960199 84.822528106731625 0 84.822528106731625 26.18711350990452 0 0 0 0 30.374225579369522 81.084000925860892 0 81.084000925860892 34.709609637819995 0 0 0 0 -23.783931842654241 24.18263148794442 0 24.18263148794442 -31.844880914937278 0 0 0 0 59.207575070991879 84.749323368654586 0 84.749323368654586 16.328912484394095 0 0 0 0 -6.3992729356223208 86.677349876257722 0 86.677349876257722 41.597464454025612 0 0 0 0 -20.952867680237432 74.168106181119583 0 74.168106181119583 37.032719259601436 0 0 0 0 -7.5836053072816867 80.43901656183516 0 80.43901656183516 38.254537136701401 0 0 0 0 17.155930493954656 82.267968323412788 0 82.267968323412788 29.858257455511193 0 0 0 0 15.394293973076856 80.299798283645941 0 80.299798283645941 41.557240486908995 0 0 0 0 6.0415248964727652 86.001083437742636 0 86.001083437742636 34.366589886853035 0 0 0 0 20.523648333020901 73.293013830143536 0 73.293013830143536 13.045926510247227 0 0 0 0 1.9732974485468731 79.0238613069032 0 79.0238613069032 23.884998255758546 0 0 0 0 -6.3664656094442762 76.944755098427777 0 76.944755098427777 23.383395889846724 0 0 0 0 10.007408875764668 76.865631303877308 0 76.865631303877308 13.55528596026852 0 0 0 0 8.1092312226182912 70.663934448713917 0 70.663934448713917 12.550058209999406 0 0 0 0 -3.303894311266049 64.763038277204032 0 64.763038277204032 2.5871285106259165 0 0 0 0 62.00125942136583 76.121503372429288 0 76.121503372429288 17.918915392641793 0 0 0 0 41.001687725499323 53.424936175075345 0 53.424936175075345 -4.2854395641334122 0 0 0 0 22.85503254564901 120.34399909175409 0 120.34399909175409 -5.4860318890569033 0 0 0 0 -25.801344033898886 28.764439585664519 0 28.764439585664519 -30.486497384139881 0 0 0 0 -0.040285922819748521 59.957304441180895 0 59.957304441180895 -5.2863713664810348 0 0 0 0 93.066180996891489 73.339145907168131 0 73.339145907168131 -28.683055239556325 0 0 0 0 138.05233488045633 89.655260626728705 0 89.655260626728705 -26.611873580073734 0 0 0 0 134.32106919092985 137.98261334286508 0 137.98261334286508 -29.074055814191524 0 0 0 0 101.43563383056244 107.68277281129849 0 107.68277281129849 8.6378952844897867 0 0 0 0 101.20335535198319 111.44564020569669 0 111.44564020569669 13.65934162139456 0 0 0 0 67.874607915598972 93.076710687968443 0 93.076710687968443 20.154076246450131 0 0 0 0 48.345842419756082 111.92400663034277 0 111.92400663034277 10.942252091721457 0 0 0 0 31.104238557629287 117.11327905256621 0 117.11327905256621 13.6926115901515 0 0 0 0 -18.108457390071813 38.495528831241884 0 38.495528831241884 -4.1864519433998737 0 0 0 0 35.606634715975815 141.07089885425012 0 141.07089885425012 81.971475579368416 0 0 0 0 26.283831662829471 154.12794784216385 0 154.12794784216385 63.748224309149009 0 0 0 0 20.020096572454349 135.10370007155507 0 135.10370007155507 8.3781048926612129 0 0 0 0 115.20410403028654 148.07862519150513 0 148.07862519150513 -3.1492171139907441 0 0 0 0 79.270587351657014 148.77084585084594 0 148.77084585084594 11.225198348780395 0 0 0 0 -127.29292468825224 229.82159470901024 0 229.82159470901024 88.531383128516609 0 0 0 0 77.817538336068537 283.61470436646778 0 283.61470436646778 -95.126027493606671 0 0 0 0 -428.87167294056781 144.5366995240438 0 144.5366995240438 1291.1524273132454 0 0 0 0 260.58192098140717 192.58039291371824 0 192.58039291371824 -81.162956699096867 0 0 0 0 97.773004627421415 136.02091854453784 0 136.02091854453784 -11.410709065079573 0 0 0 0 191.29594541316692 44.224573254698043 0 44.224573254698043 76.175831595362979 0 0 0 0 63.977792429952387 208.67399613305315 0 208.67399613305315 163.70780480779649 0 0 0 0 122.26945728021019 173.85127725364146 0 173.85127725364146 -90.24741652974626 0 0 0 0 121.92408523784616 339.61255137411354 0 339.61255137411354 -143.30677076701249 0 0 0 0 143.15625377798278 105.80957107550785 0 105.80957107550785 -916.94896789655468 0 0 0 0 1.7206089267607894 3.3679714664929463 0 3.3679714664929463 0.088804385598212576 0 0 0 0 192.43983397514239 643.50230539926997 0 643.50230539926997 -472.50142592136399 0 0 0 0 -14.83960300875242 498.13398990010319 0 498.13398990010319 -338.60367694299202 0 0 0 0 582.35456265134417 -70.700995468781912 0 -70.700995468781912 -17.056541972680861 0 0 0 0 -81.545142180131734 234.94900195206355 0 234.94900195206355 757.85863096447429 0 0 0 0 -1.4607456157027627 160.4570735207235 0 160.4570735207235 418.73059780019685 0 0 0 0 33.986212109237385 61.252379435602052 0 61.252379435602052 229.43004663103056 0 0 0 0 25.974490377826442 110.94841264585557 0 110.94841264585557 191.39166399263195 0 0 0 0 37.184789347678816 13.228571988883232 0 13.228571988883232 84.885886777556152 0 0 0 0 -172.32299333737228 -117.67284884093442 0 -117.67284884093442 -11.959033120947424 0 0 0 0 179.96260479967168 80.997104220383335 0 80.997104220383335 -432.46514211587055 0 0 0 0 177.12214385538982 123.43791765983838 0 123.43791765983838 -59.529931415177998 0 0 0 0 153.01592920840267 102.54314842682652 0 102.54314842682652 -77.230314418950002 0 0 0 0 158.19013391491171 118.18630608020612 0 118.18630608020612 -57.347714738883951 0 0 0 0 153.16156124078043 99.676596913093817 0 99.676596913093817 -21.553552847253741 0 0 0 0 143.02448805099993 86.508577918410083 0 86.508577918410083 -29.185980760637904 0 0 0 0 181.8493499865217 122.21170993947453 0 122.21170993947453 -29.552443603234167 0 0 0 0 156.91602860349667 119.98337212422484 0 119.98337212422484 21.556071821949445 0 0 0 0 269.31622068100478 224.99814553705801 0 224.99814553705801 65.567939544096589 0 0 0 0 74.491389524213446 136.80623633528739 0 136.80623633528739 172.07906810012355 0 0 0 0 170.22927174902361 159.83822520179365 0 159.83822520179365 62.662549160624621 0 0 0 0 74.339968955806398 140.54809307803953 0 140.54809307803953 196.0813905767136 0 0 0 0 136.59270409389865 278.41598157060798 0 278.41598157060798 275.32859570603978 0 0 0 0 20.856948477245169 268.25637436499164 0 268.25637436499164 346.38965664266289 0 0 0 0 131.95622086169533 242.52570382263002 0 242.52570382263002 173.73914195624093 0 0 0 0 173.01292520360948 308.68863769220479 0 308.68863769220479 259.19487375940662 0 0 0 0 248.77172353217975 390.0058489816729 0 390.0058489816729 255.36631436253083 0 0 0 0 56.231172972387867 362.21342598980118 0 362.21342598980118 590.09856286327704 0 0 0 0 58.03112482776487 271.21956861054787 0 271.21956861054787 366.69368245384248 0 0 0 0 37.267102957589486 286.46104377008123 0 286.46104377008123 356.13961723988177 0 0 0 0 -16.786401752673186 18.429823470988282 0 18.429823470988282 -9.2881924207610211 0 0 0 0 51.813127725596132 135.98167376680794 0 135.98167376680794 156.24511095868547 0 0 0 0 285.4415329076146 333.04248075556825 0 333.04248075556825 194.79509234490615 0 0 0 0 -32.067186791982749 -8.7446953310973186 0 -8.7446953310973186 104.73143679072382 0 0 0 0 -15.038576198829105 15.831312216992956 0 15.831312216992956 6.3771855544327991 0 0 0 0 -18.107685523661502 20.073001711594884 0 20.073001711594884 5.7206848783842759 0 0 0 0 7.8703341517102672 -153.57565580031587 0 -153.57565580031587 -149.7341529095429 0 0 0 0 -16.912403274681068 12.935751137816794 0 12.935751137816794 16.03774348033167 0 0 0 0 -4.8660843124468727 4.972079328461831 0 4.972079328461831 -2.2868723793966126 0 0 0 0 203.09571838445299 362.31290758022806 0 362.31290758022806 406.10060513940698 0 0 0 0 135.34509055651506 360.04567844005214 0 360.04567844005214 410.9534398309479 0 0 0 0 294.79431681110509 514.26346763200127 0 514.26346763200127 541.18633832887281 0 0 0 0 490.22087716579699 355.70503818026918 0 355.70503818026918 302.985833100538 0 0 0 0 154.9574239979338 258.76901050230663 0 258.76901050230663 375.14304691291909 0 0 0 0 6.4246101838662071 229.1257222239874 0 229.1257222239874 405.28193002019543 0 0 0 0 0.2801964438048401 6.5927512683663281 0 6.5927512683663281 -8.6035499561566482 0 0 0 0 -144.5139304241311 98.283104564477981 0 98.283104564477981 104.19987712368311 0 0 0 0 27.411457810180792 18.90154926538699 0 18.90154926538699 -2.0879312562139205 0 0 0 0 83.352705338962551 73.742050892105908 0 73.742050892105908 -23.487909111878253 0 0 0 0 41.663652859366266 32.479445972669055 0 32.479445972669055 -11.120095140526246 0 0 0 0 25.965664064089651 -11.548701354011428 0 -11.548701354011428 -59.767513537535706 0 0 0 0 7.6926255315532615 4.8228779919110139 0 4.8228779919110139 0.35536580235933002 0 0 0 0 66.828595820981718 31.473174384751474 0 31.473174384751474 -65.80309596643383 0 0 0 0 -19.997383780200835 50.171314070274093 0 50.171314070274093 3.1221247528378626 0 0 0 0 -28.154136095733215 31.052079763982888 0 31.052079763982888 -31.368505625097441 0 0 0 0 13.926172957690142 1.4588074841230991 0 1.4588074841230991 -6.174919694769045 0 0 0 0 21.753164085726894 83.283717854003044 0 83.283717854003044 -64.395655410859035 0 0 0 0 72.953858092634619 13.655451057231403 0 13.655451057231403 -32.326896613158169 0 0 0 0 -18.385041430043202 20.390890732651314 0 20.390890732651314 132.79301030117495 0 0 0 0 37.185279456007265 16.281066352225025 0 16.281066352225025 26.919907718838658 0 0 0 0 32.952828366174799 75.438539943912474 0 75.438539943912474 -223.7867821646505 0 0 0 0 -1.4317092907792812 -1.0145514163305904 0 -1.0145514163305904 0.72591338829486318 0 0 0 0 166.86190644447925 96.307555949053494 0 96.307555949053494 -79.787435416004655 0 0 0 0 82.404300828073247 21.90587241978028 0 21.90587241978028 -78.784883903957962 0 0 0 0 97.412802677463333 120.02886553787539 0 120.02886553787539 -4.2813175072442391 0 0 0 0 446.89068462808063 250.62298822907178 0 250.62298822907178 32.807913792777981 0 0 0 0 191.26515807886608 106.22885133362797 0 106.22885133362797 -24.90533256441995 0 0 0 0 502.9001333069391 236.98591434982973 0 236.98591434982973 -84.571813658360043 0 0 0 0 397.86063969585666 659.35289649220795 0 659.35289649220795 706.52493255342415 0 0 0 0 5.8365362434381325 4.1802802031083672 0 4.1802802031083672 3.5347822105733968 0 0 0 0 -8.2181934020700282 72.935289901499345 0 72.935289901499345 667.95773018209002 0 0 0 0 172.88507227358423 -6.7150920104977558 0 -6.7150920104977558 -96.165035398022155 0 0 0 0 -49.623043019615579 0.57574502176430542 0 0.57574502176430542 28.918916345650359 0 0 0 0 -56.62108529339821 115.46505702561626 0 115.46505702561626 -23.903890252630845 0 0 0 0 14.88607500049703 12.353385110132749 0 12.353385110132749 6.0319825001012362 0 0 0 0 -69.4787595411035 93.554492566887347 0 93.554492566887347 -58.672598149001715 0 0 0 0 17.53079598239492 13.212849487303174 0 13.212849487303174 86.410175060529582 0 0 0 0 -21.84142862297449 -7.2376206755106978 0 -7.2376206755106978 256.47153299978527 0 0 0 0 23.147500805724121 -2.9803773973508214 0 -2.9803773973508214 18.2474433595562 0 0 0 0 23.959838532300637 52.946568211547856 0 52.946568211547856 56.167251442118868 0 0 0 0 114.12414378606627 157.03002230230777 0 157.03002230230777 -3.1830176369039691 0 0 0 0 5.5284553459724464 3.1837993645553126 0 3.1837993645553126 -1.2966341305215963 0 0 0 0 165.42576754663241 48.066713222324324 0 48.066713222324324 -66.99743081811539 0 0 0 0 -0.94384094859015022 151.26941599329803 0 151.26941599329803 312.41328995388903 0 0 0 0 20.602758444041683 52.037891348125413 0 52.037891348125413 143.06175069919846 0 0 0 0 15.329863236552683 103.48807129604529 0 103.48807129604529 219.06830462072685 0 0 0 0 -24.015831768618227 79.738716507497884 0 79.738716507497884 242.7498851120763 0 0 0 0 -16.972056713907477 105.45459988886796 0 105.45459988886796 249.92924105191196 0 0 0 0 -183.14807754453432 104.20168396818917 0 104.20168396818917 328.58081570683862 0 0 0 0 -51.286512787842184 525.68108724277226 0 525.68108724277226 1048.1479895722296 0 0 0 0 327.3672753374849 819.45020025443955 0 819.45020025443955 1131.9280025758635 0 0 0 0 951.28030511850375 675.74263262779277 0 675.74263262779277 514.71772803359227 0 0 0 0 77.248584413864592 -46.744790141805424 0 -46.744790141805424 25.181871140848671 0 0 0 0 765.27807616806967 738.86896426561725 0 738.86896426561725 946.49040506310121 0 0 0 0 4.1383642382870676 2.2301028567052015 0 2.2301028567052015 -0.19425369359532141 0 0 0 0 164.76642127787454 111.64383475859358 0 111.64383475859358 -19.327440175780794 0 0 0 0 4.3745929543947 2.897406854200284 0 2.897406854200284 -0.52628375279245887 0 0 0 0 249.6477256254002 29.054502514904016 0 29.054502514904016 353.64357815591939 0 0 0 0 604.75248593073047 670.59614254442567 0 670.59614254442567 391.22895726883871 0 0 0 0 453.22851066094154 2.71748144076264 0 2.71748144076264 894.80560206453811 0 0 0 0 758.57672149209975 493.42241011805163 0 493.42241011805163 444.73045613890281 0 0 0 0 406.94948305594608 151.46455139362706 0 151.46455139362706 271.23116268130252 0 0 0 0 419.2972915181017 371.71338185707282 0 371.71338185707282 620.11786090215901 0 0 0 0 -7.1725848326714186 16.542922936823743 0 16.542922936823743 -2.3257448138174368 0 0 0 0 7.8190070961289564 1.9425992244090651 0 1.9425992244090651 -3.1112338827789046 0 0 0 0 2.1158129533031058 3.2597747550425424 0 3.2597747550425424 -2.6882107577184797 0 0 0 0 55.544987108922214 -28.128444745540037 0 -28.128444745540037 38.881835387810497 0 0 0 0 406.976505843013 103.21060324267455 0 103.21060324267455 49.28983539318142 0 0 0 0 3.2300543584933621 27.950538942131971 0 27.950538942131971 -44.799511177378008 0 0 0 0 -11.878214405516701 11.358425251855806 0 11.358425251855806 -20.727580140941427 0 0 0 0 -38.4776786947441 104.09712973019487 0 104.09712973019487 -0.11474818913120544 0 0 0 0 -10.889983725890488 67.213441063824575 0 67.213441063824575 -107.51125781347218 0 0 0 0 -25.995793536669225 176.13820478055277 0 176.13820478055277 -142.06503317947499 0 0 0 0 -25.977371206600765 189.41041580032652 0 189.41041580032652 -296.91114319991902 0 0 0 0 1.5771333409357595 1.6742273026947601 0 1.6742273026947601 -0.89581229594456602 0 0 0 0 2.4096041527709531 39.264649370003099 0 39.264649370003099 -127.07071909510705 0 0 0 0 -37.24768157005019 202.28553057964018 0 202.28553057964018 62.358978742309773 0 0 0 0 -42.014093714715273 30.604653194372077 0 30.604653194372077 -119.52389051425962 0 0 0 0 -3.5442071786800113 6.2772833630589275 0 6.2772833630589275 -4.399085063234196 0 0 0 0 -41.957176283149238 11.41212507372984 0 11.41212507372984 -262.17021085417946 0 0 0 0 69.998669268308731 -62.027553663559956 0 -62.027553663559956 444.69905127139646 0 0 0 0 -0.24061095103378705 3.1889956948653548 0 3.1889956948653548 -2.4456759120089231 0 0 0 0 122.40216605855312 -16.371651759203814 0 -16.371651759203814 -701.97337398972013 0 0 0 0 449.48630626709564 723.89042180153774 0 723.89042180153774 513.41118357682626 0 0 0 0 425.73918820079416 976.73008623538772 0 976.73008623538772 -53.685261333841481 0 0 0 0 374.13030956724833 596.06986764943576 0 596.06986764943576 455.97899066415266 0 0 0 0 498.42902920763299 716.25561504819052 0 716.25561504819052 251.43096502215485 0 0 0 0 415.46090039161936 746.90941576148907 0 746.90941576148907 410.63848676026464 0 0 0 0 456.36289513703377 710.59046866229619 0 710.59046866229619 414.8894364942098 0 0 0 0 -19.206938034501036 291.11510973437544 0 291.11510973437544 -0.27106538161024218 0 0 0 0 377.10654597825123 519.42923238404182 0 519.42923238404182 -393.74421712735057 0 0 0 0 1062.1450291419205 492.00929497979087 0 492.00929497979087 -344.8447315809899 0 0 0 0 448.60153527030161 325.19016475232547 0 325.19016475232547 118.76881436133408 0 0 0 0 473.20678085047984 518.1647373225569 0 518.1647373225569 253.93686477307347 0 0 0 0 699.36518517140939 731.16379256319487 0 731.16379256319487 214.79608694143462 0 0 0 0 373.43857997224404 382.92277575867774 0 382.92277575867774 -476.3588614295295 0 0 0 0 470.6702365596575 654.06229145816178 0 654.06229145816178 460.20720851168153 0 0 0 0 402.56560303166043 701.67456818171195 0 701.67456818171195 442.90523026417941 0 0 0 0 543.3392805434778 679.53932878943306 0 679.53932878943306 16.446442518325057 0 0 0 0 200.65515299757317 209.4761927706968 0 209.4761927706968 -151.39144795661559 0 0 0 0 26.60998309693241 -6.981358682634891 0 -6.981358682634891 32.877604141536722 0 0 0 0 55.75131599130691 7.2055373221664922 0 7.2055373221664922 14.341492244027904 0 0 0 0 4.3950559115910437 42.575554647919489 0 42.575554647919489 -3.0083908191882074 0 0 0 0 14.966773497239046 51.420568102083053 0 51.420568102083053 -5.9265760094713187 0 0 0 0 6.3240368387851049 14.671457925724098 0 14.671457925724098 26.816571978866705 0 0 0 0 -40.313451565307332 58.471250452315871 0 58.471250452315871 3.4298990692186635 0 0 0 0 -148.19579056100702 27.545393907937978 0 27.545393907937978 48.904631933532073 0 0 0 0 0.18798539951863003 -1.569582159309391 0 -1.569582159309391 -0.74992868214644659 0 0 0 0 -98.352803881685759 -2.5706377319766034 0 -2.5706377319766034 37.791216101933969 0 0 0 0 -103.92746814604561 25.988042726925414 0 25.988042726925414 61.291383370640688 0 0 0 0 -1.9717885380488966 4.6447862886616704 0 4.6447862886616704 -0.64619200589658021 0 0 0 0 -44.228608420855608 100.7846756003978 0 100.7846756003978 -35.859167105103552 0 0 0 0 -23.17268476274694 23.438388058813871 0 23.438388058813871 -112.01016182574676 0 0 0 0 -67.277496521201101 45.000752495558118 0 45.000752495558118 56.435913167853869 0 0 0 0 -52.584354708902538 21.390787583761266 0 21.390787583761266 41.244175004152567 0 0 0 0 16.012888099867268 -47.054244336221018 0 -47.054244336221018 -80.963597716257937 0 0 0 0 -0.012089016299242417 1.9901991725333232 0 1.9901991725333232 -0.4060853509173441 0 0 0 0 -60.422069086169358 29.967433184057882 0 29.967433184057882 79.457879861554829 0 0 0 0 40.414822643029765 73.832560551683855 0 73.832560551683855 250.03556064978329 0 0 0 0 -0.75074277420165458 3.465793468603664 0 3.465793468603664 -4.7499559680911219 0 0 0 0 10.140251329032822 38.521380928197914 0 38.521380928197914 -45.55836623943469 0 0 0 0 -6.6586876641961226 12.064175354469626 0 12.064175354469626 -10.362158688950004 0 0 0 0 -40.340705680508108 123.92251737922197 0 123.92251737922197 510.46342795408418 0 0 0 0 121.73216739200143 328.44446348154452 0 328.44446348154452 607.38043345222832 0 0 0 0 78.849265027281945 128.12076175096445 0 128.12076175096445 465.81993673519173 0 0 0 0 -0.14442095304245584 3.7992169003915244 0 3.7992169003915244 -3.2972612080985755 0 0 0 0 83.407926082436461 258.11923579120776 0 258.11923579120776 242.70891143279732 0 0 0 0 -53.235108625503926 250.51050491763817 0 250.51050491763817 272.88500876931357 0 0 0 0 -15.450297714181943 135.79428770566301 0 135.79428770566301 611.29042769427861 0 0 0 0 -15.464417890951154 20.675686140486505 0 20.675686140486505 -11.960894502946758 0 0 0 0 -6.3106719225435626 9.0512575155524075 0 9.0512575155524075 -5.8173654208103329 0 0 0 0 -8.958233420853503 19.831466925985296 0 19.831466925985296 4.1563344744063215 0 0 0 0 -256.55153914334369 -125.23179660688038 0 -125.23179660688038 -149.2773597628111 0 0 0 0 2.8321671251369551 7.5165975423354965 0 7.5165975423354965 -11.488766724381406 0 0 0 0 11.102530734988704 12.336671438961517 0 12.336671438961517 -13.72487589188124 0 0 0 0 8.1497014471242437 15.129372170587885 0 15.129372170587885 -15.392884984670673 0 0 0 0 51.218848693835753 11.839175350396545 0 11.839175350396545 -8.2293414379382739 0 0 0 0 -14.354663245816482 37.613806201086845 0 37.613806201086845 -2.4575806237116922 0 0 0 0 43.920798211078363 47.952263711851629 0 47.952263711851629 -29.053873712284258 0 0 0 0 1.5959364637528779 55.342351820603653 0 55.342351820603653 -2.3334972518205177 0 0 0 0 2.4987661049434564 2.7113916251808803 0 2.7113916251808803 -3.4272996671658262 0 0 0 0 8.2158098326635809 -2.4981026035457035 0 -2.4981026035457035 -1.644954620860517 0 0 0 0 3.2329430028839852 14.926471146856784 0 14.926471146856784 3.9158402276370907 0 0 0 0 -2.1925173636384301 0.88133644116179255 0 0.88133644116179255 2.1061617810629514 0 0 0 0 33.710665904229245 39.758281104526759 0 39.758281104526759 -15.258418781348155 0 0 0 0 -13.243146411979978 22.032528146490222 0 22.032528146490222 -31.21184860818903 0 0 0 0 -22.650787725066039 48.352961277749273 0 48.352961277749273 -50.487364549375343 0 0 0 0 -19.716127165640501 37.831198684798437 0 37.831198684798437 -17.232073814298928 0 0 0 0 -54.736815940002998 47.295388987608021 0 47.295388987608021 -0.054481672894326039 0 0 0 0 -1.2102578141282976 -1.3393192948021131 0 -1.3393192948021131 2.0835858061302872 0 0 0 0 213.15884302648192 -1.7844030094820482 0 -1.7844030094820482 -41.843185108387843 0 0 0 0 55.286041313265741 122.98488415291649 0 122.98488415291649 0.10056615478071476 0 0 0 0 -58.534390594137221 18.102240557906043 0 18.102240557906043 -21.427846228980343 0 0 0 0 7.6443277886182841 101.90671069154178 0 101.90671069154178 -9.1410715519887162 0 0 0 0 22.873875127850624 24.177238634809328 0 24.177238634809328 5.6790725928003667 0 0 0 0 -103.11382261661493 34.511558362297365 0 34.511558362297365 17.060741265937395 0 0 0 0 -98.618353617894172 26.734152520410134 0 26.734152520410134 -72.674901525009773 0 0 0 0 -301.25498650434497 41.57936106912075 0 41.57936106912075 66.950694593135267 0 0 0 0 -153.80803121161443 111.81304751951393 0 111.81304751951393 -0.1157278820968511 0 0 0 0 0.026454660133560903 -1.4482306317509028 0 -1.4482306317509028 -0.27671848243821273 0 0 0 0 104.22800342112532 83.858039277954958 0 83.858039277954958 -0.01045895602874225 0 0 0 0 238.65684332239539 37.131724144341888 0 37.131724144341888 -44.424081707780715 0 0 0 0 -6.8381839226458396 87.882223604256069 0 87.882223604256069 0.21129592409124598 0 0 0 0 41.608979172397085 27.426066617597826 0 27.426066617597826 8.4022203203203389 0 0 0 0 12.448900588859338 8.337985285975904 0 8.337985285975904 3.9883690912307372 0 0 0 0 -97.226404806802748 54.428798755179741 0 54.428798755179741 39.140179563313723 0 0 0 0 31.27522978084744 109.31617652621208 0 109.31617652621208 -41.046971138752269 0 0 0 0 60.063944551715394 28.623628323028242 0 28.623628323028242 30.563171494592098 0 0 0 0 107.08687051623747 50.345965510305859 0 50.345965510305859 -15.328637208760483 0 0 0 0 -14.471929179959261 22.611797809156997 0 22.611797809156997 14.455178631171293 0 0 0 0 -24.813547359362929 59.659388592213872 0 59.659388592213872 27.020855231108726 0 0 0 0 -16.746456897853463 15.158578212549735 0 15.158578212549735 25.922565181853429 0 0 0 0 9.7507718420165475 46.769491748626024 0 46.769491748626024 -13.561638763105293 0 0 0 0 -2.8680524004938519 15.098692409321096 0 15.098692409321096 22.866176390726054 0 0 0 0 121.92657496000174 162.33943985991573 0 162.33943985991573 58.919727035921824 0 0 0 0 204.58876542195139 53.197416460436216 0 53.197416460436216 -54.982318865339039 0 0 0 0 235.17130524374807 115.4717686548629 0 115.4717686548629 25.924954864676693 0 0 0 0 -40.458884032614648 59.424454244019856 0 59.424454244019856 19.858369668923643 0 0 0 0 -72.164864126563771 23.162149421397771 0 23.162149421397771 10.929626636199828 0 0 0 0 83.40623799167598 58.414146909774942 0 58.414146909774942 27.40252437176872 0 0 0 0 158.3504227338999 81.883261343067716 0 81.883261343067716 31.956484166213158 0 0 0 0 134.89778253650002 52.183915550944221 0 52.183915550944221 55.879028825157548 0 0 0 0 77.605862383631546 -19.598203816829738 0 -19.598203816829738 -37.051028939122801 0 0 0 0 154.14539447571224 75.908294174987532 0 75.908294174987532 58.426015369695961 0 0 0 0 18.264455858123057 -7.8890679431451431 0 -7.8890679431451431 -10.544228680719641 0 0 0 0 67.814660952544727 60.194930028113959 0 60.194930028113959 13.740879925884656 0 0 0 0 2.0588867456972366 95.084774722396105 0 95.084774722396105 3.1269810594931187 0 0 0 0 22.615265822663787 -137.76059583488677 0 -137.76059583488677 0.6062551758389283 0 0 0 0 12.942125560868078 5.0708012666922855 0 5.0708012666922855 -0.56181281184117893 0 0 0 0 32.075396986270789 -48.908290463848971 0 -48.908290463848971 -102.26424548236537 0 0 0 0 22.661867771282232 -147.45302824699155 0 -147.45302824699155 -177.95522334041016 0 0 0 0 9.4372749289432249 -207.59163577135769 0 -207.59163577135769 -2.4054812786125694 0 0 0 0 119.81283910954517 -94.378241554131819 0 -94.378241554131819 -363.7346622376208 0 0 0 0 89.674152279643749 -15.362781741190702 0 -15.362781741190702 -46.92816105804377 0 0 0 0 92.125639872654574 -126.50923012438579 0 -126.50923012438579 -196.67754130648973 0 0 0 0 89.331339351825591 -33.434276846790453 0 -33.434276846790453 -135.83502738572861 0 0 0 0 85.58108548852033 -125.36413244387222 0 -125.36413244387222 -23.816794526792364 0 0 0 0 1141.4690316261695 -503.93113492222255 0 -503.93113492222255 -590.43870454753778 0 0 0 0 125.23690438024641 -194.39951817621477 0 -194.39951817621477 -299.79950090155035 0 0 0 0 320.88016433905432 -448.19819832764551 0 -448.19819832764551 8.0012682376327575 0 0 0 0 -29.251711367622192 -99.700788710186316 0 -99.700788710186316 -216.96369283551758 0 0 0 0 578.32220468230298 86.556966251198901 0 86.556966251198901 -1180.6107174167264 0 0 0 0 79.220401717201867 30.254020994675784 0 30.254020994675784 10.112116729213113 0 0 0 0 104.99582892319222 642.34904538629621 0 642.34904538629621 -714.25258157873759 0 0 0 0 119.73779213674425 205.28133640749002 0 205.28133640749002 -250.85102793223632 0 0 0 0 915.31637077672349 363.79844526630404 0 363.79844526630404 -235.95435135236585 0 0 0 0 682.02872673351703 -164.45294803352408 0 -164.45294803352408 414.06955600317451 0 0 0 0 101.89791713023533 35.160968161935585 0 35.160968161935585 5.4431142665817731 0 0 0 0 -323.68763038174075 341.81563589200232 0 341.81563589200232 -159.60734614567264 0 0 0 0 -84.136778131560277 549.79438992845644 0 549.79438992845644 -190.60597711447917 0 0 0 0 16.026917592491372 226.5689492467427 0 226.5689492467427 -313.83401326580861 0 0 0 0 -412.67439178084896 543.4697083833089 0 543.4697083833089 -88.619985975419695 0 0 0 0 -586.56737184496887 280.42978973544086 0 280.42978973544086 -92.33185860656522 0 0 0 0 49.995855655899504 345.7527686834801 0 345.7527686834801 -323.4685277775352 0 0 0 0 15.516063406281972 11.885357038259031 0 11.885357038259031 -1.6253390809356461 0 0 0 0 173.57554798199999 61.671078490893706 0 61.671078490893706 -194.32742082099139 0 0 0 0 -431.74723982250725 423.812760799221 0 423.812760799221 59.899930230756581 0 0 0 0 -501.27763041687012 22.335551451898027 0 22.335551451898027 462.00632894685259 0 0 0 0 -59.954697387707711 -21.070400827804406 0 -21.070400827804406 204.90741478561176 0 0 0 0 -65.360712350258837 130.89023886903306 0 130.89023886903306 183.665250287042 0 0 0 0 -99.432204624994483 187.66301545411625 0 187.66301545411625 191.23068525523558 0 0 0 0 72.074383435305208 469.03819878816284 0 469.03819878816284 719.14417589622462 0 0 0 0 4.3913483461118972 4.9987852937882593 0 4.9987852937882593 6.8389232855549835 0 0 0 0 92.702727813535603 -349.76844540953243 0 -349.76844540953243 751.33423736151872 0 0 0 0 817.62196278879674 548.15373703362002 0 548.15373703362002 212.77378059107286 0 0 0 0 908.78029372866149 199.74262207968786 0 199.74262207968786 22.849111907518818 0 0 0 0 285.73027011049271 44.602526017552009 0 44.602526017552009 -46.665842477304977 0 0 0 0 566.70601884517964 237.00934564171257 0 237.00934564171257 11.30224340413406 0 0 0 0 -31.228654215039569 212.5592367600766 0 212.5592367600766 -9.2657664592770743 0 0 0 0 13.827454969354164 14.281664679005509 0 14.281664679005509 17.353447943348527 0 0 0 0 105.90519199761911 -127.61120115382437 0 -127.61120115382437 -62.392214044406501 0 0 0 0 115.68649137557077 69.41642168323051 0 69.41642168323051 32.616511741274735 0 0 0 0 90.722495765527128 12.495229144951736 0 12.495229144951736 -97.094604445053847 0 0 0 0 219.19965617355774 54.324217611610948 0 54.324217611610948 20.069804881321033 0 0 0 0 -64.029821487609297 -24.132983595649421 0 -24.132983595649421 207.72303417163857 0 0 0 0 -106.28989927623115 61.963652985883527 0 61.963652985883527 67.613315633563616 0 0 0 0 -165.22568828533986 61.341972300560883 0 61.341972300560883 105.74722752564412 0 0 0 0 -10.076974656113038 24.704624740050065 0 24.704624740050065 36.342189328225004 0 0 0 0 -159.38149477419211 176.52316315696953 0 176.52316315696953 87.233860464577447 0 0 0 0 215.93978390080156 83.385254391852868 0 83.385254391852868 173.58681584590522 0 0 0 0 -44.615726696837413 57.61933846543802 0 57.61933846543802 25.977066943417697 0 0 0 0 -98.213002304022666 36.377038615657511 0 36.377038615657511 74.871252759528943 0 0 0 0 -43.146296862527379 69.934392322589702 0 69.934392322589702 257.39120477721735 0 0 0 0 177.62694420912885 91.853463840816403 0 91.853463840816403 238.59772762931243 0 0 0 0 -14.182842044901918 57.49510529320105 0 57.49510529320105 276.25447270933 0 0 0 0 -102.29735644763423 223.96514246184415 0 223.96514246184415 205.91632874094648 0 0 0 0 -32.201719546865206 233.91790113666502 0 233.91790113666502 150.45814809346848 0 0 0 0 155.0766877831702 -41.874628154593665 0 -41.874628154593665 290.74338628258556 0 0 0 0 -309.06555221850431 473.5579781521883 0 473.5579781521883 -547.58865390226129 0 0 0 0 33.136588908630074 263.0601189995723 0 263.0601189995723 -205.34430135720322 0 0 0 0 -3.5068815375808811 2.9224068778173375 0 2.9224068778173375 -2.0745674522304967 0 0 0 0 -53.362562479949929 55.087244848792452 0 55.087244848792452 16.882181481740332 0 0 0 0 -625.70815179569763 147.90391409162112 0 147.90391409162112 542.02013272384647 0 0 0 0 -70.757648180071556 314.89041219589126 0 314.89041219589126 159.97819776754477 0 0 0 0 -203.32867512565645 502.97765130026528 0 502.97765130026528 -81.104659660515608 0 0 0 0 96.061475242378947 136.28471713283943 0 136.28471713283943 49.555023025634 0 0 0 0 -28.308663654541306 315.73277312422579 0 315.73277312422579 -12.080343023950263 0 0 0 0 -12.575211267147097 272.9849123033564 0 272.9849123033564 71.401701890150434 0 0 0 0 -27.666482999818982 282.347750006149 0 282.347750006149 70.726598137363908 0 0 0 0 -0.80302096103696385 112.69831863157015 0 112.69831863157015 53.982067092563739 0 0 0 0 -53.519269796801382 272.46742456261563 0 272.46742456261563 81.186054001722368 0 0 0 0 -54.399520707651391 278.70184872047685 0 278.70184872047685 -50.554464004333568 0 0 0 0 16.871172970713815 251.04872849937237 0 251.04872849937237 -40.193143560922181 0 0 0 0 -48.823431691860605 356.57248269687261 0 356.57248269687261 105.10327608709486 0 0 0 0 -1.9065875683568549 3.4985644309157635 0 3.4985644309157635 -1.5388114144819909 0 0 0 0 393.97956963286924 1.1605805803555995 0 1.1605805803555995 -944.04318526110364 0 0 0 0 21.176951336812635 221.27211689548858 0 221.27211689548858 -111.8375768652113 0 0 0 0 -224.53664458835556 119.24485240931972 0 119.24485240931972 -48.512110876003135 0 0 0 0 194.74879793940272 558.38059424812855 0 558.38059424812855 241.97889194020536 0 0 0 0 -107.74740147706689 116.29063793347086 0 116.29063793347086 616.39645962063514 0 0 0 0 -103.79087424563113 147.49839089172383 0 147.49839089172383 230.53633133988296 0 0 0 0 -48.463767304197972 223.95936556821835 0 223.95936556821835 267.44696893346554 0 0 0 0 -12.540791844717305 6.6096302121185602 0 6.6096302121185602 -3.6572318030711131 0 0 0 0 -88.666789752292971 3.6918466419665492 0 3.6918466419665492 36.665557222702773 0 0 0 0 -55.111707538846531 94.858705237511458 0 94.858705237511458 278.33073533979768 0 0 0 0 36.896246091971989 -81.464366448024521 0 -81.464366448024521 146.01624898567388 0 0 0 0 -5.2782768734528522 0.88594070701744698 0 0.88594070701744698 9.2063585515540751 0 0 0 0 -20.918219063552897 39.388863559179299 0 39.388863559179299 21.864476929986267 0 0 0 0 -20.304103329548809 12.43771323519907 0 12.43771323519907 -0.66498109147659079 0 0 0 0 -18.368666643029428 41.927385839386261 0 41.927385839386261 37.09456912749738 0 0 0 0 -4.3149598138261354 20.927761259852559 0 20.927761259852559 27.192905366515333 0 0 0 0 -21.272345693388043 20.65372374681138 0 20.65372374681138 15.381014892543135 0 0 0 0 6.2312311213609064 20.843122830920038 0 20.843122830920038 19.073059763599304 0 0 0 0 -32.373374993532707 16.380724638484025 0 16.380724638484025 23.980248954816489 0 0 0 0 -102.11146259882298 50.454459004824457 0 50.454459004824457 64.63576781289521 0 0 0 0 -47.487218053523975 35.485309370458708 0 35.485309370458708 0.24377521025235183 0 0 0 0 218.22991149210429 297.77457560488619 0 297.77457560488619 -51.036732149594172 0 0 0 0 -53.865845222174769 55.503519501066279 0 55.503519501066279 16.096118096656284 0 0 0 0 -5.9594056981659378 -219.94388198180241 0 -219.94388198180241 -95.388420841249172 0 0 0 0 -110.92318295221048 15.390263183115167 0 15.390263183115167 100.25945432661683 0 0 0 0 361.53391842273413 873.34961770227892 0 873.34961770227892 707.76726001804491 0 0 0 0 -0.35287209630786265 1.6807283004918645 0 1.6807283004918645 -0.68028798202566065 0 0 0 0 308.05283033831802 726.04789498735045 0 726.04789498735045 1139.2281666449053 0 0 0 0 -111.61159824614879 202.9444504690473 0 202.9444504690473 -260.63073799043195 0 0 0 0 -194.74986569790053 204.56172583642183 0 204.56172583642183 -236.24861589330249 0 0 0 0 493.84101254856796 585.62581037286873 0 585.62581037286873 451.86428847743082 0 0 0 0 1.6069020134717391 4.8742312221586417 0 4.8742312221586417 -5.2524649863488122 0 0 0 0 609.02120527028455 683.85943030080671 0 683.85943030080671 370.84837199213507 0 0 0 0 327.1221654596884 700.74285189872171 0 700.74285189872171 501.45799403527053 0 0 0 0 964.44489244940632 753.22610008640186 0 753.22610008640186 319.00969458666441 0 0 0 0 1.0116095200367425 6.4572733589367743 0 6.4572733589367743 -3.8914638789213996 0 0 0 0 931.29866341604793 534.69925380960194 0 534.69925380960194 373.04151448675839 0 0 0 0 1.5924749807491025 1446.891430583657 0 1446.891430583657 807.14300938574888 0 0 0 0 1318.7641740069594 2237.6184753919188 0 2237.6184753919188 -0.57096505747176707 0 0 0 0 3289.1353096037055 -97.092510631173354 0 -97.092510631173354 -164.14527650226955 0 0 0 0 2706.9664789021481 1422.2404535342721 0 1422.2404535342721 -45.732669631426688 0 0 0 0 783.61953224433819 315.94547663863159 0 315.94547663863159 -192.46962944616098 0 0 0 0 569.49940051610247 1249.6912145163424 0 1249.6912145163424 70.263594146657852 0 0 0 0 5.4894422019609124 20.484095845441196 0 20.484095845441196 23.256466114498977 0 0 0 0 0.89501516667223768 51.903636999013543 0 51.903636999013543 9.140327493250652 0 0 0 0 -28.944257767176168 44.197920728098325 0 44.197920728098325 0.011949774772801902 0 0 0 0 4.9470401279588998 5.2537586437526755 0 5.2537586437526755 9.5825653769741166 0 0 0 0 13.013447720988552 27.272454084924902 0 27.272454084924902 20.586974121164531 0 0 0 0 15.058224241642165 16.532993150460243 0 16.532993150460243 8.4994412073137937 0 0 0 0 7.1169535782610183 36.656222584282659 0 36.656222584282659 44.709680563028087 0 0 0 0 5.3825091964124283 17.725909056293574 0 17.725909056293574 -8.0376604070912094 0 0 0 0 184.42213704102323 17.891435370103864 0 17.891435370103864 -4.9560899496864295 0 0 0 0 662.42477100987162 362.51424753055471 0 362.51424753055471 151.5925771935581 0 0 0 0 -13.813276519649662 10.76828202175966 0 10.76828202175966 56.576770456911618 0 0 0 0 -9.1179897184380536 21.344023777764932 0 21.344023777764932 -0.010891455383259085 0 0 0 0 86.076179682131624 25.937640256415762 0 25.937640256415762 -44.034243337242515 0 0 0 0 -77.860526816130005 145.52714642520732 0 145.52714642520732 -267.17674536372942 0 0 0 0 63.941101311211241 99.879971489302989 0 99.879971489302989 -64.747293510205054 0 0 0 0 -19.971840261967372 25.820347014375329 0 25.820347014375329 7.7104800247616367 0 0 0 0 5.5228715132250414 10.674643296810785 0 10.674643296810785 -11.911326636975389 0 0 0 0 -39.49893057243753 92.911162561949823 0 92.911162561949823 -4.110705459912424 0 0 0 0 33.260639286996593 74.676489395893441 0 74.676489395893441 87.547644291029428 0 0 0 0 459.15377731686749 17.542927081005473 0 17.542927081005473 -75.221472116456425 0 0 0 0 6.630351864983453 18.106710181939505 0 18.106710181939505 13.924516178494343 0 0 0 0 451.67444044677541 206.94024058153082 0 206.94024058153082 36.961797308118548 0 0 0 0 675.733888775183 321.58969973366766 0 321.58969973366766 -1.3614065321198723 0 0 0 0 674.04662577388808 319.23695154253437 0 319.23695154253437 33.558140972607362 0 0 0 0 537.38485492359905 409.48480788401503 0 409.48480788401503 193.31793830521201 0 0 0 0 316.19652812861023 736.03251163070308 0 736.03251163070308 -28.447899261431303 0 0 0 0 191.92627099221863 231.44014954682279 0 231.44014954682279 135.49095586981275 0 0 0 0 40.236176019563572 28.594411614589262 0 28.594411614589262 0.0048225237369479146 0 0 0 0 27.055028985440003 38.144821764466542 0 38.144821764466542 36.599117126650526 0 0 0 0 36.124053223385999 32.216440774856892 0 32.216440774856892 13.608287813527568 0 0 0 0 21.346225497165307 4.8772708506602953 0 4.8772708506602953 -9.9971910796201229 0 0 0 0 47.011302536986477 14.730376382642135 0 14.730376382642135 13.380067764614068 0 0 0 0 -178.39184343369561 269.69234117606538 0 269.69234117606538 171.18904945571194 0 0 0 0 -38.380160975802937 1270.269608100808 0 1270.269608100808 640.72596533075557 0 0 0 0 1697.4504435431008 1993.5232439608881 0 1993.5232439608881 940.42398508296174 0 0 0 0 1534.9667607277515 998.91932438330696 0 998.91932438330696 -35.333051536712446 0 0 0 0 1572.1902296749467 1008.8411479155038 0 1008.8411479155038 -205.88691281763749 0 0 0 0 2625.3456917379663 262.05606313875614 0 262.05606313875614 -796.1924736154906 0 0 0 0 3139.2558368885384 550.904874606249 0 550.904874606249 -686.04823759042483 0 0 0 0 3264.8513984619931 1356.4119395425078 0 1356.4119395425078 -269.19695326682086 0 0 0 0 32.673816595058724 -0.27921703560511446 0 -0.27921703560511446 -4.6575671039137063 0 0 0 0 42.0442291141444 17.830048579562572 0 17.830048579562572 17.998596055826056 0 0 0 0 4626.7968091338407 -1437.4150499697425 0 -1437.4150499697425 2788.4712248564174 0 0 0 0 37.402552525280043 6.9158707903843606 0 6.9158707903843606 0.022917254860994773 0 0 0 0 1545.7697362544382 3031.4054713620931 0 3031.4054713620931 2156.7168783427987 0 0 0 0 21.127792186580109 2.7236971713538765 0 2.7236971713538765 -2.4029021295519897 0 0 0 0 1923.6845533801243 -147.95583943650126 0 -147.95583943650126 -712.28516174507968 0 0 0 0 -1501.4498544121452 2757.5907303338026 0 2757.5907303338026 2854.2937301467173 0 0 0 0 33.092190028155926 13.80386511370429 0 13.80386511370429 5.4220499550314685 0 0 0 0 1208.6232644038973 71.473078525752499 0 71.473078525752499 -301.16264072672493 0 0 0 0 235.67640697952538 -618.02810199744545 0 -618.02810199744545 -398.202347372644 0 0 0 0 1299.5058547954104 477.21315754503303 0 477.21315754503303 -146.73862805675162 0 0 0 0 1137.4708757512853 193.10354484560958 0 193.10354484560958 -478.00621069512999 0 0 0 0 839.11159076658078 400.58551564125082 0 400.58551564125082 -159.21315162509927 0 0 0 0 979.73414831965783 201.1267322551721 0 201.1267322551721 122.28884231481788 0 0 0 0 866.09920803545538 -25.58605386293857 0 -25.58605386293857 -277.95102686533573 0 0 0 0 582.04652049001015 362.68664366877056 0 362.68664366877056 644.5473257950016 0 0 0 0 740.83701225544792 406.9697136250652 0 406.9697136250652 179.41657286146619 0 0 0 0 600.01443345550069 424.3884722597395 0 424.3884722597395 246.63465265930427 0 0 0 0 655.84704810920812 428.9345117073899 0 428.9345117073899 245.78963916952125 0 0 0 0 485.73595521993411 263.67159166897909 0 263.67159166897909 160.24430103131363 0 0 0 0 602.2899326245315 355.01495483816325 0 355.01495483816325 86.713668748176133 0 0 0 0 505.68453188066633 237.27240472592166 0 237.27240472592166 -2.6757841576763894 0 0 0 0 440.7229318509053 218.84372320338298 0 218.84372320338298 138.98154916634667 0 0 0 0 196.14042453009461 216.29358394887822 0 216.29358394887822 10.851014997060702 0 0 0 0 492.65277736835378 439.4540943305874 0 439.4540943305874 -17.036125699814875 0 0 0 0 376.94885009017889 382.18238623858633 0 382.18238623858633 -13.194920881144299 0 0 0 0 561.6618094832229 282.26634388609818 0 282.26634388609818 217.26242634965183 0 0 0 0 505.24985811838997 445.60614441811413 0 445.60614441811413 268.66125071774877 0 0 0 0 688.88914508638118 477.30396767496495 0 477.30396767496495 184.11855554032081 0 0 0 0 721.26747957128828 426.81110561787136 0 426.81110561787136 255.94857461110951 0 0 0 0 767.98655595264427 479.28472359221269 0 479.28472359221269 -169.99599056950683 0 0 0 0 1045.5842776157369 142.94018378828332 0 142.94018378828332 320.04401160107227 0 0 0 0 621.17544872350118 589.52916959051799 0 589.52916959051799 -28.986297173483763 0 0 0 0 1253.0200762760669 882.66635585699623 0 882.66635585699623 -317.95733724911406 0 0 0 0 4.4178187610782516 5.6501039424372834 0 5.6501039424372834 3.7124277929518996 0 0 0 0 1010.3090628188947 814.15469516968005 0 814.15469516968005 529.80285870147964 0 0 0 0 904.92074425615283 123.23976803522964 0 123.23976803522964 -16.227149166552408 0 0 0 0 2079.8568962361605 281.31989526314646 0 281.31989526314646 -33.959829123967211 0 0 0 0 679.09220490734151 527.94774796740194 0 527.94774796740194 338.3605790374495 0 0 0 0 929.81958649170701 606.3148877156782 0 606.3148877156782 226.52847634573118 0 0 0 0 1132.348836576828 419.62824357323552 0 419.62824357323552 -18.121298610887607 0 0 0 0 741.43980169845781 449.0364169331441 0 449.0364169331441 100.9814910923742 0 0 0 0 859.05371440711315 424.92832752027243 0 424.92832752027243 39.047447671029659 0 0 0 0 544.08373085799394 123.20105478050027 0 123.20105478050027 66.282479425950442 0 0 0 0 795.80504902762186 237.2310985431468 0 237.2310985431468 -7.3231629522560979 0 0 0 0 738.33200503856642 327.60583304372994 0 327.60583304372994 18.427087127085542 0 0 0 0 7.1245159757419145 11.214733150529739 0 11.214733150529739 12.160060219412657 0 0 0 0 -162.41164143128844 84.110056560042722 0 84.110056560042722 52.490781034462998 0 0 0 0 529.82324351466377 150.0875953347313 0 150.0875953347313 22.233277983377775 0 0 0 0 -609.51018006097001 503.46738060323332 0 503.46738060323332 -283.01828644995112 0 0 0 0 5.6537026762806732 7.5858168270146962 0 7.5858168270146962 -8.558510240804253 0 0 0 0 -697.16254934808603 627.55120489718502 0 627.55120489718502 -369.44110124489089 0 0 0 0 -706.5066004521068 564.18841084385349 0 564.18841084385349 -448.81134378842398 0 0 0 0 280.4870523099853 69.602518653589868 0 69.602518653589868 -180.76508921035565 0 0 0 0 -1763.0607493400748 1153.4916266029104 0 1153.4916266029104 -155.55577236006502 0 0 0 0 -392.72500828518241 124.28301960124008 0 124.28301960124008 200.8698202169835 0 0 0 0 1200.0263518381398 644.75027272201987 0 644.75027272201987 234.93309201087322 0 0 0 0 1.9151567320833323 4.0663383846149799 0 4.0663383846149799 -3.422731078994957 0 0 0 0 -823.99502290996315 1315.695021321666 0 1315.695021321666 -343.00413163593475 0 0 0 0 339.8674404254125 1051.4110777437018 0 1051.4110777437018 -291.86105800960422 0 0 0 0 -971.77284686823259 744.31879241589922 0 744.31879241589922 -265.57231271178171 0 0 0 0 -917.20270076415909 805.10984574064059 0 805.10984574064059 -205.09790377437457 0 0 0 0 -794.9466349047143 836.94132646991056 0 836.94132646991056 -424.31584480226593 0 0 0 0 -1389.3024667601894 575.37774711929524 0 575.37774711929524 -367.17275080172112 0 0 0 0 -501.89779762730905 887.60695786283395 0 887.60695786283395 -542.09784991380002 0 0 0 0 -790.60288639277132 815.79631338408717 0 815.79631338408717 -424.13681160158012 0 0 0 0 -486.72507585068524 864.0864699974918 0 864.0864699974918 -540.076598294836 0 0 0 0 -578.45274342430639 953.3998024062239 0 953.3998024062239 -335.04332479172808 0 0 0 0 -913.03662467209506 886.45160428750387 0 886.45160428750387 -136.25032218694832 0 0 0 0 -599.90018407961725 1034.7443122971777 0 1034.7443122971777 -447.61397170138662 0 0 0 0 -0.64467034830886405 1514.6525466893945 0 1514.6525466893945 -113.60002313083532 0 0 0 0 -260.69693911052309 1096.0326054384495 0 1096.0326054384495 -459.48652195430896 0 0 0 0 -0.085970116233511362 1021.1909894018281 0 1021.1909894018281 -656.95084990862961 0 0 0 0 -209.39594890797161 898.0587478884554 0 898.0587478884554 -603.94862258772628 0 0 0 0 -209.68996077575139 889.62125949418987 0 889.62125949418987 -724.92294749421126 0 0 0 0 -280.52200515365985 628.55660899764553 0 628.55660899764553 -464.3813039255183 0 0 0 0 -268.67722340126193 777.12259071798849 0 777.12259071798849 -789.0607603933604 0 0 0 0 -722.01871770471007 760.9173736542507 0 760.9173736542507 -494.15116796306393 0 0 0 0 45.363407902834297 389.05046141964522 0 389.05046141964522 -606.31495398226252 0 0 0 0 -144.14507911569672 141.59059915130638 0 141.59059915130638 -233.32965940575377 0 0 0 0 49.071864989091409 517.64451056730104 0 517.64451056730104 -1606.8894967790584 0 0 0 0 -0.15296224919645432 823.76640305939122 0 823.76640305939122 -792.94395999710832 0 0 0 0 -0.020218849742377643 12.173977261474647 0 12.173977261474647 -8.1238713982711488 0 0 0 0 45.402512437045516 -5.1371440891307429 0 -5.1371440891307429 -29.228409466812082 0 0 0 0 -0.33306073631109712 7.0749256834770264 0 7.0749256834770264 6.3247393056668955 0 0 0 0 -5.2483075301731787 26.917082990665165 0 26.917082990665165 -46.681269160049851 0 0 0 0 0.43145857985393121 12.451630302733207 0 12.451630302733207 -10.800820057470332 0 0 0 0 1.7306213333504274 13.568751843682548 0 13.568751843682548 -7.1779527588296332 0 0 0 0 0.00079587000800529495 13.782949587168332 0 13.782949587168332 -6.4950878340823692 0 0 0 0 1.6040073544864981 5.5289514152708534 0 5.5289514152708534 1.1436223007669923 0 0 0 0 -0.60507585660012175 5.2225317106406806 0 5.2225317106406806 -4.1330860465036778 0 0 0 0 94.588698814676945 286.9176158731899 0 286.9176158731899 724.78900625108508 0 0 0 0 -1703.2220096794886 604.46842030630341 0 604.46842030630341 -62.048153858093428 0 0 0 0 -1198.0269167489605 907.65903272075229 0 907.65903272075229 -111.46522871614434 0 0 0 0 -740.5417643282708 648.4377684192259 0 648.4377684192259 -304.52190791176872 0 0 0 0 -1055.0565148940514 548.39091296776314 0 548.39091296776314 -324.00124736112775 0 0 0 0 -741.78433414436586 667.77788175428941 0 667.77788175428941 -333.48245989901261 0 0 0 0 -454.1333030536407 656.33121824813861 0 656.33121824813861 -346.04317175570759 0 0 0 0 -760.67412441007764 789.95366354448925 0 789.95366354448925 -279.58247014654626 0 0 0 0 -857.25000953859126 622.68516891069885 0 622.68516891069885 -316.67183003283935 0 0 0 0 -467.4704544615015 882.56324012915138 0 882.56324012915138 -263.45585216708423 0 0 0 0 280.28280778708722 935.56292991227747 0 935.56292991227747 -445.53848417826521 0 0 0 0 -448.51568835269973 846.20323191666284 0 846.20323191666284 -315.06600253239594 0 0 0 0 293.70548541592143 714.3931953531428 0 714.3931953531428 -546.90291815266391 0 0 0 0 -31.637130381524912 927.77439246139693 0 927.77439246139693 -402.59192749390058 0 0 0 0 92.074773511718377 862.77061532347125 0 862.77061532347125 -508.67418033367721 0 0 0 0 -102.33411768361111 529.11717877382671 0 529.11717877382671 -574.96589328403934 0 0 0 0 172.45498574446538 805.08297803237656 0 805.08297803237656 -571.67535446899603 0 0 0 0 2.6784932388812308 2.7701358747194647 0 2.7701358747194647 1.9817710212359998 0 0 0 0 -10.019109272703645 194.46446881571683 0 194.46446881571683 378.29075924448625 0 0 0 0 104.54599018674344 932.32713901356055 0 932.32713901356055 -205.53967523046595 0 0 0 0 168.61218267933873 657.19593576890475 0 657.19593576890475 78.525312899499113 0 0 0 0 317.32556368646692 726.21802299461706 0 726.21802299461706 -323.00762986446352 0 0 0 0 241.27489532380423 668.72095340059604 0 668.72095340059604 -349.21559844190233 0 0 0 0 276.95385218235606 651.71683485306858 0 651.71683485306858 -452.82096965737128 0 0 0 0 311.91666062192235 773.29313538243696 0 773.29313538243696 -460.65036150005471 0 0 0 0 292.53899067727616 729.63376098834851 0 729.63376098834851 -458.61112906556446 0 0 0 0 449.50777022577677 761.09308759495252 0 761.09308759495252 -534.58468822698342 0 0 0 0 303.44878823073668 746.56524819043443 0 746.56524819043443 -441.61862401235703 0 0 0 0 673.08379945360502 700.05793385888683 0 700.05793385888683 -518.44257443971583 0 0 0 0 799.47918174220104 480.75368592444283 0 480.75368592444283 -303.89142116696894 0 0 0 0 510.69445305934642 537.13080682463988 0 537.13080682463988 -182.99219252874173 0 0 0 0 604.55922065164486 415.17034595424593 0 415.17034595424593 -243.15373200662725 0 0 0 0 483.78555855976811 663.95224260398936 0 663.95224260398936 -458.7319836482493 0 0 0 0 336.12160546873929 566.33350333871931 0 566.33350333871931 -375.79848059569849 0 0 0 0 459.41149902090547 571.59136048444634 0 571.59136048444634 -382.75628541729748 0 0 0 0 471.65017254429404 366.22284240499721 0 366.22284240499721 -106.03258730369998 0 0 0 0 216.0998076035612 402.18900464874969 0 402.18900464874969 -101.16695107935811 0 0 0 0 -44.328379928170762 285.64560980665919 0 285.64560980665919 77.15089106663072 0 0 0 0 -69.100837574980687 666.68904332561942 0 666.68904332561942 -272.37743933877027 0 0 0 0 208.72768391345744 427.01917627215153 0 427.01917627215153 -166.18960394056194 0 0 0 0 167.28747200567341 462.02934168161983 0 462.02934168161983 -567.49172215599538 0 0 0 0 -329.64827568002511 460.5557662758838 0 460.5557662758838 -391.57721698864771 0 0 0 0 285.34840445506416 584.3154198344273 0 584.3154198344273 -495.53819772834686 0 0 0 0 222.99905127522106 639.67186585134095 0 639.67186585134095 -417.56397307172301 0 0 0 0 21.189930523345538 551.68741783902988 0 551.68741783902988 -332.19704949982406 0 0 0 0 -13.802274633435445 465.53321411945399 0 465.53321411945399 -416.64243711710878 0 0 0 0 -7.4754969126879587 425.00175187995228 0 425.00175187995228 -235.85812680828349 0 0 0 0 144.32829815873993 544.49541977146509 0 544.49541977146509 -360.02679393512881 0 0 0 0 66.070721769719967 512.33163625401903 0 512.33163625401903 -133.46141749990056 0 0 0 0 -42.962357559170414 527.75637108547789 0 527.75637108547789 -352.57541009309352 0 0 0 0 0.7061031452685711 364.19708981532858 0 364.19708981532858 -296.99689308135567 0 0 0 0 130.69505358856986 310.70496758905392 0 310.70496758905392 -25.879888432485131 0 0 0 0 -11.849481063667554 354.06611436704679 0 354.06611436704679 2.2647231194059714 0 0 0 0 167.02858274986647 385.10203266898861 0 385.10203266898861 -173.94698989440803 0 0 0 0 156.34064560374827 388.81198859736105 0 388.81198859736105 75.391403082770921 0 0 0 0 120.42265365098865 309.62558870641806 0 309.62558870641806 243.5567895603017 0 0 0 0 280.23185349539563 354.60566958332674 0 354.60566958332674 43.353529540655472 0 0 0 0 278.13097475685208 319.41264758297802 0 319.41264758297802 172.31247377359432 0 0 0 0 324.2742817142298 414.99639729073488 0 414.99639729073488 -71.096501921470917 0 0 0 0 177.06620551159722 511.3483216744753 0 511.3483216744753 -16.343581935832844 0 0 0 0 148.30427712534947 583.84374519916673 0 583.84374519916673 -178.73412464637659 0 0 0 0 208.39868675643083 495.98708986190832 0 495.98708986190832 -228.07854632995441 0 0 0 0 342.10275692566938 430.39762090132172 0 430.39762090132172 -22.012687954353169 0 0 0 0 438.52337926247128 496.46243929179218 0 496.46243929179218 -8.0822477568399336 0 0 0 0 419.23042017954867 498.81936264180786 0 498.81936264180786 218.24469419166417 0 0 0 0 551.13044297492888 366.36419855295753 0 366.36419855295753 82.395836478528508 0 0 0 0 325.44258119636652 380.51256098693193 0 380.51256098693193 83.644820655379363 0 0 0 0 318.41792033577713 407.20321233605546 0 407.20321233605546 73.230075703282637 0 0 0 0 453.47527262214862 418.3461624395386 0 418.3461624395386 56.685207087888557 0 0 0 0 374.71756879161421 407.86486004068183 0 407.86486004068183 252.66865733002851 0 0 0 0 642.43009312717186 441.46449035469414 0 441.46449035469414 176.28518356231871 0 0 0 0 376.28569473165771 403.81795724771291 0 403.81795724771291 200.97898445152532 0 0 0 0 604.44555693719303 411.32905957604089 0 411.32905957604089 113.86231952403614 0 0 0 0 437.96551418121817 415.42892639204001 0 415.42892639204001 140.19813533778506 0 0 0 0 586.75598347539926 251.08616252441959 0 251.08616252441959 204.21834740223858 0 0 0 0 488.36395102350798 342.73752950909329 0 342.73752950909329 179.88911072631163 0 0 0 0 1509.3156123007452 880.28578692126348 0 880.28578692126348 132.9421360078195 0 0 0 0 877.49076327060175 260.81645829723493 0 260.81645829723493 102.55685981503848 0 0 0 0 -964.49338627435645 540.10436674653101 0 540.10436674653101 68.527744779712521 0 0 0 0 0.25409690671383967 5.3287843255858149 0 5.3287843255858149 -1.1578954832539807 0 0 0 0 -0.76849588673940161 108.77055689633562 0 108.77055689633562 -178.82923432048119 0 0 0 0 -95.818566822839784 102.23768234755516 0 102.23768234755516 -90.497240028260421 0 0 0 0 0.076215179873468486 10.359665680803914 0 10.359665680803914 -3.2913708590634769 0 0 0 0 621.62128543715517 309.87505621236778 0 309.87505621236778 45.032804171096359 0 0 0 0 416.72062127171375 158.69977770381138 0 158.69977770381138 -53.943609110225225 0 0 0 0 20.590023820237548 78.803430605103131 0 78.803430605103131 196.4526506648981 0 0 0 0 0.091820196958922004 11.416744248481832 0 11.416744248481832 -4.7019000490181497 0 0 0 0 -0.532475503678703 10.866434869263941 0 10.866434869263941 -6.2975042755602146 0 0 0 0 0.76512128944887081 10.921634356698632 0 10.921634356698632 -6.5347287793410942 0 0 0 0 55.014718879079737 77.896364333437305 0 77.896364333437305 87.180111456804298 0 0 0 0 44.371978978473635 44.594859287721192 0 44.594859287721192 34.069364329399832 0 0 0 0 7.8706241106156085 83.148588585056132 0 83.148588585056132 7.9465129166565021 0 0 0 0 -6.7197996666800464 105.03133424720727 0 105.03133424720727 6.9429033260703363 0 0 0 0 23.125444299384981 75.297817264610785 0 75.297817264610785 -3.8398186612030258 0 0 0 0 29.272722844165401 96.289756448626576 0 96.289756448626576 19.506891619512317 0 0 0 0 27.831928259052802 89.802321618906717 0 89.802321618906717 32.012301106848554 0 0 0 0 62.956038080956205 84.622307978272147 0 84.622307978272147 14.375216679749428 0 0 0 0 104.24613454721111 87.977649215115889 0 87.977649215115889 60.153793302769373 0 0 0 0 -8.3925283707780522 20.769405976316087 0 20.769405976316087 8.0041158947568043 0 0 0 0 69.066691405076199 59.654480128970135 0 59.654480128970135 38.168080249641207 0 0 0 0 54.600791154348286 107.90361606310903 0 107.90361606310903 36.746147495181205 0 0 0 0 -6.3338370064229821 92.871636604468222 0 92.871636604468222 155.60877252108185 0 0 0 0 -47.9152887208229 91.261151241027619 0 91.261151241027619 192.92740574788331 0 0 0 0 37.551651180860063 98.154123925429303 0 98.154123925429303 113.99989973242918 0 0 0 0 -0.25973502756265887 60.799798019840189 0 60.799798019840189 92.827704891441698 0 0 0 0 106.11667972514988 81.314731940314232 0 81.314731940314232 40.31399853953917 0 0 0 0 -722.94022810339447 403.73599999852377 0 403.73599999852377 1055.1698619431263 0 0 0 0 -126.94183070497502 -84.331156390390561 0 -84.331156390390561 341.75145570047607 0 0 0 0 16.722623319444985 13.171041027386707 0 13.171041027386707 -1.3868001433096993 0 0 0 0 613.94097203048295 432.50413173795096 0 432.50413173795096 -279.84796755051502 0 0 0 0 -4.46605496199345 13.968712084632315 0 13.968712084632315 12.235249627550077 0 0 0 0 -27.021353830743465 188.92794967062946 0 188.92794967062946 -372.27306884659993 0 0 0 0 -424.1783915876731 289.51253733508202 0 289.51253733508202 331.13835193280829 0 0 0 0 -498.49731169795996 -372.47009899598925 0 -372.47009899598925 34.585958970950742 0 0 0 0 7.4078379967641297 10.977486271880935 0 10.977486271880935 -0.24380290365319279 0 0 0 0 541.20073680887617 148.65260509653672 0 148.65260509653672 -708.90176079582307 0 0 0 0 -3.3077800182901029 7.0747190247833203 0 7.0747190247833203 -2.6465151320666251 0 0 0 0 -274.32351678450505 93.169609141375986 0 93.169609141375986 -272.65634502327157 0 0 0 0 16.138898702277373 12.061814764642449 0 12.061814764642449 -1.9554099905600673 0 0 0 0 241.58196724654408 -133.91535342552379 0 -133.91535342552379 -626.7760575313514 0 0 0 0 28.186944639812282 184.71216427540639 0 184.71216427540639 -130.91032802301561 0 0 0 0 -74.254830967256567 83.520466721962293 0 83.520466721962293 439.13761213374528 0 0 0 0 61.316503952323913 46.132764434079476 0 46.132764434079476 1.1202366495649905 0 0 0 0 305.21685307240841 32.014076616222155 0 32.014076616222155 34.842196656512897 0 0 0 0 54.977132624404476 148.06970781182463 0 148.06970781182463 163.10379280023335 0 0 0 0 -30.276911272594589 100.69610887148156 0 100.69610887148156 368.47604472162493 0 0 0 0 43.137157850724179 197.05291231192678 0 197.05291231192678 423.89056832016649 0 0 0 0 -0.97120160722957394 4.7876682065381715 0 4.7876682065381715 -1.7706891408405241 0 0 0 0 -20.977280324710591 -7.9263435054817819 0 -7.9263435054817819 -682.65328476143623 0 0 0 0 27.400097503727125 29.116221958383761 0 29.116221958383761 9.1403861183960657 0 0 0 0 279.42543614094029 321.00726427188783 0 321.00726427188783 64.918319298041752 0 0 0 0 143.63356091233436 122.95952182565816 0 122.95952182565816 436.17636804416543 0 0 0 0 70.855650482873898 314.99337699494208 0 314.99337699494208 -612.61703683433734 0 0 0 0 179.91177005925238 102.29986257667269 0 102.29986257667269 166.58190401016327 0 0 0 0 -120.26182083224194 139.47517771023922 0 139.47517771023922 -412.47789602869307 0 0 0 0 -69.250776991846095 49.334600369008598 0 49.334600369008598 70.541145099794392 0 0 0 0 -190.517717814364 53.71268769283779 0 53.71268769283779 1033.604427652579 0 0 0 0 -57.088854449861515 -4.3261165027214616 0 -4.3261165027214616 35.516862830674597 0 0 0 0 -39.577527381263053 14.524276476579757 0 14.524276476579757 25.768072668619922 0 0 0 0 -115.5231138994568 36.70931969526282 0 36.70931969526282 46.97863756841798 0 0 0 0 -56.171938961051637 15.903244836772501 0 15.903244836772501 101.79425983073452 0 0 0 0 -72.016251117922366 33.074872594319459 0 33.074872594319459 146.95124336789013 0 0 0 0 -122.90350196359213 72.328577645141195 0 72.328577645141195 166.01120722489577 0 0 0 0 5.0812583010992967 50.827345973335468 0 50.827345973335468 43.934675622898794 0 0 0 0 -9.3967693219601642 35.211358998392825 0 35.211358998392825 35.816375975904521 0 0 0 0 -14.568520570933828 28.000849372823524 0 28.000849372823524 50.622078349006614 0 0 0 0 19.314877340428609 25.122887005656594 0 25.122887005656594 180.34616858189111 0 0 0 0 20.270081017471512 132.24903939008573 0 132.24903939008573 197.22005437588086 0 0 0 0 157.87173563100077 142.43465446139453 0 142.43465446139453 -65.660805962004815 0 0 0 0 21.703476007982403 29.307302254447166 0 29.307302254447166 -28.07806501492044 0 0 0 0 -5.6615538726910017 87.325672588885936 0 87.325672588885936 215.27186276660359 0 0 0 0 -11.868135730663198 95.756004813956679 0 95.756004813956679 336.1021833337436 0 0 0 0 37.638137242865923 100.87165361561347 0 100.87165361561347 118.63238661579817 0 0 0 0 1.7574419814773137 129.41674132597109 0 129.41674132597109 202.78962672569105 0 0 0 0 19.695734962151619 133.14566790685058 0 133.14566790685058 201.99842404611991 0 0 0 0 227.18736564389837 173.34524607069761 0 173.34524607069761 66.851848227444862 0 0 0 0 233.77905234732043 80.676470524319939 0 80.676470524319939 64.747049536570557 0 0 0 0 120.06604103735299 119.97889129783289 0 119.97889129783289 180.9104432205495 0 0 0 0 197.26153710178914 68.885137712037249 0 68.885137712037249 111.47423002116557 0 0 0 0 244.81269056486781 163.836371340818 0 163.836371340818 135.07105260277604 0 0 0 0 123.01992007598164 186.34540554429259 0 186.34540554429259 337.59788757655042 0 0 0 0 74.416355980501976 146.34602297117817 0 146.34602297117817 306.45326239234419 0 0 0 0 94.38666771640419 72.837612194176472 0 72.837612194176472 296.73555005984963 0 0 0 0 118.6670148705889 9.5930040097737219 0 9.5930040097737219 78.71887785907893 0 0 0 0 208.72954087206745 81.926968796447909 0 81.926968796447909 117.06392272558878 0 0 0 0 35.919799288385548 118.19270562552265 0 118.19270562552265 105.65320952190086 0 0 0 0 20.62781869652099 104.40573221662635 0 104.40573221662635 157.65504903026158 0 0 0 0 125.84229967210558 64.177899406218785 0 64.177899406218785 158.94007208417634 0 0 0 0 27.326411559333792 133.87009966008918 0 133.87009966008918 246.88736675902328 0 0 0 0 -0.72744229428319329 -0.64325630787270427 0 -0.64325630787270427 0.90740860928352163 0 0 0 0 -61.427328035089886 -67.804456954356283 0 -67.804456954356283 288.78968149460343 0 0 0 0 -15.309372736941441 66.031733479321701 0 66.031733479321701 122.6369754883417 0 0 0 0 -28.681710325821768 18.563012928649187 0 18.563012928649187 67.887696483536274 0 0 0 0 1.9222823203412247 24.010468926475525 0 24.010468926475525 24.667503476119975 0 0 0 0 1.0337978644606096 -0.83796954268792945 0 -0.83796954268792945 2.627107204375223 0 0 0 0 37.15299881347164 36.453647088586877 0 36.453647088586877 -72.805143361940281 0 0 0 0 62.004894526515272 96.068581286484914 0 96.068581286484914 55.136588761473831 0 0 0 0 -246.29716357159487 375.5859061803385 0 375.5859061803385 74.139537042110533 0 0 0 0 -279.13111238543934 596.43475107721315 0 596.43475107721315 -504.35898838105641 0 0 0 0 -130.59629102157487 386.49402176594958 0 386.49402176594958 -737.6668657356422 0 0 0 0 -5.5146427236898035 4.6714427017208919 0 4.6714427017208919 7.1223339210311849 0 0 0 0 -322.87015767520643 494.55734900277457 0 494.55734900277457 -404.92720631039265 0 0 0 0 -123.32607347800513 98.963045286276611 0 98.963045286276611 -358.39733233231527 0 0 0 0 -212.89116815204034 413.95798454490432 0 413.95798454490432 -497.97307776146772 0 0 0 0 -157.34243515631533 328.13828447581909 0 328.13828447581909 -367.53577937191585 0 0 0 0 -270.71291845006635 419.95260905825126 0 419.95260905825126 -406.11222134305717 0 0 0 0 -331.08497557356168 446.13700721491568 0 446.13700721491568 -324.29170810448704 0 0 0 0 -290.44773808229365 443.18376477259881 0 443.18376477259881 -325.82608213837375 0 0 0 0 -347.6512159345948 377.37543022615864 0 377.37543022615864 -289.73744049528614 0 0 0 0 -414.81870353149134 470.03718476310314 0 470.03718476310314 -292.91736224311899 0 0 0 0 -416.46689481032081 455.54459859737835 0 455.54459859737835 -259.62990786465525 0 0 0 0 -360.71851866150246 536.25811560269358 0 536.25811560269358 -293.78243906717398 0 0 0 0 -325.05210461989191 493.60243042986076 0 493.60243042986076 -365.71442516492243 0 0 0 0 -266.72261832791264 566.45895962107898 0 566.45895962107898 -317.27204162051385 0 0 0 0 -306.87094714055274 520.9442361235233 0 520.9442361235233 -361.3982751406802 0 0 0 0 6.9479361215221331 51.144461862037716 0 51.144461862037716 3.5579134381456363 0 0 0 0 -39.022209950155229 80.078876362465962 0 80.078876362465962 19.278624308408325 0 0 0 0 32.144171440912032 188.43150074755249 0 188.43150074755249 -23.794994447482168 0 0 0 0 46.217694780398162 59.124502814578349 0 59.124502814578349 11.494591620701442 0 0 0 0 110.37333468243014 97.289730343647534 0 97.289730343647534 -51.55830312818216 0 0 0 0 68.703274901171426 77.994193467993995 0 77.994193467993995 -11.687561104737677 0 0 0 0 54.64162817937904 57.482437052014575 0 57.482437052014575 39.790400116260571 0 0 0 0 95.52545227057999 47.325466978130862 0 47.325466978130862 2.0506688056193525 0 0 0 0 5.7242344833211973 48.034841042564949 0 48.034841042564949 17.216244168968842 0 0 0 0 3.8869606904962382 45.990156325634558 0 45.990156325634558 39.927144887906898 0 0 0 0 1.5385682534833904 77.470627644339402 0 77.470627644339402 124.96424285996181 0 0 0 0 30.98284811281566 50.073068460705002 0 50.073068460705002 -15.11307428217691 0 0 0 0 94.219575229566544 -37.693740736387554 0 -37.693740736387554 184.32822049098468 0 0 0 0 126.35821222275263 -274.57169423349842 0 -274.57169423349842 176.30033296509646 0 0 0 0 -7.654110131501568 41.878450879908883 0 41.878450879908883 9.5005799021631105 0 0 0 0 -291.29104263710906 323.35052414759411 0 323.35052414759411 -272.21967122223577 0 0 0 0 183.86842010304099 -92.39310555550037 0 -92.39310555550037 112.97027655675629 0 0 0 0 -248.74972118130245 247.91913727558131 0 247.91913727558131 -140.21388096836745 0 0 0 0 157.46007447589363 129.85448931024621 0 129.85448931024621 -115.21485355361074 0 0 0 0 212.33054477235419 -41.061443542923371 0 -41.061443542923371 73.815980228722765 0 0 0 0 82.211338496155804 56.152239816856309 0 56.152239816856309 43.050046346645104 0 0 0 0 -330.61372690223743 261.83394953981951 0 261.83394953981951 -256.20219452120364 0 0 0 0 466.70469270003377 82.629495363187743 0 82.629495363187743 -224.90377052423173 0 0 0 0 434.59989405328815 -24.331162602622499 0 -24.331162602622499 -166.22002187801991 0 0 0 0 -293.8734956270273 295.27536535956415 0 295.27536535956415 -281.32027765878593 0 0 0 0 360.97934301753412 411.14575344103469 0 411.14575344103469 -423.34262508383836 0 0 0 0 14.404686955800955 15.618518507034608 0 15.618518507034608 -28.283539699749241 0 0 0 0 -324.95340132160345 364.17078242798743 0 364.17078242798743 -295.99254242132884 0 0 0 0 -236.17391246126499 327.21247216561824 0 327.21247216561824 -300.33351287816186 0 0 0 0 -326.35097114538075 371.90062039841723 0 371.90062039841723 -320.29551673604874 0 0 0 0 -341.19599672083859 361.87717632763815 0 361.87717632763815 -259.55922415351961 0 0 0 0 -438.46869438851718 244.32412914591168 0 244.32412914591168 -164.15267514895822 0 0 0 0 -494.36930424062302 379.26549800892099 0 379.26549800892099 -237.02475135197164 0 0 0 0 221.88038784542005 126.74100388598436 0 126.74100388598436 -133.72606754059962 0 0 0 0 -167.76942644020164 68.864682213834385 0 68.864682213834385 144.03519718176722 0 0 0 0 -320.65450848858745 441.2908400801025 0 441.2908400801025 230.50820213367115 0 0 0 0 829.6331464074683 -1.7634686742494523 0 -1.7634686742494523 -440.14616682493579 0 0 0 0 45.601273085219965 50.087670912570083 0 50.087670912570083 13.643296573943019 0 0 0 0 -10.405483350542312 5.2230404478726129 0 5.2230404478726129 -3.2568481499126563 0 0 0 0 -563.46225488761047 535.56291175882689 0 535.56291175882689 -260.45955220521137 0 0 0 0 -690.83977186234551 259.7869945349812 0 259.7869945349812 -130.70995440397019 0 0 0 0 -960.38168770937773 349.89477597335645 0 349.89477597335645 -144.27188990599825 0 0 0 0 -818.83732254130882 567.6610965393993 0 567.6610965393993 -263.47790989707573 0 0 0 0 -1135.8601583475211 638.41246011685143 0 638.41246011685143 -231.6021591523604 0 0 0 0 -875.12776367706829 647.70667587019125 0 647.70667587019125 -358.95408215852149 0 0 0 0 -871.72688345781353 596.95674597676043 0 596.95674597676043 -527.92097062320681 0 0 0 0 7.0664127346906582 8.4321969241087658 0 8.4321969241087658 -24.893117950017057 0 0 0 0 -260.78989704241394 489.57495481557271 0 489.57495481557271 -288.40687841636827 0 0 0 0 -303.65399865280779 575.40925619682457 0 575.40925619682457 -360.26715805927961 0 0 0 0 -465.32789119827794 558.9338947975848 0 558.9338947975848 -298.45819871084677 0 0 0 0 -481.83766222339182 480.506238864029 0 480.506238864029 -246.58279158389087 0 0 0 0 -504.1372769370455 581.38275043149133 0 581.38275043149133 -322.10328333380312 0 0 0 0 -503.68957393357414 578.5712385658735 0 578.5712385658735 -398.44815935506631 0 0 0 0 -187.98530054600269 499.6535200727958 0 499.6535200727958 -468.15410174447243 0 0 0 0 -192.84906225808663 424.59950846556239 0 424.59950846556239 -216.87106071772359 0 0 0 0 -128.44810360913107 310.9611353662367 0 310.9611353662367 -494.03338001311204 0 0 0 0 -412.77363018398319 493.83404252308719 0 493.83404252308719 -331.71575465359274 0 0 0 0 -381.6112344854555 557.58815205896008 0 557.58815205896008 -651.6777018198336 0 0 0 0 -369.13064576964098 197.63863793385462 0 197.63863793385462 -56.330270961385395 0 0 0 0 -177.68633822823904 262.50653571163093 0 262.50653571163093 -25.74429797560515 0 0 0 0 -71.995463708175521 232.63271445674582 0 232.63271445674582 -47.316962574544959 0 0 0 0 1.8413107985231107 2.739772883952952 0 2.739772883952952 -10.442650479972144 0 0 0 0 1769.3009608999018 -142.60618134547076 0 -142.60618134547076 -969.81711474111944 0 0 0 0 -2176.7616098022736 1393.328156078016 0 1393.328156078016 -423.94720856609638 0 0 0 0 -944.07518744900881 868.65863304815866 0 868.65863304815866 -608.37876973516723 0 0 0 0 -1446.9336459572514 433.51970103977692 0 433.51970103977692 -444.39309750931716 0 0 0 0 -42.088968611933524 354.68368372922851 0 354.68368372922851 -844.78300141620275 0 0 0 0 -888.59282742918003 1261.6282753884643 0 1261.6282753884643 -1166.2189940831304 0 0 0 0 -363.94801734152134 523.16993450096925 0 523.16993450096925 -887.94763152270752 0 0 0 0 -276.80972446873784 921.51750058045218 0 921.51750058045218 -804.32004158347263 0 0 0 0 -0.41128919005859643 -289.83067962372115 0 -289.83067962372115 2.9167742761528643 0 0 0 0 1348.6914020142867 -197.49686990095142 0 -197.49686990095142 -583.84800997232378 0 0 0 0 -2.1268257299052209 -2.0176816685992662 0 -2.0176816685992662 -3.6414821194123874 0 0 0 0 54.789061261978532 399.99541786661462 0 399.99541786661462 -161.64478982954824 0 0 0 0 276.4184006462383 -315.40355009734867 0 -315.40355009734867 -114.29642376746779 0 0 0 0 -971.73818335740361 982.594527080033 0 982.594527080033 -222.79161303344881 0 0 0 0 -0.4533364546765597 -2.0022032180179963 0 -2.0022032180179963 -17.126163460632569 0 0 0 0 -124.83524737047264 -505.40501014061738 0 -505.40501014061738 -19.674515866470756 0 0 0 0 12.602587029195973 -0.56090875241308424 0 -0.56090875241308424 -38.74155749112424 0 0 0 0 39.633609807580257 44.129237983559477 0 44.129237983559477 28.609792982301336 0 0 0 0 163.44405942223239 232.32260170502923 0 232.32260170502923 -242.74948817436371 0 0 0 0 -551.2451392129442 536.4512355564093 0 536.4512355564093 308.45523567732289 0 0 0 0 13.249501995485844 103.57199880720873 0 103.57199880720873 -8.3986597636212537 0 0 0 0 36.123809411052207 88.099724613915896 0 88.099724613915896 -4.26432628177281 0 0 0 0 55.66551180679744 98.901927722339678 0 98.901927722339678 1.6412392681813799 0 0 0 0 19.943237256276916 83.717885486579689 0 83.717885486579689 7.0874638528184732 0 0 0 0 183.48507241365587 115.08364373593395 0 115.08364373593395 -187.79838946577502 0 0 0 0 191.4329849311689 181.79212873569395 0 181.79212873569395 -21.391820699263917 0 0 0 0 14.223013071194135 29.362481720103702 0 29.362481720103702 -72.642263660839404 0 0 0 0 100.38334827433573 83.83150410046801 0 83.83150410046801 -17.344588020881929 0 0 0 0 51.548083796180435 91.895665582920628 0 91.895665582920628 34.002029201980349 0 0 0 0 156.33028804612695 69.207511270760733 0 69.207511270760733 -30.862966303277062 0 0 0 0 50.202979956739 45.16969639596573 0 45.16969639596573 -44.321862725661049 0 0 0 0 210.10051056424709 332.13933616801478 0 332.13933616801478 152.01497720742827 0 0 0 0 212.78524062971701 141.40822904923334 0 141.40822904923334 16.5481182201911 0 0 0 0 339.451434331575 595.21765574240817 0 595.21765574240817 321.89830148954934 0 0 0 0 936.37999094453698 382.32035307872593 0 382.32035307872593 25.01390776777771 0 0 0 0 325.96420414809108 418.46320555281272 0 418.46320555281272 237.62072712995177 0 0 0 0 0.68593608518644977 10.708910794015296 0 10.708910794015296 -31.153197823974409 0 0 0 0 14.835296888668381 37.794684934226098 0 37.794684934226098 -33.143692767289394 0 0 0 0 15.934947801094324 15.780922788552338 0 15.780922788552338 10.321304576841719 0 0 0 0 2675.4231748821476 509.78923826934988 0 509.78923826934988 74.940634093745757 0 0 0 0 -6.6106906762370272 5.9194272744520831 0 5.9194272744520831 1.9091607324006574 0 0 0 0 -50.631048522278434 724.43253264822124 0 724.43253264822124 708.18170473811188 0 0 0 0 3876.0977069441287 1938.8620048743032 0 1938.8620048743032 1126.073310005333 0 0 0 0 866.56391787383473 383.20964815511252 0 383.20964815511252 371.37910086331976 0 0 0 0 -178.51187124937132 -461.30210732721025 0 -461.30210732721025 1037.6791946942167 0 0 0 0 -157.55554211288108 805.75294797031165 0 805.75294797031165 -1571.7513977835406 0 0 0 0 -183.39286465454552 -562.68546547469441 0 -562.68546547469441 -393.2048797378884 0 0 0 0 2193.6050203057312 323.99849771961544 0 323.99849771961544 -113.83573291247012 0 0 0 0 -1201.9810850539216 1061.3820170557265 0 1061.3820170557265 -549.31491745942185 0 0 0 0 -1.6387332568735147 -6.6516064207561527 0 -6.6516064207561527 -7.4014177824210208 0 0 0 0 -662.26822413654372 484.94578836876099 0 484.94578836876099 -313.23081195443956 0 0 0 0 1.3720395259745057 -0.97723667883761323 0 -0.97723667883761323 -8.74594946171473 0 0 0 0 -124.38327200773347 1355.8165014682527 0 1355.8165014682527 -724.28201154551789 0 0 0 0 2887.1050655154395 91.997914248331654 0 91.997914248331654 -1433.8889690044743 0 0 0 0 -1364.2624892066524 451.73291708214492 0 451.73291708214492 262.83338217565324 0 0 0 0 79.356522145084455 1375.5051154403991 0 1375.5051154403991 -757.39787327421072 0 0 0 0 -255.5012265674668 561.41688741460894 0 561.41688741460894 833.54244881446721 0 0 0 0 37.399972389583127 81.489854026389366 0 81.489854026389366 -45.095042749318964 0 0 0 0 82.381072344259508 34.421842618453681 0 34.421842618453681 -2.51888159282852 0 0 0 0 815.18454537875368 272.35577175149592 0 272.35577175149592 17.278475589362642 0 0 0 0 -139.37585113164823 273.39868614923125 0 273.39868614923125 -307.65034370619833 0 0 0 0 21.458075781550576 -2.7026853318676203 0 -2.7026853318676203 -31.888105524022393 0 0 0 0 104.41956092788314 59.909202108523459 0 59.909202108523459 -8.2163654726973618 0 0 0 0 35.361280124413419 56.709403988351482 0 56.709403988351482 15.916795121072639 0 0 0 0 69.738368889273261 120.51467331582535 0 120.51467331582535 -73.956713703235437 0 0 0 0 65.178625395521522 126.17596508472707 0 126.17596508472707 -80.71142106195839 0 0 0 0 50.381874980514112 146.41645596512808 0 146.41645596512808 -199.498061979255 0 0 0 0 35.091738780509331 136.64283707437789 0 136.64283707437789 -60.509417017012311 0 0 0 0 47.203273378356243 118.25442004813522 0 118.25442004813522 -33.115239008497156 0 0 0 0 0.055057584628229961 189.035302802964 0 189.035302802964 -48.213645419922614 0 0 0 0 10.412879635534409 152.84201390925864 0 152.84201390925864 -14.564991076826118 0 0 0 0 -39.854808056916227 168.08195751105632 0 168.08195751105632 -8.2632059055431455 0 0 0 0 -93.660673593520187 263.15708396862465 0 263.15708396862465 -185.23066427526919 0 0 0 0 -40.01257735434956 181.76305348694689 0 181.76305348694689 -64.902366445625375 0 0 0 0 -36.274266670268844 216.94449448284831 0 216.94449448284831 -62.462901702143427 0 0 0 0 47.241049849253614 89.007360786861682 0 89.007360786861682 -105.98112732400477 0 0 0 0 41.161557282190188 125.0610178346451 0 125.0610178346451 -273.86230506454376 0 0 0 0 -112.44449831190286 194.94604114158938 0 194.94604114158938 -160.15249208870591 0 0 0 0 31.957931774512787 18.720708009132458 0 18.720708009132458 4.7826424965937928 0 0 0 0 -45.141037679393776 180.53973215584938 0 180.53973215584938 -308.89354023156557 0 0 0 0 -522.27899192234327 -276.83148839717251 0 -276.83148839717251 1658.975227285734 0 0 0 0 -1870.6937565211338 1290.0704424436208 0 1290.0704424436208 -2.1544881965455716 0 0 0 0 -366.33194583280419 1293.9434927385519 0 1293.9434927385519 -143.65012735264463 0 0 0 0 719.20671540319017 -129.67295628271495 0 -129.67295628271495 225.86278130159917 0 0 0 0 319.48044968377508 -187.42612827656194 0 -187.42612827656194 -553.28047360522942 0 0 0 0 -805.55173563728022 991.52350914386989 0 991.52350914386989 -248.55595604774135 0 0 0 0 -219.83607041164942 841.10815771075067 0 841.10815771075067 870.28417684557098 0 0 0 0 -645.93339679407291 -353.88357866493152 0 -353.88357866493152 2819.9406243102603 0 0 0 0 -27.852914615272311 476.83149276073163 0 476.83149276073163 -1081.417771040974 0 0 0 0 6.0478992817093626 7.2480012959509281 0 7.2480012959509281 2.1590670826952216 0 0 0 0 -267.22998702446785 176.6899778902698 0 176.6899778902698 297.33864514493325 0 0 0 0 -0.34285188031390135 -25.7467837315412 0 -25.7467837315412 230.40059673491487 0 0 0 0 -174.11499025797821 233.80307270743651 0 233.80307270743651 -49.887736279813907 0 0 0 0 -387.86093289451674 146.24865761375622 0 146.24865761375622 797.49716238893961 0 0 0 0 -317.41235471746768 680.72327010519803 0 680.72327010519803 382.40275718084376 0 0 0 0 -418.99472759624223 290.2394780869447 0 290.2394780869447 284.97749028227918 0 0 0 0 -2.0839171858930854 0.4950305484692592 0 0.4950305484692592 0.65003868255534769 0 0 0 0 -103.69581605462736 321.19772326080783 0 321.19772326080783 134.07895370321421 0 0 0 0 -178.68059029553478 234.44895925476521 0 234.44895925476521 406.755596866009 0 0 0 0 -80.286097984135267 57.498582721345883 0 57.498582721345883 644.41499288966861 0 0 0 0 -194.09097727452172 372.34678005556634 0 372.34678005556634 42.480629626283189 0 0 0 0 -221.62433475376383 350.41528930390541 0 350.41528930390541 103.47399960624898 0 0 0 0 -171.9382046807724 265.0276889513122 0 265.0276889513122 -51.044835774700914 0 0 0 0 -47.770162041895674 65.116822925891029 0 65.116822925891029 99.729678014002275 0 0 0 0 -62.187593806593213 53.763556684898504 0 53.763556684898504 113.01198577057949 0 0 0 0 -170.77030159942444 192.71080688720355 0 192.71080688720355 249.71167998756573 0 0 0 0 -56.348233075681492 44.318141201347316 0 44.318141201347316 212.16823090803155 0 0 0 0 16.642672010668321 -6.263027024207986 0 -6.263027024207986 247.09118622088863 0 0 0 0 -138.5076769456864 290.81102217492662 0 290.81102217492662 -355.08284671577712 0 0 0 0 -112.08301469321304 115.15997898576279 0 115.15997898576279 -359.06239981329054 0 0 0 0 -323.52805728669045 745.79747318945738 0 745.79747318945738 -262.35201550328202 0 0 0 0 -223.8376563974598 346.56025516688533 0 346.56025516688533 -304.48121618820824 0 0 0 0 -223.23022546884022 384.21205624240247 0 384.21205624240247 47.198777057768893 0 0 0 0 -260.56164906609047 256.90036947627959 0 256.90036947627959 18.301696426922717 0 0 0 0 -253.97864142237813 268.29832059788168 0 268.29832059788168 -93.113121152473468 0 0 0 0 -326.71911471581552 266.72337103476821 0 266.72337103476821 -72.847821166589711 0 0 0 0 -324.82921348825039 320.18972478077376 0 320.18972478077376 -167.43163403886138 0 0 0 0 -201.68887907515455 197.70010513751185 0 197.70010513751185 -66.816511998953501 0 0 0 0 -312.08212733158507 304.17699629715844 0 304.17699629715844 -111.32906072482729 0 0 0 0 -333.40764182870953 266.41826245336506 0 266.41826245336506 -4.9152484292171721 0 0 0 0 -156.78969021611556 235.43628562531376 0 235.43628562531376 -246.74823146896597 0 0 0 0 -77.341068600188009 -51.30323567704545 0 -51.30323567704545 606.14272927961429 0 0 0 0 -2.4739592393191856 0.50815525584930299 0 0.50815525584930299 0.39783724708541968 0 0 0 0 -12.343572352525371 -40.010273329844495 0 -40.010273329844495 440.31334701872765 0 0 0 0 -111.88608944359294 -7.4996120511750632 0 -7.4996120511750632 571.05800747216927 0 0 0 0 -268.59740112810687 284.83241065526181 0 284.83241065526181 209.94850425184268 0 0 0 0 20.62673957667721 -24.555001497530611 0 -24.555001497530611 150.1732735259302 0 0 0 0 28.819152485964878 -64.43929485763374 0 -64.43929485763374 783.2484737431223 0 0 0 0 -6.1588112506152015 2.4071310264469545 0 2.4071310264469545 1.146641188697215 0 0 0 0 -19.261346929408319 -22.791256014779719 0 -22.791256014779719 156.4435338053554 0 0 0 0 19.768792908784235 -56.723371546002454 0 -56.723371546002454 69.330710580201412 0 0 0 0 39.574074223462958 6.8677110379649093 0 6.8677110379649093 -33.495467966045908 0 0 0 0 -56.80592623562552 178.32096292245842 0 178.32096292245842 -128.26707618523506 0 0 0 0 -10.384610577079002 82.381702818733174 0 82.381702818733174 -132.42989264632251 0 0 0 0 -99.224544436874567 144.99550108148287 0 144.99550108148287 -19.256892059769598 0 0 0 0 -1.9412764229928143 -85.29599887796212 0 -85.29599887796212 539.28837689031934 0 0 0 0 22.861779842074611 -70.401524429216806 0 -70.401524429216806 390.81935225616326 0 0 0 0 34.5145582438563 -27.267708125884383 0 -27.267708125884383 562.59149445340881 0 0 0 0 10.484424495378335 -32.54032507604461 0 -32.54032507604461 320.84208585607485 0 0 0 0 -9.2185911560372915 -12.179591026921116 0 -12.179591026921116 820.75804487138157 0 0 0 0 -0.013642473022031254 -1.4903253548108211 0 -1.4903253548108211 1.248334029802276 0 0 0 0 -24.839739935428952 -14.843723697624227 0 -14.843723697624227 407.58079198175574 0 0 0 0 -30.743163138311502 0.70660671420318977 0 0.70660671420318977 377.72787817010249 0 0 0 0 3.760701919789426 -21.503416742267291 0 -21.503416742267291 402.86380276668569 0 0 0 0 -79.211659929380403 -156.5377642715348 0 -156.5377642715348 -188.64587560258406 0 0 0 0 -20.232143755966433 22.854833954483595 0 22.854833954483595 0.97989127885426175 0 0 0 0 71.47359001589939 -87.04064353735339 0 -87.04064353735339 -383.73277148155074 0 0 0 0 66.207766600178729 -67.70969234700533 0 -67.70969234700533 -304.2981338563186 0 0 0 0 -23.215054400512599 28.251162924182609 0 28.251162924182609 352.33359772970289 0 0 0 0 -11.097363868771936 -33.070713790833906 0 -33.070713790833906 438.65736201984964 0 0 0 0 -126.75954744539195 1.4065031004720367 0 1.4065031004720367 516.57251625158096 0 0 0 0 -26.269486944305442 25.791718781419839 0 25.791718781419839 0.96054587044194806 0 0 0 0 92.163710957625881 212.64261706172147 0 212.64261706172147 -305.66988263071471 0 0 0 0 -135.29703993099974 91.109145309739688 0 91.109145309739688 -58.08396263351824 0 0 0 0 -133.16846355149755 -59.137329495191807 0 -59.137329495191807 5.2066309128349531 0 0 0 0 244.00929627958976 -60.32383605492214 0 -60.32383605492214 -680.8613871109344 0 0 0 0 4.1389002734504174 225.78267391142617 0 225.78267391142617 -342.61386728780451 0 0 0 0 -37.319871461808759 29.715260655126908 0 29.715260655126908 1.35214584977791 0 0 0 0 -125.46399440716777 82.473621174203799 0 82.473621174203799 436.19155294602677 0 0 0 0 -38.895562114659697 162.66659674197854 0 162.66659674197854 101.91788891037504 0 0 0 0 -50.847871992128546 28.198429632518646 0 28.198429632518646 0.81069270295931317 0 0 0 0 -22.202563452388858 37.084767537135122 0 37.084767537135122 -262.03434466393873 0 0 0 0 -50.133068988950981 126.87897529858219 0 126.87897529858219 8.1772283318859991 0 0 0 0 -41.289007334162307 99.940989254884698 0 99.940989254884698 62.993556274355797 0 0 0 0 -67.083006504246441 128.72922061147074 0 128.72922061147074 269.45206088071268 0 0 0 0 -32.428528969161562 204.21586579576615 0 204.21586579576615 6.2393979890985065 0 0 0 0 -52.634740945577505 183.78743134854449 0 183.78743134854449 77.793746354230279 0 0 0 0 -61.005393496569013 153.74395391857252 0 153.74395391857252 -9.5034392690067762 0 0 0 0 -53.301306947483681 207.37418104744211 0 207.37418104744211 -20.061647457310755 0 0 0 0 -18.873263851899537 180.98637107112052 0 180.98637107112052 -0.47507248837791849 0 0 0 0 2.1207011715505359 192.07058814045126 0 192.07058814045126 -47.356714275796548 0 0 0 0 2.9764676104387036 202.79287420779656 0 202.79287420779656 -25.070572829281446 0 0 0 0 -18.110654376696857 198.74602763179473 0 198.74602763179473 -7.626469954593631 0 0 0 0 -52.317224111415271 246.77131363801345 0 246.77131363801345 32.099326745705184 0 0 0 0 -47.854717585098115 268.84488105442324 0 268.84488105442324 -65.201187233289829 0 0 0 0 -128.98429421842593 139.22496988400235 0 139.22496988400235 74.195923255339949 0 0 0 0 -33.223166704679329 171.18842664037399 0 171.18842664037399 105.78561058059495 0 0 0 0 -218.31711102220288 362.60255060422423 0 362.60255060422423 2136.4533404970389 0 0 0 0 0.55846767850016477 701.75005404336662 0 701.75005404336662 1436.7377694172028 0 0 0 0 124.69856122758938 138.54160543789294 0 138.54160543789294 1373.4009066075978 0 0 0 0 3.8157476230844622 592.39391974982937 0 592.39391974982937 1183.886513345562 0 0 0 0 186.35403806083195 514.43857713192665 0 514.43857713192665 805.65983722937381 0 0 0 0 102.93143159445026 481.38447250207537 0 481.38447250207537 805.61252263473943 0 0 0 0 100.6525300369558 369.01642116060293 0 369.01642116060293 1014.8425774891548 0 0 0 0 -0.41555097751552239 747.21421965679474 0 747.21421965679474 781.5462398037489 0 0 0 0 226.69739831674815 369.26364980453764 0 369.26364980453764 -23.601225167625671 0 0 0 0 -12.406055144841957 799.47340379740672 0 799.47340379740672 1135.3762380525441 0 0 0 0 1.1437941967271286 0.96125698309840857 0 0.96125698309840857 1.120139878106496 0 0 0 0 -0.19641458234572937 1128.151292556264 0 1128.151292556264 283.35849662508554 0 0 0 0 238.99504044700006 533.28446906030877 0 533.28446906030877 215.27941175968499 0 0 0 0 1.1235678433185399 0.84989463884679139 0 0.84989463884679139 0.51644907450332411 0 0 0 0 217.77017399734177 605.21800929658093 0 605.21800929658093 934.55327864256378 0 0 0 0 429.59234450164331 155.65880245142262 0 155.65880245142262 -222.32998418796342 0 0 0 0 383.72556288112537 521.74517309518342 0 521.74517309518342 151.73056833561532 0 0 0 0 400.2316906182723 426.40392551587911 0 426.40392551587911 256.18805530555619 0 0 0 0 129.45046061731045 281.71230052202736 0 281.71230052202736 495.20189933919391 0 0 0 0 328.39323419756693 509.68800016363093 0 509.68800016363093 660.79575107699202 0 0 0 0 176.77522725886229 270.32112353234697 0 270.32112353234697 563.47375842458132 0 0 0 0 127.33448988053715 206.6502677616154 0 206.6502677616154 888.49885309722049 0 0 0 0 227.9156878251888 418.34222676711761 0 418.34222676711761 983.48442185683598 0 0 0 0 -15.910806193256576 93.701002015710401 0 93.701002015710401 837.01969565025138 0 0 0 0 -26.911134190791927 160.15978306808938 0 160.15978306808938 483.8626658467474 0 0 0 0 36.913241086440394 116.84362747218984 0 116.84362747218984 425.89338460295221 0 0 0 0 -5.0546545954566682 67.693132343854813 0 67.693132343854813 452.67629948732429 0 0 0 0 24.142108813932282 143.52139341915608 0 143.52139341915608 377.32707052309706 0 0 0 0 73.070682903839042 254.46078770874556 0 254.46078770874556 733.68401551994157 0 0 0 0 -1.4886259400990696 0.39875728751074746 0 0.39875728751074746 0.91504034486496266 0 0 0 0 185.12391742480395 303.80721815095603 0 303.80721815095603 502.09853366012067 0 0 0 0 178.16213398768741 249.45944005391721 0 249.45944005391721 238.13437282323139 0 0 0 0 50.193145461103995 215.60381955457888 0 215.60381955457888 430.45116478710122 0 0 0 0 93.684619689585816 146.75640566158836 0 146.75640566158836 429.66289295673414 0 0 0 0 83.005865148776138 250.62972406559129 0 250.62972406559129 176.50398149801913 0 0 0 0 -85.982605676035746 234.42095674546363 0 234.42095674546363 185.07136871835428 0 0 0 0 22.297307832617662 70.283468409392299 0 70.283468409392299 351.04665824707263 0 0 0 0 73.576319676285493 186.94442013495245 0 186.94442013495245 314.73097732998576 0 0 0 0 0.88474254333414137 186.9961954624905 0 186.9961954624905 529.37427665071664 0 0 0 0 -3.3922949680650731 1.2969200023339482 0 1.2969200023339482 0.85414871138389969 0 0 0 0 -2.206376736969105 159.26675471031194 0 159.26675471031194 530.38272931188749 0 0 0 0 37.504017941032657 89.918708347707053 0 89.918708347707053 375.61684791125299 0 0 0 0 -5.106426819882472 40.538263537331659 0 40.538263537331659 402.48369931280104 0 0 0 0 60.256069689385185 48.892060719852452 0 48.892060719852452 257.30158141750871 0 0 0 0 14.807186942620319 74.182762054810155 0 74.182762054810155 361.28961331342362 0 0 0 0 75.109924384843907 82.935389740901883 0 82.935389740901883 244.28379316038126 0 0 0 0 -32.767210604055435 0.26409458207854186 0 0.26409458207854186 254.74547415982852 0 0 0 0 -8.3673987064144342 4.1163637349201494 0 4.1163637349201494 1.3682705490626184 0 0 0 0 43.473281924463663 61.112762828085579 0 61.112762828085579 249.59612255817774 0 0 0 0 -64.162115426588571 -24.38483100103258 0 -24.38483100103258 679.97691446807585 0 0 0 0 -54.85443192027742 19.539020858668664 0 19.539020858668664 512.00541335976959 0 0 0 0 39.56934088988055 -36.739811302653834 0 -36.739811302653834 448.67669039013344 0 0 0 0 -40.700688056123909 -114.99276020771686 0 -114.99276020771686 582.84923626133059 0 0 0 0 0.14664909329383136 -1.9433664883080439 0 -1.9433664883080439 1.515008224815201 0 0 0 0 -5.7391921270354942 38.369239892709402 0 38.369239892709402 426.28995428825874 0 0 0 0 14.967262790931272 77.549959035553911 0 77.549959035553911 526.983859893513 0 0 0 0 0.13724533199274447 0.64712459437396319 0 0.64712459437396319 374.32162342916854 0 0 0 0 -20.118022320923046 -45.703381714283751 0 -45.703381714283751 370.06826882065798 0 0 0 0 8.2404547096084571 -9.4702755728903867 0 -9.4702755728903867 304.95266238426484 0 0 0 0 -405.39675752044423 105.82625639510297 0 105.82625639510297 -162.46674403039469 0 0 0 0 -15.843337709010541 21.459957353623153 0 21.459957353623153 1.0038735075052307 0 0 0 0 216.00379315021564 -14.659681048453422 0 -14.659681048453422 -835.86817453787626 0 0 0 0 45.044344743910187 91.86507416097993 0 91.86507416097993 419.65000762307318 0 0 0 0 -43.783200614423549 -31.159234554884279 0 -31.159234554884279 449.01768266846193 0 0 0 0 57.038393986309529 -50.481803107350061 0 -50.481803107350061 221.18555066761837 0 0 0 0 -8.6871395051140894 20.834284019383105 0 20.834284019383105 0.77394471219941696 0 0 0 0 -76.52253558053053 48.756123023953478 0 48.756123023953478 -354.93171617422269 0 0 0 0 -16.578677830173547 61.478726958138395 0 61.478726958138395 -409.94647506054753 0 0 0 0 38.039128557829827 89.846204103837408 0 89.846204103837408 -498.26714786248158 0 0 0 0 -13.241067978335195 48.074519363293803 0 48.074519363293803 -398.58178964261606 0 0 0 0 -55.317147974012187 -79.100339407386855 0 -79.100339407386855 558.78361400351059 0 0 0 0 46.402278158331683 12.556301150356376 0 12.556301150356376 207.8128491925745 0 0 0 0 84.284373245449387 14.857058610030435 0 14.857058610030435 253.88307382237417 0 0 0 0 0.038164731068434321 -0.88873410897058136 0 -0.88873410897058136 0.96812129027897598 0 0 0 0 -109.19720742543723 32.154292633338628 0 32.154292633338628 681.27408494620613 0 0 0 0 -72.391378031992645 -81.031014575728477 0 -81.031014575728477 599.1350080928587 0 0 0 0 -9.1549265796916757 5.1375864481773732 0 5.1375864481773732 1.6844715582015226 0 0 0 0 -48.322674576796999 112.47995165779867 0 112.47995165779867 561.46693927702654 0 0 0 0 -80.859090029636718 -6.313592481197702 0 -6.313592481197702 664.94663590138771 0 0 0 0 -7.2766352964137866 4.9735654174059718 0 4.9735654174059718 2.1577608421974164 0 0 0 0 45.299352991656633 192.94852495980922 0 192.94852495980922 975.53004791733838 0 0 0 0 -73.478473798073537 -102.59089125188439 0 -102.59089125188439 466.84596727956705 0 0 0 0 40.464314141809155 1.57107720042859 0 1.57107720042859 428.29329419598071 0 0 0 0 -41.346089335645956 -54.430244881474209 0 -54.430244881474209 406.44073477066195 0 0 0 0 -1.0695945167076388 19.458064034590418 0 19.458064034590418 0.34626493562134142 0 0 0 0 -96.047422274066776 54.435541042787008 0 54.435541042787008 -257.70764424922163 0 0 0 0 -39.820331238093786 139.62721460198372 0 139.62721460198372 -382.94650975527838 0 0 0 0 99.620829249441158 49.06603759695281 0 49.06603759695281 -629.04765251446952 0 0 0 0 72.489703827304766 175.62030733915526 0 175.62030733915526 -719.98611116766187 0 0 0 0 17.893344829848502 154.35489092145872 0 154.35489092145872 -290.30087453425949 0 0 0 0 -16.809674731164705 51.877600932224595 0 51.877600932224595 -189.56729639721743 0 0 0 0 7.2992108046310022 -32.930886060508783 0 -32.930886060508783 -428.16122407568037 0 0 0 0 -30.791792307475589 34.128973535411092 0 34.128973535411092 396.21484493394746 0 0 0 0 2.7839097248692894 17.442504905062712 0 17.442504905062712 1.3967301408136659 0 0 0 0 58.8128211817384 -49.053924362826365 0 -49.053924362826365 130.62289493189644 0 0 0 0 7.6685567028762307 -15.00296771763351 0 -15.00296771763351 265.07917741965139 0 0 0 0 3.7416229380464756 10.926927701593939 0 10.926927701593939 15.734456288367085 0 0 0 0 -240.85170182722504 115.38793262151012 0 115.38793262151012 -432.38825014580652 0 0 0 0 -188.3159995438109 -35.586301666215604 0 -35.586301666215604 -487.67349859871319 0 0 0 0 -80.77465739910258 181.57960519819244 0 181.57960519819244 -409.79864652033211 0 0 0 0 -54.757292078187675 -8.9902526858732017 0 -8.9902526858732017 -513.92199029269977 0 0 0 0 11.268796085671056 93.051243032838101 0 93.051243032838101 -271.8728196350512 0 0 0 0 -105.48836189761641 142.01228273538072 0 142.01228273538072 -281.42261081197648 0 0 0 0 -25.383144433202688 62.785017429261643 0 62.785017429261643 -287.00558293589711 0 0 0 0 -43.131060258077923 118.66389105542112 0 118.66389105542112 -272.4853058454828 0 0 0 0 121.09669216164912 220.95375978005541 0 220.95375978005541 -1293.2837946619147 0 0 0 0 2.9170558841177865 1.3885305017894751 0 1.3885305017894751 0.36327941558116095 0 0 0 0 9.2992373572051292 -252.81229610990158 0 -252.81229610990158 -15.17564315227969 0 0 0 0 -22.871880819482612 202.37987155185328 0 202.37987155185328 -231.80522029992244 0 0 0 0 -480.23632991249906 538.91959202724684 0 538.91959202724684 -82.682468591828638 0 0 0 0 0.32748537856241455 242.4071294678397 0 242.4071294678397 -794.24094420568872 0 0 0 0 -2.6109858199488372 -9.0712434169618064 0 -9.0712434169618064 -2.5702112602884881 0 0 0 0 -3.889627998609825 1.5778087397131593 0 1.5778087397131593 5.2594935393441586 0 0 0 0 -92.504341494350228 18.188504024881695 0 18.188504024881695 68.846575769739161 0 0 0 0 -192.23625710750639 113.70962441748998 0 113.70962441748998 21.090229028173781 0 0 0 0 -33.700237134296913 94.590059493384615 0 94.590059493384615 -57.979971586210013 0 0 0 0 234.4167353274679 -544.89823712272209 0 -544.89823712272209 1109.9301461077011 0 0 0 0 2.3732501872105729 2.7618585672312719 0 2.7618585672312719 6.4026316632860585 0 0 0 0 -0.33107493058923865 10.474440967864211 0 10.474440967864211 4.8163301257709463 0 0 0 0 113.19364430225687 -223.81272537074437 0 -223.81272537074437 289.41254474608058 0 0 0 0 -73.48471283406252 -97.703910596230344 0 -97.703910596230344 736.04347098483049 0 0 0 0 -2.8011119952187471 2.0081227942521593 0 2.0081227942521593 2.6322296440095228 0 0 0 0 166.98602639469027 133.08918496410115 0 133.08918496410115 404.24002460926022 0 0 0 0 -2.8765468917554244 1211.0933801574865 0 1211.0933801574865 1724.2407781223446 0 0 0 0 17.741744292645308 56.504918109024402 0 56.504918109024402 -59.966228321369272 0 0 0 0 -0.008190546344849281 61.598218380992421 0 61.598218380992421 7.7233132475703314 0 0 0 0 15.710768814809853 48.003044937880986 0 48.003044937880986 11.175184485902719 0 0 0 0 9.5746443944226485 49.765590563425576 0 49.765590563425576 10.752175304587126 0 0 0 0 42.542983955776435 29.461285632633007 0 29.461285632633007 -39.141477535924423 0 0 0 0 47.045996665921848 41.817824912090146 0 41.817824912090146 -17.281317981265602 0 0 0 0 19.971282792525017 21.183463107825446 0 21.183463107825446 -7.1376093286635296 0 0 0 0 12.21908685323433 -10.577664106051088 0 -10.577664106051088 -93.910699483348253 0 0 0 0 -0.00029613418830718292 48.300066827230239 0 48.300066827230239 21.787955513533234 0 0 0 0 -2.6173655147773616 -0.65638142599182459 0 -0.65638142599182459 2.3689441399941913 0 0 0 0 -0.62686714840396007 -0.82091090806029143 0 -0.82091090806029143 1.6058772187927968 0 0 0 0 28.377551768237026 6.5928138224817303 0 6.5928138224817303 -21.610395190599775 0 0 0 0 -9.6619372952773119 16.188440064908718 0 16.188440064908718 17.872141294261382 0 0 0 0 -0.03188521607750755 17.830230207953726 0 17.830230207953726 -6.3044923308116267 0 0 0 0 0.0258716293169753 17.75872781356091 0 17.75872781356091 -6.2770565405808156 0 0 0 0 -15.528134655003669 68.668268232850096 0 68.668268232850096 -60.611724385824346 0 0 0 0 -47.194203155915602 91.297727183211464 0 91.297727183211464 5.2331395586952567 0 0 0 0 -42.863611555520038 51.781025708221478 0 51.781025708221478 -69.511254059783823 0 0 0 0 -32.626232034381246 96.667870381354078 0 96.667870381354078 -144.24352070782334 0 0 0 0 -68.182691032852745 134.02239017991087 0 134.02239017991087 -129.16737041324086 0 0 0 0 -162.93987461125653 159.49118272283704 0 159.49118272283704 65.426619829544507 0 0 0 0 -140.39239936697413 -1.5579281258287665 0 -1.5579281258287665 155.15320045064982 0 0 0 0 5.3398420425270956 6.5770959086600556 0 6.5770959086600556 3.1232836607093759 0 0 0 0 6.0530501098692184 -67.771742347356849 0 -67.771742347356849 119.08760232010445 0 0 0 0 -34.435900343043613 52.601490062318589 0 52.601490062318589 92.601955610654841 0 0 0 0 8.4530890735331923 11.803357494565716 0 11.803357494565716 -3.8225733382787439 0 0 0 0 3.5860136650153436 45.967868345906027 0 45.967868345906027 79.034533779726189 0 0 0 0 22.176662264726474 13.020445083182494 0 13.020445083182494 -16.309619238501909 0 0 0 0 2.2367816223716943 17.755635857746341 0 17.755635857746341 -3.9108716613104733 0 0 0 0 20.306068343154038 16.965332017031187 0 16.965332017031187 15.864676548648276 0 0 0 0 -3.108949016391648 18.346942989759711 0 18.346942989759711 -1.1129214949707382 0 0 0 0 0.37062648801298792 11.268006441912945 0 11.268006441912945 -2.1775632453688516 0 0 0 0 -7.9139686721027829 8.6078477200426278 0 8.6078477200426278 7.8599333342135651 0 0 0 0 1.1070025428638246 2.2698195601720101 0 2.2698195601720101 2.2004841060659324 0 0 0 0 17.661120750386715 19.536713480023607 0 19.536713480023607 -2.4008987191975706 0 0 0 0 -14.883970497379778 -140.46050581380769 0 -140.46050581380769 -73.936460623146559 0 0 0 0 65.388624826839077 31.426699373538213 0 31.426699373538213 -60.242946262918849 0 0 0 0 3.9886288156604337 2.0229577106873506 0 2.0229577106873506 0.22090769498402807 0 0 0 0 -419.88683352111548 44.860536963326012 0 44.860536963326012 49.239720304150978 0 0 0 0 7.5149087368336041 17.674035094787541 0 17.674035094787541 -85.389554369801772 0 0 0 0 -270.03893733266159 2.9653964257195184 0 2.9653964257195184 -40.419605154325836 0 0 0 0 18.766936058498686 35.291052165019209 0 35.291052165019209 -11.835280392529967 0 0 0 0 28.045619561504282 30.670656316839541 0 30.670656316839541 -73.630245472108072 0 0 0 0 20.00638883987267 1.8526199285970506 0 1.8526199285970506 11.664512897996246 0 0 0 0 -17.817024871068156 10.120186498731456 0 10.120186498731456 1.4397517560696755 0 0 0 0 2.4599957826139871 56.918073313289824 0 56.918073313289824 -6.8428491164959269 0 0 0 0 -2.7403211034221613 3.2511339553198937 0 3.2511339553198937 -0.45670065957745365 0 0 0 0 1.4498065850200135 3.6106803347015983 0 3.6106803347015983 -2.6176719976638054 0 0 0 0 -45.922321673453553 79.060652777414361 0 79.060652777414361 203.72815313620231 0 0 0 0 -25.417287515068892 23.469654041677131 0 23.469654041677131 67.703012453825067 0 0 0 0 10.067784250248224 74.41434335708982 0 74.41434335708982 85.657812852179632 0 0 0 0 12.910417505627265 35.410078512777545 0 35.410078512777545 106.33172377299343 0 0 0 0 13.00701492963708 125.41550039094 0 125.41550039094 87.869240952204564 0 0 0 0 -3.6543176069633887 -1.4182299804222254 0 -1.4182299804222254 3.9531002420289383 0 0 0 0 25.052125415109913 2.4544666626998151 0 2.4544666626998151 -19.024358289549127 0 0 0 0 49.424397771945223 95.022222694366064 0 95.022222694366064 -258.67169803640098 0 0 0 0 51.274053461558651 54.831283951236401 0 54.831283951236401 -230.3542169473003 0 0 0 0 9.4148186630918644 58.380432854501123 0 58.380432854501123 -157.20981503239 0 0 0 0 -45.306228698478662 87.657524341009776 0 87.657524341009776 -159.05068557609047 0 0 0 0 -25.824136924406048 33.841231973336107 0 33.841231973336107 -38.188243413118471 0 0 0 0 1.2838639503825107 91.795053062019178 0 91.795053062019178 -0.43912417252431624 0 0 0 0 -10.369091695640236 35.818779129884206 0 35.818779129884206 -15.295980942988535 0 0 0 0 -14.8434232623772 7.6846625173172924 0 7.6846625173172924 -2.6553968069542258 0 0 0 0 -110.48580632731318 39.903873995390313 0 39.903873995390313 10.619726261720871 0 0 0 0 -18.666998370783404 9.4252843558169843 0 9.4252843558169843 -75.26226934207989 0 0 0 0 -80.141350887526642 59.418698074712665 0 59.418698074712665 -78.884334041693364 0 0 0 0 7.6368438119097846 -22.502319621016795 0 -22.502319621016795 -242.84630858647688 0 0 0 0 2.6387316241493295 3.0203638293608748 0 3.0203638293608748 3.6261707657920823 0 0 0 0 358.52634800809938 13.013427891251467 0 13.013427891251467 -50.936947428230269 0 0 0 0 132.48339141648103 358.30374989717882 0 358.30374989717882 100.97058441841727 0 0 0 0 21.378212825919036 91.064571492250252 0 91.064571492250252 289.19242197838406 0 0 0 0 79.253220348386094 -428.52244250734293 0 -428.52244250734293 279.93078536823305 0 0 0 0 306.35529855797358 209.28690022121191 0 209.28690022121191 -12.784337192797466 0 0 0 0 -0.18628831580147676 1.828966938158004 0 1.828966938158004 -1.1721197753592385 0 0 0 0 167.86479442118434 104.1467115814703 0 104.1467115814703 -33.742347951518695 0 0 0 0 111.35785123623646 -3.5391818568893996 0 -3.5391818568893996 -6.4232851287233643 0 0 0 0 -7.3049574336215386 20.359303725791335 0 20.359303725791335 1.6256048104354761 0 0 0 0 -15.414170023388579 16.83467806554404 0 16.83467806554404 60.069062435231899 0 0 0 0 -24.717258515614958 -1.780178591724507 0 -1.780178591724507 40.17522469540927 0 0 0 0 7.3597125429223524 29.325599985681947 0 29.325599985681947 -0.53650309315708 0 0 0 0 158.45320969785826 56.037932176520371 0 56.037932176520371 -7.8352720763004982 0 0 0 0 28.648254221287061 70.774386155917909 0 70.774386155917909 73.251660581161559 0 0 0 0 26.381671564107819 24.889198150680386 0 24.889198150680386 3.3061244777763932 0 0 0 0 37.072134104011639 -18.024347751192181 0 -18.024347751192181 80.9429546265319 0 0 0 0 7.5741174076883908 9.9842561931063045 0 9.9842561931063045 8.8260673189367225 0 0 0 0 -483.68159157518312 -213.13590865946503 0 -213.13590865946503 105.53795753611848 0 0 0 0 2.0024149962069231 6.8741599872114989 0 6.8741599872114989 0.38031808196981132 0 0 0 0 16.88731909613125 46.796116701309074 0 46.796116701309074 -91.291085172575094 0 0 0 0 16.227479347136978 19.857727273662931 0 19.857727273662931 -51.837440265521764 0 0 0 0 -36.196826613842859 58.250240392293563 0 58.250240392293563 -76.6400218517756 0 0 0 0 -53.107190158109006 91.839463636623805 0 91.839463636623805 108.63772428113953 0 0 0 0 -29.452060746669304 190.32890477901674 0 190.32890477901674 174.67259298800309 0 0 0 0 -68.397945615724893 116.96558473045025 0 116.96558473045025 78.741062945835438 0 0 0 0 199.38724903200637 -59.119393680080975 0 -59.119393680080975 33.167300244971557 0 0 0 0 -9.1725428924081598 5.1305735415268927 0 5.1305735415268927 -1.8746584482944382 0 0 0 0 -0.70851352760291775 0.12342302185867027 0 0.12342302185867027 0.0080979229706485967 0 0 0 0 41.886691236664774 182.41130817566955 0 182.41130817566955 5.8558796284196433 0 0 0 0 -0.4248913966366672 49.829001496473211 0 49.829001496473211 -418.77705061727465 0 0 0 0 66.619175860832911 130.61370868808444 0 130.61370868808444 77.184548310615355 0 0 0 0 19.96700081700692 34.212336362061251 0 34.212336362061251 -408.45774054259618 0 0 0 0 483.46281165827531 -176.82953048211493 0 -176.82953048211493 132.22978631229125 0 0 0 0 -223.94357459736784 56.75571633212985 0 56.75571633212985 302.64665139425233 0 0 0 0 -284.34620697330683 114.30647727859468 0 114.30647727859468 22.112138307747955 0 0 0 0 -0.46169994082256949 0.22141061565285725 0 0.22141061565285725 0.21124082188162419 0 0 0 0 34.135557036028331 13.368399516746422 0 13.368399516746422 90.015731376020995 0 0 0 0 -212.76072635732271 177.19911559732464 0 177.19911559732464 -42.568882221414242 0 0 0 0 -66.972873229113247 30.695519796738722 0 30.695519796738722 88.347031085257186 0 0 0 0 -52.716906569810817 123.64141518284487 0 123.64141518284487 65.492688560174429 0 0 0 0 -119.77428579465777 42.107585746371115 0 42.107585746371115 102.66979628166064 0 0 0 0 -285.73151343456993 -112.54384256419689 0 -112.54384256419689 -5.4745047572405383 0 0 0 0 -2.8377135655143491 1.9381543808614055 0 1.9381543808614055 -1.1197101749861851 0 0 0 0 -172.6465167611459 70.969009543022366 0 70.969009543022366 88.664798104957299 0 0 0 0 -519.17810612195171 259.28862142073922 0 259.28862142073922 82.516288976927171 0 0 0 0 -85.85542814234941 98.455940326723521 0 98.455940326723521 35.558082129688046 0 0 0 0 -123.32385685162444 118.1041056773247 0 118.1041056773247 130.38296011189595 0 0 0 0 -121.8502652940424 27.447491647282277 0 27.447491647282277 1.4653347182902507 0 0 0 0 -29.247123880541437 108.00551324612567 0 108.00551324612567 78.642158243421363 0 0 0 0 -30.013422950709923 52.630796485539307 0 52.630796485539307 -248.63971263682834 0 0 0 0 -266.40786032898177 237.06985771432664 0 237.06985771432664 10.334808976012937 0 0 0 0 9.6600136470369762 91.979541482449349 0 91.979541482449349 84.35261688823266 0 0 0 0 36.454560087615391 -103.65021660155958 0 -103.65021660155958 -102.91912886655336 0 0 0 0 -70.581196564788115 338.82924450495557 0 338.82924450495557 405.99133380943931 0 0 0 0 -53.334289542039187 200.70038437100266 0 200.70038437100266 265.31507411160055 0 0 0 0 34.665850111152395 170.56865376474434 0 170.56865376474434 25.101454373421802 0 0 0 0 15.856098843818472 59.799008995255917 0 59.799008995255917 198.31769009090567 0 0 0 0 6.5604586392430804 4.3338937587405439 0 4.3338937587405439 2.5709962104115931 0 0 0 0 -17.520394571023644 51.013649612055815 0 51.013649612055815 279.22369699830017 0 0 0 0 -93.481138980427204 -32.251135678577157 0 -32.251135678577157 781.92894043850538 0 0 0 0 3.1229146910098393 0.68571697678244448 0 0.68571697678244448 0.072276938704803229 0 0 0 0 -141.95722260614275 206.99228867435977 0 206.99228867435977 -222.27837194860422 0 0 0 0 -115.29154419875158 238.36689733084108 0 238.36689733084108 -193.94564701344643 0 0 0 0 -296.55694967860472 174.24060440272524 0 174.24060440272524 -63.188544750264555 0 0 0 0 -93.376500510570622 102.1664096383688 0 102.1664096383688 -39.974026042777041 0 0 0 0 -0.57141238380054915 5.2692380711806095 0 5.2692380711806095 2.2344673939550255 0 0 0 0 -264.89316299261191 81.213881029400795 0 81.213881029400795 150.17570879723462 0 0 0 0 -8.359231657726923 47.897250449670992 0 47.897250449670992 -542.27202859949102 0 0 0 0 -107.14799533945188 387.46807504017283 0 387.46807504017283 -31.394325386985656 0 0 0 0 -81.841549340359052 15.927829432904446 0 15.927829432904446 43.932798905656625 0 0 0 0 15.379464871258392 18.165354259157766 0 18.165354259157766 18.264521715929579 0 0 0 0 23.578819713286066 39.998088830674988 0 39.998088830674988 128.49257758798831 0 0 0 0 55.146137183677638 76.01172868525498 0 76.01172868525498 -184.37403164649299 0 0 0 0 -111.50329841678831 57.767038202113156 0 57.767038202113156 19.18372930973328 0 0 0 0 -11.274726081879635 -9.7184141416832972 0 -9.7184141416832972 -169.60566446152424 0 0 0 0 -101.49589370672038 105.67123901750836 0 105.67123901750836 45.469611728311293 0 0 0 0 -6.1706460644199979 84.354707322542026 0 84.354707322542026 3.8506375886277056 0 0 0 0 16.741185622549835 21.135953906464522 0 21.135953906464522 24.433871132755034 0 0 0 0 -6.7579238666767196 98.396483403498962 0 98.396483403498962 87.880559473321 0 0 0 0 208.40749341555056 88.632784977398273 0 88.632784977398273 -20.464467325060696 0 0 0 0 147.19236913624627 -10.849390734820076 0 -10.849390734820076 -2.4661522436701944 0 0 0 0 78.80301218958266 -6.480206726598567 0 -6.480206726598567 28.339123595885667 0 0 0 0 197.57883996730379 58.534059696404825 0 58.534059696404825 10.364709498153559 0 0 0 0 117.56404324182222 131.49219011424185 0 131.49219011424185 51.548660814355117 0 0 0 0 93.526673880835006 81.228895019845311 0 81.228895019845311 -18.865740612764966 0 0 0 0 3.6122399211279514 -1.2561754023811602 0 -1.2561754023811602 -3.7477276847474688 0 0 0 0 33.192664818910998 57.039167153442577 0 57.039167153442577 113.67436879525405 0 0 0 0 191.2633964074621 -22.881832514694452 0 -22.881832514694452 -12.682851117122254 0 0 0 0 110.47346773130994 79.693263508149457 0 79.693263508149457 -21.245986622872795 0 0 0 0 9.4061575422323216 0.48384991198240357 0 0.48384991198240357 -18.949988899348561 0 0 0 0 89.176035133721598 -11.13609502546683 0 -11.13609502546683 -9.4038676015209148 0 0 0 0 34.161231937730918 21.537949952860345 0 21.537949952860345 -23.55633219331412 0 0 0 0 52.982108637559577 43.250462417740437 0 43.250462417740437 -32.61757018290632 0 0 0 0 30.2494275159479 89.281584884381459 0 89.281584884381459 -16.302276703963031 0 0 0 0 19.534460070294301 27.117515879761612 0 27.117515879761612 27.668868475366033 0 0 0 0 -162.84229322943429 394.09729662133805 0 394.09729662133805 106.19745342300121 0 0 0 0 26.320135288704478 -15.974467919478684 0 -15.974467919478684 6.3103506165480212 0 0 0 0 10.803779625201088 5.4770529918209832 0 5.4770529918209832 -19.698753191061595 0 0 0 0 60.81248000335836 28.911865258440002 0 28.911865258440002 -19.391554728983465 0 0 0 0 46.205018910433864 29.204424889605434 0 29.204424889605434 -13.654597709286008 0 0 0 0 14.713421464839485 61.136284295403129 0 61.136284295403129 16.177479585036963 0 0 0 0 60.667147697182372 46.198110178733259 0 46.198110178733259 -10.372975013377072 0 0 0 0 34.511104193195933 33.192020427834677 0 33.192020427834677 -33.228096761626233 0 0 0 0 20.88985559395951 41.224616473203241 0 41.224616473203241 -10.30624384528636 0 0 0 0 22.273711132718745 44.569127983686371 0 44.569127983686371 -6.1676527177742173 0 0 0 0 24.880961460532831 20.642197397707662 0 20.642197397707662 7.8670151000801134 0 0 0 0 39.552572578904801 19.907690971017473 0 19.907690971017473 -23.063409663735001 0 0 0 0 37.640152417036006 26.95089427974608 0 26.95089427974608 -27.28932834313332 0 0 0 0 43.671264558448456 25.101997914734966 0 25.101997914734966 -26.722714387893575 0 0 0 0 -39.640327297522163 46.82747380853084 0 46.82747380853084 -12.407143835634997 0 0 0 0 24.066058999325435 14.636931841108613 0 14.636931841108613 6.4516644636012606 0 0 0 0 13.417952182426234 43.61588751112788 0 43.61588751112788 -16.20394923712513 0 0 0 0 2.8013030521036058 2.9297557913530881 0 2.9297557913530881 1.7378654316312607 0 0 0 0 5.5896786905868794 1.3083263729039913 0 1.3083263729039913 31.258298967111386 0 0 0 0 13.21934487922681 44.797519490580086 0 44.797519490580086 21.768965593496887 0 0 0 0 10.69089877056831 109.9634291026365 0 109.9634291026365 43.533014213672004 0 0 0 0 40.07428563114081 65.689193725890846 0 65.689193725890846 -16.993504806550163 0 0 0 0 58.154817798538716 51.200181455685197 0 51.200181455685197 -3.0061510015922295 0 0 0 0 46.963622673109057 34.606752564718704 0 34.606752564718704 -21.775149964919819 0 0 0 0 46.421813999710139 39.093101398645445 0 39.093101398645445 -27.671080236384341 0 0 0 0 11.102719645206889 34.945826032974892 0 34.945826032974892 -23.086241926306457 0 0 0 0 31.018543377693277 31.407888805864502 0 31.407888805864502 -23.449207511084126 0 0 0 0 37.045802671022102 18.034443821303938 0 18.034443821303938 -14.702974393014756 0 0 0 0 36.731351275433553 6.5599308190078318 0 6.5599308190078318 -26.201942549561409 0 0 0 0 73.069119508145377 28.384857547957381 0 28.384857547957381 -33.742131442255868 0 0 0 0 85.983249899472867 24.245323347680596 0 24.245323347680596 -44.608498888997929 0 0 0 0 6.0058603699071682 3.0628981878023751 0 3.0628981878023751 -6.9303331823621193 0 0 0 0 -1.7062997994386535 3.3636172078193596 0 3.3636172078193596 -9.5582756183564896 0 0 0 0 19.150156615214655 -27.508906111722922 0 -27.508906111722922 -48.839597059193693 0 0 0 0 0.034925521082186606 8.0903404562022843 0 8.0903404562022843 -9.1140467942568648 0 0 0 0 6.7445823463785928 11.982387090458815 0 11.982387090458815 -6.9232878103198345 0 0 0 0 8.0300385845403071 14.238180107613971 0 14.238180107613971 -13.369811088583447 0 0 0 0 0.033136999064406737 34.943549044238573 0 34.943549044238573 50.872266896250949 0 0 0 0 7.368976232042769 13.927069805211886 0 13.927069805211886 -10.651175607369623 0 0 0 0 7.2621785385890689 12.267608295092941 0 12.267608295092941 -10.44572580530712 0 0 0 0 1.5157645955525538 8.7481872635077877 0 8.7481872635077877 -16.18030892629054 0 0 0 0 -0.65569297297042795 42.212459006136896 0 42.212459006136896 5.4728195648394831 0 0 0 0 1.7419605632894672 38.424395541864669 0 38.424395541864669 36.940922972153203 0 0 0 0 -9.0432709327018301 20.743852597297362 0 20.743852597297362 4.5491410347595114 0 0 0 0 -4.8195324965527107 35.833983083854719 0 35.833983083854719 68.910120510030538 0 0 0 0 1.1003255016621551 56.470312843081047 0 56.470312843081047 50.591451258409506 0 0 0 0 -1.0980251079440393 2.1476745726945339 0 2.1476745726945339 -2.4886974258725036 0 0 0 0 28.474482357065426 37.246151604600527 0 37.246151604600527 28.43522610360742 0 0 0 0 -100.52998578565166 153.9768949390218 0 153.9768949390218 -106.02877070640534 0 0 0 0 -105.44960906067718 150.47334600431623 0 150.47334600431623 50.333786003840942 0 0 0 0 56.695324296626495 97.38461653885679 0 97.38461653885679 -178.27189283443749 0 0 0 0 43.207991564078839 102.45878186691971 0 102.45878186691971 81.870059582264673 0 0 0 0 -78.507371014959062 2.7418767120229859 0 2.7418767120229859 77.41602463244817 0 0 0 0 -157.81088761057617 61.813771001792702 0 61.813771001792702 27.425324603338822 0 0 0 0 -50.876888315622637 66.017378330732754 0 66.017378330732754 -22.220608361926679 0 0 0 0 -27.983704627855332 56.608218482049779 0 56.608218482049779 -23.754618491419023 0 0 0 0 9.2621118603024968 27.312836268103297 0 27.312836268103297 6.3701546140179701 0 0 0 0 -53.61803717850853 74.499181037075687 0 74.499181037075687 -28.288069897375863 0 0 0 0 43.765855711833865 54.456917633652665 0 54.456917633652665 -24.946713603396347 0 0 0 0 -36.421636397392376 76.393919470334936 0 76.393919470334936 44.245279981656495 0 0 0 0 14.360249272629574 11.984712543657462 0 11.984712543657462 10.731704310928539 0 0 0 0 -37.987897703089402 62.267654340443187 0 62.267654340443187 89.837569925814023 0 0 0 0 72.520912263200444 171.60328111676517 0 171.60328111676517 100.64364049435972 0 0 0 0 149.19620452490926 231.63562995632674 0 231.63562995632674 -27.018809490931744 0 0 0 0 -100.10912820916565 140.27032046972727 0 140.27032046972727 199.01483206666126 0 0 0 0 -99.28063968422066 -34.353202890899865 0 -34.353202890899865 88.885311428692148 0 0 0 0 -121.17596641174168 29.758005403841366 0 29.758005403841366 109.36488735525927 0 0 0 0 -123.586311684885 126.67836451548737 0 126.67836451548737 26.458101059863111 0 0 0 0 -52.849337276714778 -54.817138458816828 0 -54.817138458816828 252.8212037671401 0 0 0 0 -42.807256945394329 49.298345902602705 0 49.298345902602705 108.48723920723387 0 0 0 0 6.626941960643876 8.6128012561288685 0 8.6128012561288685 7.5782777886483785 0 0 0 0 -79.953602574329125 208.67988677760059 0 208.67988677760059 -222.28324007259471 0 0 0 0 43.859131493925815 65.820622607011501 0 65.820622607011501 89.275003328785715 0 0 0 0 -102.40980155693615 -12.881815381997455 0 -12.881815381997455 53.290327436128791 0 0 0 0 -119.84128127736039 257.00126063634525 0 257.00126063634525 -258.33946209179703 0 0 0 0 -62.834314190637087 -201.75753024964729 0 -201.75753024964729 664.45294521879805 0 0 0 0 43.148318061706959 272.56644704346218 0 272.56644704346218 323.42884312721981 0 0 0 0 349.75293362377852 17.253129012102363 0 17.253129012102363 -244.63801417517971 0 0 0 0 109.25166129085119 488.34815215528943 0 488.34815215528943 -30.229350976913338 0 0 0 0 77.178658912518586 -107.12495377170035 0 -107.12495377170035 88.247400407883106 0 0 0 0 91.229265146612306 228.38177718406223 0 228.38177718406223 311.01772291695852 0 0 0 0 301.08790276567743 298.2257956929343 0 298.2257956929343 31.896246273391171 0 0 0 0 -1.1967911167548095 1.0368703055360982 0 1.0368703055360982 0.55068797924322865 0 0 0 0 -200.41098990872706 67.813967402623916 0 67.813967402623916 -48.299567428735827 0 0 0 0 -161.27370970201446 200.70760156237429 0 200.70760156237429 -303.78954285366854 0 0 0 0 -100.51102500590878 55.983670845686902 0 55.983670845686902 -94.309276473217324 0 0 0 0 1.8403861530287031 2.9110471507831619 0 2.9110471507831619 2.9659606773835172 0 0 0 0 -18.54872621438335 8.9147412617458031 0 8.9147412617458031 -16.280754910501855 0 0 0 0 -3.7381126288237283 68.43057953661264 0 68.43057953661264 -274.63286667667649 0 0 0 0 40.001288630228373 62.550148493790857 0 62.550148493790857 -83.510076874841616 0 0 0 0 -9.5453850336634787 16.43137888068668 0 16.43137888068668 20.06913996791809 0 0 0 0 266.31264077953529 103.4953023516855 0 103.4953023516855 73.336969280690028 0 0 0 0 77.390330325753894 151.68290890573371 0 151.68290890573371 95.968562370362633 0 0 0 0 -10.875842750450829 14.537331435864871 0 14.537331435864871 -37.176023403057116 0 0 0 0 47.819712146556412 33.5434556620894 0 33.5434556620894 -32.67133959831699 0 0 0 0 31.54007230004936 138.09272496958874 0 138.09272496958874 96.965646666400971 0 0 0 0 191.11214254860897 233.61076329262778 0 233.61076329262778 124.24098244291963 0 0 0 0 68.085641684097936 92.295555984524981 0 92.295555984524981 152.68283573051303 0 0 0 0 -2.6974375303126976 1.3057114903659226 0 1.3057114903659226 1.6650903988797339 0 0 0 0 52.75261148339996 120.43328434866407 0 120.43328434866407 158.87878572639784 0 0 0 0 -11.205431883110577 -11.278468937304751 0 -11.278468937304751 24.290377451268796 0 0 0 0 -17.07228967557603 5.4248944375131032 0 5.4248944375131032 17.142225490081728 0 0 0 0 -78.086133962358872 -52.593642172334512 0 -52.593642172334512 4.0127604561480439 0 0 0 0 -100.2165107990877 88.126375490250211 0 88.126375490250211 -67.965212972454538 0 0 0 0 -37.575845675306482 21.180283597573634 0 21.180283597573634 55.369567149104114 0 0 0 0 37.052164902313962 47.550412510583556 0 47.550412510583556 23.610182859702945 0 0 0 0 -1.4549460206544609 31.983378682366492 0 31.983378682366492 -0.61377437883675157 0 0 0 0 -3.989703076222213 25.583375615142586 0 25.583375615142586 11.855690754113311 0 0 0 0 -4.1287902774347458 11.560643499628213 0 11.560643499628213 16.926084989405354 0 0 0 0 -1.5004575626973349 2.1442312590724697 0 2.1442312590724697 5.9463650923964479 0 0 0 0 42.227493960264837 117.72223876787211 0 117.72223876787211 159.2519859950969 0 0 0 0 -3.747918153880164 13.576513208025062 0 13.576513208025062 21.557868993191732 0 0 0 0 -0.82449122570687905 19.003456191434452 0 19.003456191434452 21.630756533259174 0 0 0 0 -1.7134170163390081 16.157906665015389 0 16.157906665015389 14.462665510023726 0 0 0 0 16.513832047465257 26.927468203673925 0 26.927468203673925 -243.1313838544574 0 0 0 0 9.0578622228200629 12.359281950032795 0 12.359281950032795 8.7542888677721145 0 0 0 0 -23.996823128603864 -107.31179229143072 0 -107.31179229143072 -508.35484691491638 0 0 0 0 110.31832433634554 236.37890850019721 0 236.37890850019721 -259.8610696670076 0 0 0 0 121.11988448687771 122.75944005210931 0 122.75944005210931 -597.03566763706499 0 0 0 0 -64.776393000676762 147.09645127675321 0 147.09645127675321 -91.307117413102787 0 0 0 0 -52.105172999843489 126.32116047331442 0 126.32116047331442 -105.36140371717829 0 0 0 0 -44.704879697368597 110.48055189469574 0 110.48055189469574 -113.42073090643953 0 0 0 0 -74.544551447546837 76.041679313116219 0 76.041679313116219 -27.814326022400564 0 0 0 0 -179.47428319942264 139.72583011393408 0 139.72583011393408 -64.922306233165273 0 0 0 0 0.35839639843570836 1.2036941084111135 0 1.2036941084111135 1.2347076031664734 0 0 0 0 249.24037687259261 124.23884398859354 0 124.23884398859354 46.6525412192359 0 0 0 0 20.608373126264269 13.176733745749345 0 13.176733745749345 18.559303914473276 0 0 0 0 12.22538725667178 13.704337891524744 0 13.704337891524744 10.432818137727855 0 0 0 0 20.694636840788007 41.045100073351023 0 41.045100073351023 -25.706581419837676 0 0 0 0 -42.9684832970961 124.04976269923463 0 124.04976269923463 -159.34640753667327 0 0 0 0 10.545556403270012 13.250954760301056 0 13.250954760301056 10.233666302896616 0 0 0 0 -46.853691418982635 104.71965874150669 0 104.71965874150669 -106.21971505919646 0 0 0 0 -58.105401913038804 106.39471645034064 0 106.39471645034064 -93.656031720619467 0 0 0 0 -33.698709582953597 113.61399137003309 0 113.61399137003309 -111.65835752547787 0 0 0 0 -47.487101855776473 98.196690995213601 0 98.196690995213601 -85.532162327963306 0 0 0 0 10.572984904864541 17.030708397477184 0 17.030708397477184 12.113256762185852 0 0 0 0 0.50695960186867239 7.1405507966400563 0 7.1405507966400563 5.6012262152138703 0 0 0 0 -53.870799606796936 24.998502632892269 0 24.998502632892269 15.649975123984404 0 0 0 0 17.669340536172967 23.839422220697998 0 23.839422220697998 -22.740036045592205 0 0 0 0 -69.089953127895569 44.571347258101014 0 44.571347258101014 12.189783388334035 0 0 0 0 -66.916867510895827 75.357815789656797 0 75.357815789656797 9.7253181157784638 0 0 0 0 -38.356860383946469 19.415334326282636 0 19.415334326282636 30.712609420602334 0 0 0 0 -57.20044453873561 35.228819423577988 0 35.228819423577988 -18.265408566563565 0 0 0 0 10.228291160841763 8.9615689817846942 0 8.9615689817846942 6.1945849065423317 0 0 0 0 53.990497544982645 12.029249735634949 0 12.029249735634949 -2.7035562071050663 0 0 0 0 -124.93380871983391 45.035446802273555 0 45.035446802273555 6.5250271294098638 0 0 0 0 0.40773662903258412 1.2157218060011985 0 1.2157218060011985 4.8401061115914885 0 0 0 0 -64.445680346325389 46.701441800965767 0 46.701441800965767 -22.961509463396396 0 0 0 0 -129.46151342141093 41.747646750390686 0 41.747646750390686 -6.2224200334985653 0 0 0 0 0.29226834946115332 0.97694645855978024 0 0.97694645855978024 1.4529405800167012 0 0 0 0 31.925218194646732 13.207023684689034 0 13.207023684689034 11.911332155163109 0 0 0 0 173.70009145720542 34.729506163863334 0 34.729506163863334 6.3124815765040694 0 0 0 0 -49.149969025807877 73.313445716300748 0 73.313445716300748 -37.530697703018632 0 0 0 0 7.1434340530104237 72.433071528140317 0 72.433071528140317 -35.240440818407478 0 0 0 0 -32.798788324240704 53.82540367170607 0 53.82540367170607 -34.273661010716197 0 0 0 0 -66.812023834238062 49.297226750488335 0 49.297226750488335 -0.92702377847854223 0 0 0 0 -7.2800741838509566 59.842553116043746 0 59.842553116043746 -22.530082690279414 0 0 0 0 -29.451637266417357 39.465676626021022 0 39.465676626021022 -17.341468716523288 0 0 0 0 -12.254450869255379 55.302836703810954 0 55.302836703810954 -0.21024979738467664 0 0 0 0 -10.541473122619209 47.514663145540226 0 47.514663145540226 -31.233046196152827 0 0 0 0 -7.8518148658786231 46.426530250468886 0 46.426530250468886 7.0042229170176142 0 0 0 0 -57.914858280020781 34.937755779631516 0 34.937755779631516 14.316568076559633 0 0 0 0 -43.455564225336275 47.412062607524149 0 47.412062607524149 1.069506432973867 0 0 0 0 -25.222660573502758 35.074352187047197 0 35.074352187047197 7.9333191676203683 0 0 0 0 13.17698320683121 68.678811534576198 0 68.678811534576198 18.265579827075271 0 0 0 0 8.0030394439309021 62.104629083063628 0 62.104629083063628 16.722735610948803 0 0 0 0 -6.3909348235538346 69.134806459305764 0 69.134806459305764 21.775277665139583 0 0 0 0 0.60489190930093173 92.907581878936981 0 92.907581878936981 92.583563545314973 0 0 0 0 -2.4126508110348368 76.907655453265761 0 76.907655453265761 16.829432958852976 0 0 0 0 -4.424448103436589 73.772929633094463 0 73.772929633094463 31.91639266113998 0 0 0 0 38.061386548699375 115.70695707076993 0 115.70695707076993 23.262321656227869 0 0 0 0 54.348172179075846 61.79127013315383 0 61.79127013315383 -49.989797341775557 0 0 0 0 -14.830392315839589 39.678356864069947 0 39.678356864069947 -46.809671566691023 0 0 0 0 -8.4213060686888639 89.07775200933429 0 89.07775200933429 169.42379656378398 0 0 0 0 -6.9477112349530046 12.061558135139443 0 12.061558135139443 -8.392573101188372 0 0 0 0 39.841291772175282 48.702519297164258 0 48.702519297164258 37.512953376197402 0 0 0 0 53.928090562427315 125.37444475639904 0 125.37444475639904 47.666828100180282 0 0 0 0 -25.007976472501468 82.880708814807804 0 82.880708814807804 42.971167300358502 0 0 0 0 32.388263910557725 84.125165811001352 0 84.125165811001352 -17.140472349199626 0 0 0 0 -0.38980254677881021 53.151205812614535 0 53.151205812614535 -2.5450518490451941 0 0 0 0 -14.932541405309166 67.588447140580683 0 67.588447140580683 31.323247338839792 0 0 0 0 -15.650163335181787 58.491093350186929 0 58.491093350186929 34.798774639195472 0 0 0 0 13.983837890339146 60.768613329341406 0 60.768613329341406 -2.4814203238456685 0 0 0 0 14.242815934801911 59.160775490258402 0 59.160775490258402 -11.973851334154915 0 0 0 0 11.955932973315839 41.82186000789082 0 41.82186000789082 1.5816530155484472 0 0 0 0 -23.997854900312731 26.964375417505419 0 26.964375417505419 -21.489755457927568 0 0 0 0 -9.1387283820299103 120.28362279548023 0 120.28362279548023 78.083523106815846 0 0 0 0 13.533583885389817 83.541581667090213 0 83.541581667090213 -32.978110920619656 0 0 0 0 -19.42795745080366 132.50104297808502 0 132.50104297808502 5.9515968886225892 0 0 0 0 34.600395218505582 72.182795272919975 0 72.182795272919975 58.666369824642061 0 0 0 0 23.725630179134669 61.832742687872269 0 61.832742687872269 -3.6252170438483518 0 0 0 0 44.816014379515536 147.48145433035802 0 147.48145433035802 -8.1838719824500004 0 0 0 0 -14.676731225281486 43.663538356093412 0 43.663538356093412 -25.470243994733902 0 0 0 0 184.70537290660468 104.65504947294903 0 104.65504947294903 -174.41983180140596 0 0 0 0 6.9296583902844304 206.18059421121825 0 206.18059421121825 -225.286698977794 0 0 0 0 34.652754618924405 52.098922652998532 0 52.098922652998532 15.26551531694113 0 0 0 0 17.579232713687816 129.45514580634335 0 129.45514580634335 -1.8986172190234356 0 0 0 0 117.71172462352479 76.893450182048127 0 76.893450182048127 -79.10789019535423 0 0 0 0 46.888131787573329 46.194032758632332 0 46.194032758632332 27.539687543776111 0 0 0 0 28.282849059631189 79.501756191459549 0 79.501756191459549 -52.891517788353667 0 0 0 0 9.7369167467166271 7.0725589776700772 0 7.0725589776700772 -3.8742625250578442 0 0 0 0 -127.10310236085206 137.66147644218745 0 137.66147644218745 -41.370789077920563 0 0 0 0 -48.757969127693286 198.95936255435299 0 198.95936255435299 -124.84307778199945 0 0 0 0 -145.30117112974222 123.04624164060715 0 123.04624164060715 117.94490206135379 0 0 0 0 23.200512232815264 36.898990523239661 0 36.898990523239661 8.8267970654239747 0 0 0 0 -47.531216559701988 253.88360280188226 0 253.88360280188226 173.87272336923706 0 0 0 0 -60.103146332269716 -13.074393256607436 0 -13.074393256607436 193.56854543819713 0 0 0 0 0.5289702456225136 1.0866176644598546 0 1.0866176644598546 3.1663252469974736 0 0 0 0 -34.938388616908924 65.882700168185238 0 65.882700168185238 -5.1537260134797407 0 0 0 0 -6.2308331073290901 88.358310127005097 0 88.358310127005097 -50.776792380829647 0 0 0 0 -41.624556840943114 78.499980190734277 0 78.499980190734277 -16.90226301996745 0 0 0 0 4.0415518389781937 132.83727148582875 0 132.83727148582875 -74.69501496803332 0 0 0 0 -29.4140001963533 50.011559427546672 0 50.011559427546672 -1.6175693257810053 0 0 0 0 -14.826498186062963 36.288376680675356 0 36.288376680675356 11.287556121937087 0 0 0 0 -51.750534379645615 84.669287094343758 0 84.669287094343758 -44.786311398995167 0 0 0 0 -41.741484596914233 106.70565652671644 0 106.70565652671644 -47.712455323031463 0 0 0 0 -7.789284646874691 24.629752529359166 0 24.629752529359166 28.925144182459828 0 0 0 0 -1.115259726789418 31.89206747709423 0 31.89206747709423 17.305722644165527 0 0 0 0 -45.06004828416917 72.554600500575816 0 72.554600500575816 -68.197520183392953 0 0 0 0 -47.397467774913821 110.5762222759929 0 110.5762222759929 -76.504869234246826 0 0 0 0 -17.601920978642113 32.700663770761807 0 32.700663770761807 -9.7315541164586108 0 0 0 0 -42.932896956819576 37.48185671767844 0 37.48185671767844 29.529764539323857 0 0 0 0 -18.669848069840555 42.286546716848761 0 42.286546716848761 12.538129079483042 0 0 0 0 -19.409376839728793 37.218868069357995 0 37.218868069357995 21.883616179249657 0 0 0 0 -21.856816589031951 43.026593018321364 0 43.026593018321364 14.642355200543534 0 0 0 0 -54.816361566459818 26.955496359366407 0 26.955496359366407 -3.4418910623589909 0 0 0 0 -22.285984115986665 22.719604846399193 0 22.719604846399193 -11.80530952597173 0 0 0 0 -20.188549022852385 47.355513354947107 0 47.355513354947107 5.6141736947975005 0 0 0 0 -46.482647955934226 46.818893814458534 0 46.818893814458534 7.0607764048017998 0 0 0 0 -18.291916257985577 42.352883580386333 0 42.352883580386333 23.818417657061218 0 0 0 0 -50.907491048626085 0.90537420003397528 0 0.90537420003397528 17.85080358883598 0 0 0 0 -35.296225150581449 38.042077579353645 0 38.042077579353645 12.917903785786621 0 0 0 0 -37.350008997829889 35.776361787525566 0 35.776361787525566 7.4175652596862491 0 0 0 0 -42.858444987301482 33.698892349682865 0 33.698892349682865 0.1841717774659628 0 0 0 0 -62.269566566436467 62.561843119766422 0 62.561843119766422 13.178648821396635 0 0 0 0 0.62055921486444277 73.65891631709772 0 73.65891631709772 1.4329096428716213 0 0 0 0 -23.289572670928152 26.23924321341395 0 26.23924321341395 -2.8324567931564388 0 0 0 0 -5.5975874231990019 45.94138112618657 0 45.94138112618657 10.515917968610665 0 0 0 0 -5.9983181765548128 36.894192681562544 0 36.894192681562544 5.9494040360981373 0 0 0 0 -29.204081316933298 53.588151190820099 0 53.588151190820099 13.39640316326404 0 0 0 0 -134.65291086759385 53.336085891272887 0 53.336085891272887 3.9412544342703768 0 0 0 0 -62.268650250207429 66.186772650609782 0 66.186772650609782 -20.42777542039039 0 0 0 0 -18.749120771550974 16.427974847796563 0 16.427974847796563 2.7710899218847089 0 0 0 0 -100.11668802827808 48.851537800881488 0 48.851537800881488 -22.629108399129109 0 0 0 0 136.280517474936 77.021153533345569 0 77.021153533345569 -59.898148702915933 0 0 0 0 7.8959872592895408 32.898220124210638 0 32.898220124210638 -49.151743070599878 0 0 0 0 73.699538023431842 91.668652025073243 0 91.668652025073243 -24.538351563005563 0 0 0 0 -3.4228468684459585 70.424821868940853 0 70.424821868940853 -2.919773413826988 0 0 0 0 9.4491193989408657 72.210086402683373 0 72.210086402683373 -26.595446213221294 0 0 0 0 -7.7203407943352431 61.847876482521315 0 61.847876482521315 -18.862853079341591 0 0 0 0 -51.254644621607895 75.697581912990245 0 75.697581912990245 -18.966536426443781 0 0 0 0 -33.330993654748454 117.37023579978086 0 117.37023579978086 82.736941573792137 0 0 0 0 -35.684028720536944 44.931140429590442 0 44.931140429590442 -30.757704240177389 0 0 0 0 -90.055636918721575 85.902824232003695 0 85.902824232003695 77.748812006815569 0 0 0 0 8.7224382937411065 81.210648068473347 0 81.210648068473347 -0.78123073988467695 0 0 0 0 -38.656112891407844 34.142479407285023 0 34.142479407285023 -33.046719183642544 0 0 0 0 35.354952902793684 121.78456350473994 0 121.78456350473994 60.021423185073218 0 0 0 0 33.674628869897788 77.757603842079334 0 77.757603842079334 -7.5833810543490472 0 0 0 0 45.54373702108569 70.26876136318333 0 70.26876136318333 -2.4188027605405296 0 0 0 0 34.29314207041898 133.35902191820196 0 133.35902191820196 -53.184401383143268 0 0 0 0 -69.015427728012583 81.262121066572945 0 81.262121066572945 -26.867421302424191 0 0 0 0 -193.54861778556369 241.84045880907888 0 241.84045880907888 129.51438302688439 0 0 0 0 6.8729321300817645 52.386753048116923 0 52.386753048116923 14.823428945236742 0 0 0 0 -116.44639709178591 147.126142457264 0 147.126142457264 -57.351829001609076 0 0 0 0 2.1394985030929092 192.01487310491211 0 192.01487310491211 -205.23779232386005 0 0 0 0 -137.83488940079405 88.104052431448508 0 88.104052431448508 246.66068526160052 0 0 0 0 122.41503525412736 60.059598966069188 0 60.059598966069188 -12.889849797968054 0 0 0 0 -6.2194070770347025 -36.672348741862152 0 -36.672348741862152 142.64009264329434 0 0 0 0 -30.282761138907517 22.759287435304032 0 22.759287435304032 -0.20468028331742971 0 0 0 0 -6.6097967305418166 1.8054054891253486 0 1.8054054891253486 3.0061715637609936 0 0 0 0 -6.2228127315346455 4.9594545589534818 0 4.9594545589534818 1.9890180833209143 0 0 0 0 12.812691752063674 47.891730043389536 0 47.891730043389536 21.101214833968257 0 0 0 0 -74.466757382007927 30.823368194560317 0 30.823368194560317 7.5101450106249104 0 0 0 0 -44.03829684885568 70.705604314934135 0 70.705604314934135 59.711596199180349 0 0 0 0 -297.9092947879908 34.689122773704185 0 34.689122773704185 45.630664867785526 0 0 0 0 -105.28688609023811 -126.99514511512825 0 -126.99514511512825 143.39920279748912 0 0 0 0 -90.448771802222836 182.60909648579218 0 182.60909648579218 -70.147727618313183 0 0 0 0 -100.62740119146702 161.57001185434228 0 161.57001185434228 106.47743124041153 0 0 0 0 -21.569824102371058 148.52492180136505 0 148.52492180136505 -84.77621422473203 0 0 0 0 -4.4319795955816517 -108.11712736868321 0 -108.11712736868321 268.70440209301842 0 0 0 0 -334.0845362692944 178.93527846003053 0 178.93527846003053 328.44668238879967 0 0 0 0 -112.11421677088765 84.680411972713046 0 84.680411972713046 98.704542425744876 0 0 0 0 -43.839443189204758 56.536254081300285 0 56.536254081300285 72.59036538051987 0 0 0 0 22.810769553800583 40.438494671557898 0 40.438494671557898 40.386718248935011 0 0 0 0 -9.7384630506820713 84.225282107553085 0 84.225282107553085 -2.9681475751276594 0 0 0 0 -102.88291192901602 143.30145638416764 0 143.30145638416764 30.686140562691435 0 0 0 0 -9.2068509769839579 76.58608985955334 0 76.58608985955334 14.355291694028892 0 0 0 0 21.133475363785692 94.835060016555872 0 94.835060016555872 36.847477342114871 0 0 0 0 -24.759493171386989 39.668746097538516 0 39.668746097538516 -18.232752542668152 0 0 0 0 8.2712215588991231 70.955939728023196 0 70.955939728023196 -4.4445193654537434 0 0 0 0 -22.55664530086824 70.058031482047227 0 70.058031482047227 2.4107431471302334 0 0 0 0 7.7853937385177687 75.535239357806859 0 75.535239357806859 -7.4793701093822165 0 0 0 0 -3.3161986397090004 85.864560853491639 0 85.864560853491639 11.29325154820981 0 0 0 0 -23.367426554016447 94.099519760393378 0 94.099519760393378 10.339951744558675 0 0 0 0 3.41717022653296 120.93106559367152 0 120.93106559367152 0.62425616510518012 0 0 0 0 105.36834567714507 181.6481700879981 0 181.6481700879981 24.561967065917997 0 0 0 0 -30.637142125446644 85.990331664595942 0 85.990331664595942 40.052451878273132 0 0 0 0 -47.224958288188304 28.585333082436001 0 28.585333082436001 -2.8801939899243791 0 0 0 0 -42.330151887255852 70.269302285484628 0 70.269302285484628 20.189115338351257 0 0 0 0 -28.750403510324304 74.139627023825824 0 74.139627023825824 20.378629421842561 0 0 0 0 15.457347299572421 28.576625609027118 0 28.576625609027118 30.762621545121874 0 0 0 0 -31.151304358729931 79.912768202648294 0 79.912768202648294 -445.7326916828606 0 0 0 0 232.53387774014163 -1326.9981380593522 0 -1326.9981380593522 2089.7150881048183 0 0 0 0 76.059559981746133 1074.5289237710022 0 1074.5289237710022 699.51667801336589 0 0 0 0 -5.2463272272060806 6.3864524338271949 0 6.3864524338271949 0.33080417346913293 0 0 0 0 -943.59007668112463 1930.8608529522317 0 1930.8608529522317 314.34940805255883 0 0 0 0 -2251.0144439336318 -395.25746484176125 0 -395.25746484176125 2163.8532278927887 0 0 0 0 -310.81408245933562 -424.60593525514651 0 -424.60593525514651 -678.01718024730462 0 0 0 0 -1518.521144729357 685.86821952411515 0 685.86821952411515 -93.29878787107009 0 0 0 0 -289.4365858142628 -179.48752275321021 0 -179.48752275321021 -221.00834873258646 0 0 0 0 -1603.5390599301004 -302.62212820382996 0 -302.62212820382996 -148.14168747044823 0 0 0 0 965.70022907793464 529.38703298513883 0 529.38703298513883 -258.64717776546604 0 0 0 0 -101.52861591800956 0.85763020619492636 0 0.85763020619492636 -52.219884674052082 0 0 0 0 13.76844686880213 121.21213492514426 0 121.21213492514426 12.393022567523985 0 0 0 0 -1.9079718148054141 0.44011512322560264 0 0.44011512322560264 1.4590783579001432 0 0 0 0 108.77635801958604 154.65359139126804 0 154.65359139126804 -162.41489291644393 0 0 0 0 119.36750571258381 114.75319535372 0 114.75319535372 -85.479241939287022 0 0 0 0 -928.70111704958981 464.83430873934503 0 464.83430873934503 -90.366234989795771 0 0 0 0 -1092.0927479732454 455.53283528320299 0 455.53283528320299 -89.257189596803073 0 0 0 0 -100.69918033578142 11.074028474187344 0 11.074028474187344 -127.34469846760476 0 0 0 0 -58.732367200056501 147.42334410948752 0 147.42334410948752 123.03838372395694 0 0 0 0 60.405572574644538 -73.901879838493642 0 -73.901879838493642 -21.122196194020944 0 0 0 0 -112.44306553221594 45.720677456787598 0 45.720677456787598 35.774953787793265 0 0 0 0 -60.537032835864224 39.085208150554585 0 39.085208150554585 -23.664499443105221 0 0 0 0 25.351664202531538 -168.19280679451822 0 -168.19280679451822 -174.40055049518514 0 0 0 0 330.31429216880224 53.447915088848333 0 53.447915088848333 -164.33870867526821 0 0 0 0 -57.866924358770916 -2.5751005791514672 0 -2.5751005791514672 -47.298920360677585 0 0 0 0 -55.086070775794617 57.617105980948153 0 57.617105980948153 -27.539967019645175 0 0 0 0 296.23666124554802 271.38825147936768 0 271.38825147936768 -65.304260499349766 0 0 0 0 127.14880110918602 170.85645954342453 0 170.85645954342453 -42.573870064446055 0 0 0 0 55.816429831424514 42.547433866440777 0 42.547433866440777 1.8279103202973319 0 0 0 0 25.163359792817801 62.694647631927182 0 62.694647631927182 -12.761648927807983 0 0 0 0 48.675595876789885 60.543919979892507 0 60.543919979892507 4.8591373286253656 0 0 0 0 50.178658126174014 -104.07581756434047 0 -104.07581756434047 -220.75562368111241 0 0 0 0 10.964464627176476 10.79158173333418 0 10.79158173333418 2.9554685916336219 0 0 0 0 77.520698326142337 4.2361676536243067 0 4.2361676536243067 -80.417508754919709 0 0 0 0 48.380202818327355 33.547083443388019 0 33.547083443388019 15.382176787678837 0 0 0 0 57.88904838221174 48.041157777449385 0 48.041157777449385 -90.524883986801342 0 0 0 0 -9.8685643673356935 28.089870438790172 0 28.089870438790172 -21.325864121502491 0 0 0 0 17.584713142587965 30.829410000948151 0 30.829410000948151 -29.553587414084646 0 0 0 0 58.818781010336011 62.431709537963272 0 62.431709537963272 -10.684673644735994 0 0 0 0 -1.0861463403058895 36.095043210184286 0 36.095043210184286 -33.678753854038277 0 0 0 0 -985.30000207174817 456.89235024187019 0 456.89235024187019 -70.54324458062365 0 0 0 0 162.14125648439858 1.6261038324880701 0 1.6261038324880701 -31.684375212823397 0 0 0 0 1.3061953266988802 3.0972815341326339 0 3.0972815341326339 0.13339566402003911 0 0 0 0 52.548641255663824 -4.3619657011084882 0 -4.3619657011084882 16.899942526106315 0 0 0 0 59.529508563042327 54.974150962382737 0 54.974150962382737 41.145071860881671 0 0 0 0 29.822856421567849 34.997125755164234 0 34.997125755164234 31.813315613680516 0 0 0 0 64.51915113659561 31.482171903822746 0 31.482171903822746 -14.707825036888607 0 0 0 0 78.429059700807557 203.30258419723214 0 203.30258419723214 -5.2430226811719081 0 0 0 0 -12.873329805770481 8.7421724928503863 0 8.7421724928503863 1.3254007239964096 0 0 0 0 30.656832813087497 22.435524491391146 0 22.435524491391146 16.137635549464882 0 0 0 0 12.467277611369354 18.807360877221299 0 18.807360877221299 8.2132641348962352 0 0 0 0 35.31382614197355 50.384986615946218 0 50.384986615946218 -20.318506759361298 0 0 0 0 5.4744811110872789 7.6222177889763785 0 7.6222177889763785 0.19990527470332253 0 0 0 0 -713.95080036793297 395.09419337579857 0 395.09419337579857 -219.93005728375465 0 0 0 0 -837.77865420786657 424.30332170678685 0 424.30332170678685 -137.48024259395606 0 0 0 0 -941.12027433508047 341.7622449866567 0 341.7622449866567 -146.59794834464537 0 0 0 0 -595.80436690416172 433.23230809627785 0 433.23230809627785 -189.4290584561013 0 0 0 0 -546.25663404917941 263.35759837260957 0 263.35759837260957 -159.875642146676 0 0 0 0 -513.52947283966932 326.32074108457527 0 326.32074108457527 -216.49632418112287 0 0 0 0 -759.60692615923836 371.70212116235166 0 371.70212116235166 -137.31791714471819 0 0 0 0 -688.90896842575785 293.21441540123789 0 293.21441540123789 -114.19408468544952 0 0 0 0 -395.67994788883152 174.95644920310951 0 174.95644920310951 -146.47333298132253 0 0 0 0 -555.33402100632884 261.73729066796295 0 261.73729066796295 -127.84777303210467 0 0 0 0 -261.82787896708396 67.182497547544926 0 67.182497547544926 -95.802123699512777 0 0 0 0 -395.03161817784894 152.81515213845614 0 152.81515213845614 -75.868059224708304 0 0 0 0 -395.82918063390389 177.6464278677131 0 177.6464278677131 -124.26056122628142 0 0 0 0 -336.84878982623559 192.2276840789109 0 192.2276840789109 -181.02870503898976 0 0 0 0 -229.68198435607337 89.912394353558739 0 89.912394353558739 -126.57689131624188 0 0 0 0 -466.01226882963965 176.63935789657398 0 176.63935789657398 -104.71489687109897 0 0 0 0 -310.92486940151542 291.41518724610592 0 291.41518724610592 -272.18903673669411 0 0 0 0 -305.11991446209049 100.82323959205229 0 100.82323959205229 -134.8515256670571 0 0 0 0 -200.23850308274996 94.741133430611171 0 94.741133430611171 -171.75191436154046 0 0 0 0 -130.32725866063265 20.632644896108104 0 20.632644896108104 -60.016541633045108 0 0 0 0 -142.64738068206498 -26.383583035785705 0 -26.383583035785705 -90.46070552326637 0 0 0 0 -170.80704566543864 -18.602056382478168 0 -18.602056382478168 -38.399174978296287 0 0 0 0 -230.19861812026284 494.95016859442694 0 494.95016859442694 -389.92694216844575 0 0 0 0 -146.74988493950877 182.08129278923343 0 182.08129278923343 -326.79630256094515 0 0 0 0 -898.59568660605146 806.67429298606476 0 806.67429298606476 -525.60633911638388 0 0 0 0 -870.11735920051433 523.88190716487134 0 523.88190716487134 -137.1821267724099 0 0 0 0 -864.66751230238879 505.75783888702608 0 505.75783888702608 -193.33365634767324 0 0 0 0 -953.8576671649862 552.19650058893239 0 552.19650058893239 -115.38143877050106 0 0 0 0 -316.75284526038376 196.1911408386095 0 196.1911408386095 -222.97209797895448 0 0 0 0 165.0441392777393 184.69317033210245 0 184.69317033210245 -98.427152844383841 0 0 0 0 156.45028784323586 159.09836498804702 0 159.09836498804702 -89.410416904413978 0 0 0 0 201.64438662605244 192.16017417365174 0 192.16017417365174 -98.600569374789714 0 0 0 0 157.81651089224397 160.38528553637411 0 160.38528553637411 -99.406058187024428 0 0 0 0 58.769975600867838 92.273678427258346 0 92.273678427258346 -81.431270895141097 0 0 0 0 32.31813276037974 135.36580865725045 0 135.36580865725045 -49.478965980510111 0 0 0 0 56.049767631644499 123.81586461809911 0 123.81586461809911 -90.073448173568636 0 0 0 0 -66.533636720880168 104.33081628340778 0 104.33081628340778 -85.262796705635083 0 0 0 0 -19.625994133901258 64.712081042830505 0 64.712081042830505 -106.4984287196703 0 0 0 0 -48.673178272656514 49.144473615109746 0 49.144473615109746 -111.70977841899639 0 0 0 0 55.755312639121257 102.98873077039616 0 102.98873077039616 -119.28245377684289 0 0 0 0 -170.89598366606879 124.31337056863185 0 124.31337056863185 -120.12012290516304 0 0 0 0 -130.4259540891544 44.928826159871733 0 44.928826159871733 -70.337667517736008 0 0 0 0 -239.32911445237505 66.341028913496871 0 66.341028913496871 -83.936033751365358 0 0 0 0 -120.68871262699395 68.566900137854191 0 68.566900137854191 -122.68959570928655 0 0 0 0 -168.81073071941455 -7.3231332394807396 0 -7.3231332394807396 -59.209275839165457 0 0 0 0 -141.33020358543581 22.805961277631013 0 22.805961277631013 -28.848190945092028 0 0 0 0 -172.25121070461682 -29.590747175626348 0 -29.590747175626348 -12.970981866829788 0 0 0 0 -145.16890273554236 25.705008191292791 0 25.705008191292791 -0.86918496627731656 0 0 0 0 -90.257949752020068 63.797949032997167 0 63.797949032997167 25.2540941249963 0 0 0 0 -51.488772057447932 77.71688840605384 0 77.71688840605384 -42.455595891092798 0 0 0 0 -120.24419395729115 56.991132388047006 0 56.991132388047006 -39.839456015737596 0 0 0 0 -53.514819871043073 79.590797267883318 0 79.590797267883318 -34.466591073041855 0 0 0 0 17.372947933428804 139.61728056707261 0 139.61728056707261 10.840509643576297 0 0 0 0 -45.491546625835326 162.67812292262533 0 162.67812292262533 132.12565453394745 0 0 0 0 -104.88005943140888 78.704576167376217 0 78.704576167376217 31.051397664990873 0 0 0 0 79.576316791641148 264.42733997507321 0 264.42733997507321 186.15818199494242 0 0 0 0 42.771524281684833 171.46731565111986 0 171.46731565111986 15.333377776908492 0 0 0 0 66.067773216394926 168.7877999067839 0 168.7877999067839 125.62511815476137 0 0 0 0 147.37017883149929 200.20164835786591 0 200.20164835786591 -41.987598500372769 0 0 0 0 11.492182778253664 152.36493687999098 0 152.36493687999098 3.7832586097547392 0 0 0 0 -47.146156382030313 63.825529100873609 0 63.825529100873609 147.639006115749 0 0 0 0 29.763946642615338 -45.270103479987483 0 -45.270103479987483 64.501000013869088 0 0 0 0 -5.6301919506986451 34.818633367661278 0 34.818633367661278 -102.73539862165126 0 0 0 0 -149.34094313698006 14.00786312256696 0 14.00786312256696 39.808600780495908 0 0 0 0 -31.674681645590681 50.202985231778257 0 50.202985231778257 21.198080152789771 0 0 0 0 -64.872413653683907 62.784270450952135 0 62.784270450952135 93.925929751243757 0 0 0 0 -50.115607179817744 136.13000260617446 0 136.13000260617446 232.29018363967771 0 0 0 0 -137.60392898402415 13.738205484267709 0 13.738205484267709 32.930216887232746 0 0 0 0 -140.16287214564727 86.537924845771158 0 86.537924845771158 110.78737847463708 0 0 0 0 -184.50301509523473 -33.58607232123471 0 -33.58607232123471 -29.961663542666429 0 0 0 0 -185.81210429622661 36.623320051063274 0 36.623320051063274 36.961051340533231 0 0 0 0 -128.19133966045047 -8.651119451284103 0 -8.651119451284103 72.529589938950267 0 0 0 0 -131.00653772637361 -28.536775098601993 0 -28.536775098601993 -44.918920775868173 0 0 0 0 -238.62281747344969 20.191553821599882 0 20.191553821599882 -65.870773721604564 0 0 0 0 -190.14588542945421 -71.762148115974924 0 -71.762148115974924 -129.58020068302903 0 0 0 0 -214.79916216869606 -15.814997979859982 0 -15.814997979859982 -39.430084907142373 0 0 0 0 -157.80284599157676 -6.0362190598943926 0 -6.0362190598943926 -214.06920404510129 0 0 0 0 -200.19925422596134 -56.584379075463403 0 -56.584379075463403 -130.47685775603713 0 0 0 0 -196.63203397201141 27.068228271270527 0 27.068228271270527 -138.34804009137042 0 0 0 0 -223.77334955599144 3.5941912007874635 0 3.5941912007874635 -16.259959794781025 0 0 0 0 -192.51835101859251 -22.582890273702105 0 -22.582890273702105 -8.0260640726878592 0 0 0 0 -184.84513788256299 13.879369930923531 0 13.879369930923531 62.307048731307077 0 0 0 0 -159.44247358805296 -7.6990866810187981 0 -7.6990866810187981 23.929850983815413 0 0 0 0 -214.16965021186843 14.896573855068709 0 14.896573855068709 46.597101623463459 0 0 0 0 -216.777236894628 -22.354421590045604 0 -22.354421590045604 31.680055188227925 0 0 0 0 -185.95958183898256 -46.541021580958386 0 -46.541021580958386 13.192779583081574 0 0 0 0 -170.1185127798326 -31.195050997182079 0 -31.195050997182079 13.434291500214385 0 0 0 0 -187.26888133343709 -17.989306772561122 0 -17.989306772561122 52.675301458410104 0 0 0 0 -211.72206692826512 20.290644767801496 0 20.290644767801496 -5.7249408728289382 0 0 0 0 245.31342574285065 -172.39686179801356 0 -172.39686179801356 635.58716826575255 0 0 0 0 842.10495910659165 449.11962958429285 0 449.11962958429285 -492.52601586110541 0 0 0 0 186.42937111857776 181.69676252460795 0 181.69676252460795 -221.63532550803939 0 0 0 0 -416.50431542940942 716.11379055836369 0 716.11379055836369 -490.82896476176757 0 0 0 0 293.41991127723304 406.12516250927911 0 406.12516250927911 -622.74410961569083 0 0 0 0 -497.28145627039839 663.34464355892305 0 663.34464355892305 -274.83128163655783 0 0 0 0 -508.29280226247283 659.71051466662539 0 659.71051466662539 -161.89441525089205 0 0 0 0 -6.7166710641681675 0.97757612180896558 0 0.97757612180896558 0.19935787034470565 0 0 0 0 -243.70035071111079 315.88215758169645 0 315.88215758169645 265.64712928327208 0 0 0 0 87.588245354105311 86.177217295899027 0 86.177217295899027 -292.44278365011724 0 0 0 0 -730.77334105856653 1082.6011652085108 0 1082.6011652085108 -19.821977542687819 0 0 0 0 -194.50921278173337 -110.95221240631781 0 -110.95221240631781 -238.97034720923375 0 0 0 0 -74.217662777189076 45.60476250728928 0 45.60476250728928 -26.264485887809652 0 0 0 0 443.7405048103501 -510.10323026317928 0 -510.10323026317928 410.63406838486844 0 0 0 0 -320.97656457856647 -60.245719659914357 0 -60.245719659914357 -126.07446195025386 0 0 0 0 -152.59440460756741 -43.861185625972212 0 -43.861185625972212 -136.58979418677336 0 0 0 0 -285.52869910774461 80.179309486733473 0 80.179309486733473 -245.89856165071797 0 0 0 0 -85.667600115499226 17.744896530977712 0 17.744896530977712 -444.61762568058839 0 0 0 0 -1.4441068387232008 -26.652117047771753 0 -26.652117047771753 58.677991507021943 0 0 0 0 109.69878008349406 -64.220026975479414 0 -64.220026975479414 68.615922407250764 0 0 0 0 223.40573116785345 13.254490598372286 0 13.254490598372286 -18.159353478869889 0 0 0 0 -188.74259938709474 390.94895995572006 0 390.94895995572006 -67.913305385227432 0 0 0 0 31.615206968730945 29.142542147754284 0 29.142542147754284 79.959469668410748 0 0 0 0 -56.207160780897539 -180.94780815068953 0 -180.94780815068953 -427.40756006826632 0 0 0 0 87.017850876682587 123.08810719228495 0 123.08810719228495 21.352179625406279 0 0 0 0 -9.2350325641735704 16.108088676907848 0 16.108088676907848 -5.1451474622972881 0 0 0 0 -62.063680620077449 47.414241798146314 0 47.414241798146314 -22.555367422624137 0 0 0 0 -175.97032141628006 -209.04974288527319 0 -209.04974288527319 -254.09545330261972 0 0 0 0 -90.21409634801239 -54.353734951635488 0 -54.353734951635488 -139.10994877014309 0 0 0 0 -70.69888884012471 -65.424246448872509 0 -65.424246448872509 -202.47206107186503 0 0 0 0 -47.417143073391344 -130.87701079280305 0 -130.87701079280305 -318.95575204984198 0 0 0 0 -59.035345222051546 -101.81788304278052 0 -101.81788304278052 -255.69036540459274 0 0 0 0 -108.75998760912262 -12.133180351312149 0 -12.133180351312149 -69.228003950142011 0 0 0 0 -121.08493941877168 56.219960828739659 0 56.219960828739659 -247.99210395094269 0 0 0 0 -17.656112425356696 -54.51210461550545 0 -54.51210461550545 -217.48386658872914 0 0 0 0 469.01414239166667 1009.9339294694868 0 1009.9339294694868 325.44465676284744 0 0 0 0 354.63818564572193 -114.61303506452532 0 -114.61303506452532 175.6775018295084 0 0 0 0 -476.43796241553537 53.880268529977911 0 53.880268529977911 442.27677742551168 0 0 0 0 -512.57627239755675 -45.175464355204895 0 -45.175464355204895 66.473060613615417 0 0 0 0 -930.61972831149615 470.89642794307656 0 470.89642794307656 212.82493510351742 0 0 0 0 -2282.6983895352896 132.54344793915516 0 132.54344793915516 470.03440744552063 0 0 0 0 -2019.0607402189544 -614.65874718766281 0 -614.65874718766281 -2.054020840368139 0 0 0 0 -12.871204185453795 11.177025558778954 0 11.177025558778954 4.2276610484669987 0 0 0 0 -1739.4849759875033 277.0337703564328 0 277.0337703564328 -71.474278243989261 0 0 0 0 -955.65579658439674 -329.44597273252657 0 -329.44597273252657 280.07800926164055 0 0 0 0 -1180.7717138641101 -213.39224788656065 0 -213.39224788656065 1283.30136928703 0 0 0 0 -28.364459200555764 9.857657519913678 0 9.857657519913678 -2.5728711717761854 0 0 0 0 -996.12002553410093 -468.7629729901455 0 -468.7629729901455 1368.9372030397317 0 0 0 0 -96.111271355985082 449.05234653469506 0 449.05234653469506 -698.01273651507881 0 0 0 0 -1746.0493312802246 368.00525627504248 0 368.00525627504248 757.49753407346998 0 0 0 0 -2.56279200550307 -138.97834794866549 0 -138.97834794866549 -48.967028037737691 0 0 0 0 -169.37119334746239 13.389319651432743 0 13.389319651432743 5.0278143941304734 0 0 0 0 -25.698568683048507 29.264941378321964 0 29.264941378321964 -11.071365932142271 0 0 0 0 -184.55577010363595 82.333784702307639 0 82.333784702307639 277.73683906457927 0 0 0 0 -174.13077618585521 -37.510081990782055 0 -37.510081990782055 13.168516239458768 0 0 0 0 -120.43614472565969 -63.35167825459348 0 -63.35167825459348 24.724802709967662 0 0 0 0 192.75793659130181 728.06058202182248 0 728.06058202182248 1051.9032092173293 0 0 0 0 -75.451575106597176 41.929825465928722 0 41.929825465928722 -20.353792040488457 0 0 0 0 686.82709579748473 364.54169972918862 0 364.54169972918862 289.94237606556999 0 0 0 0 -62.892327542700471 30.683540965843342 0 30.683540965843342 -12.291593864729691 0 0 0 0 -198.97307760852527 1096.560957217258 0 1096.560957217258 1592.0780055997275 0 0 0 0 50.718087041942454 97.197292310593184 0 97.197292310593184 1031.6808598380412 0 0 0 0 -161.18737413955114 632.25106705084181 0 632.25106705084181 318.42649362241718 0 0 0 0 269.44252641205503 84.879275826785033 0 84.879275826785033 -156.02641676225903 0 0 0 0 96.28223468778458 473.82465754135228 0 473.82465754135228 280.98660817881319 0 0 0 0 -462.38843035896298 155.28056940180613 0 155.28056940180613 -80.998758835299668 0 0 0 0 441.173396299052 107.65327995034022 0 107.65327995034022 -136.64193037057339 0 0 0 0 327.30199703698554 448.33877126022708 0 448.33877126022708 -75.95649657546528 0 0 0 0 128.12567050732287 323.66485616188584 0 323.66485616188584 -263.32858325495181 0 0 0 0 134.95446415858385 286.23785061958239 0 286.23785061958239 -480.6764822640107 0 0 0 0 345.73223344717519 171.88237321835913 0 171.88237321835913 -441.36201985950902 0 0 0 0 336.26552457304945 325.86005605817991 0 325.86005605817991 -532.51425006133286 0 0 0 0 220.51471054162175 202.57166844954554 0 202.57166844954554 -442.1033583236931 0 0 0 0 134.53483664232954 239.68155910829228 0 239.68155910829228 -508.79877579287131 0 0 0 0 -323.83244152079033 87.867259823535278 0 87.867259823535278 -405.19865647486404 0 0 0 0 -383.29462729546321 281.09919501610057 0 281.09919501610057 -458.3878719163331 0 0 0 0 -623.74529944572532 130.86065275353758 0 130.86065275353758 -301.21519039464329 0 0 0 0 -1025.1677520191497 180.78844052018394 0 180.78844052018394 -271.07549708882652 0 0 0 0 -1272.7368101891122 507.44555043250284 0 507.44555043250284 -298.32300531064539 0 0 0 0 -1404.2215648073634 133.89827925443024 0 133.89827925443024 -207.40113123614356 0 0 0 0 -430.13193724359826 90.611555139133998 0 90.611555139133998 -437.00673839096635 0 0 0 0 -1765.3250367107416 -452.8761675365231 0 -452.8761675365231 3.0685918313538423 0 0 0 0 -192.19094424464583 137.29572945458131 0 137.29572945458131 -412.14465596053196 0 0 0 0 775.64683876210256 -819.28611009604356 0 -819.28611009604356 -43.427303638989542 0 0 0 0 -1.4578443223444282 -0.33785398578152837 0 -0.33785398578152837 3.3538966362474554 0 0 0 0 -39.192528571933508 500.34948139405969 0 500.34948139405969 -186.12907047914268 0 0 0 0 -2539.0307894886291 628.18052582509699 0 628.18052582509699 74.368365765847557 0 0 0 0 -997.43505916666072 603.09974719726961 0 603.09974719726961 -376.85146014732163 0 0 0 0 -2423.5916655344408 -1519.7088571820059 0 -1519.7088571820059 270.42885222117638 0 0 0 0 -11.768760256366727 4.8642153870180351 0 4.8642153870180351 8.9308856225853788 0 0 0 0 -1345.5889698704723 429.95702491537304 0 429.95702491537304 -230.62643264972576 0 0 0 0 -1477.0397578354196 571.47946576185495 0 571.47946576185495 -296.43385057178966 0 0 0 0 -1562.9395014911588 175.86311567592475 0 175.86311567592475 -24.29065576310677 0 0 0 0 -1177.3959432066115 532.90187319670304 0 532.90187319670304 -597.78115824803535 0 0 0 0 -1515.971597740092 342.04401156061795 0 342.04401156061795 -482.20654841878422 0 0 0 0 -1017.3254388341102 476.75817170369555 0 476.75817170369555 -530.92294958381535 0 0 0 0 -1385.5205944112413 1034.7142836615894 0 1034.7142836615894 -719.52252609822608 0 0 0 0 -1642.2211343191211 1176.2113173467515 0 1176.2113173467515 -788.25031469610985 0 0 0 0 -2.1064450451036585 2.6581741686647717 0 2.6581741686647717 -2.9294993574267911 0 0 0 0 -1623.5083416847301 674.32865426257194 0 674.32865426257194 -370.96457621542504 0 0 0 0 -2003.8099049329285 847.34165957824735 0 847.34165957824735 -447.45007747324416 0 0 0 0 -1277.140560771637 855.54052875195543 0 855.54052875195543 -558.07080667678383 0 0 0 0 -1283.7269858455165 659.51204162411159 0 659.51204162411159 -423.97789420304616 0 0 0 0 -1280.6706332696049 666.33895644237055 0 666.33895644237055 -433.84330636948289 0 0 0 0 -805.91021831147555 438.16201544443902 0 438.16201544443902 -499.67366189619497 0 0 0 0 -1182.7108369681494 387.47732098115284 0 387.47732098115284 -434.16547869559145 0 0 0 0 -982.95081515159768 421.70275599482738 0 421.70275599482738 -421.51845135078474 0 0 0 0 -646.76911858859057 347.11176235701714 0 347.11176235701714 -490.39199707279113 0 0 0 0 -911.40065778224744 521.91111212165561 0 521.91111212165561 -504.06050810754095 0 0 0 0 -994.51230919640182 630.20533643418776 0 630.20533643418776 -560.41466444407706 0 0 0 0 -488.79297463454895 310.16806464097317 0 310.16806464097317 -452.91348520580141 0 0 0 0 -407.59488194755647 124.16560515217134 0 124.16560515217134 -337.52183820944629 0 0 0 0 -456.09048629768404 151.43223233156459 0 151.43223233156459 -394.18538826214353 0 0 0 0 -644.44609158979438 363.9550854770423 0 363.9550854770423 -493.05224448742956 0 0 0 0 -760.45477896411262 242.88193230167235 0 242.88193230167235 -407.74142596860474 0 0 0 0 -556.79258096910985 177.53770063421689 0 177.53770063421689 -404.5978886057128 0 0 0 0 -354.50090128553347 290.69610576360719 0 290.69610576360719 -506.35414351057261 0 0 0 0 -809.07429290264372 454.52246804684546 0 454.52246804684546 -513.24958318978315 0 0 0 0 -914.19927924183548 290.24924214916064 0 290.24924214916064 -441.68060121359304 0 0 0 0 -1176.5807588998759 487.38147771506556 0 487.38147771506556 -389.20869285514345 0 0 0 0 -1145.9118467779044 372.65342671554845 0 372.65342671554845 -323.51440651496523 0 0 0 0 -635.10681239434825 344.05864232316526 0 344.05864232316526 -390.11146633412864 0 0 0 0 -677.98099702294348 195.08753332971901 0 195.08753332971901 -401.8926665390245 0 0 0 0 -64.007097650992364 135.53113307424792 0 135.53113307424792 -510.53332664993468 0 0 0 0 87.639795064542341 124.40555721943383 0 124.40555721943383 -416.40528498657568 0 0 0 0 90.87808098619405 302.1419507567698 0 302.1419507567698 -390.94831243002409 0 0 0 0 -366.11566508558053 243.37912456985941 0 243.37912456985941 -338.78494054621842 0 0 0 0 192.9634418470639 253.44526060931821 0 253.44526060931821 -490.19976305153978 0 0 0 0 216.83286365507945 305.73739087318609 0 305.73739087318609 -385.93854130088584 0 0 0 0 270.69603730034396 53.976292905139417 0 53.976292905139417 -144.13457265110992 0 0 0 0 496.59078393066488 260.14061949609095 0 260.14061949609095 -77.542841171154578 0 0 0 0 187.57016199728832 234.12775689798946 0 234.12775689798946 -323.00870660996588 0 0 0 0 64.962693324981274 40.599815561927244 0 40.599815561927244 -106.54191436799374 0 0 0 0 308.21944106389975 87.631291321271419 0 87.631291321271419 -208.04337397722702 0 0 0 0 326.23448102258959 -15.142687972559543 0 -15.142687972559543 17.498171600185742 0 0 0 0 -146.16123238456385 130.01752160261822 0 130.01752160261822 -466.81761805479618 0 0 0 0 -293.96131227465139 269.58052816067357 0 269.58052816067357 -423.52315313590952 0 0 0 0 -102.24806106779033 224.41998588657225 0 224.41998588657225 -268.49240217142506 0 0 0 0 77.124645916529971 99.305958383338293 0 99.305958383338293 -388.29519230474034 0 0 0 0 -150.06597705950571 129.03112484083977 0 129.03112484083977 -408.13923365603841 0 0 0 0 -162.46616051352305 138.51597345571645 0 138.51597345571645 -204.41031952109915 0 0 0 0 -20.764535562131641 -52.668677855392161 0 -52.668677855392161 -245.43150660962147 0 0 0 0 87.765648228358032 64.589922959992691 0 64.589922959992691 -129.4293697378962 0 0 0 0 -129.85779837757218 -81.669186377879669 0 -81.669186377879669 -195.08159728836472 0 0 0 0 -198.97933018331742 116.23515757347923 0 116.23515757347923 -200.49039346251084 0 0 0 0 209.25425193672754 -100.18045241713116 0 -100.18045241713116 -129.66877442057739 0 0 0 0 342.26891408303459 36.467709115178877 0 36.467709115178877 -1.5480844086850993 0 0 0 0 612.65957838109 -204.03078376524354 0 -204.03078376524354 -65.989427081643953 0 0 0 0 1.1814977287131616 1.5556665551794708 0 1.5556665551794708 1.1614612379953257 0 0 0 0 311.35408787433721 -205.21775075130699 0 -205.21775075130699 85.234697591651639 0 0 0 0 225.50169646905829 -24.855908560904936 0 -24.855908560904936 -44.375252774829278 0 0 0 0 426.96644560684729 2.8907966769547784 0 2.8907966769547784 25.169269323101616 0 0 0 0 -53.056404358704185 13.528638189271078 0 13.528638189271078 -77.21135321809561 0 0 0 0 67.755954844321423 -135.45184968314425 0 -135.45184968314425 -93.324192687377945 0 0 0 0 34.331365931424671 -68.835207939609973 0 -68.835207939609973 46.112522240095132 0 0 0 0 178.83878989893719 -170.77021720993071 0 -170.77021720993071 4.34239213539513 0 0 0 0 -45.980730962514826 -163.92504722687227 0 -163.92504722687227 -63.174010377173545 0 0 0 0 -173.81870595304463 -108.98041890553577 0 -108.98041890553577 -120.0441025942564 0 0 0 0 -145.64056066051421 -54.288412238653109 0 -54.288412238653109 -24.705943740751536 0 0 0 0 -269.59355438976399 74.698889427927497 0 74.698889427927497 -189.10393548886896 0 0 0 0 -486.2899484216814 95.725203333095124 0 95.725203333095124 -190.10381614011931 0 0 0 0 -223.59805194243563 59.544328913337267 0 59.544328913337267 -224.07544035362662 0 0 0 0 -440.33582667126666 30.227120509298402 0 30.227120509298402 -4.4049826218483759 0 0 0 0 -500.77067859244403 348.90956217541134 0 348.90956217541134 -469.15874660572445 0 0 0 0 -377.99916248807494 -22.240107170990996 0 -22.240107170990996 -285.57997658265231 0 0 0 0 -397.07849713464839 229.61102428639424 0 229.61102428639424 -540.18324651633156 0 0 0 0 -716.80257990015161 287.36095956648205 0 287.36095956648205 -398.45553193383239 0 0 0 0 -655.71069149866071 433.05435887128078 0 433.05435887128078 -803.26983019310865 0 0 0 0 -1069.4129683315941 729.6175757035162 0 729.6175757035162 -635.16547469672514 0 0 0 0 -1074.2047541921329 588.77375649994065 0 588.77375649994065 -559.22792804125493 0 0 0 0 -905.32150344305046 517.4314124634293 0 517.4314124634293 -533.89263220534485 0 0 0 0 -561.09586179014696 347.90278794580081 0 347.90278794580081 -604.00433460267959 0 0 0 0 -660.18717532843266 345.3701931613432 0 345.3701931613432 -444.38858181654359 0 0 0 0 -524.71525099065582 135.01548603677293 0 135.01548603677293 -395.25589576565835 0 0 0 0 -253.28483971404876 26.461111315831658 0 26.461111315831658 -341.52201924826022 0 0 0 0 -410.42347934743884 210.18699774298511 0 210.18699774298511 -318.90343394962838 0 0 0 0 -281.62547250654461 21.157014907195844 0 21.157014907195844 -321.71648231557629 0 0 0 0 -436.67739324876311 210.40906890948099 0 210.40906890948099 -334.21867342310725 0 0 0 0 27.44768193003074 59.565253283784841 0 59.565253283784841 -52.74973443619092 0 0 0 0 33.134797397382499 53.084330537149071 0 53.084330537149071 -47.280497945033858 0 0 0 0 39.78723919576305 19.257236916205329 0 19.257236916205329 -34.722857234752155 0 0 0 0 39.169255399682932 26.682697852118928 0 26.682697852118928 -4.1128276080273451 0 0 0 0 27.76625740353029 115.93136243319532 0 115.93136243319532 20.516763429179264 0 0 0 0 57.322174521287707 7.5648985063744476 0 7.5648985063744476 -42.247190412964301 0 0 0 0 122.60288257972388 37.126567590796185 0 37.126567590796185 -22.707924795722647 0 0 0 0 37.351943170691271 4.8542987765142698 0 4.8542987765142698 -34.378886705490004 0 0 0 0 30.381377185631663 36.16073691821839 0 36.16073691821839 -33.0942114555437 0 0 0 0 27.277459276687296 58.505447684116007 0 58.505447684116007 -57.492549417427654 0 0 0 0 40.812740588812638 19.373100163053422 0 19.373100163053422 -4.865762592795619 0 0 0 0 41.79696454938744 10.404758308238343 0 10.404758308238343 -14.585204297502059 0 0 0 0 47.788344030698681 19.189102611202543 0 19.189102611202543 -17.921745826155529 0 0 0 0 155.84418405132192 -33.948101226353174 0 -33.948101226353174 -84.105007765749178 0 0 0 0 37.091498275858612 -4.662597811253363 0 -4.662597811253363 -22.222337171690015 0 0 0 0 -32.319206333507736 45.916613890174631 0 45.916613890174631 -35.127107674154104 0 0 0 0 33.804017794462425 -0.20465159565173963 0 -0.20465159565173963 12.014481539968983 0 0 0 0 0.65313124620587137 0.98233799679920608 0 0.98233799679920608 -4.8630605287909532 0 0 0 0 -71.937542764139835 291.31224290514911 0 291.31224290514911 -383.21345134958028 0 0 0 0 279.73468130205117 108.00575940566068 0 108.00575940566068 -287.98131845406897 0 0 0 0 0.29194714373410813 -0.21966596658577231 0 -0.21966596658577231 1.3825031256688192 0 0 0 0 61.082722872934937 17.59310664354598 0 17.59310664354598 -12.678325946666519 0 0 0 0 3.5081733969419453 1.6498628489403124 0 1.6498628489403124 -13.686258742703899 0 0 0 0 -29.86050515553552 92.66805061139894 0 92.66805061139894 -242.91771057318329 0 0 0 0 10.890790045493887 3.0660244698201211 0 3.0660244698201211 -17.363121406442275 0 0 0 0 35.313121403238256 12.114179164866073 0 12.114179164866073 -14.983461600035298 0 0 0 0 501.85670200531456 -61.360650662205444 0 -61.360650662205444 -117.61603112430021 0 0 0 0 2.4002343752542288 38.691934259800291 0 38.691934259800291 -20.898970670503331 0 0 0 0 6.1590045963198037 30.012816589014619 0 30.012816589014619 -35.585180935479002 0 0 0 0 4.7043339308761336 6.2265959810307052 0 6.2265959810307052 3.4490423502735723 0 0 0 0 41.808665021828006 7.9233919120124483 0 7.9233919120124483 -96.49170490034885 0 0 0 0 33.640515633347952 -16.59606414889231 0 -16.59606414889231 -8.3406270123959985 0 0 0 0 -124.79140971614066 115.44664751270648 0 115.44664751270648 108.75674410107604 0 0 0 0 -54.299811622300695 32.219560557579825 0 32.219560557579825 53.115200036532769 0 0 0 0 10.760381946645794 -13.263410463157925 0 -13.263410463157925 -51.062820862542139 0 0 0 0 0.68910586451184885 4.3064319514847682 0 4.3064319514847682 -5.7083989283686236 0 0 0 0 6.623010670677445 48.224766288782121 0 48.224766288782121 -18.036312455653388 0 0 0 0 -54.573014738811217 50.042531581549042 0 50.042531581549042 35.559481424454134 0 0 0 0 41.390410837721447 97.61526386794867 0 97.61526386794867 -101.46238682179683 0 0 0 0 -13.223242699465688 30.698197392221658 0 30.698197392221658 -28.920714623679729 0 0 0 0 9.2604331382683913 6.0466648324356385 0 6.0466648324356385 -12.780951170461009 0 0 0 0 -3.9753961930164223 43.536541867757478 0 43.536541867757478 -47.073124754009768 0 0 0 0 -5.8493026760461362 74.203816749981343 0 74.203816749981343 -40.366569651385362 0 0 0 0 35.836485073559743 20.372910392801714 0 20.372910392801714 -17.671331025458585 0 0 0 0 33.491811344990737 20.413103305862236 0 20.413103305862236 -14.191042599494736 0 0 0 0 -5.0496755270487483 53.906582994539349 0 53.906582994539349 -38.80275481312492 0 0 0 0 20.878667126540677 66.042684153850132 0 66.042684153850132 -33.376245391540579 0 0 0 0 13.754037583232275 64.049440395578131 0 64.049440395578131 4.0418934898279986 0 0 0 0 -6.6875363449016731 54.620313114362943 0 54.620313114362943 0.65277155501098605 0 0 0 0 -6.7767644305622881 17.467474399793396 0 17.467474399793396 -14.791627062741014 0 0 0 0 -12.502334109737356 17.517836166816295 0 17.517836166816295 -5.3161783153192204 0 0 0 0 28.465422551784286 48.853019055462937 0 48.853019055462937 13.814112645301066 0 0 0 0 39.792741016357468 75.593896378537465 0 75.593896378537465 -16.047398991391674 0 0 0 0 56.89785033320004 85.191588436369784 0 85.191588436369784 5.8233104238533997 0 0 0 0 28.083990432009159 42.594133518799936 0 42.594133518799936 101.0263100051161 0 0 0 0 37.978272094598651 55.855667422914848 0 55.855667422914848 -10.308526914992399 0 0 0 0 41.512948328609127 60.468247382024856 0 60.468247382024856 -26.563328831012768 0 0 0 0 28.366407682704448 67.676632930202231 0 67.676632930202231 -28.936021482390061 0 0 0 0 19.466883218882685 61.222047658824522 0 61.222047658824522 -23.489837302782689 0 0 0 0 36.938411510896913 64.676192563885706 0 64.676192563885706 -50.08650156117983 0 0 0 0 31.273793363424829 67.82001983457485 0 67.82001983457485 -58.868730949587189 0 0 0 0 34.56400261854651 59.3070854146481 0 59.3070854146481 -39.953690742724575 0 0 0 0 -79.929603324238542 23.277935027692365 0 23.277935027692365 15.148012939120235 0 0 0 0 -5.8983896894424106 -53.422705671950098 0 -53.422705671950098 -78.328131635731552 0 0 0 0 31.261897331763976 -45.862790677989324 0 -45.862790677989324 -92.796790645004876 0 0 0 0 3.971337801546408 4.4112426455317681 0 4.4112426455317681 -1.9970680797263469 0 0 0 0 -102.07152005210992 141.35290287263342 0 141.35290287263342 -55.094292570312973 0 0 0 0 -40.438752524023585 79.709645308714244 0 79.709645308714244 38.836331923050238 0 0 0 0 -0.78423159412716359 21.774050428153451 0 21.774050428153451 -15.85812640806914 0 0 0 0 11.726087941426158 3.2759351147924463 0 3.2759351147924463 12.737656566336227 0 0 0 0 -56.183687076889328 134.27789248194676 0 134.27789248194676 314.24576210010127 0 0 0 0 2.131423214970269 1.3162793471601688 0 1.3162793471601688 -8.8135824971544778 0 0 0 0 4.2715491925426292 21.696292863627406 0 21.696292863627406 -14.377496170023537 0 0 0 0 2.0713864532663138 21.339860568958102 0 21.339860568958102 -2.1363221010760753 0 0 0 0 -20.258372479927857 -12.788291560173093 0 -12.788291560173093 -87.272542943355802 0 0 0 0 53.260052358498797 -2.9016312826897774 0 -2.9016312826897774 -72.910264068763354 0 0 0 0 12.657504652175703 -31.101863653784676 0 -31.101863653784676 -77.107282293611206 0 0 0 0 46.054891920789032 -5.092003296724215 0 -5.092003296724215 -93.562188593779865 0 0 0 0 2.2728323770415955 0.46251067045523087 0 0.46251067045523087 -93.756415508949431 0 0 0 0 39.153632196746003 -6.633971698303867 0 -6.633971698303867 -113.96471575660689 0 0 0 0 11.29161512898645 -25.46738151392492 0 -25.46738151392492 -45.449458386276092 0 0 0 0 24.621458308479305 -1.1341083518054802 0 -1.1341083518054802 -115.96735351932148 0 0 0 0 -31.2906132453179 98.478813560450362 0 98.478813560450362 -50.980196131582488 0 0 0 0 22.25685973973065 12.179182828326176 0 12.179182828326176 0.17167927529090576 0 0 0 0 151.72035572702816 174.7883595030471 0 174.7883595030471 -217.36284689877357 0 0 0 0 8.0678810566806973 7.0061258402326416 0 7.0061258402326416 2.0128327155085692 0 0 0 0 71.873479298111533 18.99367159699068 0 18.99367159699068 -119.66438630906487 0 0 0 0 -55.754829804027509 56.860900973711978 0 56.860900973711978 43.666923103060981 0 0 0 0 16.796700292654577 -36.710684487450635 0 -36.710684487450635 -155.73374362421237 0 0 0 0 37.839239176485023 33.949294858462054 0 33.949294858462054 -214.6132849279893 0 0 0 0 20.374925405236297 16.737674926204363 0 16.737674926204363 -122.55634946416831 0 0 0 0 -8.9927544527315604 -3.0242543736931111 0 -3.0242543736931111 99.943989830637292 0 0 0 0 6.2227895056729494 -17.452134397084592 0 -17.452134397084592 -30.145390476536704 0 0 0 0 33.001603464413165 -42.906122030180995 0 -42.906122030180995 -76.374546782357356 0 0 0 0 -2.3771540411007663 -30.527477626208565 0 -30.527477626208565 6.2918555397118325 0 0 0 0 56.926890483302486 -20.702111309954489 0 -20.702111309954489 6.4538626059729722 0 0 0 0 390.37419139017317 -193.89688145319269 0 -193.89688145319269 136.24813216255279 0 0 0 0 -3.0967180077410799 1.645586590647774 0 1.645586590647774 1.7674102881351104 0 0 0 0 -164.20070355622101 124.30710947678017 0 124.30710947678017 258.24086131127115 0 0 0 0 -2.0569493851626248 -458.70676083770377 0 -458.70676083770377 51.107210317521094 0 0 0 0 -659.65558821142713 -129.26539386594959 0 -129.26539386594959 378.65239955362267 0 0 0 0 -448.65964701498433 132.5577773827963 0 132.5577773827963 428.53238182613859 0 0 0 0 67.420166726418756 191.9406667114672 0 191.9406667114672 417.05733632358897 0 0 0 0 -33.759156128257928 17.669177087429489 0 17.669177087429489 431.78047408757266 0 0 0 0 22.752873594281482 10.428029136706755 0 10.428029136706755 -1.0784811672601791 0 0 0 0 -6.403876241990659 1.3931049349634179 0 1.3931049349634179 1.8663897517632009 0 0 0 0 3.9457459881023169 -15.800673932260906 0 -15.800673932260906 44.375881196709088 0 0 0 0 9.5244307394264069 -53.180412857547708 0 -53.180412857547708 56.2148178787902 0 0 0 0 39.348196004710189 -28.989704767074727 0 -28.989704767074727 -45.227280331961083 0 0 0 0 28.174926133968711 -4.5984133021192974 0 -4.5984133021192974 142.78076068579685 0 0 0 0 6.8399574987279266 14.073959245297374 0 14.073959245297374 274.48236741540313 0 0 0 0 68.286694478236313 133.45548202991631 0 133.45548202991631 289.90771669890819 0 0 0 0 26.588681814035226 66.161583198096196 0 66.161583198096196 189.18411354841737 0 0 0 0 27.364727263338864 93.698678151245986 0 93.698678151245986 251.91023161471094 0 0 0 0 12.466744572375319 5.611304915331857 0 5.611304915331857 185.92965304973586 0 0 0 0 10.556863757543397 36.770725548638438 0 36.770725548638438 151.29798572325672 0 0 0 0 21.79914885315884 60.544680698701995 0 60.544680698701995 200.16404285294266 0 0 0 0 -3.2146460255571583 27.765761495073093 0 27.765761495073093 123.10402722784784 0 0 0 0 -4.0093926996451046 33.320792701146274 0 33.320792701146274 163.81453458090982 0 0 0 0 4.4386362222448952 13.904551423089288 0 13.904551423089288 113.080001618182 0 0 0 0 12.476195302057022 1.3579458300046099 0 1.3579458300046099 131.42860726712752 0 0 0 0 10.934092602401506 -4.274744085574639 0 -4.274744085574639 143.73476126719834 0 0 0 0 -6.6034005872688795 -21.605885570123064 0 -21.605885570123064 126.81641547669278 0 0 0 0 -259.65349412073465 46.888381973987634 0 46.888381973987634 116.00633976931204 0 0 0 0 -6.4070372460433411 1.4233436520203639 0 1.4233436520203639 1.8253059195347845 0 0 0 0 -33.147052894524464 1.845005291219195 0 1.845005291219195 0.87901381154608416 0 0 0 0 -60.410107628490323 64.755008415359953 0 64.755008415359953 -115.95770386906952 0 0 0 0 50.6197631658506 74.946990961758274 0 74.946990961758274 -335.21265480565307 0 0 0 0 -148.57642496738299 -95.955042815219713 0 -95.955042815219713 0.82774907230987083 0 0 0 0 -149.99037926785832 207.83909368206378 0 207.83909368206378 80.248126586804574 0 0 0 0 -30.396173704421926 -171.40668073398774 0 -171.40668073398774 -22.562408890734787 0 0 0 0 -189.28472140722295 -22.735880010913206 0 -22.735880010913206 279.32153682687203 0 0 0 0 -42.838951645725501 -190.80752194806155 0 -190.80752194806155 54.406722049665404 0 0 0 0 55.138018714290411 -171.37717824120773 0 -171.37717824120773 -1.0739615444035735 0 0 0 0 34.500127141626763 -206.19132622484904 0 -206.19132622484904 22.778846791047727 0 0 0 0 157.75711621496816 -49.512182698887045 0 -49.512182698887045 158.00258150179434 0 0 0 0 -18.828358791883829 -222.26320620001206 0 -222.26320620001206 98.442432096271659 0 0 0 0 -56.410369077568248 1.3231021821193281 0 1.3231021821193281 -130.76136232816498 0 0 0 0 -55.890748274330498 50.386990634526171 0 50.386990634526171 -147.93355312316271 0 0 0 0 -3.8395297216752624 20.480563511795481 0 20.480563511795481 -164.0358341387473 0 0 0 0 21.36751458627532 -45.454277650409495 0 -45.454277650409495 -117.81365199688298 0 0 0 0 46.512606837944304 48.361111205696943 0 48.361111205696943 -327.46685479088956 0 0 0 0 3.4601841361277366 -55.149941705883975 0 -55.149941705883975 -202.3925186764136 0 0 0 0 -11.136567954876801 4.5438802880542397 0 4.5438802880542397 1.6065194223243822 0 0 0 0 -5.3234656750740896 9.1126965859111806 0 9.1126965859111806 -41.528422820862033 0 0 0 0 26.841256083795543 -81.246361442790658 0 -81.246361442790658 16.026025620965811 0 0 0 0 12.016292268246161 10.437191778448778 0 10.437191778448778 70.93088248703134 0 0 0 0 15.117414601020869 -63.446129377793113 0 -63.446129377793113 -60.319214327850204 0 0 0 0 8.8060104730129751 -67.679812347465486 0 -67.679812347465486 -0.10801139135946869 0 0 0 0 -19.968761691242889 -25.156630470126402 0 -25.156630470126402 38.320795894433104 0 0 0 0 786.03802860263613 -357.25076526314115 0 -357.25076526314115 172.79347528765356 0 0 0 0 -22.350659925388499 -82.241974524575198 0 -82.241974524575198 147.41018840337529 0 0 0 0 54.239716534924071 -72.882115154996427 0 -72.882115154996427 47.595955926360148 0 0 0 0 -1.2502975892500636 2.8080385782308639 0 2.8080385782308639 2.1779531939692234 0 0 0 0 15.600118922820002 -97.379385424326756 0 -97.379385424326756 228.79962368661654 0 0 0 0 24.580923893987119 7.4113306767831091 0 7.4113306767831091 133.25006773180939 0 0 0 0 133.42914132155659 167.92444102262971 0 167.92444102262971 315.97088246148633 0 0 0 0 168.20284795080715 -73.358011014333897 0 -73.358011014333897 79.308107454140554 0 0 0 0 -14.767148437744254 110.03691981739394 0 110.03691981739394 42.616520629060687 0 0 0 0 86.237218930114068 -39.806517627210269 0 -39.806517627210269 -82.958612639456987 0 0 0 0 -57.994565193138442 8.821539797450896 0 8.821539797450896 -101.99506414743519 0 0 0 0 -49.900904477786753 52.759340913258711 0 52.759340913258711 319.0339888001763 0 0 0 0 50.172041043831996 6.8830544993907097 0 6.8830544993907097 61.827175796178381 0 0 0 0 -94.279541093441367 112.30717534948235 0 112.30717534948235 147.75333499204135 0 0 0 0 -28.179245221898782 1.3065429981488705 0 1.3065429981488705 30.293270449590636 0 0 0 0 -114.13869733520187 34.150921158942765 0 34.150921158942765 -89.123149238301266 0 0 0 0 -11.08760926869784 12.453582064732494 0 12.453582064732494 25.245787110419244 0 0 0 0 -103.38754556753338 55.056969737122927 0 55.056969737122927 105.26684768277482 0 0 0 0 -161.36846045578204 166.27159556577681 0 166.27159556577681 7.5767455162822444 0 0 0 0 -49.405215393088838 155.73666732972845 0 155.73666732972845 -29.797159253306745 0 0 0 0 -84.161128433401245 78.626375948731948 0 78.626375948731948 -161.27428726707876 0 0 0 0 -15.538474369934995 7.0949745118937813 0 7.0949745118937813 14.261532233329064 0 0 0 0 -27.15759741029251 107.77939261667052 0 107.77939261667052 126.20687450678724 0 0 0 0 -55.95376792261488 1.0917573212509666 0 1.0917573212509666 7.8358132704720198 0 0 0 0 -190.11678237416481 813.90016617333094 0 813.90016617333094 -558.81575046695434 0 0 0 0 -2113.2106800366373 -190.50966087541747 0 -190.50966087541747 -878.50860208172526 0 0 0 0 -1599.5548517733166 1792.2332783132661 0 1792.2332783132661 -2976.8240109903127 0 0 0 0 -2009.9366210422652 1795.7585483176808 0 1795.7585483176808 -183.9786503246869 0 0 0 0 -818.16791936046752 639.69020082647694 0 639.69020082647694 -1347.4725076029863 0 0 0 0 357.00189692871425 -818.70920750135747 0 -818.70920750135747 -761.78073083072377 0 0 0 0 -1044.7643058427307 854.58346559320307 0 854.58346559320307 369.64027158821409 0 0 0 0 26.305050557870345 505.63678854260615 0 505.63678854260615 -1157.0951538645822 0 0 0 0 -544.55600513745958 380.29990705854834 0 380.29990705854834 221.41270981754496 0 0 0 0 -18.893634989219397 9.7245442853771635 0 9.7245442853771635 -5.5585289054532794 0 0 0 0 -113.80512850051127 912.26955523875949 0 912.26955523875949 -2137.1189246448612 0 0 0 0 -427.09408612941388 -15.126592233347765 0 -15.126592233347765 195.77516793217728 0 0 0 0 -1283.1510087295655 1399.1481812793463 0 1399.1481812793463 -967.64006473750487 0 0 0 0 -308.17479273616118 444.71558442689638 0 444.71558442689638 -622.10896780832991 0 0 0 0 -57.927671575012695 4.3655683771079694 0 4.3655683771079694 8.0686086913393673 0 0 0 0 -1098.5812402541142 546.09551157472015 0 546.09551157472015 258.42937438578156 0 0 0 0 -74.368022225651657 1301.5991667497874 0 1301.5991667497874 -2124.0846540645689 0 0 0 0 -162.37605395519677 752.09858533880833 0 752.09858533880833 -1076.5353459878434 0 0 0 0 -264.61943910944501 -144.53767049485941 0 -144.53767049485941 118.71487604233698 0 0 0 0 -21.934745391785796 5.6157414140978119 0 5.6157414140978119 0.044539203907348224 0 0 0 0 -37.108367376129536 80.411266867033191 0 80.411266867033191 -27.80827923718789 0 0 0 0 1.8510823955160944 5.2184378006822776 0 5.2184378006822776 19.613015489152474 0 0 0 0 -94.872783045948381 1.8652183036811039 0 1.8652183036811039 -58.810526939887495 0 0 0 0 -1045.9322577778221 336.02281371814206 0 336.02281371814206 10.389306608583638 0 0 0 0 -229.8557369711416 97.994422863028376 0 97.994422863028376 21.568011071532965 0 0 0 0 31.43729669215827 349.76420292629336 0 349.76420292629336 -1375.7565215022714 0 0 0 0 -535.68918614943686 995.4226101153763 0 995.4226101153763 -690.01448696126681 0 0 0 0 -2.1541868688509567 512.14810035170376 0 512.14810035170376 -735.59231206058394 0 0 0 0 -18.772580008662771 497.10200001951307 0 497.10200001951307 -403.2726208714148 0 0 0 0 -72.247848020393576 517.17552412966324 0 517.17552412966324 -305.39830566824457 0 0 0 0 11.410372099097003 557.17084458924364 0 557.17084458924364 -576.08822338784739 0 0 0 0 249.99697048067901 466.58594920619726 0 466.58594920619726 -611.82906458632351 0 0 0 0 32.055653012532275 459.60936023669819 0 459.60936023669819 -248.97968467919418 0 0 0 0 -55.798530348143686 238.91155351380621 0 238.91155351380621 -360.5773033118312 0 0 0 0 0.40903409814413294 17.465660409225066 0 17.465660409225066 -0.97979162336340053 0 0 0 0 195.02054854887683 219.32190882592477 0 219.32190882592477 124.35145620111234 0 0 0 0 121.76415711637674 86.827376646982884 0 86.827376646982884 -49.151853052477236 0 0 0 0 237.56361295356419 72.182370318817448 0 72.182370318817448 -539.29659260997141 0 0 0 0 -81.629419681976287 -135.92706595415802 0 -135.92706595415802 -163.76178116269875 0 0 0 0 115.3363290857742 5.9474322005444265 0 5.9474322005444265 -66.826087268156698 0 0 0 0 -17.246215832616144 -65.552445704553975 0 -65.552445704553975 86.666055751251406 0 0 0 0 115.25014749494676 7.9636521454546596 0 7.9636521454546596 40.200081717572175 0 0 0 0 -1355.3634321716527 946.38277646951974 0 946.38277646951974 -596.82936082350352 0 0 0 0 -608.85472172558002 -305.46517847912037 0 -305.46517847912037 -634.91873420259071 0 0 0 0 -131.0998853413721 67.170373277655926 0 67.170373277655926 -344.78218992533948 0 0 0 0 -33.172409981147212 103.74112365296605 0 103.74112365296605 214.61496943217207 0 0 0 0 -558.38756493899746 143.24270886104387 0 143.24270886104387 460.61473593808478 0 0 0 0 -233.82577403164032 -199.93899942549615 0 -199.93899942549615 -55.456664752127836 0 0 0 0 -77.386003473635355 89.216715003152785 0 89.216715003152785 -46.296258117643447 0 0 0 0 309.50221224710549 347.01743499591248 0 347.01743499591248 295.50259862999519 0 0 0 0 -7.1894164909769422 7.2157072523051511 0 7.2157072523051511 7.9191874670162292 0 0 0 0 390.71814769541379 334.75611221406143 0 334.75611221406143 -578.28984776353354 0 0 0 0 -52.592861417489573 28.655804752692887 0 28.655804752692887 2.5136247448513487 0 0 0 0 -34.55730831375422 88.111962402457721 0 88.111962402457721 85.050291275554628 0 0 0 0 -147.01970265394993 138.56328455850235 0 138.56328455850235 288.77317867880265 0 0 0 0 17.335835535732429 37.632483109006401 0 37.632483109006401 -12.455605221986975 0 0 0 0 57.726904510396707 60.073798442648695 0 60.073798442648695 17.97093686264634 0 0 0 0 111.82945994508191 76.634791607024454 0 76.634791607024454 -9.5215844853955787 0 0 0 0 -12.539759429157129 76.961412621076306 0 76.961412621076306 104.41357498051366 0 0 0 0 -28.60193325315538 5.2376630098328789 0 5.2376630098328789 17.129382020625926 0 0 0 0 -2.870921893760169 85.881057090460672 0 85.881057090460672 16.57593449252181 0 0 0 0 -23.764393891789926 43.060056873021537 0 43.060056873021537 39.206109564766962 0 0 0 0 -43.568209243927868 71.788941770006204 0 71.788941770006204 55.519248901910032 0 0 0 0 -17.84859301999677 128.21770641167859 0 128.21770641167859 15.816003135092615 0 0 0 0 17.945400978931552 67.592146916716814 0 67.592146916716814 42.436845375120043 0 0 0 0 122.25598168662691 15.866611500172439 0 15.866611500172439 47.893347039556829 0 0 0 0 -174.82174162064621 130.7812120111339 0 130.7812120111339 75.250445939804194 0 0 0 0 18.700837855888636 44.45297522788141 0 44.45297522788141 -4.8106321438742619 0 0 0 0 49.653999096917687 35.784751016164591 0 35.784751016164591 199.82100373295543 0 0 0 0 10.22259408172556 47.588747259000471 0 47.588747259000471 -8.294413026948682 0 0 0 0 -8.6049756103748223 65.728672248918883 0 65.728672248918883 -10.032878697353226 0 0 0 0 -7.9984618336311541 82.307727855481062 0 82.307727855481062 1.3612729536507686 0 0 0 0 -0.10563958857528633 38.282380848992034 0 38.282380848992034 71.347874594095629 0 0 0 0 15.590781848812185 121.06433640624527 0 121.06433640624527 59.150159829594486 0 0 0 0 -65.622527429266484 171.6000637163761 0 171.6000637163761 -44.497071564494036 0 0 0 0 -90.619879512531043 170.45664873708756 0 170.45664873708756 25.477540625219262 0 0 0 0 -56.970018884851015 86.215332418505568 0 86.215332418505568 31.473369820640073 0 0 0 0 34.886386923643897 64.570813684314984 0 64.570813684314984 0.72970112296067668 0 0 0 0 14.12360103130812 75.29328593357998 0 75.29328593357998 11.408928961485898 0 0 0 0 -139.28833076740557 118.29079159615139 0 118.29079159615139 79.984037181606254 0 0 0 0 -3.3879130942877964 103.70464403408914 0 103.70464403408914 7.0906727941537611 0 0 0 0 16.589402529883955 92.189432432511239 0 92.189432432511239 2.9918661379888363 0 0 0 0 -148.53052314362867 74.789843936876423 0 74.789843936876423 26.654068820575048 0 0 0 0 -37.468781032952336 55.616539169767435 0 55.616539169767435 5.7044277321316699 0 0 0 0 -66.643126294038353 44.468808631555945 0 44.468808631555945 4.9296450729906995 0 0 0 0 -34.35124973578786 64.996594754672515 0 64.996594754672515 -166.66735522450108 0 0 0 0 -12.213426072899892 79.304828768472362 0 79.304828768472362 15.33162617648577 0 0 0 0 27.940412234915723 32.863307724001444 0 32.863307724001444 13.958700482765906 0 0 0 0 6.4986617651255045 35.15024165964914 0 35.15024165964914 34.805637296819086 0 0 0 0 -4.7306606343590829 52.89104906902503 0 52.89104906902503 5.5993423644613358 0 0 0 0 -11.178913344998165 35.709646602917857 0 35.709646602917857 -3.1920713888753767 0 0 0 0 5.4109911266787094 82.603837705288242 0 82.603837705288242 2.4453332454195333 0 0 0 0 -200.07778618455268 97.150359552545524 0 97.150359552545524 26.270190549301333 0 0 0 0 -0.23457744846950845 8.0385958426629145 0 8.0385958426629145 2.6558389018714053 0 0 0 0 10.994227092438905 41.121496014925853 0 41.121496014925853 6.3914073804050915 0 0 0 0 39.519692249175932 67.960592511878986 0 67.960592511878986 3.8801111673437845 0 0 0 0 -8.7065417682642874 48.856305247727505 0 48.856305247727505 12.691937964365934 0 0 0 0 -2.1453207612837382 38.781872651237563 0 38.781872651237563 12.197898010611759 0 0 0 0 8.4618643074675219 68.196314618438919 0 68.196314618438919 1.9757889353568316 0 0 0 0 -13.918982820264489 42.567270626850586 0 42.567270626850586 28.983553965321335 0 0 0 0 6.0816804259031105 48.606859010382948 0 48.606859010382948 18.313967092137055 0 0 0 0 3.5937844201762346 72.079001114045241 0 72.079001114045241 -17.190535796442418 0 0 0 0 14.856214287287003 64.546361150114535 0 64.546361150114535 -15.454280617334007 0 0 0 0 16.04791528779424 93.210517454237561 0 93.210517454237561 4.9272740124724805 0 0 0 0 -13.775251796562316 36.952006429288303 0 36.952006429288303 -40.445130970872015 0 0 0 0 -6.4969890952181686 4.5698667141914484 0 4.5698667141914484 -108.62152560833783 0 0 0 0 31.643338846924962 135.50483983538288 0 135.50483983538288 -167.41776794043471 0 0 0 0 27.425339254544269 111.31715883084689 0 111.31715883084689 -57.967627796531815 0 0 0 0 -39.016682102996128 69.28663599041829 0 69.28663599041829 10.727024121554678 0 0 0 0 -32.879998485586313 38.782095347260409 0 38.782095347260409 21.148089241537093 0 0 0 0 -62.595909966344081 -64.499545617582044 0 -64.499545617582044 52.524861802048235 0 0 0 0 -86.139224357319108 73.919083147360652 0 73.919083147360652 91.616129591573554 0 0 0 0 -44.882283341826202 28.569657233090027 0 28.569657233090027 -1.9084900812497376 0 0 0 0 -53.183915887974464 73.665680130070541 0 73.665680130070541 64.295937697854242 0 0 0 0 -43.818720818752567 23.04200121948378 0 23.04200121948378 2.6356017055533272 0 0 0 0 -87.758327581669562 40.599160938669229 0 40.599160938669229 156.66873897248865 0 0 0 0 -104.80401116316807 14.247567204651205 0 14.247567204651205 139.88921918633423 0 0 0 0 -1271.2775298507504 859.23740923921287 0 859.23740923921287 -623.04007559698948 0 0 0 0 5.1568510369605818 9.0103571992767364 0 9.0103571992767364 -21.533742605991392 0 0 0 0 79.210894605084718 -11.67735200466268 0 -11.67735200466268 -123.23344690510567 0 0 0 0 114.7048232711654 54.933865264931228 0 54.933865264931228 -449.61373176830239 0 0 0 0 -1271.9251726961193 860.81793461913549 0 860.81793461913549 -552.88965249544708 0 0 0 0 -180.84243775950256 53.262288307272684 0 53.262288307272684 65.634504864996416 0 0 0 0 71.794258313752806 238.52065270868843 0 238.52065270868843 -1005.2825509893737 0 0 0 0 -1234.5004881875966 809.82891235581701 0 809.82891235581701 -779.65950530245027 0 0 0 0 -1083.2897750010598 702.99117658360774 0 702.99117658360774 -683.81073247660242 0 0 0 0 -1251.8474298114688 810.80449589053751 0 810.80449589053751 -516.50935746111645 0 0 0 0 -7.7891666264246364 5.0130594986861183 0 5.0130594986861183 4.5962438762769011 0 0 0 0 -127.66103623209943 -39.105487618435291 0 -39.105487618435291 42.835887809655105 0 0 0 0 22.593256619493332 0.82830216504225973 0 0.82830216504225973 -214.92043563867628 0 0 0 0 -200.34538413827556 112.75628391803912 0 112.75628391803912 -59.417908597941278 0 0 0 0 20.046910452496377 144.10341451641216 0 144.10341451641216 5.2060760902531911 0 0 0 0 7.7205978094539205 114.8844745752649 0 114.8844745752649 31.840965823554143 0 0 0 0 27.025102757925197 202.7310954549539 0 202.7310954549539 -276.78580261267416 0 0 0 0 -436.17760949517157 279.37580948072718 0 279.37580948072718 338.3419266842975 0 0 0 0 -21.559646634073943 -51.380417476873845 0 -51.380417476873845 225.47156590212035 0 0 0 0 107.97707905361904 167.27827624750535 0 167.27827624750535 57.848747099924367 0 0 0 0 -2281.9111297787663 691.25071044006108 0 691.25071044006108 -382.20342225000786 0 0 0 0 -1053.6921046418829 636.19868496857816 0 636.19868496857816 -840.93400457123062 0 0 0 0 -1201.0405679098021 743.74641479928687 0 743.74641479928687 -677.68041520523548 0 0 0 0 -1215.8805926127036 672.48991669624229 0 672.48991669624229 -948.95968299514789 0 0 0 0 -1414.5292154744857 389.06905345987616 0 389.06905345987616 -918.90578578018722 0 0 0 0 -936.75646734975817 688.29411248242104 0 688.29411248242104 -823.95542551648396 0 0 0 0 -1343.7548430654592 600.32676160622214 0 600.32676160622214 -656.54439276407356 0 0 0 0 -647.04313589341291 259.97607898401475 0 259.97607898401475 -513.13787153166777 0 0 0 0 -1223.4838761292813 1219.3060980297778 0 1219.3060980297778 -816.83871009002178 0 0 0 0 -786.68436389287672 1905.9371571072079 0 1905.9371571072079 -521.21884783729183 0 0 0 0 239.06624192943809 680.92121562730608 0 680.92121562730608 -637.4540746230341 0 0 0 0 -201.58262290969742 -13.629952639152179 0 -13.629952639152179 -97.118927982060995 0 0 0 0 467.59349384151687 50.526944021214149 0 50.526944021214149 13.035410188240348 0 0 0 0 1.6001398192268055 2.6381591928607051 0 2.6381591928607051 -5.9976850316776051 0 0 0 0 -2318.5509531824878 2012.3770676494023 0 2012.3770676494023 -415.51166926666338 0 0 0 0 -620.43615378033292 2005.4721573939496 0 2005.4721573939496 -1585.9802086562704 0 0 0 0 186.72401097529746 828.32002664949141 0 828.32002664949141 48.732740214967635 0 0 0 0 -170.64189693887033 136.60857784029031 0 136.60857784029031 248.44778146881436 0 0 0 0 -1158.733039004115 383.15208942380741 0 383.15208942380741 197.16475142068521 0 0 0 0 1.5439440458080753 -3.0887258210204891 0 -3.0887258210204891 83.148522095321823 0 0 0 0 -63.150097474960148 156.60221421326423 0 156.60221421326423 226.11503356265894 0 0 0 0 -104.09961102195666 76.17172782007583 0 76.17172782007583 105.30156397189421 0 0 0 0 13.08911163594712 122.58134646469989 0 122.58134646469989 106.60893880178992 0 0 0 0 64.922212095498253 82.353500408484251 0 82.353500408484251 49.022381272028724 0 0 0 0 4.9881326915783575 72.67567408193645 0 72.67567408193645 50.416341009084135 0 0 0 0 26.692126550749435 103.10922161621784 0 103.10922161621784 33.832893543574755 0 0 0 0 -7.9288625916274214 76.895771571997102 0 76.895771571997102 15.231897190496966 0 0 0 0 14.820611031595831 88.208341413650487 0 88.208341413650487 10.376725742331473 0 0 0 0 -15.739494614102114 101.09392958420358 0 101.09392958420358 11.454063056195992 0 0 0 0 26.55384421568715 147.77879461491102 0 147.77879461491102 -0.49381622139298997 0 0 0 0 8.3459955150353835 110.33200147970274 0 110.33200147970274 -2.4544055205042241 0 0 0 0 -15.569833420227951 117.69816625757085 0 117.69816625757085 117.7760720002334 0 0 0 0 
</DataArray>
<DataArray type="Float64" Name="cross_section_updated" format="ascii">
1 1 1 1 1 1 0.0094869825047542607 1 1 1 0.0089457751082496102 1 1 1 0.0086418111788862523 1 1 1 1 1 1 0.009564630830689062 0.0063342366754707211 1 1 1 1 0.010088240801874846 0.010026481242555795 1 0.0080339957822240515 0.0066431734366879259 1 0.009917506727421109 1 1 1 0.0022266077846198398 1 1 0.010994861299087832 1 1 1 1 1 1 1 0.0094584393999964343 1 1 1 1 1 1 1 1 0.0097204176212783572 1 1 0.012934751481034096 1 0.0098149787982667394 1 0.0096022828174579071 1 0.0047752494163760054 1 1 1 1 1 1 1 1 1 1 1 1 1 1 1 1 0.011089967577667803 1 1 1 1 1 1 1 1 0.010010553861704529 1 1 0.010059552038753139 0.0092112625963724284 1 1 1 1 1 1 1 1 1 1 1 1 0.010033781412902371 1 1 1 1 1 0.011309401413425107 1 1 0.010803709818523976 1 1 1 1 1 1 1 1 1 1 1 1 1 1 1 1 1 1 1 0.010983643720962603 1 1 1 1 1 0.010256106024044552 1 1 1 1 1 1 1 1 1 1 1 1 1 1 1 1 1 1 1 1 1 1 1 1 0.010031181036958322 1 0.0020179214194070028 1 1 1 0.002946221771172596 1 1 1 0.0024159679340539537 1 1 1 0.010450947692711765 -3.0357660829594124e-17 1 1 0.015072406546631148 1 1 1 1 0.013877720583074939 1 1 1 1 1 0.0089287587690959295 1 1 1 1 0.010051801961312203 1 0.014013740421832602 1 1 0.012703132280406364 1 1 1 0.010066874349584426 1 1 0.0039318138272445274 1 1 1 1 1 1 1 1 1 1 0.011500363509980703 1 1 0.010084591517352325 1 1 1 1 1 1 1 0.0087695277344632793 1 1 1 1 1 1 1 1 1 1 1 1 1 1 1 1 1 1 1 1 1 0.020995969983484804 1 0.019462941056856621 1 1 1 1 1 0.0099912814650744038 1 1 1 1 1 1 1 1 0.014409701028918904 1 1 1 0.0046101215254637454 1 1 0.011210370521033589 1 1 1 1 0.0071582205346142451 1 1 0.012435102254290738 1 1 1 1 1 0.0098635387813512752 1 0.010202301568664137 1 1 1 1 1 1 1 1 1 1 1 1 1 1 1 1 1 1 0.0099358723903021622 1 1 1 1 1 0.014663347694639152 0.010701322807187405 1 1 1 1 1 1 1 1 1 1 0.012085863022805267 1 1 1 1 1 1 1 1 1 0.0089761613446638338 1 1 0.0078898822454506259 0.0099992392418735958 1 1 1 0.010007803076103773 1 1 0.0040433971008740251 1 1 1 1 1 1 1 1 1 1 1 1 1 1 1 0.017259018183321879 1 1 1 1 1 1 1 1 0.011834437961137504 1 1 0.009936056254940262 1 1 1 1 2.291397087591119e-05 1 1 1 1 1 1 1 1 1 1 1 1 1 1 0.014959876805010472 0.0066539141223962671 1 1 0.0057706269797845895 0.01318647542067574 1 0.010098883001511821 1 0.011102285770427763 1 0.0080809908638000867 1 1 0.0082741423701398337 1 1 1 1 1 1 1 1 1 0.0092017412499709045 0.0065667375462324399 1 1 0.0097465902122975765 1 1 1 1 1 0.014096328357788188 1 1 0.014612664755504276 1 1 1 1 0.015123324102013676 1 1 1 0.0096179309817195375 1 1 1 0.0095631963502249666 1 0.014879340705154179 1 1 0.0065569025841967846 1 1 1 1 1 1 1 1 1 1 1 0.0096063851330226817 1 1 1 1 1 1 0.0098298753706530552 1 1 1 0.010188908470032825 1 1 1 1 1 1 1 0.0022519675257269868 1 1 1 1 1 0.010902983374273138 1 0.0079831650943153632 1 1 1 1 1 0.012073140906798167 0.0050934269264768291 1 1 1 0.010014309509206017 0.00023511510426015535 1 0.0063597693380546896 1 1 1 1 1 1 1 0.0095564662739292348 1 1 1 1 1 1 1 1 1 1 1 1 1 1 0.0098376895142984165 1 1 0.010346358275969029 1 0.0093941557882276528 1 1 1 1 1 1 1 1 1 1 1 1 1 1 0.010173926927269664 1 1 1 1 1 1 1 1 1 1 1 1 1 1 1 1 0.010086539992306014 1 1 1 1 1 1 1 1 1 1 1 0.0092829289934995771 0.0079467183788358969 1 1 1 1 1 1 1 1 1 1 1 1 1 1 1 1 0.013517577107960019 1 1 1 1 1 1 1 0.014544797684628536 1 1 1 1 1 1 1 1 0.012064403322699684 1 1 1 0.0098689286499388101 1 1 1 1 1 1 1 1 1 1 1 1 1 1 1 1 1 1 1 1 1 1 1 1 1 1 1 1 0.0095753729961385748 1 0.0091938516402340562 1 1 1 1 1 1 1 1 1 1 1 1 1 0.0093751213207848884 1 1 1 0.0099995888052779244 1 1 1 1 1 1 1 1 1 1 1 1 1 0.010068215387572802 0.0086983554328493879 1 1 1 1 1 1 1 0.0096722852063854323 1 1 1 1 1 1 1 1 1 1 1 0.0092819460945563273 1 1 1 1 1 1 1 0.0098072994452731467 1 1 1 1 1 1 1 1 1 1 1 1 1 1 1 1 1 0.010288076618327768 1 1 1 1 1 1 1 1 1 1 0.010472915029366345 1 1 1 1 1 0.010867417182792785 1 1 1 0.010579118747851321 1 1 1 1 0.0059582203108233811 1 1 1 1 1 1 1 0.010944065268315281 1 0.0092457252140618219 1 1 0.011964682584190957 1 0.011971244326444605 1 1 1 1 1 1 1 1 1 1 1 1 1 1 1 1 1 1 1 1 1 1 1 1 1 1 1 1 1 1 1 1 1 1 1 0.0099918903582800478 1 0.015756477302964426 0.010000569216449831 1 1 1 1 1 1 1 1 1 1 1 0.0028919166390603797 1 1 1 1 1 1 1 0.00098312755458196746 1 0.010451658077059799 1 -1.3010426069826053e-17 1 1 1 1 1 1 0.0092042718454930887 1 0.010184616594424885 0.0075862382952090399 1 1 1 1 1 1 1 1 1 1 1 1 1 1 1 1 1 0.010479040178480304 1 1 1 1 1 1 1 1 1 1 1 1 1 1 0.010118283456795385 1 1 1 1 1 1 1 1 1 1 1 1 1 0.0088530015601759188 1 1 1 1 1 1 1 1 1 0.011323783248437889 1 1 1 1 1 0.0065105281688131707 0.009901800431769003 1 1 1 1 0.0078178735825640971 0.0075270404352288465 1 1 1 1 1 1 1 1 1 1 1 0.019134056686962254 1 1 1 1 0.017469764666969805 1 1 1 1 1 1 0.0037689332279531099 1 1 0.015675298955100725 1 0.0056236284988052266 1 1 1 0.013764667626081853 1 1 1 1 1 1 1 0.0099823066607591174 1 1 1 1 0.0065513963638383459 0.010904031572619514 1 1 0.010065085099837067 1 1 1 0.0089921518227005573 0.0017131215752467822 0.016971164913174373 0.0099996133508093114 1 1 0.012282647386098288 1 1 1 1 1 1 1 1 0.0060566284464194445 0.0066559664507519281 1 1 1 1 1 1 0.0072653743267521685 1 0.0059569872791709246 1 1 1 0.010260989378682889 1 1 1 1 1 1 1 1 1 1 1 1 1 1 1 1 1 1 1 1 1 1 1 1 1 1 1 1 0.010549065997010658 1 1 1 1 1 1 1 1 1 1 1 1 1 1 1 1 1 1 1 1 1 0.012894229512333025 1 1 1 1 1 1 1 1 1 0.010426967737249191 1 1 1 1 1 1 0.010007963945656669 1 1 1 1 1 0.01239132396601509 1 1 1 1 1 0.0093078066461942111 1 1 1 1 1 1 1 1 1 1 0.0089071011573575911 1 1 1 1 0.010457286461054222 0.0065736796719161328 1 1 0.0098820579344371696 1 1 1 1 0.010227378985268248 1 1 0.0091174192804155119 1 1 1 1 1 0.013100509233776066 0.0098990210368637473 1 1 1 1 1 1 0.0097705926064423441 1 1 1 1 1 1 1 0.0051990434715212669 0.0094469232476766425 1 1 1 0.0075876701260374161 1 1 1 0.005944842561606524 1 1 0.0064808007905179169 1 0.0044671532954285702 1 1 1 0.011168810567736477 1 1 0.0076819216654223383 0.01002533351557562 1 1 1 1 1 1 0.0044704309335356213 1 0.017526401422354888 1 0.0097212445978232861 1 1 1 0.0098217784317085784 0.010032076854966258 1 0.011018786688537098 1 1 1 1 1 1 1 1 1 1 1 1 1 1 1 1 0.010187498691830939 1 1 1 1 1 1 1 0.01250300758072514 1 1 1 1 1 0.0099455735318372106 1 1 1 0.013661062044684386 1 1 1 1 0.015965950916713899 1 0.0099788302086471874 1 0.01615130501335801 1 1 1 1 0.0052117188974152712 1 1 0.011212402358155217 1 1 1 1 1 1 1 1 1 1 1 0.010509150094070337 1 1 1 1 0.010778313218774453 1 1 1 1 0.011822255962734302 1 1 1 1 1 1 0.01047412582047411 1 1 1 0.011961888648275989 1 0.010003252539520937 0.0096972659336582723 1 1 1 1 1 1 1 1 1 1 1 1 1 1 1 1 1 1 1 1 1 1 1 1 1 1 1 1 0.01031952316694266 1 1 0.010111541619199242 0.011822725203132845 1 0.013221877699631584 1 1 1 1 0.011351677987820665 1 1 0.010463167094946539 1 1 1 1 1 1 1 1 1 1 1 1 1 1 1 1 1 1 1 1 1 1 1 1 1 1 1 1 0.0096839085382378551 1 1 1 1 1 1 1 1 0.010518778735543331 1 1 1 1 1 1 1 0.011504891074019046 1 0.0099195219313834172 1 1 1 0.0098023099926824002 1 1 1 1 1 1 1 0.0098664509164508515 1 0.0098443549233209141 1 1 1 1 1 0.0098020953965635826 1 1 1 1 1 1 1 1 1 1 1 1 1 1 1 1 1 1 1 1 1 1 1 1 1 1 1 1 1 1 1 1 1 1 1 1 1 1 1 0.010624987173073277 0.012702294200746388 1 1 0.012032699842510467 1 1 1 0.0087865428238211116 1 1 1 0.0098915522333347886 0.010012339852062631 1 1 0.010384442821239955 1 1 1 1 1 1 1 1 1 1 1 1 1 1 1 1 1 1 1 1 1 0.0077402769544165917 1 0.009230003899032134 1 1 1 1 1 1 1 1 1 1 1 1 1 1 1 1 1 1 1 1 1 1 1 1 1 1 1 1 1 1 1 1 1 1 1 1 1 1 1 1 1 1 1 1 1 0.0093734971848689376 1 0.0042183241295596875 1 0.0082340637908045137 1 1 0.005429927766160466 1 1 1 1 1 1 1 1 1 1 1 1 1 1 1 1 1 1 1 1 1 1 1 1 1 1 1 0.010510946615698281 1 1 1 1 1 1 1 1 1 1 1 1 1 1 1 1 1 1 1 1 1 1 1 1 1 1 1 1 1 1 1 1 1 1 1 1 1 1 1 1 1 1 1 1 1 1 1 1 1 0.0098438501671696405 1 1 1 1 0.0095734457310428928 1 1 1 1 1 1 1 1 0.011638393966154556 1 1 1 1 1 0.0081179707445556311 0.010217171185522112 0.0090605388219287663 1 1 1 1 0.0068637194588880568 0.01035265898835554 1 1 0.01039145723195924 1 1 1 1 1 1 1 1 1 1 1 1 1 1 0.01221782468025203 0.0099739368102853276 1 0.010094317575275454 1 1 1 1 1 1 1 1 1 1 1 1 1 1 1 1 1 1 0.01084427593316287 1 1 1 1 1 1 0.012540779182026724 1 1 1 1 1 1 1 1 1 1 1 1 1 1 1 1 1 1 0.0092849073595614763 1 1 1 1 1 1 1 1 1 0.0079061952895266574 1 1 0.010045252403233831 1 1 1 1 1 1 1 1 1 1 1 1 1 1 1 1 0.0073650840066028069 1 0.012269631636459074 1 1 1 1 0.011982896395139499 1 0.013087678286172544 1 1 0.0095653001978303689 0.0056634243335064597 1 1 0.0059992525051498873 1 1 1 0.0098666345026371238 1 1 1 1 1 1 0.0099882105338245167 1 1 1 0.0027975062871276168 1 1 1 1 0.014338469098935897 1 1 1 1 1 1 1 0.0090845158336430414 1 1 1 1 1 0.007402799849126885 1 1 0.0097377955673980977 1 1 1 1 1 1 1 0.010194941962132002 1 1 1 0.010976070706725186 0.0095874297853961888 1 1 1 0.016456433241335083 1 1 1 1 1 0.010010367481286869 0.012583117973225012 0.013114409288184109 1 1 1 1 1 1 1 1 1 0.011670359216128494 0.010562150349255979 1 0.0082832714083953402 1 1 1 1 1 0.010221390937603219 1 1 0.010804399361024198 1 0.010473125776853017 1 1 1 0.008621740409602327 1 1 0.0084081923284638968 1 1 1 1 1 1 1 0.011656360331683773 1 1 0.013639688609034771 0.011381217366129428 1 1 0.010285879361904315 1 0.01068482220925876 1 1 0.0099647135923859025 1 1 0.011537628892421024 1 0.0098267166518836591 1 1 1 0.00992196534479888 1 1 0.0089791042505288771 1 0.0066700298704826209 1 1 0.0097190560099528998 1 0.0096221903919392251 1 1 1 1 0.0057492463794629398 0.0083684542230391488 1 1 1 1 1 1 1 1 1 0.00975549195221166 1 1 1 1 1 1 1 1 1 1 1 1 1 1 1 1 1 1 0.0099967438449422887 0.0036431231227664201 1 1 1 0.01518464376105965 1 1 1 1 0.015603903338027181 1 1 0.0064587468275108962 1 1 1 0.0075324119081849623 1 1 0.0079004160356320637 1 1 1 1 0.010009441541783811 1 1 1 1 1 0.010256045319861405 1 1 1 0.010299524576642851 0.010002449230179041 1 1 0.0099642364529978697 1 1 1 1 1 0.013003340372161921 0.011885112061610111 1 1 1 1 0.012396969041060501 1 1 1 1 0.013774714563096296 1 1 1 1 1 1 1 1 1 1 1 1 1 1 1 1 1 1 1 1 1 1 1 1 1 1 1 1 0.014399440590751413 1 1 1 1 1 1 1 1 1 1 1 0.0026341793419571175 1 1 1 1 0.0090834722100718145 1 1 1 0.0034777483518358379 1 1 0.010004001322631569 1 1 1 1 1 0.010520083833309726 1 1 1 1 1 1 1 1 1 1 1 1 1 1 1 1 1 1 1 1 0.0072286895974750928 1 1 1 1 1 0.0054318842140452109 1 1 1 1 1 1 1 0.0097762290000409403 1 1 1 1 1 1 1 1 1 1 1 1 1 0.010009140209163608 1 1 1 1 1 0.0094129127623658465 0.0097638196632142994 1 1 1 1 0.0075296658384356469 1 0.010005757466971778 1 1 1 0.011010937116713927 0.01569351334906513 1 1 0.022867797937638101 1 1 1 0.020820909157084441 1 1 1 1 0.014852194110137001 1 1 0.010515543451290181 0.010174415882867077 1 1 1 1 1 1 0.0070356500059049771 1 1 0.010024328202015469 1 1 1 1 0.0094526099867845003 1 1 1 1 1 1 1 1 1 1 1 1 1 1 1 1 1 1 1 0.01510608400141427 1 0.0097571915660497992 1 1 1 0.010136143283165557 1 0.011003998479594077 1 0.012202193765677188 1 1 0.014220966460995212 1 1 0.014829939796742804 0.013154230435210029 0.0083291825296233409 1 1 1 0.013435425459728489 1 1 1 1 1 1 0.0089502665068193696 1 1 1 1 1 1 1 0.0093329538203260377 1 0.010255391836360834 1 1 1 1 1 1 1 0.0099535965504374095 1 1 1 1 1 1 1 1 1 1 1 0.0096623542548213114 1 1 0.0096337359408335162 1 1 1 1 1 1 1 1 1 1 1 1 1 1 1 1 0.010785597154823426 1 1 1 1 1 1 1 1 1 1 1 1 1 1 1 1 1 1 1 1 1 0.0093186925420779398 1 1 1 0.0096099348376940327 1 1 1 1 1 1 1 1 1 1 0.0096402074566427388 1 1 1 1 1 1 1 1 1 1 0.0089573595289252073 1 1 1 1 1 1 0.011737407256270784 1 1 1 0.014949681865866172 1 1 1 1 1 1 1 1 1 1 1 1 1 1 1 1 1 1 1 1 1 0.010088373727519589 1 1 1 1 1 0.019741871561843861 1 1 0.010691989132526935 1 1 1 1 1 1 0.011449851874889365 1 1 1 1 0.010862352762136656 1 1 1 1 1 1 1 1 1 1 1 1 1 1 1 1 1 1 0.010700720405054431 1 1 1 1 1 0.017009729800000657 1 1 1 0.019953272905807125 1 0.015490866981420746 1 1 1 1 1 1 1 0.019043537453140767 1 1 1 0.018712867055820304 0.020505611966932541 1 1 1 1 1 0.0096205164878066865 1 1 1 0.0090002895637184693 1 1 1 1 1 1 1 1 1 1 1 1 1 1 1 0.011468327169395744 1 1 1 1 1 1 0.01051068851128579 1 1 1 1 1 1 1 1 1 1 1 0.010111520882303767 1 1 1 1 1 1 1 1 1 0.0041167506004438133 1 1 1 1 0.015482822757905875 0.0034312253590375813 1 1 1 1 1 1 1 1 0.029518523430550343 0.0038117631582633461 1 0.030754952946422238 1 1 1 1 1 0.0093227376062794635 1 1 1 1 1 1 0.013783927354252897 1 0.0098989791326527226 1 1 1 1 1 1 1 1 1 1 0.010956588242470708 1 1 1 1 1 1 0.0098847915923509187 1 1 1 1 1 1 1 1 0.010846068481787969 1 1 1 1 1 0.0043332291660251885 1 1 0.0063174561355032865 1 1 1 1 1 1 0.011044970723887952 1 1 1 1 1 1 1 1 0.012563161846024936 1 1 1 1 0.013316378767159597 1 1 1 1 1 1 1 1 1 1 0.012548646664329283 1 1 1 1 1 1 1 1 1 0.013822396913461502 1 1 1 1 0.014431850120428864 1 1 1 1 1 1 1 1 0.010088290811716537 1 0.012191665854130356 1 1 1 0.0097662691559860324 1 1 1 1 1 1 1 1 0.0078579982010873912 1 1 1 0.0078926581216108363 1 1 1 0.0095665276124059229 1 1 0.0099859934596144076 1 1 1 1 1 1 1 1 1 1 1 1 1 1 1 1 1 1 1 1 1 1 1 1 1 1 1 1 1 1 1 1 1 1 1 1 1 1 1 1 1 1 1 1 1 1 1 1 1 1 1 1 1 0.010082597879067293 1 1 1 0.010867489013315102 1 1 1 1 1 1 0.0099666709170390042 1 0.0098500820133990453 1 1 1 1 0.010969682865816146 0.01014455175942006 1 1 1 1 1 1 1 1 1 1 1 1 1 1 1 1 1 1 1 1 1 1 0.01413713096871492 1 1 0.013554480875472669 1 1 1 0.010054728552018461 1 1 1 1 1 1 1 1 1 1 1 1 1 1 0.010739928310308029 1 0.010353712037144892 1 0.0077651845118441327 1 1 1 1 1 1 1 1 1 1 1 1 1 1 1 1 1 0.010377812993489369 1 1 1 1 1 1 1 1 1 1 1 1 1 1 1 1 1 1 1 1 1 1 1 1 1 1 1 1 1 1 1 1 1 0.010147026423967013 1 1 1 1 1 1 0.008309908184592733 1 1 0.012580138482750461 1 0.0099350121324803444 1 1 0.0094474276835684219 1 1 1 0.01164130804132453 1 1 1 1 1 1 1 1 1 1 1 1 1 1 1 1 1 1 1 1 1 1 1 1 1 0.0098016598907249425 1 1 1 1 0.0096509852008756364 1 1 0.0098487032467477684 1 1 1 1 1 1 1 1 1 1 1 1 1 1 1 1 1 1 1 1 1 1 1 1 1 1 1 1 1 1 0.010378947807053181 1 1 1 0.010243529074636406 1 1 1 1 0.010889600961979034 1 1 1 1 1 0.011107166335742345 1 1 1 1 0.0054189189974362621 1 1 1 1 1 1 1 1 1 1 1 1 1 1 0.01038739697554654 0.011085739191835456 1 0.00069852482913749722 1 0.0031200820749074914 1 1 1 1 1 1 1 1 1 1 1 1 1 1 1 1 1 1 1 1 1 1 1 1 1 0.0095289846220103797 0.0076246909538609294 1 1 0.014548204029500718 1 1 0.0067471204994773055 1 1 1 1 1 1 1 1 1 1 1 0.0080704653377887299 1 1 0.0093748478903422864 1 1 1 1 1 1 1 1 1 1 1 1 1 1 0.014733398031686988 0.0099689140150112376 1 0.0085791570849690878 0.010298311968072096 1 1 1 1 0.010025587590530592 1 1 1 0.015090181203844208 0.0060197544734073155 1 1 1 1 1 1 1 0.010102280350667485 1 1 1 1 1 1 1 1 1 1 1 1 1 1 1 1 0.012875733551047798 1 1 1 1 0.014127203564280278 1 1 1 1 1 1 1 0.0074171903405179044 1 1 1 1 1 1 1 0.0085721768979411753 1 1 0.009522344431277514 1 1 1 1 1 1 1 1 1 1 1 1 1 1 1 0.0097560470397116145 1 1 1 1 1 1 1 1 0.0098899131984718277 1 1 1 1 1 1 1 0.01002268949299002 1 1 1 1 1 0.010009649103292603 1 1 1 1 0.010391037824584441 1 1 1 1 1 1 1 1 1 1 1 1 0.011084723848165017 1 1 1 1 1 1 1 1 1 1 1 1 1 1 0.0090851104637763094 1 1 1 1 1 1 1 1 1 1 1 1 1 0.010323713256469634 0.009999401624403513 1 1 0.0075008157718646443 1 1 1 1 0.0074326229662932813 1 1 1 0.0067634205359182326 1 1 0.01047787448472642 1 1 1 1 0.0057328149845428111 1 1 1 1 1 1 1 1 1 1 1 1 1 1 1 1 1 1 1 1 1 1 1 1 1 1 1 1 1 1 1 1 1 1 0.010050455537644259 1 1 1 0.010630760398671984 1 0.010239722574087565 1 1 1 1 1 1 1 1 1 1 1 1 1 1 0.0095181840905723871 1 1 1 1 1 1 1 1 0.012444811303716868 1 1 1 0.0097621370508607849 1 1 1 1 1 1 1 0.011542476591192223 1 0.012019644375822459 1 1 1 1 1 1 1 1 1 1 1 1 1 1 0.0094040223902834355 1 1 0.009732161519217351 1 1 1 1 1 1 1 0.012038751280651187 1 1 1 1 1 1 1 1 1 1 1 1 1 1 1 1 1 1 1 1 1 1 1 1 1 1 1 0.010365722783441134 1 1 0.012272430749799348 1 1 1 0.011555780763377706 1 1 0.011157382576773968 1 1 1 1 1 1 1 1 1 1 1 1 1 1 1 1 1 1 1 0.0096240917703942878 1 1 1 1 1 1 1 1 1 1 1 1 1 0.0099522308993281981 1 1 1 1 1 1 1 1 1 1 1 1 1 1 1 1 1 1 1 0.010035900012365009 1 1 1 1 1 1 1 1 1 1 1 1 1 1 1 1 0.0096392065565723949 1 1 0.010100178525015701 1 1 1 0.0071572535396366641 1 1 0.010287666847799767 1 1 1 1 1 1 1 1 1 1 1 1 1 1 0.010230364758950226 1 1 0.010566815108647931 1 1 1 1 1 1 1 1 1 1 1 1 1 1 1 1 1 1 1 1 1 1 1 1 1 1 1 1 1 1 1 1 1 1 1 1 0.00025906982206942535 1 1 1 1 0.0014251483355050068 1 1 1 1 1 1 1 1 1 1 1 1 1 1 1 0.0061051149959619744 1 0.0036361844852988365 0.0063070284219439478 1 1 0.005294526108847673 1 0.0058220255567850623 1 1 1 1 1 1 1 1 0.021768830994980302 1 1 0.010474498291568461 1 1 1 1 0.018560447239556334 0.0062523549641408799 1 0.0052292006186365932 1 1 1 1 1 1 1 1 1 1 1 1 1 1 1 1 1 1 1 1 1 0.0098768728087744086 1 1 1 1 1 1 1 1 1 1 1 1 1 1 1 1 1 1 1 1 1 1 1 1 1 0.012583260163897079 1 1 1 1 1 0.012088833137853781 1 1 1 1 1 1 1 1 1 0.013537943633407367 1 1 1 1 1 1 1 1 1 1 1 1 1 1 1 1 1 0.018890032570057107 0.011318057674307627 1 1 0.015966547964223862 1 1 1 0.010993403068521552 1 1 1 1 1 1 1 1 1 1 0.012083086448920409 1 1 0.010082862125727211 1 0.0080507382535021967 1 1 1 1 0.0094514856966229563 1 1 1 0.011224010346045086 1 1 1 1 1 1 0.010123236185306285 1 1 1 1 1 1 0.010122281623009615 1 1 1 1 1 1 1 1 1 1 1 1 1 1 0.010461283891978557 1 1 0.010943506145096886 1 1 1 0.0098102868803886661 0.0099116365913677253 1 1 1 1 1 1 1 1 1 1 0.011960192327193604 1 1 1 0.012376611115476464 1 1 1 1 0.010461493858706723 1 1 1 1 1 1 1 1 0.0058054419899724249 1 1 1 1 1 0.0078595497254345496 0.011138155146630442 1 1 1 0.0037271007331904152 1 0.010136481335315389 0.010057833365804826 1 1 1 1 1 0.011476704531086197 1 1 1 1 1 1 0.0098626703976524288 1 1 1 1 1 1 1 0.010846303613028538 1 1 0.010590990669783159 1 1 0.0099640201086314984 1 1 1 1 1 1 1 1 1 1 1 1 1 1 0.010369852552890997 1 1 1 0.0099994061059098544 1 1 0.011531839534336169 1 1 1 1 0.0099959685363306301 1 1 1 1 1 1 1 1 0.011183884596203578 1 1 1 1 0.0053293791435696557 1 1 1 1 1 1 1 1 0.0047739781548334333 1 1 1 1 1 1 1 1 1 0.010754450851093509 1 1 1 0.011996633688231645 1 1 0.011744391608405361 1 1 0.012423774584059213 1 1 1 1 1 1 1 1 1 0.010844964889057162 1 1 1 1 1 1 1 1 1 1 1 1 1 1 1 1 0.010119917740737738 1 1 1 1 1 1 1 1 1 1 1 1 1 1 1 1 1 1 1 1 1 1 1 1 1 1 0.023178343106105385 1 0.02200691131568315 1 1 1 1 1 1 1 1 1 1 0.02496761553033874 1 1 0.010353477776813709 1 1 1 1 1 1 1 1 1 1 1 1 1 1 1 1 1 1 1 1 1 0.010228017476936824 1 1 1 1 1 1 1 1 1 0.0029661953438846894 1 0.01026564219354914 1 1 1 1 1 1 1 0.012089080096223231 1 0.011316094996046926 1 1 1 1 1 1 1 1 1 1 1 0.012549233846438834 1 1 1 1 0.0099769211104898167 1 0.0087700569971817712 1 1 1 1 1 1 0.011682623343544245 1 1 0.001309740787899985 1 1 -1.7347234759768071e-17 1 1 1 0.01220635115970173 0.021303023298056015 0.019414662616362093 1 1 1 1 1 1 1 1 1 1 1 1 1 0.0095374410537640529 1 1 1 1 1 1 1 0.0070095514500115273 1 0.0087889515344844581 1 0.011977536922352271 1 1 0.011991408110539158 0.010014945620231523 1 1 1 1 1 1 0.010956568503508127 1 1 1 1 0.010112096475208238 1 0.0096481703173943237 1 0.010329350533505026 1 0.0086877363048687775 1 1 1 1 0.0054891962562393344 1 1 1 1 1 0.0083810269143744232 1 1 1 1 1 1 1 1 1 1 1 1 1 1 0.0098363994277627376 1 1 1 1 1 0.0098050735246728721 1 1 1 0.0093870205666745973 1 1 1 1 1 1 1 1 1 1 1 1 1 1 1 1 1 0.015074787954749246 1 1 1 1 0.01317332597262082 1 1 1 1 1 1 0.010036815185897956 1 1 1 1 1 1 1 1 1 1 0.0088945987171425486 1 1 0.010621563801965902 1 0.0099647303875826203 1 1 1 1 1 1 1 1 1 1 1 0.01092734170424744 1 1 1 1 1 1 0.0099149841670113023 1 0.012282947135941143 0.009644282905018297 1 0.010648014404701724 1 1 1 1 1 1 1 0.010814568694376782 1 1 1 1 1 1 1 1 1 1 1 1 1 1 1 1 0.010239100688027443 1 1 1 1 1 1 1 1 1 1 0.010197143537801934 1 1 1 1 1 1 1 1 1 1 0.01058750007485052 1 1 1 1 0.010390569191664856 1 1 1 1 1 0.013480922502853595 1 1 1 1 0.01117477738208386 1 1 1 1 1 1 1 1 1 1 1 1 1 1 1 1 1 1 0.015768578535242446 1 1 1 1 1 1 1 1 0.011928349174373392 1 0.011674148405880087 0.0099968712868116691 1 1 1 1 1 0.0095204077440082333 1 1 1 1 1 1 1 1 1 1 1 1 1 1 0.01001620000500246 1 1 0.0096725813033696692 1 0.010636353250035768 0.011395305771638636 1 1 1 1 1 1 0.0093817204649863824 1 1 1 1 0.0099313265441943119 1 0.0099410128977416076 1 1 0.012338832098868015 1 1 1 1 1 1 0.010039535801053601 0.008313347520361631 1 1 1 1 1 1 1 1 1 1 1 1 1 1 1 0.0096331861266348885 1 1 1 1 1 1 1 0.010192375087291003 1 0.011517380444092198 1 1 1 0.010607851690342986 1 0.011849181390918333 1 1 1 1 1 1 1 1 0.0098867872802828674 1 1 1 1 1 0.011577123224270248 1 0.0049509279561642267 1 1 1 1 0.0066341860496795801 1 1 1 1 1 0.0087720628700390449 1 1 1 1 1 1 1 1 1 1 1 1 1 1 1 1 1 1 1 1 1 1 1 1 0.021350816330011159 1 1 1 0.0057895559517146689 1 0.020967704487165721 1 1 1 0.0094203954449106012 1 1 1 1 1 1 1 1 1 1 1 1 1 1 1 1 1 0.010673903190159184 0.0097854901308447404 0.011119756531731299 0.0094252509509874672 1 1 1 1 1 1 0.0099004098623664202 1 1 1 0.0096253110441043999 1 1 1 1 1 1 1 1 1 1 0.012996840861481842 0.0084694230313355542 0.0099259367042561115 1 1 0.015343999965174581 0.010073696107794124 1 1 1 1 1 1 1 1 1 0.0081887934730806178 1 1 1 1 1 1 1 1 0.0059116906232388137 0.010898388248285372 1 1 1 0.00993840861369291 1 1 1 1 1 1 1 1 1 1 1 0.0070620038503687883 1 0.0097609991171015136 1 1 1 1 1 0.01002342664704118 0.01505706530316313 1 1 0.013761400398944282 0.0074553266420729417 1 1 1 1 1 1 1 1 1 1 1 1 1 1 1 1 1 1 1 1 1 1 1 1 1 1 1 1 1 1 1 1 1 1 1 1 1 1 1 1 1 1 0.0056321710226506037 0.0094660192500347368 1 1 1 1 1 1 1 1 1 1 1 1 1 1 1 1 1 1 1 1 0.0090936300451943727 1 1 1 1 1 1 1 1 1 1 1 1 1 1 1 1 0.010097009009385637 1 0.0094159568448513413 1 1 1 1 1 1 1 1 0.0071569535935135653 1 1 1 1 1 1 1 1 1 1 1 0.010006417715918689 1 1 0.010485129804265168 1 1 0.0071406273282412849 1 1 1 1 0.011981153194784731 1 1 1 1 0.0099854769281192916 1 1 0.010340239580710382 1 0.0084063914035713162 1 1 1 1 1 0.0081785297489866716 1 1 1 1 1 1 1 0.0093862506709228299 1 1 1 1 1 1 1 1 1 1 1 1 1 1 1 1 1 1 1 1 1 1 1 1 0.012436448915159718 1 1 1 0.010193100069280595 1 1 0.013597794362295686 1 1 1 0.01280484802369475 1 1 1 1 0.013407816952967637 1 0.014563929172272373 1 1 1 1 1 1 1 1 0.010340146228498839 1 1 1 1 1 1 1 1 1 1 0.0029026871467594181 1 1 0.0099764864249586842 1 1 0.006637719718089536 1 1 0.0050556440114868633 0.013318925433888414 1 1 1 1 1 1 1 0.01428980801707965 0.014298996321068092 1 1 1 0.0091713881037103137 1 1 0.0095032979926503395 0.0099216166111546732 1 1 1 0.011555427723355912 0.011603245314547079 1 0.0088681325658633622 1 1 0.0099993162935115617 1 1 1 1 0.011489909613174393 1 0.0086730786803205367 0.0075142961485580532 1 1 1 0.0092765766644742429 1 0.010498785898917033 0.0090089491603975377 1 0.012572861115798757 0.010193868374096738 0.011811941158300142 0.011632612101791118 1 0.011010255150812127 1 0.0093037251521040521 1 0.010665299146724358 1 1 1 0.011321507619685232 1 1 0.0088989389819179449 1 0.010570555668307972 0.0094915880145843515 1 1 1 1 0.0092170821013916812 1 0.012980315114339778 0.0091248698354547304 1 1 1 0.011884757190955384 0.0095255019579489793 1 1 0.010270787229830165 0.0095623040950346527 1 1 1 1 0.010024032077175112 1 1 1 1 0.010049919368720208 1 1 1 1 0.01011798891112306 1 0.0099612452253885972 1 0.011276332792967419 1 0.011060505894100769 1 0.010057544774634504 1 0.010001098477512215 1 1 1 1 1 0.01017815255402002 1 1 0.011287643260997885 0.0099352497652206283 0.0095960436999719886 1 1 0.0099177317655244832 0.010835763935307146 1 0.010365117406837449 1 1 0.0095968849873405617 1 1 1 1 1 1 0.010141870662463711 1 1 0.010647681016831606 1 0.010046785201746832 1 1 1 1 0.010143430481975043 1 0.0099612367823919586 1 0.0099826357200668465 1 1 1 0.010737811082162541 1 1 0.0099850699296335915 1 0.011804326166753306 1 0.0097616853534518711 1 1 1 1 1 0.011077397384127217 1 1 1 1 1 1 1 1 1 1 0.011979885100466317 1 1 1 1 0.010348114720716322 1 1 0.0099712809960016413 1 1 1 1 1 0.010434409371218095 1 1 0.010530908456613679 1 1 1 0.010659373690262167 1 0.0097862074094675847 1 1 1 0.010860903518074418 1 1 1 1 0.0050496561433100787 1 1 1 1 0.006837437569732964 0.010237922910188142 1 1 1 1 1 1 0.010897138931388585 1 1 0.012374902179801292 1 1 1 1 1 1 1 1 1 1 1 1 1 1 1 1 1 1 1 1 1 1 1 1 1 1 1 1 1 1 1 1 1 1 1 1 1 1 1 1 1 1 1 1 1 1 1 1 1 1 1 1 1 1 1 1 1 1 0.0027162711375633974 1 1 1 1 1 1 1 1 1 1 1 1 0.0094916991740953138 1 1 0.0041151011624481967 1 1 1 0.0094944615676186804 1 1 1 1 1 1 1 1 1 1 1 1 1 1 1 0.01077356394900118 1 1 1 1 1 1 1 1 1 1 1 1 1 1 1 1 0.011117080188036768 1 1 1 1 1 1 1 1 1 1 1 1 1 0.0086425336203927276 1 1 0.0099912121620465803 1 1 0.011051853381557397 1 0.0099148199147080195 1 1 1 1 1 1 1 0.020936381945111222 1 1 1 1 1 1 1 1 1 1 1 1 0.010253089894322928 1 1 1 0.010108313516376805 1 1 1 1 1 1 1 1 1 0.010677398009326735 1 1 1 1 1 1 0.01789781860368251 1 1 1 1 1 1 0.019171006734960951 1 1 1 0.009273699363938695 1 1 1 1 1 1 1 0.0076716222153532529 1 1 1 1 1 1 1 1 1 1 0.01659375602855586 1 1 1 1 1 1 1 1 1 1 1 1 1 1 1 1 0.010956844307302996 1 0.010017322268939817 1 1 1 1 1 1 1 1 1 1 0.0058738351113090731 1 0.0066031332450022014 1 1 1 1 1 1 1 1 1 1 1 0.016144187940963228 1 1 1 1 1 1 1 1 1 1 1 0.016212744418445876 1 1 1 1 1 1 1 0.0109385546104129 1 1 1 1 1 1 1 0.010293795673234385 1 1 1 1 1 1 1 1 1 1 1 0.008587386964691154 1 1 1 1 1 1 1 1 0.015866272043850473 1 0.005894614240520157 1 1 1 1 1 1 1 1 1 1 0.0098811097314014436 1 1 1 0.0097477674602790658 1 1 1 1 1 1 1 1 1 0.0059938582059095233 1 1 1 1 1 1 1 1 1 1 1 1 1 1 1 1 0.010281741694425651 1 1 1 1 1 1 1 1 1 1 1 1 1 1 1 1 1 1 0.011165353638061823 1 1 0.012858644808738089 1 1 0.010087408194300729 1 1 1 1 1 0.0097685925968622554 1 1 1 1 1 1 1 1 1 1 1 1 1 1 1 1 1 1 1 1 1 1 1 1 1 1 1 1 1 1 1 1 1 1 1 1 1 1 1 1 1 1 1 1 1 1 1 1 1 1 1 1 1 1 1 1 1 1 1 0.010185473326316093 1 1 0.010880160207881582 1 1 1 1 1 1 1 1 1 1 1 1 1 1 1 1 1 1 1 1 1 1 1 1 0.010006509451688461 0.0093087289097897163 1 1 1 1 1 1 1 1 1 1 1 1 1 1 1 1 0.010164266962878888 0.0074781825815945432 1 1 1 1 1 1 1 0.0085574108358436284 1 0.012559520475016296 1 1 0.012450275755638555 0.010018557301874708 1 1 1 1 1 1 1 1 1 1 1 0.0099795383585626635 1 0.017580535486441382 1 1 1 0.015497326112571369 1 1 1 0.0056650548064240101 1 0.0059643152565722959 1 1 1 1 1 0.0062181370242763816 0.0070304590056147597 1 1 1 1 1 1 1 1 1 1 1 1 1 1 1 1 1 1 1 1 1 1 1 1 1 1 1 1 1 1 1 1 1 1 1 1 1 1 1 1 1 1 1 1 1 1 1 1 1 1 1 1 1 1 1 1 1 1 1 1 1 1 1 1 1 1 1 1 1 1 1 1 1 1 1 1 1 1 1 1 1 1 1 1 1 1 1 1 1 1 1 1 1 1 1 1 1 1 1 1 1 1 1 1 0.0080029580849160127 0.011408035209439263 1 0.0040663859658559495 1 0.0099031387793216304 1 1 0.0092689389327425577 1 1 1 1 0.010016613308932524 1 1 1 1 1 1 1 0.0025312683677353003 0.0098890563009904082 0.0095749375856162451 1 1 1 1 1 0.0023595901362767919 0.0085973888982325414 1 1 1 1 1 1 1 1 1 1 1 1 1 1 1 1 1 1 1 1 1 1 1 1 1 1 1 1 1 1 1 1 1 1 0.012310207797369677 1 1 0.010833524158399954 1 1 1 1 1 1 1 1 1 1 1 0.010097683055262048 1 1 1 1 1 1 1 0.010171582186047749 1 1 1 1 1 1 1 1 1 1 1 1 1 1 1 1 0.0050206164435952789 1 1 0.013666085642068561 1 1 1 1 1 1 1 1 1 1 1 1 1 1 1 1 1 1 1 1 1 1 1 0.0098919428211309956 1 1 0.010351406621115826 1 1 0.010096502963026456 1 1 1 1 1 1 1 0.010170402093812163 1 1 1 1 1 1 0.010032926887396274 1 1 0.01007873671627077 1 1 1 1 0.0097394908631155529 1 0.0098647802512172381 1 1 0.0027491233193207209 1 1 1 1 0.010205772858447971 1 0.0017015611014352652 1 1 0.0011637171719701277 1 1 1 1 1 1 1 1 1 1 1 1 0.013502818401322812 1 1 1 0.0016302929416738363 1 1 0.002446730799689446 1 1 1 1 0.010010525042616451 1 1 1 1 1 1 1 1 1 1 0.010075365835484219 1 1 1 1 1 1 1 1 1 1 0.0090999023834721048 1 1 1 1 1 1 1 1 1 1 1 1 0.0082823217717659242 1 1 0.010006214259486536 1 1 1 1 1 1 1 1 1 1 0.0090467875504184753 1 1 1 1 1 0.0095082539625081196 1 0.0098958628554164686 0.0089584979213835018 1 1 0.009226252929151104 1 1 1 1 1 1 1 1 1 0.0098899214332678828 0.0092156750016348429 1 1 1 1 1 1 0.010033202798500177 1 1 1 1 1 1 1 1 1 1 1 1 1 1 1 1 1 1 1 1 1 1 1 1 1 0.0098473856358642 1 1 1 1 1 1 1 1 1 1 1 1 1 1 1 1 1 1 1 1 1 1 1 1 1 1 1 1 1 1 1 1 1 1 1 1 1 1 1 1 0.0090479917362203365 1 1 1 1 1 1 1 1 1 1 0.0096550133965913245 1 1 1 0.009120141555297695 1 0.0090376450422691729 1 1 1 0.010177783644876816 1 1 1 0.0099923883914048734 1 0.0077108036879185854 1 0.0080437290547256922 1 0.0083233119967484476 0.010567872183734452 1 1 0.011673350425974378 1 1 1 0.010193236228297299 1 1 1 1 1 0.01006860660637777 1 1 1 1 0.011414322907886961 1 1 1 0.011878856667944897 1 1 1 1 0.013271498644416711 1 0.0099619758060381369 1 1 1 1 1 1 1 1 1 1 1 1 1 1 0.0099660738053736573 1 1 1 1 0.0061516903686267485 1 1 0.007556855312884924 1 1 0.012027072777892216 0.0099740251714020307 1 1 0.0094353426278027223 1 0.0085344110867970127 1 1 1 0.012218108524665407 0.011403046214941821 0.0079669916688545495 0.012134970984475369 1 1 0.0099615640839545543 1 1 1 1 0.010182096775990903 1 0.0081821178264868122 1 1 0.011116189668848179 0.0070711040202931612 0.009906751074403277 1 0.0066014777839798556 1 1 0.011606056938378293 0.0058540269846194303 0.0061067612262701125 1 1 1 1 1 1 1 1 1 0.013715815780540638 0.012286820723379938 1 1 1 1 0.012541186001134212 0.012175524995288243 1 1 1 0.0030345599248347861 1 0.0028682955166100949 1 1 1 1 1 1 1 1 1 1 1 0.0033717500753121746 1 1 1 1 1 1 1 1 1 1 1 1 1 1 1 1 1 1 1 1 1 1 1 0.010676670142235114 1 1 1 1 1 1 1 1 1 1 1 1 1 1 1 1 0.0045440837628413031 1 1 0.011874176923534843 1 1 1 1 1 1 1 1 1 0.0078826460115676428 1 1 1 0.011683595733987386 0.0065970431037641426 1 1 0.0099908614555424928 1 1 1 1 1 0.008104322213956669 1 0.0097210094648031188 1 1 1 0.0096303207395368982 1 1 1 1 1 1 1 0.0060114124747249814 1 1 0.0097935670269268318 1 1 1 1 0.0039458870058050842 1 1 1 0.0096982620867477852 0.010017465407941465 1 1 0.011369726466938752 1 1 1 0.0043385484921794294 1 1 1 1 1 1 1 0.0061073450246889299 1 1 0.00054247540538485172 1 0.010122945737294435 0.010179898466311697 0.0053408147320745756 1 0.010868774416904611 1 0.0061492936059577008 0.0036065695423673459 1 1 1 1 1 1 0.0043898112811753872 1 1 0.0042934714560122376 1 1 1 1 1 1 1 1 1 1 1 1 1 1 1 1 1 1 1 1 1 1 1 1 1 1 1 1 1 1 1 1 1 1 1 0.0101136213442997 0.013672626131968629 1 1 1 1 1 1 1 1 0.012314225128622319 0.0085908155190441877 0.0092580625521331613 0.013211217455495186 1 1 0.012122059412175749 1 1 1 1 1 1 1 1 0.011787647343753324 1 1 0.0098403134294771204 1 1 1 0.0097130851456843931 1 1 1 1 0.0095331738005126742 1 1 1 1 1 1 1 1 1 1 1 1 1 1 0.017085574734117884 1 1 1 1 1 0.0098182222869639211 1 1 1 1 1 1 1 1 0.0087752025522727182 1 1 1 0.0093428281155552208 0.011923724164896359 1 1 0.0096441950920108637 0.0087855976002630329 1 1 1 1 1 0.0096435209029647612 1 1 1 1 1 1 0.010173285111950238 1 0.012185881016483687 1 1 1 1 1 1 1 1 0.014077142089330325 0.014763763464625462 1 0.014016102451434455 0.0091215348189238252 0.012208504896394412 1 0.013702855745174915 1 1 1 1 1 1 0.012068465084921157 1 1 1 1 1 1 1 0.010415762777854509 1 1 1 1 1 1 1 1 1 1 1 1 1 1 1 1 1 1 1 1 1 1 1 1 1 1 1 1 1 1 1 1 1 1 1 1 1 1 1 1 1 1 1 1 1 1 1 1 1 1 1 1 1 1 1 1 1 0.0098578625302059453 1 1 1 1 1 1 1 0.0095863880882946714 1 1 0.007155777615419863 1 1 1 0.0051618946346505025 1 0.010002735068920575 1 1 0.010001120854725244 1 1 1 1 1 1 1 0.0044562889976270722 1 1 1 0.011270031966119295 1 1 1 1 1 1 1 0.0095912028681684781 1 0.0098275819832110648 1 1 1 1 1 1 1 1 1 1 1 1 1 1 1 1 1 1 1 1 1 1 1 1 1 0.010008868079794796 0.017122880670150546 1 0.0074829107203471766 1 1 1 1 1 1 1 0.010177141526989468 1 0.01021877739698108 1 0.012173095907092481 0.006894445022573417 0.0098959302094646737 1 1 0.0096048930803822978 1 1 0.0087295428855647794 1 1 1 0.0095722904117063346 1 1 1 1 1 1 1 0.01378526973101496 0.0078999046271909339 1 1 0.01428147321451995 1 1 1 0.0093640022357050594 1 1 1 1 0.012224615585546756 1 0.0086233751401938227 1 1 1 1 1 1 0.010034409438923756 1 0.0099871817883654661 1 1 1 1 1 0.0099606096379469961 1 1 0.0099804018096318614 1 1 1 1 1 1 1 1 1 1 1 1 1 1 1 1 0.010013579496327574 1 1 0.011146660656490096 0.0099990253563134665 1 0.0099606775654821674 1 1 1 1 1 1 1 1 0.0098359428967390358 1 1 1 1 1 1 1 1 1 1 1 1 1 1 1 1 0.0065325909256705901 1 1 1 0.0099802065889428096 1 1 0.005233733655648597 1 1 1 1 1 1 0.00475495292036026 1 1 1 1 1 1 1 1 1 1 1 1 1 1 1 1 1 1 1 0.01327047828632074 0.0099823506087734683 1 1 1 1 1 1 1 0.0099785393293322401 1 1 1 0.01001826054706286 1 1 0.013068876756359515 1 0.012479573496778348 1 1 0.011939309165209643 1 0.010473928129809018 0.0088788004657285487 1 0.011612974912474202 1 0.009915280701502981 1 0.010139192393815142 1 1 1 1 1 1 1 1 1 1 1 1 1 1 1 0.010065078279070426 0.010352545412357788 1 1 1 1 1 1 1 0.013960227173677333 1 1 1 1 1 1 1 1 1 1 1 1 1 1 1 0.011806316571886409 1 0.010210946084730431 1 1 1 1 1 1 0.012121538258695748 1 1 1 0.01462413651358427 1 1 1 0.01050089916758499 1 1 1 1 1 1 1 1 1 1 1 1 1 1 1 1 1 1 1 1 1 0.0099421663028968852 1 1 1 1 0.01044799405463491 1 1 1 1 1 0.010009680882737935 1 1 1 0.010339298116563651 1 1 1 1 1 1 1 1 1 1 1 1 0.010329437280959622 1 1 1 1 0.010620001151402955 1 1 1 1 1 1 1 1 0.010425812741616186 1 1 1 1 1 1 1 0.011387687466614971 1 1 1 1 0.01021116761921175 1 1 1 1 1 1 1 1 0.01039233593489544 1 1 1 1 1 1 1 1 1 0.011350729102099119 1 1 1 1 1 1 1 1 1 1 1 1 1 1 1 1 1 1 1 1 1 1 1 1 1 1 1 1 0.010707268240754911 1 1 1 1 1 1 1 0.012716309350058555 1 1 1 1 1 1 1 1 1 1 1 1 1 1 1 1 1 1 1 1 1 1 1 1 1 1 1 1 1 0.010289953082854559 1 1 1 1 1 1 1 1 1 1 1 1 1 1 1 1 1 1 1 1 1 1 1 1 1 1 1 1 1 1 1 1 0.0095747022196310365 1 1 0.0097811351927042135 1 1 1 1 0.0045194099089222867 1 1 0.0062380861529668288 1 1 1 1 0.0064938134495654293 1 1 1 0.005572781195863229 1 1 1 0.0096764506074722874 1 1 1 1 1 1 1 1 1 1 0.0090463129332051095 1 1 0.015135909409107149 1 1 1 1 1 1 0.0058959371422793727 1 1 1 1 1 0.015266891340156016 1 1 1 1 0.015299039512956365 1 1 1 1 1 1 1 1 1 1 0.015139677635048289 1 1 1 1 1 1 1 1 1 0.0095204851255905245 1 1 1 1 1 1 1 1 1 1 1 1 1 0.0060713018547135112 1 1 1 1 1 1 1 0.0092561247377135943 1 1 1 1 1 0.01073452048476573 1 1 1 1 1 1 1 1 1 1 1 1 1 1 0.0097883522470179132 1 1 1 1 1 1 1 1 0.0089882576162862143 1 1 1 1 1 1 1 1 1 1 1 1 1 1 1 1 1 1 1 1 1 1 1 1 1 1 1 1 1 1 1 1 1 0.0082284285203856368 1 1 1 1 0.0099722362320923668 0.0055448908258528239 1 1 0.01003837446481194 1 1 0.011964825718386326 1 1 0.0073445514804707946 1 1 1 1 1 1 1 1 1 1 1 1 1 1 1 1 1 1 1 0.0067382462473053167 1 1 1 1 0.0063249660038071243 1 1 1 1 1 1 1 1 1 1 1 1 1 1 1 1 1 1 1 1 1 1 1 1 1 1 1 1 1 1 1 1 1 1 1 1 1 1 1 1 1 1 1 1 1 1 1 1 1 1 1 1 1 1 1 1 1 1 1 1 1 1 1 1 1 1 1 1 1 1 1 0.0083233772697041408 1 1 1 1 0.010642314268433747 1 0.010744169537980687 1 1 0.008758021688969931 1 1 1 1 0.00795117426045229 1 1 0.010156524709055637 1 1 1 1 1 1 1 1 1 1 1 1 1 1 1 1 1 1 1 1 1 1 1 1 1 1 1 1 1 1 1 1 1 1 1 1 1 1 1 1 1 1 1 1 1 1 1 1 1 1 1 1 1 1 1 1 1 1 1 1 0.0095586233275208304 1 1 1 1 1 1 1 1 1 0.0097987745106621026 1 1 1 1 1 1 1 0.0092994355393152157 1 1 1 1 1 1 1 1 1 1 1 1 1 1 1 1 1 1 1 0.0047771417759764258 0.021159657440054574 1 1 0.01002711041190976 1 0.008693064817533307 1 1 1 1 1 1 1 1 1 1 1 1 1 1 1 1 1 1 1 1 1 1 1 1 1 1 1 1 1 1 1 1 1 1 1 1 1 1 1 1 1 1 1 1 1 1 1 1 1 1 1 1 1 1 1 0.0069912603013026868 0.0069813893657531025 1 1 1 1 1 1 1 1 1 1 1 1 1 1 1 1 1 1 1 1 0.0083505746174709853 1 1 1 1 1 1 1 1 1 1 0.009453643032825523 1 1 1 0.000654512213478807 1 1 1 1 1 1 0.0092584805251346384 1 1 1 1 1 1 1 1 1 1 1 1 1 0.00052594134017009547 1 1 1 1 1 1 0.0066535559034813854 0.0099787016774677793 1 0.0017341125738278527 1 1 0.0097743314524003193 1 1 1 0.0028618355344439969 1 1 1 0.0041487844168212997 1 1 1 1 1 0.0099726518479490035 1 0.0057048515650678124 1 1 1 1 0.015131280130598656 1 1 1 1 0.006847020954851674 1 0.0073052980484003809 1 1 0.0098952969291788394 0.009975242794985642 1 1 1 1 1 0.010252625168705023 1 1 1 1 1 0.010583907238787407 0.0093270582593419273 0.0098155182111526393 1 0.007734585287200401 1 0.0099827091962648058 1 1 1 1 1 0.0097041217413487355 1 1 1 1 1 1 1 1 0.010043953486570008 0.0089338169679365892 1 1 0.0090230463870640994 1 1 1 1 0.0088255265588060849 1 1 0.010551453268775129 1 1 0.010223262328311104 1 1 1 1 1 1 1 1 1 0.010111125827496299 1 1 1 1 1 1 1 1 0.0098839581377256416 1 1 1 1 1 1 1 1 1 0.010208788341770761 0.0076241476504682847 1 1 1 1 1 1 1 1 1 1 1 1 1 1 1 1 1 1 1 1 1 1 1 1 1 1 1 1 1 1 1 1 1 1 1 0.0079493122832257051 1 1 1 1 0.010029928251791699 1 1 1 1 1 1 1 1 1 1 1 1 1 1 1 1 0.011602919511300408 0.0065999823673602818 1 1 1 1 1 1 1 1 1 0.0071178844603369731 1 1 1 1 0.0087281585266531445 1 1 0.0091222843372010046 1 1 1 1 1 1 1 1 1 1 1 1 1 0.0093711461436386829 1 1 1 1 1 1 1 1 1 1 1 1 1 1 1 1 1 1 1 1 1 1 1 1 1 0.010181996464361789 1 1 1 1 1 0.0099639305353915342 1 1 1 0.010882248902098476 1 1 1 0.008862985558333104 0.0087053323447497544 1 1 1 1 1 1 1 1 1 1 1 1 1 1 0.010089435472300904 1 1 1 0.0077771980193240865 1 1 1 1 0.0094033934722698859 0.010089329595158028 1 1 1 1 1 1 1 1 1 1 1 1 1 1 1 1 1 1 1 1 1 1 1 0.0074345274775387393 1 1 1 1 1 1 1 1 1 0.0095399411080273108 1 1 1 1 0.0091455638315347844 1 0.0092778168584787997 1 1 1 1 0.0099931817350492613 1 1 1 1 1 1 1 1 1 1 1 1 1 1 1 0.010594249746088073 1 1 0.011670818795908193 1 1 1 1 1 1 1 1 1 1 0.014108844326098387 0.014327971509291135 1 1 1 1 0.0055989109414151441 1 1 1 0.0034273847516761071 1 1 1 1 0.010453091729494039 0.010168111603782936 1 0.015434509266521136 1 0.018641857294301685 1 0.016150845893680495 1 1 0.0072429550206128939 1 1 0.013101627144154417 1 1 0.007619858559232558 1 1 1 0.017854466006319097 1 1 0.009999617594454422 1 0.022483177505017417 1 0.0067009473192664419 1 1 0.019865948758539115 1 1 1 1 1 1 1 1 1 1 1 1 1 0.0099013242085743761 1 1 1 1 1 1 1 1 1 1 1 1 1 1 1 1 0.010255707991631469 0.011139140029240678 1 1 1 1 1 0.0085942574440040394 1 1 1 1 0.0081989812352255241 1 1 0.012115371307278142 1 1 1 1 0.0094028660348439083 1 1 1 1 1 1 1 1 1 1 1 1 1 1 1 1 1 1 1 1 1 1 1 1 1 1 1 1 1 1 1 1 1 1 1 1 1 1 0.0097273287394770234 1 1 1 1 1 1 1 1 1 1 1 1 1 0.0081697496423527582 1 0.0072170263181800861 1 1 1 1 0.0074192161536202408 1 1 1 1 1 1 1 1 1 1 1 1 1 1 1 1 1 1 0.0085813018483784295 1 0.0095591790996135875 1 1 0.0044787363357062081 1 1 1 0.0017863272574119432 1 1 1 1 1 1 1 1 1 1 1 1 1 1 1 1 1 1 1 1 1 1 1 1 1 1 1 0.0098584748608203238 1 1 0.0093057791036473339 1 1 1 1 1 1 1 1 1 1 1 1 1 1 1 1 1 1 1 1 1 1 1 1 1 1 1 1 1 1 1 1 1 1 1 0.0095784503641703073 1 0.0091590823804772667 1 1 1 1 1 1 1 1 1 1 1 1 1 1 1 1 1 0.0096296057580964357 0.0097395411758239708 1 1 1 1 1 0.010493375582908415 1 1 1 1 0.010932815455356104 1 1 1 1 0.010179832897907104 1 1 1 1 1 1 1 1 1 1 1 1 1 1 1 1 1 1 0.010109935417727518 1 1 1 1 1 1 0.01118197501256158 1 1 0.013326566287566042 1 1 1 1 1 1 1 1 1 1 1 1 0.010263410014574117 1 1 0.010340508716488356 1 1 1 1 1 1 1 1 0.01010273419599283 1 1 1 1 1 1 0.010237918520215869 1 1 0.01067735839266354 1 1 1 1 1 1 1 1 1 1 1 1 1 1 1 1 1 1 1 1 1 1 1 1 1 1 1 1 1 1 1 1 1 1 1 1 0.0094007549303905709 1 1 1 0.0086991364778256919 1 1 0.0096069836003085853 1 1 1 1 1 1 0.0098332558651668331 1 1 1 1 1 0.0099387517189744035 1 1 1 1 1 1 0.01089139519636026 1 1 1 1 0.00654820658974287 1 0.0072488359681975867 1 1 0.0085718045698203963 1 1 1 0.0092983815474351351 1 1 1 1 1 1 1 1 1 1 1 1 1 0.010629632398673745 1 1 1 1 1 1 1 1 1 1 1 1 1 1 1 1 1 1 1 1 1 1 1 1 0.0099975715120163063 1 0.0099904763210551632 1 0.011789615074219136 1 0.012700341839327818 1 1 1 1 0.010220474600488985 1 1 1 1 0.010576583969437647 1 1 1 1 1 1 1 1 1 1 1 1 1 1 0.011572770199586371 1 1 1 0.012443949810126066 1 1 1 0.0097758995954619777 1 1 0.0093715566961315444 1 1 1 0.010093327384720314 1 1 1 1 0.0083767298168389223 1 1 1 1 0.0089326838870027649 1 1 1 1 1 1 1 1 1 1 0.0074896302186975832 1 1 1 1 1 0.0077986389682255033 1 0.010001901441394652 1 1 1 1 1 0.0068719234435401927 0.0078242784008043555 1 1 0.011571129199250883 1 0.009990955730139077 1 1 0.0098388531841468244 1 1 1 1 1 1 1 1 1 1 1 1 1 0.013489344296951054 1 1 1 1 1 0.0072371900257832862 1 1 1 1 1 1 1 1 1 1 0.014527027446679863 1 0.018472450044858438 1 1 0.0066107313839792962 1 1 0.010225818180918805 1 0.010357153435349088 1 0.013203568962925004 1 1 1 1 1 0.014389275533017762 0.013851521166459459 1 1 1 1 1 1 1 1 1 1 1 0.010193071300706761 1 1 1 1 1 0.010039479946410634 1 1 1 0.010186195582916452 1 0.0096524628037982004 1 1 1 1 1 1 1 1 1 1 1 1 1 1 1 0.0099733920309404821 1 1 1 1 0.0099413004721109009 1 1 1 1 1 1 1 1 1 1 1 1 1 1 1 1 1 1 1 1 1 1 1 0.0099679084411704189 1 1 0.0084978248020869118 1 1 1 1 1 1 1 0.0090967794549711729 1 1 0.0056654554972765201 1 0.00011914928754287561 1 1 1 1 1 1 1 1 1 0.009555303806206103 1 1 0.0090953175166657782 1 1 1 0.010471603750146552 1 1 1 1 1 1 1 0.010775924776210546 1 1 1 1 0.0096975000014855473 0.010408318094051679 1 1 1 1 1 1 1 1 1 0.010663829356973823 1 1 1 1 1 1 1 1 1 1 1 1 1 1 1 1 0.0094700586319418981 1 0.0095888899839465143 1 1 1 0.0082291906625242429 1 1 1 1 1 1 1 1 1 1 1 1 1 0.0086595876035655238 1 1 1 1 1 0.010288950907810152 1 1 1 0.0075390681897514415 0.010057081134373064 1 1 1 0.002798841253600956 1 1 0.0089467290556105843 1 1 1 1 0.0061492478633829884 0.010027289196434303 1 1 1 0.011648405721982858 1 1 0.010285459482585373 1 1 1 1 0.016487312861627079 1 0.015506757055125673 1 1 1 0.017530553978736763 1 1 1 1 1 1 1 1 1 1 1 1 1 1 1 1 1 1 1 1 1 0.010788015697334214 1 1 1 1 1 1 1 1 1 0.0096966041994023984 1 1 1 0.011331221712206255 1 0.010519519643407685 1 1 1 1 1 1 1 1 1 1 1 0.012180074611618741 1 1 1 1 1 0.01535928602676572 1 1 1 1 1 0.0047673847966483371 1 1 1 1 1 1 1 1 1 1 1 1 1 1 1 1 0.0043149259233174961 1 1 1 1 1 1 1 1 1 0.0052283598550252643 1 1 1 1 1 1 1 1 1 1 1 1 1 1 1 0.010151603264260399 1 1 1 1 1 1 1 1 1 1 1 1 1 1 1 1 1 1 1 1 1 1 1 1 1 1 1 1 1 0.0070159423589421718 1 1 1 1 0.011017218860308172 1 0.0079209633110383353 0.010090153274853134 1 1 1 1 1 1 0.0097497611073979924 1 0.013653461196143439 1 1 1 0.0099351185971758432 1 1 0.0039417644294186746 1 1 1 1 1 1 0.0099025080396315784 1 1 1 1 1 1 1 0.010882597053484887 1 1 1 1 0.012324805586106966 1 1 1 1 1 1 0.01038023579082824 1 1 1 1 1 1 1 1 1 1 1 1 0.010315411674597425 1 0.010286908406107917 1 1 1 1 1 1 1 0.010670523823034305 0.0098636770824841735 1 1 1 1 1 1 1 1 0.0099789223117999152 1 1 1 0.0091985769138194454 1 1 0.0097241368539972475 1 1 1 1 1 1 1 1 1 1 1 1 1 1 1 1 1 1 1 1 1 1 1 1 1 0.0099348663978789456 1 1 0.0099063452986467154 1 1 1 1 1 0.0099233967122286833 1 1 0.0097817606324870528 1 0.0082599741027626836 1 1 1 0.0099859853096967172 1 1 1 1 0.008748486841782992 1 1 0.0095947941228965647 0.01056269778494973 1 1 1 1 1 0.0099792414969945911 1 1 0.010209771816378841 1 1 1 1 1 0.010064920278143583 1 1 1 1 1 1 1 1 1 0.0099813706593344584 1 1 1 1 0.0099189195814431697 1 1 1 1 1 1 0.011379695752760717 1 0.012131200723042603 1 1 1 0.006565468870574645 1 0.021903198897575395 1 1 0.012161612271932708 1 0.0099910324383168866 1 1 1 0.009931449868321434 1 1 1 1 1 1 1 1 1 1 1 1 1 0.019034883389514069 1 1 1 1 0.02133485899492138 1 1 1 1 1 1 0.0093024245432472216 1 1 1 1 1 1 1 0.011073095883484303 1 1 1 1 1 1 0.012961346880082474 1 1 1 1 1 1 1 0.014428690344587797 1 1 0.0071412221824111027 1 1 1 1 1 1 1 1 1 0.009446956912073444 0.0064258508784200558 1 1 1 1 1 1 1 1 1 1 1 1 0.0096950221785837443 1 1 1 1 1 1 1 0.0083959817939433055 1 1 1 0.010913718242292297 1 0.0073668701118875281 1 1 0.011406009565371866 1 1 1 1 1 0.0063209696007109663 1 1 1 0.0098267546939091871 1 1 1 1 0.0096485782906142945 1 1 1 0.010066495542817643 1 1 1 1 1 1 1 0.013417291362269084 1 1 0.011230140748432925 1 1 1 0.0088943369090959748 1 1 1 0.0075876786716396541 1 1 1 1 0.0096636630161983216 1 1 1 0.012451250393803679 1 1 1 1 1 1 1 1 1 0.011158166113706992 1 1 1 1 1 1 1 1 1 0.012581636110788039 1 1 1 1 0.011453234457259268 1 1 0.013852450262075922 1 1 1 1 1 1 1 1 1 1 1 1 1 1 1 1 1 1 1 1 1 1 1 1 1 1 0.010734903807702811 1 1 1 1 1 1 1 1 1 1 1 0.011866015670685022 1 1 1 0.0097714452243874775 1 1 1 1 1 1 0.0099691575415672574 1 1 1 1 1 1 1 1 1 1 1 1 1 1 1 1 1 1 1 1 1 1 1 1 1 1 0.011043155506814728 1 0.0088655440040834727 1 1 0.01068305632620304 0.0095638279864773395 1 1 1 1 1 1 1 1 1 1 1 1 1 1 1 1 1 0.010503494788019372 1 1 1 1 1 1 1 1 1 1 1 1 1 1 1 1 1 1 1 1 1 1 1 1 1 1 1 1 1 1 1 1 1 1 1 1 1 1 1 1 1 1 1 1 1 1 1 1 1 1 1 1 1 1 1 1 1 1 1 1 1 0.0098607754285602485 1 1 0.009625333283340887 1 1 1 1 0.0093226013876655973 1 1 1 1 1 1 1 1 1 1 0.010005008057479585 1 0.019465467337597998 1 1 1 0.018940861729183932 1 1 1 0.0097901568703614352 1 0.0094394281777936753 1 1 1 0.010673892419219181 1 0.009437818045846251 1 0.011539509743420625 1 1 1 0.01573503675207636 1 1 1 1 0.009742795867262493 1 0.012562775047890553 1 1 1 1 1 0.011066429771218182 1 0.010099000289171611 0.0059606102786955613 1 1 1 1 1 1 0.01189842796128792 1 1 1 0.010038675607358707 1 1 1 1 1 1 1 1 1 1 1 1 1 1 1 1 1 1 1 0.01003751792861997 1 1 1 0.013658325071072243 0.010108577785465089 1 1 1 1 1 0.0094116596362237327 1 1 1 1 1 1 1 1 1 1 1 1 1 1 0.010266202987056612 1 1 0.015902186120984318 1 0.016203543674264319 1 1 1 0.010010153953102339 1 0.0055284378874630065 1 1 0.013242081335143506 1 1 1 1 1 1 1 1 1 1 1 0.0084923303699168569 1 1 1 1 1 1 1 1 1 1 0.01542892305764762 0.0098085486126456515 1 1 1 1 1 1 1 0.0083082970550628112 1 1 1 1 1 1 1 1 1 1 1 1 1 1 0.0092329228727042953 1 1 1 1 1 1 1 1 1 1 0.0095143258878027277 1 1 1 0.0083952995967599368 1 0.0068591383019415047 0.017855225827795317 1 1 1 1 1 1 1 1 0.0025806563256097065 1 1 1 1 1 1 1 1 1 0.0068281187503318793 1 0.012908443507109957 1 0.010320450570144891 1 1 1 1 1 1 1 1 0.0090072892466944894 1 0.0091315548217697599 1 1 1 1 1 1 0.018657948764213554 1 1 0.0069440612085540677 1 0.014061620800580182 1 1 1 1 1 1 1 1 1 1 1 1 1 1 0.013432556457926258 1 1 1 1 1 1 1 1 1 1 0.010699398527849754 1 1 1 1 1 1 0.0097829888861640964 1 1 1 1 1 1 1 1 1 1 1 1 1 1 1 1 1 1 1 1 1 1 1 1 1 0.0097581850413749859 1 1 1 1 1 0.00940908283784243 1 1 1 1 1 1 1 1 1 1 1 0.010037936467794439 1 1 1 1 0.0080729930928534512 1 1 1 1 1 0.0074817647205905648 1 1 1 1 1 0.0063935815395997735 1 1 0.005035022156103016 1 1 1 1 1 1 1 1 1 1 1 1 1 1 1 1 1 1 1 1 1 1 1 1 1 1 0.010085548909904863 1 1 0.010085522142286935 1 1 1 1 1 1 1 1 1 1 1 1 1 1 1 0.0098449053054283607 1 1 1 1 1 1 1 1 1 0.0096278941915924517 1 1 1 1 1 1 1 0.0092053054050527956 1 1 1 1 1 0.010065471548622921 1 1 1 1 1 1 0.0085058684889636315 1 1 1 1 0.0092185586805098637 1 1 1 1 1 1 1 0.01002753508082848 1 1 0.0091366768105222949 1 1 0.0093225927204307266 1 1 1 1 0.0099742257531542471 1 1 1 1 1 1 1 1 0.010351051144343315 1 1 0.012219890832013889 1 1 1 1 1 1 1 1 1 0.010302121164376532 1 1 1 1 1 0.009618013071018422 1 1 1 1 0.010776752101764389 1 1 1 0.0097405600805209516 1 1 1 1 1 1 1 1 1 1 1 0.0099731849706864127 0.0099796725890256219 1 1 1 1 1 1 1 1 1 1 1 0.011080206907332878 1 1 1 1 1 0.0094848316344883984 1 0.0080127595811095974 0.011035689914646625 1 0.0099325908015344341 0.012710786443273843 1 1 0.0099429729775284761 1 1 1 1 1 1 0.0079216391323594856 1 0.0096050285907870181 0.010006821239198063 1 1 1 1 1 0.010032631393937791 1 1 1 1 1 1 1 1 0.0082865761329735457 1 1 1 1 0.010604663324470603 1 1 1 1 1 0.010114685080157582 1 1 0.0090007744638052143 1 1 1 1 1 1 1 0.011737551359842516 1 0.0094997805260211045 1 1 1 1 1 1 1 0.0089271863653603341 0.0099272081984196608 1 1 1 1 1 1 1 0.0099477710997016803 1 1 1 1 1 1 0.0096542258788015981 1 1 1 1 1 1 1 1 1 1 1 1 1 1 0.010921538847494293 1 1 0.010307237260941333 1 1 1 1 0.0096293518270320292 1 1 1 1 0.013365392466166585 1 1 1 1 1 1 0.01411585466099282 1 1 1 1 1 1 1 0.010121093482531294 1 1 1 0.0087050096106525421 1 1 1 1 0.014959951917753978 1 1 0.0082610291871907139 1 1 1 1 1 1 1 0.013787287315073653 1 1 1 1 0.013221351335455061 1 0.0099527893094360585 1 1 1 1 1 1 1 1 1 1 1 1 1 1 0.008925006161656205 1 1 1 1 1 1 1 0.0080507724908762731 1 1 0.0092361269455948844 1 1 0.010032650180004234 1 1 1 1 1 1 1 1 1 0.013247412368287621 1 1 1 0.012393177317476783 1 1 1 1 1 1 1 1 1 0.011443127001799102 1 1 1 1 1 1 1 1 1 1 1 0.0098976201305042508 1 1 1 0.010468732134982305 1 1 1 1 1 1 1 1 1 1 1 0.0098949071855922496 1 1 1 1 1 1 1 1 1 1 0.010139024758324951 1 1 1 1 1 0.01187830628273851 1 1 1 1 1 1 1 1 0.010154888469680112 1 1 0.012272577375025894 1 1 0.012097503381688185 1 1 1 1 0.012435498284749951 0.01082008308103035 1 1 1 1 0.0090448295163828504 1 1 1 1 0.010513949226550644 1 1 0.010178998277023706 1 1 1 1 0.0028978554635460292 1 1 0.005391490436885072 1 1 1 1 1 0.007933317147073583 1 1 1 1 1 1 1 1 0.0031253362388681937 1 0.010057128539261951 1 1 1 1 1 1 1 1 1 0.013741221524595615 0.005029828040203457 1 1 1 1 1 1 0.0036999000096002172 1 1 0.017532131670409346 1 1 0.01823858382301155 1 0.0099722624595872059 1 1 1 0.012497741141380917 1 1 0.010294217850936033 1 1 1 1 1 1 1 1 0.012337099200451019 0.013195284057531023 1 1 0.0066747106461401313 0.010783204650094962 1 1 1 1 0.0071168859516802015 1 1 1 0.0084583828518444218 1 0.012036636241918029 1 0.013824218891368955 0.0027587252946132054 0.0059942728039511332 1 0.012088270706590389 1 1 1 0.010850339166904761 1 1 1 1 1 1 1 1 1 0.0021798358520584652 1 1 0.0029891115398815969 1 1 1 1 1 1 0.013644370745140549 1 1 1 1 1 1 0.010045505957246311 0.010286716742695665 0.014081926979665722 1 1 1 1 1 1 1 1 1 1 1 0.017235780374479481 1 1 1 1 0.003870113991984973 1 1 1 1 1 1 1 1 0.0044332858379262374 1 1 0.01519711252701008 1 1 1 0.010403562062349507 1 1 1 1 1 1 1 1 1 0.0099089193536989872 1 1 1 1 1 1 1 1 0.0017199981466015351 1 1 1 -4.3368086899420177e-18 1 1 0.017910404678027209 1 1 1 0.0096886606932497649 1 0.016923095818205766 1 1 0.0067047548065672169 1 0.0049357775850389016 1 1 0.01023996414520455 1 1 1 1 1 1 0.014656501998872211 1 1 0.010609670371544264 1 1 1 1 1 1 1 1 1 1 1 1 1 1 1 1 1 1 1 1 1 1 1 1 1 1 1 1 1 1 1 1 1 1 1 1 1 1 1 1 1 1 1 1 1 1 1 1 1 1 1 1 1 1 1 1 1 1 1 1 1 1 1 1 1 1 1 1 1 1 1 1 1 1 1 1 1 1 1 1 1 1 1 1 1 1 1 1 1 1 1 1 1 1 1 1 0.0093657589014439803 1 1 1 1 7.8062556418956319e-18 1 1 1 1 1 1 1 1 1 1 1 1 0.0079688211582393878 0.00094706202211310413 1 1 1 1 1 1 1 1 1 1 1 1 1 1 1 0.0083719493146543929 1 1 1 0.0068537920855704605 1 1 1 1 1 1 1 1 1 1 0.00026101807314891229 1 0.0022703361974966058 1 1 1 1 1 1 1 1 1 1 1 1 1 1 1 1 1 1 1 1 1 1 1 1 0.010224849345426891 1 1 1 1 0.010898973057746396 1 1 1 1 1 1 1 1 0.0098004020501261963 1 1 1 1 1 1 1 1 1 1 1 1 1 1 1 1 1 1 1 1 1 1 1 1 1 1 1 1 1 1 1 1 1 1 1 1 1 1 1 1 1 1 1 1 1 1 1 1 1 0.010202598638600546 1 1 1 1 1 1 1 1 1 1 1 1 1 1 1 1 1 1 1 1 1 1 1 1 1 1 1 1 1 1 1 1 0.014214683812522671 1 1 1 1 1 1 0.013520416018477309 1 1 1 1 1 1 0.0096144908741565959 1 1 0.010116361078249482 1 0.0088672414329327813 1 0.0090877622807714227 1 1 1 1 0.010700798369546717 1 1 1 1 1 0.010149021359583793 1 1 1 0.004727394082819877 0.0099694847944237878 1 1 1 0.012782627341925442 1 1 1 1 0.0077298829832983659 0.0074675764741648776 1 1 1 1 1 1 1 1 1 1 1 1 1 1 0.0096059456282182668 1 1 0.0078295946723714593 1 1 0.010225914957749325 0.011091148467196549 1 1 1 1 1 1 1 1 1 1 0.012565852689255273 1 0.011021111321131335 1 1 1 1 1 1 1 1 1 1 1 0.0098210137746184631 1 1 1 1 1 1 1 0.0095045079610400623 1 1 1 1 1 1 1 1 1 1 1 1 1 1 1 1 1 1 0.0095055429269125732 0.0068415914199879656 1 1 1 1 1 1 1 1 1 1 1 1 1 1 1 1 1 0.009072076240763869 1 1 1 1 1 1 1 1 1 0.0100577754650302 1 1 1 1 1 1 1 1 1 1 1 1 0.012801330351326683 1 1 1 1 0.011405534198112733 1 0.0046194895397847014 1 1 1 1 1 1 1 1 1 0.0077751791010034123 1 1 1 1 0.0045363656236053441 1 1 1 1 0.0080535366489329352 1 0.012027563792955109 1 1 1 1 1 1 1 1 1 1 1 1 0.010272424617574273 1 1 1 1 1 1 1 1 1 1 1 1 1 1 1 0.010377151769443239 1 0.0038192952272075777 1 1 0.010090033353022797 1 1 1 0.01004162799898242 1 0.011596695678514001 1 1 0.016967529585593374 1 1 0.0099782154265953514 1 0.0090251662324316011 1 1 1 1 1 1 1 0.012940792717474735 0.014313578660958354 1 1 1 1 0.0064868726665906241 0.0035241961709196433 1 1 0.015350529351386335 0.015634290677095982 1 0.0079995895178701232 1 1 0.0098810522466995475 0.011270664430608623 1 1 0.0099477790472665643 1 1 0.016101124713133866 1 1 1 1 1 1 1 1 0.005324779568571204 1 1 0.0056327511685248782 1 0.0057162130861394423 1 1 1 0.0090035919115940451 1 1 1 1 1 1 1 1 0.0092894800590901383 1 1 1 1 1 1 1 1 1 1 1 1 1 1 1 1 1 1 1 1 1 1 0.0097351583209715035 1 1 1 1 1 1 1 1 1 1 1 1 1 1 1 1 1 1 
</DataArray>
</CellData>
</Piece>
</UnstructuredGrid>
</VTKFile>
