<?xml version="1.0"?>
<VTKFile type="UnstructuredGrid" version="0.1" byte_order="LittleEndian">
<UnstructuredGrid>
<Piece NumberOfPoints="30578" NumberOfCells="10723">
<Points>
<DataArray type="Float64" NumberOfComponents="3" format="ascii">
-0.5 -0.5 0 -0.47439485679867832 -0.48072581506667478 0 -0.5 -0.44765434486020428 0 -0.5 -0.5 0 -0.47439485679867832 -0.48072581506667478 0 -0.43702443379937372 -0.49999999999999922 0 -0.47439485679867832 -0.48072581506667478 0 -0.45530669598391149 -0.47718009944797551 0 -0.43702443379937372 -0.49999999999999922 0 -0.47439485679867832 -0.48072581506667478 0 -0.45530669598391149 -0.47718009944797551 0 -0.4597353119515426 -0.45943449384344293 0 -0.45530669598391149 -0.47718009944797551 0 -0.44381084376742141 -0.47114793899167112 0 -0.4597353119515426 -0.45943449384344293 0 -0.45530669598391149 -0.47718009944797551 0 -0.44381084376742141 -0.47114793899167112 0 -0.43702443379937372 -0.49999999999999922 0 -0.44381084376742141 -0.47114793899167112 0 -0.43702443379937372 -0.49999999999999922 0 -0.45059725373546922 -0.44229587798334291 0 -0.4339166039271336 -0.43498117536117131 0 -0.43309128002320102 -0.45351235807576151 0 -0.44381084376742141 -0.47114793899167112 0 -0.45059725373546922 -0.44229587798334291 0 -0.4597353119515426 -0.45943449384344293 0 -0.44381084376742141 -0.47114793899167112 0 -0.45059725373546922 -0.44229587798334291 0 -0.43309128002320102 -0.45351235807576151 0 -0.44381084376742141 -0.47114793899167112 0 -0.45059725373546922 -0.44229587798334291 0 -0.4597353119515426 -0.45943449384344293 0 -0.47505511338101108 -0.44868394208069429 0 -0.46517432262153441 -0.43649963461163338 0 -0.45059725373546922 -0.44229587798334291 0 -0.4597353119515426 -0.45943449384344293 0 -0.46517432262153441 -0.43649963461163338 0 -0.47505511338101108 -0.44868394208069429 0 -0.47820614292347569 -0.42776699273468149 0 -0.46517432262153441 -0.43649963461163338 0 -0.47505511338101108 -0.44868394208069429 0 -0.47820614292347569 -0.42776699273468149 0 -0.47439485679867832 -0.48072581506667478 0 -0.47505511338101108 -0.44868394208069429 0 -0.5 -0.44765434486020428 0 -0.47439485679867832 -0.48072581506667478 0 -0.4597353119515426 -0.45943449384344293 0 -0.47505511338101108 -0.44868394208069429 0 -0.47505511338101108 -0.44868394208069429 0 -0.5 -0.44765434486020428 0 -0.47820614292347569 -0.42776699273468149 0 -0.5 -0.44765434486020428 0 -0.49656450065014057 -0.42151023988558672 0 -0.47820614292347569 -0.42776699273468149 0 -0.5 -0.44765434486020428 0 -0.49656450065014057 -0.42151023988558672 0 -0.50000000000000089 -0.37904661106745707 0 -0.49656450065014057 -0.42151023988558672 0 -0.48135717246594062 -0.40685004338866881 0 -0.47820614292347569 -0.42776699273468149 0 -0.49656450065014057 -0.42151023988558672 0 -0.48135717246594062 -0.40685004338866881 0 -0.48135717246594062 -0.40685004338866881 0 -0.47820614292347569 -0.42776699273468149 0 -0.48135717246594062 -0.40685004338866881 0 -0.47820614292347569 -0.42776699273468149 0 -0.45738366370351707 -0.41344381697501481 0 -0.49656450065014057 -0.42151023988558672 0 -0.48135717246594062 -0.40685004338866881 0 -0.50000000000000089 -0.37904661106745707 0 -0.50000000000000089 -0.37904661106745707 0 -0.48466894952205442 -0.38486603086372417 0 -0.48717439863114548 -0.36823452950912272 0 -0.48135717246594062 -0.40685004338866881 0 -0.50000000000000089 -0.37904661106745707 0 -0.48466894952205442 -0.38486603086372417 0 -0.48466894952205442 -0.38486603086372417 0 -0.48717439863114548 -0.36823452950912272 0 -0.50000000000000089 -0.37904661106745707 0 -0.48466894952205442 -0.38486603086372417 0 -0.48135717246594062 -0.40685004338866881 0 -0.48466894952205442 -0.38486603086372417 0 -0.46593083509403682 -0.39197871725165279 0 -0.48135717246594062 -0.40685004338866881 0 -0.48466894952205442 -0.38486603086372417 0 -0.48135717246594062 -0.40685004338866881 0 -0.46593083509403682 -0.39197871725165279 0 -0.48466894952205442 -0.38486603086372417 0 -0.47195833844942919 -0.37959069520904498 0 -0.46593083509403682 -0.39197871725165279 0 -0.48466894952205442 -0.38486603086372417 0 -0.46593083509403682 -0.39197871725165279 0 -0.48466894952205442 -0.38486603086372417 0 -0.47195833844942919 -0.37959069520904498 0 -0.48717439863114548 -0.36823452950912272 0 -0.46593083509403682 -0.39197871725165279 0 -0.44890944387521442 -0.39029302340116001 0 -0.45132291774153199 -0.37789636588759368 0 -0.47195833844942919 -0.37959069520904498 0 -0.46593083509403682 -0.39197871725165279 0 -0.45132291774153199 -0.37789636588759368 0 -0.46593083509403682 -0.39197871725165279 0 -0.45132291774153199 -0.37789636588759368 0 -0.48135717246594062 -0.40685004338866881 0 -0.46593083509403682 -0.39197871725165279 0 -0.45738366370351707 -0.41344381697501481 0 -0.46593083509403682 -0.39197871725165279 0 -0.44275815558040038 -0.40077469311046232 0 -0.45738366370351707 -0.41344381697501481 0 -0.46593083509403682 -0.39197871725165279 0 -0.44275815558040038 -0.40077469311046232 0 -0.46593083509403682 -0.39197871725165279 0 -0.44275815558040038 -0.40077469311046232 0 -0.44890944387521442 -0.39029302340116001 0 -0.44275815558040038 -0.40077469311046232 0 -0.44064580868350911 -0.39542861624611658 0 -0.44890944387521442 -0.39029302340116001 0 -0.44225344557501872 -0.38376649822575309 0 -0.45132291774153199 -0.37789636588759368 0 -0.43671500038902772 -0.36381401452353412 0 -0.44890944387521442 -0.39029302340116001 0 -0.44225344557501872 -0.38376649822575309 0 -0.45132291774153199 -0.37789636588759368 0 -0.44064580868350911 -0.39542861624611658 0 -0.44225344557501872 -0.38376649822575309 0 -0.43040194378266172 -0.3881600185019185 0 -0.44064580868350911 -0.39542861624611658 0 -0.44890944387521442 -0.39029302340116001 0 -0.44225344557501872 -0.38376649822575309 0 -0.47820614292347569 -0.42776699273468149 0 -0.46517432262153441 -0.43649963461163338 0 -0.45738366370351707 -0.41344381697501481 0 -0.45059725373546922 -0.44229587798334291 0 -0.45738366370351707 -0.41344381697501481 0 -0.45059725373546922 -0.44229587798334291 0 -0.46517432262153441 -0.43649963461163338 0 -0.45738366370351707 -0.41344381697501481 0 -0.44275815558040038 -0.40077469311046232 0 -0.45738366370351707 -0.41344381697501481 0 -0.44164244492799948 -0.42121090558557039 0 -0.45059725373546922 -0.44229587798334291 0 -0.45738366370351707 -0.41344381697501481 0 -0.44164244492799948 -0.42121090558557039 0 -0.45059725373546922 -0.44229587798334291 0 -0.44164244492799948 -0.42121090558557039 0 -0.4339166039271336 -0.43498117536117131 0 -0.4339166039271336 -0.43498117536117131 0 -0.42355654769347711 -0.414558964497861 0 -0.41671115160429401 -0.44095791049380378 0 -0.44164244492799948 -0.42121090558557039 0 -0.4339166039271336 -0.43498117536117131 0 -0.42355654769347711 -0.414558964497861 0 -0.44275815558040038 -0.40077469311046232 0 -0.44164244492799948 -0.42121090558557039 0 -0.42355654769347711 -0.414558964497861 0 -0.42355654769347711 -0.414558964497861 0 -0.41056920252370888 -0.3963363404412637 0 -0.40050668374064252 -0.41734442193795029 0 -0.42355654769347711 -0.414558964497861 0 -0.41671115160429401 -0.44095791049380378 0 -0.42355654769347711 -0.414558964497861 0 -0.40050668374064252 -0.41734442193795029 0 -0.41671115160429401 -0.44095791049380378 0 -0.44225344557501872 -0.38376649822575309 0 -0.43040194378266172 -0.3881600185019185 0 -0.43671500038902772 -0.36381401452353412 0 -0.43040194378266172 -0.3881600185019185 0 -0.43671500038902772 -0.36381401452353412 0 -0.44064580868350911 -0.39542861624611658 0 -0.42355654769347711 -0.414558964497861 0 -0.43040194378266172 -0.3881600185019185 0 -0.42355654769347711 -0.414558964497861 0 -0.43040194378266172 -0.3881600185019185 0 -0.44275815558040038 -0.40077469311046232 0 -0.44064580868350911 -0.39542861624611658 0 -0.42355654769347711 -0.414558964497861 0 -0.44064580868350911 -0.39542861624611658 0 -0.43040194378266172 -0.3881600185019185 0 -0.42355654769347711 -0.414558964497861 0 -0.43040194378266172 -0.3881600185019185 0 -0.41056920252370888 -0.3963363404412637 0 -0.43040194378266172 -0.3881600185019185 0 -0.4079689369259607 -0.37224253963894771 0 -0.43040194378266172 -0.3881600185019185 0 -0.41056920252370888 -0.3963363404412637 0 -0.4079689369259607 -0.37224253963894771 0 -0.41056920252370888 -0.3963363404412637 0 -0.39195929229331972 -0.37982250283040359 0 -0.4079689369259607 -0.37224253963894771 0 -0.41056920252370888 -0.3963363404412637 0 -0.39195929229331972 -0.37982250283040359 0 -0.39357845321732049 -0.39746174547711199 0 -0.41056920252370888 -0.3963363404412637 0 -0.39357845321732049 -0.39746174547711199 0 -0.40050668374064252 -0.41734442193795029 0 -0.39357845321732049 -0.39746174547711199 0 -0.38114412328536468 -0.40833987260765031 0 -0.36544727141479139 -0.39026932065168712 0 -0.39195929229331972 -0.37982250283040359 0 -0.37549160074202448 -0.3732971907138336 0 -0.36544727141479139 -0.39026932065168712 0 -0.39195929229331972 -0.37982250283040359 0 -0.39357845321732049 -0.39746174547711199 0 -0.36544727141479139 -0.39026932065168712 0 -0.40050668374064252 -0.41734442193795029 0 -0.3944977858259317 -0.43926335073686201 0 -0.41671115160429401 -0.44095791049380378 0 -0.40050668374064252 -0.41734442193795029 0 -0.38028594703985957 -0.42392304976487449 0 -0.3944977858259317 -0.43926335073686201 0 -0.39357845321732049 -0.39746174547711199 0 -0.40050668374064252 -0.41734442193795029 0 -0.38114412328536468 -0.40833987260765031 0 -0.40050668374064252 -0.41734442193795029 0 -0.38114412328536468 -0.40833987260765031 0 -0.38028594703985957 -0.42392304976487449 0 -0.38114412328536468 -0.40833987260765031 0 -0.38028594703985957 -0.42392304976487449 0 -0.36590226101420908 -0.41270082520662749 0 -0.38028594703985957 -0.42392304976487449 0 -0.3944977858259317 -0.43926335073686201 0 -0.3723601590800425 -0.44005613486137668 0 -0.3944977858259317 -0.43926335073686201 0 -0.38265619596279349 -0.45813348326120767 0 -0.3723601590800425 -0.44005613486137668 0 -0.40093272222703252 -0.45142790024540502 0 -0.3944977858259317 -0.43926335073686201 0 -0.38265619596279349 -0.45813348326120767 0 -0.40093272222703252 -0.45142790024540502 0 -0.3944977858259317 -0.43926335073686201 0 -0.41671115160429401 -0.44095791049380378 0 -0.38265619596279349 -0.45813348326120767 0 -0.40986575551511062 -0.46735685648974662 0 -0.38265619596279349 -0.45813348326120767 0 -0.39389470715733632 -0.47355095168427308 0 -0.40986575551511062 -0.46735685648974662 0 -0.40093272222703252 -0.45142790024540502 0 -0.38265619596279349 -0.45813348326120767 0 -0.40986575551511062 -0.46735685648974662 0 -0.38265619596279349 -0.45813348326120767 0 -0.38272382101637098 -0.47243968377412587 0 -0.39389470715733632 -0.47355095168427308 0 -0.38272382101637098 -0.47243968377412587 0 -0.38859428369766791 -0.48614630665141417 0 -0.36652141413456929 -0.48474993749143802 0 -0.38272382101637098 -0.47243968377412587 0 -0.38859428369766791 -0.48614630665141417 0 -0.39389470715733632 -0.47355095168427308 0 -0.37500484199342449 -0.5 0 -0.38859428369766791 -0.48614630665141417 0 -0.40140120367436599 -0.49999999999999611 0 -0.37500484199342449 -0.5 0 -0.38859428369766791 -0.48614630665141417 0 -0.36652141413456929 -0.48474993749143802 0 -0.38859428369766791 -0.48614630665141417 0 -0.40140120367436599 -0.49999999999999611 0 -0.40563347959473789 -0.48367842824487117 0 -0.40140120367436599 -0.49999999999999611 0 -0.40563347959473789 -0.48367842824487117 0 -0.40563347959473789 -0.48367842824487117 0 -0.39389470715733632 -0.47355095168427308 0 -0.40986575551511062 -0.46735685648974662 0 -0.38859428369766791 -0.48614630665141417 0 -0.40563347959473789 -0.48367842824487117 0 -0.39389470715733632 -0.47355095168427308 0 -0.40563347959473789 -0.48367842824487117 0 -0.40986575551511062 -0.46735685648974662 0 -0.42809744812538553 -0.47353695305504512 0 -0.40986575551511062 -0.46735685648974662 0 -0.4199949121527507 -0.4855396040697898 0 -0.42809744812538553 -0.47353695305504512 0 -0.40986575551511062 -0.46735685648974662 0 -0.40563347959473789 -0.48367842824487117 0 -0.4199949121527507 -0.4855396040697898 0 -0.40986575551511062 -0.46735685648974662 0 -0.40563347959473789 -0.48367842824487117 0 -0.4199949121527507 -0.4855396040697898 0 -0.41921281873686977 -0.5 0 -0.40140120367436599 -0.49999999999999611 0 -0.40563347959473789 -0.48367842824487117 0 -0.41921281873686977 -0.5 0 -0.4199949121527507 -0.4855396040697898 0 -0.41921281873686977 -0.5 0 -0.43702443379937372 -0.49999999999999922 0 -0.4199949121527507 -0.4855396040697898 0 -0.43702443379937372 -0.49999999999999922 0 -0.42809744812538553 -0.47353695305504512 0 -0.44381084376742141 -0.47114793899167112 0 -0.43702443379937372 -0.49999999999999922 0 -0.42809744812538553 -0.47353695305504512 0 -0.42809744812538553 -0.47353695305504512 0 -0.42194140881699782 -0.45884101952858919 0 -0.43309128002320102 -0.45351235807576151 0 -0.44381084376742141 -0.47114793899167112 0 -0.42809744812538553 -0.47353695305504512 0 -0.43309128002320102 -0.45351235807576151 0 -0.4339166039271336 -0.43498117536117131 0 -0.43309128002320102 -0.45351235807576151 0 -0.41671115160429401 -0.44095791049380378 0 -0.42194140881699782 -0.45884101952858919 0 -0.43309128002320102 -0.45351235807576151 0 -0.41671115160429401 -0.44095791049380378 0 -0.42194140881699782 -0.45884101952858919 0 -0.41671115160429401 -0.44095791049380378 0 -0.40986575551511062 -0.46735685648974662 0 -0.41671115160429401 -0.44095791049380378 0 -0.40986575551511062 -0.46735685648974662 0 -0.40093272222703252 -0.45142790024540502 0 -0.41671115160429401 -0.44095791049380378 0 -0.40986575551511062 -0.46735685648974662 0 -0.42809744812538553 -0.47353695305504512 0 -0.42194140881699782 -0.45884101952858919 0 -0.40986575551511062 -0.46735685648974662 0 -0.45828666285701658 -0.26028432573271792 0 -0.43487007995442373 -0.25384069753834382 0 -0.45658005330295048 -0.2439827770756183 0 -0.43864273500925549 -0.2751587481676856 0 -0.45828666285701658 -0.26028432573271792 0 -0.43487007995442373 -0.25384069753834382 0 -0.43864273500925549 -0.2751587481676856 0 -0.45645423860141388 -0.27827293425430932 0 -0.45828666285701658 -0.26028432573271792 0 -0.43864273500925549 -0.2751587481676856 0 -0.45828666285701658 -0.26028432573271792 0 -0.45645423860141388 -0.27827293425430932 0 -0.47869064668718631 -0.2683854874950159 0 -0.47091363495918082 -0.28947603344621109 0 -0.45645423860141388 -0.27827293425430932 0 -0.45828666285701658 -0.26028432573271792 0 -0.47869064668718631 -0.2683854874950159 0 -0.45828666285701658 -0.26028432573271792 0 -0.47793059070477772 -0.24540990329775009 0 -0.45828666285701658 -0.26028432573271792 0 -0.47869064668718631 -0.2683854874950159 0 -0.47793059070477772 -0.24540990329775009 0 -0.4872249908214738 -0.25598993182963242 0 -0.47869064668718631 -0.2683854874950159 0 -0.47793059070477772 -0.24540990329775009 0 -0.4872249908214738 -0.25598993182963242 0 -0.5 -0.25006354863638108 0 -0.5 -0.27586016112259643 0 -0.4872249908214738 -0.25598993182963242 0 -0.5 -0.25006354863638108 0 -0.49068252501969761 -0.24549971615663649 0 -0.4872249908214738 -0.25598993182963242 0 -0.5 -0.27586016112259643 0 -0.47869064668718631 -0.2683854874950159 0 -0.5 -0.27586016112259643 0 -0.47869064668718631 -0.2683854874950159 0 -0.48721788021035761 -0.2882082846164955 0 -0.47869064668718631 -0.2683854874950159 0 -0.47091363495918082 -0.28947603344621109 0 -0.48721788021035761 -0.2882082846164955 0 -0.47091363495918082 -0.28947603344621109 0 -0.48721788021035761 -0.2882082846164955 0 -0.48161809245015419 -0.30465866835107641 0 -0.5 -0.27586016112259643 0 -0.48721788021035761 -0.2882082846164955 0 -0.5 -0.3016567736088116 0 -0.48721788021035761 -0.2882082846164955 0 -0.5 -0.3016567736088116 0 -0.48161809245015419 -0.30465866835107641 0 -0.5 -0.3016567736088116 0 -0.48161809245015419 -0.30465866835107641 0 -0.5 -0.32745338609502678 0 -0.47091363495918082 -0.28947603344621109 0 -0.48161809245015419 -0.30465866835107641 0 -0.45879166701778518 -0.3036258058313378 0 -0.48161809245015419 -0.30465866835107641 0 -0.45879166701778518 -0.3036258058313378 0 -0.47638885418803739 -0.32253493654140952 0 -0.45645423860141388 -0.27827293425430932 0 -0.47091363495918082 -0.28947603344621109 0 -0.45879166701778518 -0.3036258058313378 0 -0.45645423860141388 -0.27827293425430932 0 -0.45879166701778518 -0.3036258058313378 0 -0.43905227881958647 -0.29505920944709452 0 -0.43864273500925549 -0.2751587481676856 0 -0.45645423860141388 -0.27827293425430932 0 -0.43905227881958647 -0.29505920944709452 0 -0.45879166701778518 -0.3036258058313378 0 -0.43905227881958647 -0.29505920944709452 0 -0.4399695753826649 -0.31139282438396382 0 -0.4399695753826649 -0.31139282438396382 0 -0.45223868162566522 -0.32343332413938758 0 -0.42808850906329299 -0.32433171173736591 0 -0.45879166701778518 -0.3036258058313378 0 -0.4399695753826649 -0.31139282438396382 0 -0.45223868162566522 -0.32343332413938758 0 -0.45223868162566522 -0.32343332413938758 0 -0.42808850906329299 -0.32433171173736591 0 -0.45223868162566522 -0.32343332413938758 0 -0.44207286924452832 -0.33783824796895978 0 -0.46140244920768408 -0.33754740415941759 0 -0.44207286924452832 -0.33783824796895978 0 -0.46140244920768408 -0.33754740415941759 0 -0.45117994904742642 -0.3486532256997657 0 -0.45223868162566522 -0.32343332413938758 0 -0.44207286924452832 -0.33783824796895978 0 -0.42808850906329299 -0.32433171173736591 0 -0.45879166701778518 -0.3036258058313378 0 -0.45223868162566522 -0.32343332413938758 0 -0.47638885418803739 -0.32253493654140952 0 -0.45223868162566522 -0.32343332413938758 0 -0.46140244920768408 -0.33754740415941759 0 -0.47638885418803739 -0.32253493654140952 0 -0.45223868162566522 -0.32343332413938758 0 -0.47638885418803739 -0.32253493654140952 0 -0.48161809245015419 -0.30465866835107641 0 -0.47638885418803739 -0.32253493654140952 0 -0.5 -0.32745338609502678 0 -0.47638885418803739 -0.32253493654140952 0 -0.5 -0.32745338609502678 0 -0.48104103145021149 -0.34129537751375599 0 -0.5 -0.32745338609502678 0 -0.48104103145021149 -0.34129537751375599 0 -0.5 -0.35324999858124201 0 -0.46140244920768408 -0.33754740415941759 0 -0.48104103145021149 -0.34129537751375599 0 -0.46549330969023639 -0.35152931309322771 0 -0.46140244920768408 -0.33754740415941759 0 -0.47638885418803739 -0.32253493654140952 0 -0.48104103145021149 -0.34129537751375599 0 -0.48104103145021149 -0.34129537751375599 0 -0.48025743214923627 -0.35616585996071459 0 -0.46549330969023639 -0.35152931309322771 0 -0.48025743214923627 -0.35616585996071459 0 -0.46757842097458802 -0.36652008110622503 0 -0.46549330969023639 -0.35152931309322771 0 -0.48025743214923627 -0.35616585996071459 0 -0.5 -0.35324999858124201 0 -0.48717439863114548 -0.36823452950912272 0 -0.48104103145021149 -0.34129537751375599 0 -0.48025743214923627 -0.35616585996071459 0 -0.5 -0.35324999858124201 0 -0.50000000000000089 -0.37904661106745707 0 -0.5 -0.35324999858124201 0 -0.48717439863114548 -0.36823452950912272 0 -0.47195833844942919 -0.37959069520904498 0 -0.48717439863114548 -0.36823452950912272 0 -0.46757842097458802 -0.36652008110622503 0 -0.48025743214923627 -0.35616585996071459 0 -0.48717439863114548 -0.36823452950912272 0 -0.46757842097458802 -0.36652008110622503 0 -0.45132291774153199 -0.37789636588759368 0 -0.46757842097458802 -0.36652008110622503 0 -0.45216690816074923 -0.36231126303824313 0 -0.47195833844942919 -0.37959069520904498 0 -0.45132291774153199 -0.37789636588759368 0 -0.46757842097458802 -0.36652008110622503 0 -0.46757842097458802 -0.36652008110622503 0 -0.46549330969023639 -0.35152931309322771 0 -0.45216690816074923 -0.36231126303824313 0 -0.46140244920768408 -0.33754740415941759 0 -0.46549330969023639 -0.35152931309322771 0 -0.45117994904742642 -0.3486532256997657 0 -0.46549330969023639 -0.35152931309322771 0 -0.45117994904742642 -0.3486532256997657 0 -0.45216690816074923 -0.36231126303824313 0 -0.44599028472907742 -0.35554349803526408 0 -0.45117994904742642 -0.3486532256997657 0 -0.45216690816074923 -0.36231126303824313 0 -0.44599028472907742 -0.35554349803526408 0 -0.45117994904742642 -0.3486532256997657 0 -0.44228407783080631 -0.34851364977492799 0 -0.44207286924452832 -0.33783824796895978 0 -0.44228407783080631 -0.34851364977492799 0 -0.43394442261003058 -0.34546672586134508 0 -0.44228407783080631 -0.34851364977492799 0 -0.43858436747801349 -0.35660488883003821 0 -0.43394442261003058 -0.34546672586134508 0 -0.44207286924452832 -0.33783824796895978 0 -0.45117994904742642 -0.3486532256997657 0 -0.44228407783080631 -0.34851364977492799 0 -0.44599028472907742 -0.35554349803526408 0 -0.44228407783080631 -0.34851364977492799 0 -0.43858436747801349 -0.35660488883003821 0 -0.44599028472907742 -0.35554349803526408 0 -0.43858436747801349 -0.35660488883003821 0 -0.43671500038902772 -0.36381401452353412 0 -0.43858436747801349 -0.35660488883003821 0 -0.43671500038902772 -0.36381401452353412 0 -0.44599028472907742 -0.35554349803526408 0 -0.45216690816074923 -0.36231126303824313 0 -0.43671500038902772 -0.36381401452353412 0 -0.45132291774153199 -0.37789636588759368 0 -0.43671500038902772 -0.36381401452353412 0 -0.45132291774153199 -0.37789636588759368 0 -0.45216690816074923 -0.36231126303824313 0 -0.43671500038902772 -0.36381401452353412 0 -0.43040194378266172 -0.3881600185019185 0 -0.43671500038902772 -0.36381401452353412 0 -0.4079689369259607 -0.37224253963894771 0 -0.43858436747801349 -0.35660488883003821 0 -0.43671500038902772 -0.36381401452353412 0 -0.41901032175007979 -0.34674631764622038 0 -0.43671500038902772 -0.36381401452353412 0 -0.41901032175007979 -0.34674631764622038 0 -0.43858436747801349 -0.35660488883003821 0 -0.43394442261003058 -0.34546672586134508 0 -0.41901032175007979 -0.34674631764622038 0 -0.41901032175007979 -0.34674631764622038 0 -0.4079689369259607 -0.37224253963894771 0 -0.40160491304204049 -0.35527610236370899 0 -0.43671500038902772 -0.36381401452353412 0 -0.41901032175007979 -0.34674631764622038 0 -0.4079689369259607 -0.37224253963894771 0 -0.4079689369259607 -0.37224253963894771 0 -0.38553593006925752 -0.3563250607759802 0 -0.4079689369259607 -0.37224253963894771 0 -0.38553593006925752 -0.3563250607759802 0 -0.40160491304204049 -0.35527610236370899 0 -0.39195929229331972 -0.37982250283040359 0 -0.4079689369259607 -0.37224253963894771 0 -0.38553593006925752 -0.3563250607759802 0 -0.39195929229331972 -0.37982250283040359 0 -0.37549160074202448 -0.3732971907138336 0 -0.38553593006925752 -0.3563250607759802 0 -0.37549160074202448 -0.3732971907138336 0 -0.38553593006925752 -0.3563250607759802 0 -0.38553593006925752 -0.3563250607759802 0 -0.36666079927166728 -0.34293209489202431 0 -0.38553593006925752 -0.3563250607759802 0 -0.39342078659019603 -0.34300184077244372 0 -0.38006824781918919 -0.33243312042550199 0 -0.38553593006925752 -0.3563250607759802 0 -0.38006824781918919 -0.33243312042550199 0 -0.36666079927166728 -0.34293209489202431 0 -0.38553593006925752 -0.3563250607759802 0 -0.39342078659019603 -0.34300184077244372 0 -0.41901032175007979 -0.34674631764622038 0 -0.40160491304204049 -0.35527610236370899 0 -0.39342078659019603 -0.34300184077244372 0 -0.38553593006925752 -0.3563250607759802 0 -0.40160491304204049 -0.35527610236370899 0 -0.39342078659019603 -0.34300184077244372 0 -0.41901032175007979 -0.34674631764622038 0 -0.40130564311113259 -0.32967862076890581 0 -0.39342078659019603 -0.34300184077244372 0 -0.40130564311113259 -0.32967862076890581 0 -0.39064670272592411 -0.32967160323888278 0 -0.39342078659019603 -0.34300184077244372 0 -0.40130564311113259 -0.32967862076890581 0 -0.39342078659019603 -0.34300184077244372 0 -0.39064670272592411 -0.32967160323888278 0 -0.39342078659019603 -0.34300184077244372 0 -0.38006824781918919 -0.33243312042550199 0 -0.38006824781918919 -0.33243312042550199 0 -0.38935907146989862 -0.31816186479418052 0 -0.37140736883531977 -0.32183989730859341 0 -0.38935907146989862 -0.31816186479418052 0 -0.38351210912712752 -0.30253866195360818 0 -0.37140736883531977 -0.32183989730859341 0 -0.39064670272592411 -0.32967160323888278 0 -0.38006824781918919 -0.33243312042550199 0 -0.38935907146989862 -0.31816186479418052 0 -0.38935907146989862 -0.31816186479418052 0 -0.401514660155255 -0.31819685637317691 0 -0.39554973675391708 -0.30949047449279188 0 -0.40130564311113259 -0.32967862076890581 0 -0.38935907146989862 -0.31816186479418052 0 -0.40130564311113259 -0.32967862076890581 0 -0.38935907146989862 -0.31816186479418052 0 -0.39962023335203928 -0.32539073298322901 0 -0.38935907146989862 -0.31816186479418052 0 -0.39962023335203928 -0.32539073298322901 0 -0.401514660155255 -0.31819685637317691 0 -0.40130564311113259 -0.32967862076890581 0 -0.39064670272592411 -0.32967160323888278 0 -0.38935907146989862 -0.31816186479418052 0 -0.40130564311113259 -0.32967862076890581 0 -0.39962023335203928 -0.32539073298322901 0 -0.4039383365009207 -0.3252300993353433 0 -0.39962023335203928 -0.32539073298322901 0 -0.4039383365009207 -0.3252300993353433 0 -0.39962023335203928 -0.32539073298322901 0 -0.4039383365009207 -0.3252300993353433 0 -0.401514660155255 -0.31819685637317691 0 -0.40130564311113259 -0.32967862076890581 0 -0.4039383365009207 -0.3252300993353433 0 -0.401514660155255 -0.31819685637317691 0 -0.4088463285069534 -0.31693695448250642 0 -0.4053668684804122 -0.3086126184714344 0 -0.4039383365009207 -0.3252300993353433 0 -0.401514660155255 -0.31819685637317691 0 -0.4088463285069534 -0.31693695448250642 0 -0.4039383365009207 -0.3252300993353433 0 -0.42808850906329299 -0.32433171173736591 0 -0.4088463285069534 -0.31693695448250642 0 -0.42808850906329299 -0.32433171173736591 0 -0.41503252140001728 -0.31110728079830707 0 -0.4039383365009207 -0.3252300993353433 0 -0.4088463285069534 -0.31693695448250642 0 -0.42808850906329299 -0.32433171173736591 0 -0.4039383365009207 -0.3252300993353433 0 -0.41609663568284688 -0.33258428014908531 0 -0.42808850906329299 -0.32433171173736591 0 -0.4039383365009207 -0.3252300993353433 0 -0.4088463285069534 -0.31693695448250642 0 -0.40130564311113259 -0.32967862076890581 0 -0.4039383365009207 -0.3252300993353433 0 -0.41609663568284688 -0.33258428014908531 0 -0.41901032175007979 -0.34674631764622038 0 -0.40130564311113259 -0.32967862076890581 0 -0.41609663568284688 -0.33258428014908531 0 -0.41901032175007979 -0.34674631764622038 0 -0.40130564311113259 -0.32967862076890581 0 -0.41901032175007979 -0.34674631764622038 0 -0.41609663568284688 -0.33258428014908531 0 -0.42777047674672519 -0.33763052508657909 0 -0.41609663568284688 -0.33258428014908531 0 -0.42777047674672519 -0.33763052508657909 0 -0.42808850906329299 -0.32433171173736591 0 -0.43394442261003058 -0.34546672586134508 0 -0.41901032175007979 -0.34674631764622038 0 -0.42777047674672519 -0.33763052508657909 0 -0.44207286924452832 -0.33783824796895978 0 -0.43394442261003058 -0.34546672586134508 0 -0.42777047674672519 -0.33763052508657909 0 -0.44207286924452832 -0.33783824796895978 0 -0.42777047674672519 -0.33763052508657909 0 -0.42808850906329299 -0.32433171173736591 0 -0.4399695753826649 -0.31139282438396382 0 -0.42808850906329299 -0.32433171173736591 0 -0.42349591428063971 -0.31031667424466408 0 -0.42808850906329299 -0.32433171173736591 0 -0.42349591428063971 -0.31031667424466408 0 -0.41503252140001728 -0.31110728079830707 0 -0.43905227881958647 -0.29505920944709452 0 -0.42349591428063971 -0.31031667424466408 0 -0.41899880716149451 -0.29003317060265321 0 -0.43905227881958647 -0.29505920944709452 0 -0.4399695753826649 -0.31139282438396382 0 -0.42349591428063971 -0.31031667424466408 0 -0.43864273500925549 -0.2751587481676856 0 -0.43905227881958647 -0.29505920944709452 0 -0.41899880716149451 -0.29003317060265321 0 -0.43864273500925549 -0.2751587481676856 0 -0.41899880716149451 -0.29003317060265321 0 -0.41649742047364408 -0.2919272257303569 0 -0.41502826726935188 -0.28951283527362931 0 -0.41151645216318689 -0.29124877083691719 0 -0.41899880716149451 -0.29003317060265321 0 -0.41649742047364408 -0.2919272257303569 0 -0.41502826726935188 -0.28951283527362931 0 -0.41899880716149451 -0.29003317060265321 0 -0.41649742047364408 -0.2919272257303569 0 -0.41899880716149451 -0.29003317060265321 0 -0.41502826726935188 -0.28951283527362931 0 -0.41310038927908221 -0.28484217392458988 0 -0.41310038927908221 -0.28484217392458988 0 -0.40629814920556201 -0.2872410904076857 0 -0.40433064532645308 -0.27892106023783952 0 -0.41502826726935188 -0.28951283527362931 0 -0.41310038927908221 -0.28484217392458988 0 -0.41151645216318689 -0.29124877083691719 0 -0.41310038927908221 -0.28484217392458988 0 -0.40629814920556201 -0.2872410904076857 0 -0.41151645216318689 -0.29124877083691719 0 -0.41649742047364408 -0.2919272257303569 0 -0.41151645216318689 -0.29124877083691719 0 -0.41283916949633909 -0.29890888486812428 0 -0.40629814920556201 -0.2872410904076857 0 -0.41151645216318689 -0.29124877083691719 0 -0.4052488046064433 -0.29379102377099447 0 -0.41151645216318689 -0.29124877083691719 0 -0.41283916949633909 -0.29890888486812428 0 -0.4052488046064433 -0.29379102377099447 0 -0.42349591428063971 -0.31031667424466408 0 -0.41899880716149451 -0.29003317060265321 0 -0.42349591428063971 -0.31031667424466408 0 -0.41649742047364408 -0.2919272257303569 0 -0.41283916949633909 -0.29890888486812428 0 -0.42349591428063971 -0.31031667424466408 0 -0.41899880716149451 -0.29003317060265321 0 -0.41649742047364408 -0.2919272257303569 0 -0.40711072979061191 -0.30081998795009107 0 -0.41283916949633909 -0.29890888486812428 0 -0.4052488046064433 -0.29379102377099447 0 -0.40711072979061191 -0.30081998795009107 0 -0.41283916949633909 -0.29890888486812428 0 -0.41256685577174013 -0.30556786269479153 0 -0.42349591428063971 -0.31031667424466408 0 -0.41283916949633909 -0.29890888486812428 0 -0.41256685577174013 -0.30556786269479153 0 -0.42349591428063971 -0.31031667424466408 0 -0.41503252140001728 -0.31110728079830707 0 -0.41256685577174013 -0.30556786269479153 0 -0.4088463285069534 -0.31693695448250642 0 -0.41503252140001728 -0.31110728079830707 0 -0.4053668684804122 -0.3086126184714344 0 -0.41503252140001728 -0.31110728079830707 0 -0.41256685577174013 -0.30556786269479153 0 -0.4053668684804122 -0.3086126184714344 0 -0.40711072979061191 -0.30081998795009107 0 -0.41256685577174013 -0.30556786269479153 0 -0.4053668684804122 -0.3086126184714344 0 -0.401514660155255 -0.31819685637317691 0 -0.4053668684804122 -0.3086126184714344 0 -0.39554973675391708 -0.30949047449279188 0 -0.4053668684804122 -0.3086126184714344 0 -0.39799597453689262 -0.29994237087155962 0 -0.39554973675391708 -0.30949047449279188 0 -0.40711072979061191 -0.30081998795009107 0 -0.4053668684804122 -0.3086126184714344 0 -0.39799597453689262 -0.29994237087155962 0 -0.40711072979061191 -0.30081998795009107 0 -0.39799597453689262 -0.29994237087155962 0 -0.4052488046064433 -0.29379102377099447 0 -0.39799597453689262 -0.29994237087155962 0 -0.39554973675391708 -0.30949047449279188 0 -0.38351210912712752 -0.30253866195360818 0 -0.38935907146989862 -0.31816186479418052 0 -0.39554973675391708 -0.30949047449279188 0 -0.38351210912712752 -0.30253866195360818 0 -0.38351210912712752 -0.30253866195360818 0 -0.3950660262777419 -0.28803976586637831 0 -0.37433096522584453 -0.28132989654828328 0 -0.39799597453689262 -0.29994237087155962 0 -0.38351210912712752 -0.30253866195360818 0 -0.3950660262777419 -0.28803976586637831 0 -0.39799597453689262 -0.29994237087155962 0 -0.3950660262777419 -0.28803976586637831 0 -0.4052488046064433 -0.29379102377099447 0 -0.40629814920556201 -0.2872410904076857 0 -0.3950660262777419 -0.28803976586637831 0 -0.4052488046064433 -0.29379102377099447 0 -0.40629814920556201 -0.2872410904076857 0 -0.3950660262777419 -0.28803976586637831 0 -0.40433064532645308 -0.27892106023783952 0 -0.40433064532645308 -0.27892106023783952 0 -0.39374553591587069 -0.27251425727467649 0 -0.41316010660589619 -0.2636986180010682 0 -0.39374553591587069 -0.27251425727467649 0 -0.41316010660589619 -0.2636986180010682 0 -0.3950660262777419 -0.28803976586637831 0 -0.40433064532645308 -0.27892106023783952 0 -0.39374553591587069 -0.27251425727467649 0 -0.39374553591587069 -0.27251425727467649 0 -0.37433096522584453 -0.28132989654828328 0 -0.3950660262777419 -0.28803976586637831 0 -0.39374553591587069 -0.27251425727467649 0 -0.37433096522584453 -0.28132989654828328 0 -0.39374553591587069 -0.27251425727467649 0 -0.37648826808451968 -0.27741199289956509 0 -0.37433096522584453 -0.28132989654828328 0 -0.39374553591587069 -0.27251425727467649 0 -0.37598097480723441 -0.26745556380373348 0 -0.38363075469537122 -0.26088114511686322 0 -0.39374553591587069 -0.27251425727467649 0 -0.37598097480723441 -0.26745556380373348 0 -0.37648826808451968 -0.27741199289956509 0 -0.37598097480723441 -0.26745556380373348 0 -0.37648826808451968 -0.27741199289956509 0 -0.37277902062147272 -0.27405557492128901 0 -0.37648826808451968 -0.27741199289956509 0 -0.37433096522584453 -0.28132989654828328 0 -0.38363075469537122 -0.26088114511686322 0 -0.37393540655460039 -0.25504906339868932 0 -0.38258347849844832 -0.24967798674395081 0 -0.37598097480723441 -0.26745556380373348 0 -0.38363075469537122 -0.26088114511686322 0 -0.37393540655460039 -0.25504906339868932 0 -0.38363075469537122 -0.26088114511686322 0 -0.3945867816951415 -0.25828321704239809 0 -0.38258347849844832 -0.24967798674395081 0 -0.3945867816951415 -0.25828321704239809 0 -0.3933004523496676 -0.24484402304582939 0 -0.38258347849844832 -0.24967798674395081 0 -0.39374553591587069 -0.27251425727467649 0 -0.3945867816951415 -0.25828321704239809 0 -0.41316010660589619 -0.2636986180010682 0 -0.3945867816951415 -0.25828321704239809 0 -0.41316010660589619 -0.2636986180010682 0 -0.40847937369743209 -0.24258689873782929 0 -0.39374553591587069 -0.27251425727467649 0 -0.38363075469537122 -0.26088114511686322 0 -0.3945867816951415 -0.25828321704239809 0 -0.41316010660589619 -0.2636986180010682 0 -0.42931567121415071 -0.25028064732030619 0 -0.40847937369743209 -0.24258689873782929 0 -0.41316010660589619 -0.2636986180010682 0 -0.40847937369743209 -0.24258689873782929 0 -0.41899880716149451 -0.29003317060265321 0 -0.41310038927908221 -0.28484217392458988 0 -0.41316010660589619 -0.2636986180010682 0 -0.41310038927908221 -0.28484217392458988 0 -0.40433064532645308 -0.27892106023783952 0 -0.41316010660589619 -0.2636986180010682 0 -0.41899880716149451 -0.29003317060265321 0 -0.41316010660589619 -0.2636986180010682 0 -0.42551969657153998 -0.27199364899169498 0 -0.41899880716149451 -0.29003317060265321 0 -0.41316010660589619 -0.2636986180010682 0 -0.43864273500925549 -0.2751587481676856 0 -0.42551969657153998 -0.27199364899169498 0 -0.43487007995442373 -0.25384069753834382 0 -0.43864273500925549 -0.2751587481676856 0 -0.41899880716149451 -0.29003317060265321 0 -0.42551969657153998 -0.27199364899169498 0 -0.41316010660589619 -0.2636986180010682 0 -0.43487007995442373 -0.25384069753834382 0 -0.41316010660589619 -0.2636986180010682 0 -0.42551969657153998 -0.27199364899169498 0 -0.43487007995442373 -0.25384069753834382 0 -0.41316010660589619 -0.2636986180010682 0 -0.43487007995442373 -0.25384069753834382 0 -0.42931567121415071 -0.25028064732030619 0 -0.32316489217708799 -0.25890650528201359 0 -0.32888695585781391 -0.26910619260742191 0 -0.31032083431566337 -0.26180085087236171 0 -0.32316489217708799 -0.25890650528201359 0 -0.32888695585781391 -0.26910619260742191 0 -0.33131030172746923 -0.25321851497678438 0 -0.32888695585781391 -0.26910619260742191 0 -0.31032083431566337 -0.26180085087236171 0 -0.32316489217708799 -0.25890650528201359 0 -0.33131030172746923 -0.25321851497678438 0 -0.32202724095639168 -0.2495658441092535 0 -0.32316489217708799 -0.25890650528201359 0 -0.31032083431566337 -0.26180085087236171 0 -0.32202724095639168 -0.2495658441092535 0 -0.31032083431566337 -0.26180085087236171 0 -0.32202724095639168 -0.2495658441092535 0 -0.31283906540333922 -0.25031215033235238 0 -0.31032083431566337 -0.26180085087236171 0 -0.32202724095639168 -0.2495658441092535 0 -0.31480478096024378 -0.27564718726691712 0 -0.32888695585781391 -0.26910619260742191 0 -0.31032083431566337 -0.26180085087236171 0 -0.31480478096024378 -0.27564718726691712 0 -0.32888695585781391 -0.26910619260742191 0 -0.32507396769595592 -0.29410449247197662 0 -0.32888695585781391 -0.26910619260742191 0 -0.3381311227387106 -0.26238754928509761 0 -0.34453036853746388 -0.27526151563856671 0 -0.32888695585781391 -0.26910619260742191 0 -0.34453036853746388 -0.27526151563856671 0 -0.33279411355556121 -0.28213246275860349 0 -0.32888695585781391 -0.26910619260742191 0 -0.34453036853746388 -0.27526151563856671 0 -0.34453036853746388 -0.27526151563856671 0 -0.34450588037081892 -0.28462367662190302 0 -0.33279411355556121 -0.28213246275860349 0 -0.32888695585781391 -0.26910619260742191 0 -0.33131030172746923 -0.25321851497678438 0 -0.32888695585781391 -0.26910619260742191 0 -0.3381311227387106 -0.26238754928509761 0 -0.33131030172746923 -0.25321851497678438 0 -0.3381311227387106 -0.26238754928509761 0 -0.34897267059429732 -0.25990550268967838 0 -0.3420777495351906 -0.24844208584564559 0 -0.3381311227387106 -0.26238754928509761 0 -0.33131030172746923 -0.25321851497678438 0 -0.3420777495351906 -0.24844208584564559 0 -0.34897267059429732 -0.25990550268967838 0 -0.35255150303394622 -0.24812522560144931 0 -0.3420777495351906 -0.24844208584564559 0 -0.34897267059429732 -0.25990550268967838 0 -0.35751050643918753 -0.2560897164936603 0 -0.35722060467742811 -0.26762499714769428 0 -0.34897267059429732 -0.25990550268967838 0 -0.35751050643918753 -0.2560897164936603 0 -0.35255150303394622 -0.24812522560144931 0 -0.35751050643918753 -0.2560897164936603 0 -0.363557814049559 -0.2486896754833777 0 -0.35255150303394622 -0.24812522560144931 0 -0.35751050643918753 -0.2560897164936603 0 -0.36561260290989678 -0.26128521942254013 0 -0.363557814049559 -0.2486896754833777 0 -0.35751050643918753 -0.2560897164936603 0 -0.36561260290989678 -0.26128521942254013 0 -0.35722060467742811 -0.26762499714769428 0 -0.37598097480723441 -0.26745556380373348 0 -0.36561260290989678 -0.26128521942254013 0 -0.37393540655460039 -0.25504906339868932 0 -0.36561260290989678 -0.26128521942254013 0 -0.37393540655460039 -0.25504906339868932 0 -0.363557814049559 -0.2486896754833777 0 -0.37277902062147272 -0.27405557492128901 0 -0.36654922363893422 -0.27215591673696138 0 -0.37433096522584453 -0.28132989654828328 0 -0.37648826808451968 -0.27741199289956509 0 -0.37277902062147272 -0.27405557492128901 0 -0.37433096522584453 -0.28132989654828328 0 -0.37598097480723441 -0.26745556380373348 0 -0.37277902062147272 -0.27405557492128901 0 -0.36654922363893422 -0.27215591673696138 0 -0.37598097480723441 -0.26745556380373348 0 -0.36561260290989678 -0.26128521942254013 0 -0.36654922363893422 -0.27215591673696138 0 -0.36561260290989678 -0.26128521942254013 0 -0.36654922363893422 -0.27215591673696138 0 -0.35722060467742811 -0.26762499714769428 0 -0.36654922363893422 -0.27215591673696138 0 -0.35722060467742811 -0.26762499714769428 0 -0.36017378121711419 -0.28141683866971062 0 -0.36654922363893422 -0.27215591673696138 0 -0.36017378121711419 -0.28141683866971062 0 -0.37433096522584453 -0.28132989654828328 0 -0.34453036853746388 -0.27526151563856671 0 -0.36017378121711419 -0.28141683866971062 0 -0.35722060467742811 -0.26762499714769428 0 -0.34453036853746388 -0.27526151563856671 0 -0.36017378121711419 -0.28141683866971062 0 -0.34453036853746388 -0.27526151563856671 0 -0.34450588037081892 -0.28462367662190302 0 -0.36017378121711419 -0.28141683866971062 0 -0.34897267059429732 -0.25990550268967838 0 -0.35722060467742811 -0.26762499714769428 0 -0.34453036853746388 -0.27526151563856671 0 -0.3381311227387106 -0.26238754928509761 0 -0.34897267059429732 -0.25990550268967838 0 -0.34453036853746388 -0.27526151563856671 0 -0.34450588037081892 -0.28462367662190302 0 -0.34891652205724832 -0.29286991805537971 0 -0.36017378121711419 -0.28141683866971062 0 -0.37433096522584453 -0.28132989654828328 0 -0.36105831684996031 -0.30543451277817618 0 -0.34891652205724832 -0.29286991805537971 0 -0.37433096522584453 -0.28132989654828328 0 -0.34891652205724832 -0.29286991805537971 0 -0.36017378121711419 -0.28141683866971062 0 -0.37433096522584453 -0.28132989654828328 0 -0.38351210912712752 -0.30253866195360818 0 -0.37433096522584453 -0.28132989654828328 0 -0.36105831684996031 -0.30543451277817618 0 -0.34891652205724832 -0.29286991805537971 0 -0.37433096522584453 -0.28132989654828328 0 -0.36105831684996031 -0.30543451277817618 0 -0.38351210912712752 -0.30253866195360818 0 -0.36105831684996031 -0.30543451277817618 0 -0.37140736883531977 -0.32183989730859341 0 -0.36105831684996031 -0.30543451277817618 0 -0.3496688877197569 -0.30429177800002122 0 -0.34586440994984541 -0.3145735322147622 0 -0.34891652205724832 -0.29286991805537971 0 -0.36105831684996031 -0.30543451277817618 0 -0.3496688877197569 -0.30429177800002122 0 -0.34891652205724832 -0.29286991805537971 0 -0.3496688877197569 -0.30429177800002122 0 -0.33956299038192078 -0.30735077663143923 0 -0.3496688877197569 -0.30429177800002122 0 -0.33956299038192078 -0.30735077663143923 0 -0.34586440994984541 -0.3145735322147622 0 -0.34891652205724832 -0.29286991805537971 0 -0.33956299038192078 -0.30735077663143923 0 -0.32350207888865212 -0.30440993956247547 0 -0.33956299038192078 -0.30735077663143923 0 -0.3301339810941622 -0.31110503031331638 0 -0.32350207888865212 -0.30440993956247547 0 -0.34891652205724832 -0.29286991805537971 0 -0.32350207888865212 -0.30440993956247547 0 -0.33956299038192078 -0.30735077663143923 0 -0.3301339810941622 -0.31110503031331638 0 -0.33675509785737662 -0.31655799101612769 0 -0.34891652205724832 -0.29286991805537971 0 -0.33611461648670682 -0.29143764798725502 0 -0.32350207888865212 -0.30440993956247547 0 -0.32888695585781391 -0.26910619260742191 0 -0.33279411355556121 -0.28213246275860349 0 -0.32507396769595592 -0.29410449247197662 0 -0.34450588037081892 -0.28462367662190302 0 -0.34891652205724832 -0.29286991805537971 0 -0.33611461648670682 -0.29143764798725502 0 -0.34450588037081892 -0.28462367662190302 0 -0.33611461648670682 -0.29143764798725502 0 -0.33279411355556121 -0.28213246275860349 0 -0.33279411355556121 -0.28213246275860349 0 -0.33070524953878982 -0.29012978506972142 0 -0.32507396769595592 -0.29410449247197662 0 -0.33611461648670682 -0.29143764798725502 0 -0.33279411355556121 -0.28213246275860349 0 -0.33070524953878982 -0.29012978506972142 0 -0.33611461648670682 -0.29143764798725502 0 -0.32742439802278828 -0.29462709162158601 0 -0.32350207888865212 -0.30440993956247547 0 -0.33611461648670682 -0.29143764798725502 0 -0.33070524953878982 -0.29012978506972142 0 -0.32742439802278828 -0.29462709162158601 0 -0.32507396769595592 -0.29410449247197662 0 -0.30234930147786221 -0.28905184696057518 0 -0.32507396769595592 -0.29410449247197662 0 -0.32350207888865212 -0.30440993956247547 0 -0.30234930147786221 -0.28905184696057518 0 -0.31480478096024378 -0.27564718726691712 0 -0.32507396769595592 -0.29410449247197662 0 -0.30234930147786221 -0.28905184696057518 0 -0.32888695585781391 -0.26910619260742191 0 -0.32507396769595592 -0.29410449247197662 0 -0.32507396769595592 -0.29410449247197662 0 -0.32742439802278828 -0.29462709162158601 0 -0.33070524953878982 -0.29012978506972142 0 -0.32507396769595592 -0.29410449247197662 0 -0.32742439802278828 -0.29462709162158601 0 -0.32302725724223008 -0.30752291379569302 0 -0.32350207888865212 -0.30440993956247547 0 -0.2999756881373381 -0.31509264677165549 0 -0.3301339810941622 -0.31110503031331638 0 -0.32302725724223008 -0.30752291379569302 0 -0.32422013968378288 -0.31561436227230438 0 -0.32302725724223008 -0.30752291379569302 0 -0.32350207888865212 -0.30440993956247547 0 -0.3301339810941622 -0.31110503031331638 0 -0.32302725724223008 -0.30752291379569302 0 -0.32350207888865212 -0.30440993956247547 0 -0.32507396769595592 -0.29410449247197662 0 -0.32742439802278828 -0.29462709162158601 0 -0.32350207888865212 -0.30440993956247547 0 -0.32507396769595592 -0.29410449247197662 0 -0.32350207888865212 -0.30440993956247547 0 -0.32302725724223008 -0.30752291379569302 0 -0.31656029902357641 -0.31849097864348519 0 -0.2999756881373381 -0.31509264677165549 0 -0.32265466046617669 -0.32198754646013139 0 -0.33127214989488979 -0.33008610863815152 0 -0.32872450059276898 -0.31896534214889599 0 -0.32265466046617669 -0.32198754646013139 0 -0.31892782856615448 -0.32825501756413727 0 -0.33127214989488979 -0.33008610863815152 0 -0.32265466046617669 -0.32198754646013139 0 -0.32422013968378288 -0.31561436227230438 0 -0.32872450059276898 -0.31896534214889599 0 -0.32302725724223008 -0.30752291379569302 0 -0.32422013968378288 -0.31561436227230438 0 -0.31656029902357641 -0.31849097864348519 0 -0.3301339810941622 -0.31110503031331638 0 -0.32422013968378288 -0.31561436227230438 0 -0.32872450059276898 -0.31896534214889599 0 -0.32265466046617669 -0.32198754646013139 0 -0.32422013968378288 -0.31561436227230438 0 -0.31656029902357641 -0.31849097864348519 0 -0.32265466046617669 -0.32198754646013139 0 -0.31656029902357641 -0.31849097864348519 0 -0.31892782856615448 -0.32825501756413727 0 -0.31656029902357641 -0.31849097864348519 0 -0.31892782856615448 -0.32825501756413727 0 -0.30936258926988919 -0.3261434941065412 0 -0.31892782856615448 -0.32825501756413727 0 -0.31208723605418232 -0.33616024018399832 0 -0.30936258926988919 -0.3261434941065412 0 -0.31892782856615448 -0.32825501756413727 0 -0.32183099473442811 -0.33958013728355868 0 -0.31208723605418232 -0.33616024018399832 0 -0.32183099473442811 -0.33958013728355868 0 -0.31234840654553953 -0.34764506024843322 0 -0.31208723605418232 -0.33616024018399832 0 -0.31892782856615448 -0.32825501756413727 0 -0.32183099473442811 -0.33958013728355868 0 -0.33127214989488979 -0.33008610863815152 0 -0.33127214989488979 -0.33008610863815152 0 -0.34778566847407638 -0.32953912900806931 0 -0.33412452318830171 -0.35434929914508079 0 -0.32183099473442811 -0.33958013728355868 0 -0.33127214989488979 -0.33008610863815152 0 -0.33412452318830171 -0.35434929914508079 0 -0.34778566847407638 -0.32953912900806931 0 -0.33412452318830171 -0.35434929914508079 0 -0.33127214989488979 -0.33008610863815152 0 -0.34035549841598117 -0.32426700585474 0 -0.34778566847407638 -0.32953912900806931 0 -0.34035549841598117 -0.32426700585474 0 -0.33427681169025408 -0.32246911191447869 0 -0.33675509785737662 -0.31655799101612769 0 -0.33127214989488979 -0.33008610863815152 0 -0.34035549841598117 -0.32426700585474 0 -0.33427681169025408 -0.32246911191447869 0 -0.33127214989488979 -0.33008610863815152 0 -0.33427681169025408 -0.32246911191447869 0 -0.32872450059276898 -0.31896534214889599 0 -0.33427681169025408 -0.32246911191447869 0 -0.32872450059276898 -0.31896534214889599 0 -0.33675509785737662 -0.31655799101612769 0 -0.3301339810941622 -0.31110503031331638 0 -0.32872450059276898 -0.31896534214889599 0 -0.33675509785737662 -0.31655799101612769 0 -0.33956299038192078 -0.30735077663143923 0 -0.33675509785737662 -0.31655799101612769 0 -0.34586440994984541 -0.3145735322147622 0 -0.34035549841598117 -0.32426700585474 0 -0.33675509785737662 -0.31655799101612769 0 -0.34586440994984541 -0.3145735322147622 0 -0.36105831684996031 -0.30543451277817618 0 -0.34778566847407638 -0.32953912900806931 0 -0.36105831684996031 -0.30543451277817618 0 -0.34586440994984541 -0.3145735322147622 0 -0.34778566847407638 -0.32953912900806931 0 -0.34035549841598117 -0.32426700585474 0 -0.34586440994984541 -0.3145735322147622 0 -0.34778566847407638 -0.32953912900806931 0 -0.34035549841598117 -0.32426700585474 0 -0.34778566847407638 -0.32953912900806931 0 -0.36105831684996031 -0.30543451277817618 0 -0.37140736883531977 -0.32183989730859341 0 -0.34778566847407638 -0.32953912900806931 0 -0.38006824781918919 -0.33243312042550199 0 -0.37140736883531977 -0.32183989730859341 0 -0.36666079927166728 -0.34293209489202431 0 -0.37140736883531977 -0.32183989730859341 0 -0.36666079927166728 -0.34293209489202431 0 -0.34778566847407638 -0.32953912900806931 0 -0.34778566847407638 -0.32953912900806931 0 -0.35170181166344461 -0.34709871950800919 0 -0.33412452318830171 -0.35434929914508079 0 -0.36666079927166728 -0.34293209489202431 0 -0.34778566847407638 -0.32953912900806931 0 -0.36666079927166728 -0.34293209489202431 0 -0.34778566847407638 -0.32953912900806931 0 -0.35170181166344461 -0.34709871950800919 0 -0.36666079927166728 -0.34293209489202431 0 -0.35170181166344461 -0.34709871950800919 0 -0.35823625571973289 -0.36157435498686258 0 -0.35170181166344461 -0.34709871950800919 0 -0.35823625571973289 -0.36157435498686258 0 -0.33412452318830171 -0.35434929914508079 0 -0.38553593006925752 -0.3563250607759802 0 -0.36666079927166728 -0.34293209489202431 0 -0.35823625571973289 -0.36157435498686258 0 -0.37549160074202448 -0.3732971907138336 0 -0.38553593006925752 -0.3563250607759802 0 -0.35823625571973289 -0.36157435498686258 0 -0.37549160074202448 -0.3732971907138336 0 -0.35823625571973289 -0.36157435498686258 0 -0.35302350150803719 -0.38208755235937009 0 -0.35823625571973289 -0.36157435498686258 0 -0.34413293857164062 -0.37054757780120701 0 -0.35302350150803719 -0.38208755235937009 0 -0.35823625571973289 -0.36157435498686258 0 -0.34413293857164062 -0.37054757780120701 0 -0.33412452318830171 -0.35434929914508079 0 -0.34413293857164062 -0.37054757780120701 0 -0.33412452318830171 -0.35434929914508079 0 -0.33519042443293379 -0.3802220457599616 0 -0.33412452318830171 -0.35434929914508079 0 -0.33519042443293379 -0.3802220457599616 0 -0.32046337790252549 -0.37915946928209171 0 -0.32183099473442811 -0.33958013728355868 0 -0.33412452318830171 -0.35434929914508079 0 -0.31234840654553953 -0.34764506024843322 0 -0.33412452318830171 -0.35434929914508079 0 -0.316806384823896 -0.36257585725837499 0 -0.31234840654553953 -0.34764506024843322 0 -0.316806384823896 -0.36257585725837499 0 -0.3002892316592175 -0.36914960035789463 0 -0.32046337790252549 -0.37915946928209171 0 -0.33412452318830171 -0.35434929914508079 0 -0.316806384823896 -0.36257585725837499 0 -0.32046337790252549 -0.37915946928209171 0 -0.33412452318830171 -0.35434929914508079 0 -0.32046337790252549 -0.37915946928209171 0 -0.3002892316592175 -0.36914960035789463 0 -0.32046337790252549 -0.37915946928209171 0 -0.3002892316592175 -0.36914960035789463 0 -0.31234840654553953 -0.34764506024843322 0 -0.29527517448125451 -0.36666176000398298 0 -0.316806384823896 -0.36257585725837499 0 -0.3002892316592175 -0.36914960035789463 0 -0.31234840654553953 -0.34764506024843322 0 -0.3002892316592175 -0.36914960035789463 0 -0.29527517448125451 -0.36666176000398298 0 -0.3002892316592175 -0.36914960035789463 0 -0.29403121103535113 -0.38030922419454549 0 -0.31234840654553953 -0.34764506024843322 0 -0.29527517448125451 -0.36666176000398298 0 -0.2976254313092957 -0.34087720338781918 0 -0.3002892316592175 -0.36914960035789463 0 -0.31234840654553953 -0.34764506024843322 0 -0.29527517448125451 -0.36666176000398298 0 -0.26926364122666091 -0.35375553660024128 0 -0.28048823453243299 -0.34080574413418752 0 -0.29527517448125451 -0.36666176000398298 0 -0.2976254313092957 -0.34087720338781918 0 -0.29527517448125451 -0.36666176000398298 0 -0.28048823453243299 -0.34080574413418752 0 -0.2976254313092957 -0.34087720338781918 0 -0.29527517448125451 -0.36666176000398298 0 -0.26926364122666091 -0.35375553660024128 0 -0.29527517448125451 -0.36666176000398298 0 -0.27994264201103719 -0.36323993691456841 0 -0.26926364122666091 -0.35375553660024128 0 -0.29527517448125451 -0.36666176000398298 0 -0.28588261091775702 -0.37268605543787447 0 -0.29403121103535113 -0.38030922419454549 0 -0.29527517448125451 -0.36666176000398298 0 -0.29403121103535113 -0.38030922419454549 0 -0.3002892316592175 -0.36914960035789463 0 -0.29527517448125451 -0.36666176000398298 0 -0.29403121103535113 -0.38030922419454549 0 -0.29527517448125451 -0.36666176000398298 0 -0.28588261091775702 -0.37268605543787447 0 -0.27994264201103719 -0.36323993691456841 0 -0.28588261091775702 -0.37268605543787447 0 -0.27994264201103719 -0.36323993691456841 0 -0.2742629371717063 -0.37916463673385931 0 -0.27994264201103719 -0.36323993691456841 0 -0.26568404082974961 -0.36651666061706623 0 -0.2742629371717063 -0.37916463673385931 0 -0.27994264201103719 -0.36323993691456841 0 -0.26568404082974961 -0.36651666061706623 0 -0.26017799311385281 -0.35268912854855933 0 -0.26568404082974961 -0.36651666061706623 0 -0.25909124390184018 -0.37475905286733341 0 -0.2742629371717063 -0.37916463673385931 0 -0.26568404082974961 -0.36651666061706623 0 -0.25909124390184018 -0.37475905286733341 0 -0.25494538795031141 -0.36273054802101118 0 -0.26568404082974961 -0.36651666061706623 0 -0.25494538795031141 -0.36273054802101118 0 -0.26017799311385281 -0.35268912854855933 0 -0.25909124390184018 -0.37475905286733341 0 -0.25494538795031141 -0.36273054802101118 0 -0.24748772700216881 -0.3717564301773445 0 -0.26017799311385281 -0.35268912854855933 0 -0.2404133442166683 -0.34213832018255058 0 -0.26926364122666091 -0.35375553660024128 0 -0.24325210797206609 -0.34084931319650169 0 -0.26017799311385281 -0.35268912854855933 0 -0.26926364122666091 -0.35375553660024128 0 -0.24325210797206609 -0.34084931319650169 0 -0.25494538795031141 -0.36273054802101118 0 -0.26017799311385281 -0.35268912854855933 0 -0.24808760514302669 -0.3536558827211943 0 -0.27994264201103719 -0.36323993691456841 0 -0.26017799311385281 -0.35268912854855933 0 -0.27994264201103719 -0.36323993691456841 0 -0.26017799311385281 -0.35268912854855933 0 -0.26926364122666091 -0.35375553660024128 0 -0.28048823453243299 -0.34080574413418752 0 -0.2621599680271573 -0.33226375772155409 0 -0.28106782808224812 -0.3236782022466056 0 -0.26926364122666091 -0.35375553660024128 0 -0.28048823453243299 -0.34080574413418752 0 -0.2621599680271573 -0.33226375772155409 0 -0.2621599680271573 -0.33226375772155409 0 -0.24518994726652291 -0.33234415230164399 0 -0.24308922262768951 -0.32099342612622928 0 -0.2621599680271573 -0.33226375772155409 0 -0.24325210797206609 -0.34084931319650169 0 -0.24518994726652291 -0.33234415230164399 0 -0.2621599680271573 -0.33226375772155409 0 -0.24325210797206609 -0.34084931319650169 0 -0.26926364122666091 -0.35375553660024128 0 -0.2621599680271573 -0.33226375772155409 0 -0.24325210797206609 -0.34084931319650169 0 -0.2621599680271573 -0.33226375772155409 0 -0.25915672867891859 -0.31415112243359272 0 -0.24308922262768951 -0.32099342612622928 0 -0.2621599680271573 -0.33226375772155409 0 -0.28106782808224812 -0.3236782022466056 0 -0.25915672867891859 -0.31415112243359272 0 -0.28106782808224812 -0.3236782022466056 0 -0.2709678639136075 -0.30238435136382452 0 -0.2621599680271573 -0.33226375772155409 0 -0.25915672867891859 -0.31415112243359272 0 -0.28106782808224812 -0.3236782022466056 0 -0.28106782808224812 -0.3236782022466056 0 -0.2999756881373381 -0.31509264677165549 0 -0.28453315598845252 -0.30841843357299598 0 -0.28106782808224812 -0.3236782022466056 0 -0.2976254313092957 -0.34087720338781918 0 -0.2999756881373381 -0.31509264677165549 0 -0.28106782808224812 -0.3236782022466056 0 -0.2999756881373381 -0.31509264677165549 0 -0.28048823453243299 -0.34080574413418752 0 -0.28106782808224812 -0.3236782022466056 0 -0.2976254313092957 -0.34087720338781918 0 -0.31234840654553953 -0.34764506024843322 0 -0.2976254313092957 -0.34087720338781918 0 -0.31208723605418232 -0.33616024018399832 0 -0.2976254313092957 -0.34087720338781918 0 -0.31208723605418232 -0.33616024018399832 0 -0.30936258926988919 -0.3261434941065412 0 -0.2976254313092957 -0.34087720338781918 0 -0.2999756881373381 -0.31509264677165549 0 -0.2976254313092957 -0.34087720338781918 0 -0.30936258926988919 -0.3261434941065412 0 -0.2999756881373381 -0.31509264677165549 0 -0.31656029902357641 -0.31849097864348519 0 -0.30936258926988919 -0.3261434941065412 0 -0.2999756881373381 -0.31509264677165549 0 -0.32350207888865212 -0.30440993956247547 0 -0.2999756881373381 -0.31509264677165549 0 -0.30234930147786221 -0.28905184696057518 0 -0.2999756881373381 -0.31509264677165549 0 -0.30234930147786221 -0.28905184696057518 0 -0.2999756881373381 -0.31509264677165549 0 -0.30234930147786221 -0.28905184696057518 0 -0.29239547880504652 -0.30127313523009702 0 -0.32350207888865212 -0.30440993956247547 0 -0.2999756881373381 -0.31509264677165549 0 -0.30234930147786221 -0.28905184696057518 0 -0.29006270545698909 -0.29189763306700739 0 -0.29239547880504652 -0.30127313523009702 0 -0.30234930147786221 -0.28905184696057518 0 -0.29006270545698909 -0.29189763306700739 0 -0.28742262680475061 -0.28573302172180548 0 -0.30234930147786221 -0.28905184696057518 0 -0.28742262680475061 -0.28573302172180548 0 -0.29006270545698909 -0.29189763306700739 0 -0.28742262680475061 -0.28573302172180548 0 -0.28158089536532038 -0.29680102193740848 0 -0.29006270545698909 -0.29189763306700739 0 -0.28158089536532038 -0.29680102193740848 0 -0.29239547880504652 -0.30127313523009702 0 -0.28158089536532038 -0.29680102193740848 0 -0.29239547880504652 -0.30127313523009702 0 -0.28453315598845252 -0.30841843357299598 0 -0.2999756881373381 -0.31509264677165549 0 -0.29239547880504652 -0.30127313523009702 0 -0.28453315598845252 -0.30841843357299598 0 -0.28106782808224812 -0.3236782022466056 0 -0.28453315598845252 -0.30841843357299598 0 -0.2709678639136075 -0.30238435136382452 0 -0.28158089536532038 -0.29680102193740848 0 -0.28453315598845252 -0.30841843357299598 0 -0.2709678639136075 -0.30238435136382452 0 -0.25915672867891859 -0.31415112243359272 0 -0.25718459078837252 -0.29759752524363881 0 -0.24047089863443691 -0.30798947189970438 0 -0.25915672867891859 -0.31415112243359272 0 -0.2709678639136075 -0.30238435136382452 0 -0.25718459078837252 -0.29759752524363881 0 -0.25718459078837252 -0.29759752524363881 0 -0.25108388684634803 -0.28956965662021522 0 -0.26792751193251091 -0.28139844079955562 0 -0.25108388684634803 -0.28956965662021522 0 -0.26792751193251091 -0.28139844079955562 0 -0.2484323970602714 -0.27706385987730509 0 -0.2709678639136075 -0.30238435136382452 0 -0.25718459078837252 -0.29759752524363881 0 -0.26792751193251091 -0.28139844079955562 0 -0.28742262680475061 -0.28573302172180548 0 -0.26792751193251091 -0.28139844079955562 0 -0.28158089536532038 -0.29680102193740848 0 -0.2709678639136075 -0.30238435136382452 0 -0.26792751193251091 -0.28139844079955562 0 -0.28742262680475061 -0.28573302172180548 0 -0.28158089536532038 -0.29680102193740848 0 -0.26792751193251091 -0.28139844079955562 0 -0.26792751193251091 -0.28139844079955562 0 -0.27965676560653041 -0.27550351800418249 0 -0.27506057922854799 -0.26523935036500679 0 -0.28742262680475061 -0.28573302172180548 0 -0.26792751193251091 -0.28139844079955562 0 -0.27965676560653041 -0.27550351800418249 0 -0.26792751193251091 -0.28139844079955562 0 -0.26170023695288303 -0.26848976391570201 0 -0.27506057922854799 -0.26523935036500679 0 -0.27965676560653041 -0.27550351800418249 0 -0.27506057922854799 -0.26523935036500679 0 -0.28821634446031208 -0.2696432591303618 0 -0.26792751193251091 -0.28139844079955562 0 -0.2484323970602714 -0.27706385987730509 0 -0.26792751193251091 -0.28139844079955562 0 -0.26170023695288303 -0.26848976391570201 0 -0.2484323970602714 -0.27706385987730509 0 -0.26170023695288303 -0.26848976391570201 0 -0.25309751137434572 -0.26289123234143091 0 -0.2484323970602714 -0.27706385987730509 0 -0.2565674865322034 -0.25340195958415102 0 -0.26524553468775469 -0.25886506807255583 0 -0.27383001930629169 -0.24744255459442921 0 -0.2565674865322034 -0.25340195958415102 0 -0.27383001930629169 -0.24744255459442921 0 -0.2565674865322034 -0.25340195958415102 0 -0.25309751137434572 -0.26289123234143091 0 -0.24233717299785959 -0.25960849866204011 0 -0.2565674865322034 -0.25340195958415102 0 -0.25309751137434572 -0.26289123234143091 0 -0.26524553468775469 -0.25886506807255583 0 -0.26170023695288303 -0.26848976391570201 0 -0.25309751137434572 -0.26289123234143091 0 -0.26524553468775469 -0.25886506807255583 0 -0.27506057922854799 -0.26523935036500679 0 -0.28942662192718172 -0.25357945894426132 0 -0.27383001930629169 -0.24744255459442921 0 -0.26524553468775469 -0.25886506807255583 0 -0.27506057922854799 -0.26523935036500679 0 -0.27383001930629169 -0.24744255459442921 0 -0.26170023695288303 -0.26848976391570201 0 -0.26524553468775469 -0.25886506807255583 0 -0.27506057922854799 -0.26523935036500679 0 -0.28942662192718172 -0.25357945894426132 0 -0.29569431645386429 -0.26311293363000732 0 -0.28821634446031208 -0.2696432591303618 0 -0.28942662192718172 -0.25357945894426132 0 -0.27383001930629169 -0.24744255459442921 0 -0.27506057922854799 -0.26523935036500679 0 -0.28942662192718172 -0.25357945894426132 0 -0.28821634446031208 -0.2696432591303618 0 -0.28942662192718172 -0.25357945894426132 0 -0.29569431645386429 -0.26311293363000732 0 -0.30502322454807101 -0.25971636329409542 0 -0.29569431645386429 -0.26311293363000732 0 -0.28821634446031208 -0.2696432591303618 0 -0.30425539613548452 -0.26814017253042433 0 -0.28742262680475061 -0.28573302172180548 0 -0.27965676560653041 -0.27550351800418249 0 -0.28821634446031208 -0.2696432591303618 0 -0.28742262680475061 -0.28573302172180548 0 -0.28821634446031208 -0.2696432591303618 0 -0.30425539613548452 -0.26814017253042433 0 -0.28742262680475061 -0.28573302172180548 0 -0.30425539613548452 -0.26814017253042433 0 -0.31480478096024378 -0.27564718726691712 0 -0.30234930147786221 -0.28905184696057518 0 -0.30425539613548452 -0.26814017253042433 0 -0.30234930147786221 -0.28905184696057518 0 -0.30425539613548452 -0.26814017253042433 0 -0.30234930147786221 -0.28905184696057518 0 -0.28742262680475061 -0.28573302172180548 0 -0.30425539613548452 -0.26814017253042433 0 -0.31480478096024378 -0.27564718726691712 0 -0.30425539613548452 -0.26814017253042433 0 -0.31032083431566337 -0.26180085087236171 0 -0.30425539613548452 -0.26814017253042433 0 -0.31032083431566337 -0.26180085087236171 0 -0.30502322454807101 -0.25971636329409542 0 -0.28942662192718172 -0.25357945894426132 0 -0.30538593138510828 -0.25573712372202267 0 -0.29948497002523827 -0.2483657822867901 0 -0.28942662192718172 -0.25357945894426132 0 -0.30502322454807101 -0.25971636329409542 0 -0.30538593138510828 -0.25573712372202267 0 -0.30425539613548452 -0.26814017253042433 0 -0.31032083431566337 -0.26180085087236171 0 -0.31032083431566337 -0.26180085087236171 0 -0.30502322454807101 -0.25971636329409542 0 -0.31032083431566337 -0.26180085087236171 0 -0.30502322454807101 -0.25971636329409542 0 -0.30538593138510828 -0.25573712372202267 0 -0.31283906540333922 -0.25031215033235238 0 -0.31032083431566337 -0.26180085087236171 0 -0.30538593138510828 -0.25573712372202267 0 -0.31283906540333922 -0.25031215033235238 0 -0.30538593138510828 -0.25573712372202267 0 -0.30623861516307299 -0.24935013043731349 0 -0.30502322454807101 -0.25971636329409542 0 -0.30538593138510828 -0.25573712372202267 0 -0.28942662192718172 -0.25357945894426132 0 -0.30502322454807101 -0.25971636329409542 0 -0.30538593138510828 -0.25573712372202267 0 -0.29948497002523827 -0.2483657822867901 0 -0.30623861516307299 -0.24935013043731349 0 -0.30425539613548452 -0.26814017253042433 0 -0.30502322454807101 -0.25971636329409542 0 -0.29569431645386429 -0.26311293363000732 0 -0.30425539613548452 -0.26814017253042433 0 -0.30502322454807101 -0.25971636329409542 0 -0.33143192801526428 -0.45396038638140679 0 -0.33152258580119082 -0.46633970128806979 0 -0.34296165509457921 -0.45730971557378147 0 -0.34069406563311189 -0.44566521365826578 0 -0.32492704317595772 -0.44077768091168912 0 -0.33812272201467081 -0.43047089330918592 0 -0.33143192801526428 -0.45396038638140679 0 -0.34069406563311189 -0.44566521365826578 0 -0.32492704317595772 -0.44077768091168912 0 -0.33143192801526428 -0.45396038638140679 0 -0.34296165509457921 -0.45730971557378147 0 -0.34069406563311189 -0.44566521365826578 0 -0.33143192801526428 -0.45396038638140679 0 -0.32492704317595772 -0.44077768091168912 0 -0.31987457796333868 -0.4551426725204325 0 -0.32492704317595772 -0.44077768091168912 0 -0.31987457796333868 -0.4551426725204325 0 -0.31015853372433788 -0.44544301337781073 0 -0.33152258580119082 -0.46633970128806979 0 -0.30592196819360068 -0.46328971004504182 0 -0.33152258580119082 -0.46633970128806979 0 -0.31987457796333868 -0.4551426725204325 0 -0.30592196819360068 -0.46328971004504182 0 -0.33152258580119082 -0.46633970128806979 0 -0.32094261384274558 -0.46854088973335889 0 -0.30592196819360068 -0.46328971004504182 0 -0.33143192801526428 -0.45396038638140679 0 -0.33152258580119082 -0.46633970128806979 0 -0.31987457796333868 -0.4551426725204325 0 -0.33152258580119082 -0.46633970128806979 0 -0.32094261384274558 -0.46854088973335889 0 -0.32966732857214198 -0.4835879285261328 0 -0.32094261384274558 -0.46854088973335889 0 -0.32966732857214198 -0.4835879285261328 0 -0.31208929727375578 -0.48491526738579699 0 -0.32221211863154181 -0.5 0 -0.32966732857214198 -0.4835879285261328 0 -0.31208929727375578 -0.48491526738579699 0 -0.32221211863154181 -0.5 0 -0.32966732857214198 -0.4835879285261328 0 -0.34860848031248309 -0.5 0 -0.32966732857214198 -0.4835879285261328 0 -0.34707385437868848 -0.48052394199199022 0 -0.34860848031248309 -0.5 0 -0.33152258580119082 -0.46633970128806979 0 -0.32966732857214198 -0.4835879285261328 0 -0.34707385437868848 -0.48052394199199022 0 -0.33152258580119082 -0.46633970128806979 0 -0.3571232034087809 -0.46938969253109791 0 -0.34707385437868848 -0.48052394199199022 0 -0.3571232034087809 -0.46938969253109791 0 -0.34707385437868848 -0.48052394199199022 0 -0.36652141413456929 -0.48474993749143802 0 -0.34707385437868848 -0.48052394199199022 0 -0.34860848031248309 -0.5 0 -0.36652141413456929 -0.48474993749143802 0 -0.37500484199342449 -0.5 0 -0.34860848031248309 -0.5 0 -0.36652141413456929 -0.48474993749143802 0 -0.38272382101637098 -0.47243968377412587 0 -0.3571232034087809 -0.46938969253109791 0 -0.36652141413456929 -0.48474993749143802 0 -0.38272382101637098 -0.47243968377412587 0 -0.3571232034087809 -0.46938969253109791 0 -0.38265619596279349 -0.45813348326120767 0 -0.38272382101637098 -0.47243968377412587 0 -0.3571232034087809 -0.46938969253109791 0 -0.38265619596279349 -0.45813348326120767 0 -0.3571232034087809 -0.46938969253109791 0 -0.35544663641047641 -0.4489101100326689 0 -0.38265619596279349 -0.45813348326120767 0 -0.35544663641047641 -0.4489101100326689 0 -0.34296165509457921 -0.45730971557378147 0 -0.3571232034087809 -0.46938969253109791 0 -0.35544663641047641 -0.4489101100326689 0 -0.33152258580119082 -0.46633970128806979 0 -0.3571232034087809 -0.46938969253109791 0 -0.33152258580119082 -0.46633970128806979 0 -0.34296165509457921 -0.45730971557378147 0 -0.3571232034087809 -0.46938969253109791 0 -0.34069406563311189 -0.44566521365826578 0 -0.35544663641047641 -0.4489101100326689 0 -0.35372302635176472 -0.43532257313283612 0 -0.34296165509457921 -0.45730971557378147 0 -0.34069406563311189 -0.44566521365826578 0 -0.35544663641047641 -0.4489101100326689 0 -0.35544663641047641 -0.4489101100326689 0 -0.3723601590800425 -0.44005613486137668 0 -0.35372302635176472 -0.43532257313283612 0 -0.38265619596279349 -0.45813348326120767 0 -0.35544663641047641 -0.4489101100326689 0 -0.3723601590800425 -0.44005613486137668 0 -0.38028594703985957 -0.42392304976487449 0 -0.3723601590800425 -0.44005613486137668 0 -0.36423780173753523 -0.4264797532188066 0 -0.3723601590800425 -0.44005613486137668 0 -0.36423780173753523 -0.4264797532188066 0 -0.35372302635176472 -0.43532257313283612 0 -0.38028594703985957 -0.42392304976487449 0 -0.36423780173753523 -0.4264797532188066 0 -0.36590226101420908 -0.41270082520662749 0 -0.36423780173753523 -0.4264797532188066 0 -0.36590226101420908 -0.41270082520662749 0 -0.35147677323475168 -0.42035333371671318 0 -0.36590226101420908 -0.41270082520662749 0 -0.35147677323475168 -0.42035333371671318 0 -0.35184044830027089 -0.40346733636007898 0 -0.35147677323475168 -0.42035333371671318 0 -0.35184044830027089 -0.40346733636007898 0 -0.33675831632547681 -0.41105613646481343 0 -0.35147677323475168 -0.42035333371671318 0 -0.35372302635176472 -0.43532257313283612 0 -0.33812272201467081 -0.43047089330918592 0 -0.34069406563311189 -0.44566521365826578 0 -0.35372302635176472 -0.43532257313283612 0 -0.33812272201467081 -0.43047089330918592 0 -0.36423780173753523 -0.4264797532188066 0 -0.35147677323475168 -0.42035333371671318 0 -0.35372302635176472 -0.43532257313283612 0 -0.37549160074202448 -0.3732971907138336 0 -0.36544727141479139 -0.39026932065168712 0 -0.37549160074202448 -0.3732971907138336 0 -0.36544727141479139 -0.39026932065168712 0 -0.35302350150803719 -0.38208755235937009 0 -0.36590226101420908 -0.41270082520662749 0 -0.36544727141479139 -0.39026932065168712 0 -0.35184044830027089 -0.40346733636007898 0 -0.38114412328536468 -0.40833987260765031 0 -0.36590226101420908 -0.41270082520662749 0 -0.36544727141479139 -0.39026932065168712 0 -0.35184044830027089 -0.40346733636007898 0 -0.35302350150803719 -0.38208755235937009 0 -0.34082557137486691 -0.39523504024196021 0 -0.36544727141479139 -0.39026932065168712 0 -0.35184044830027089 -0.40346733636007898 0 -0.35302350150803719 -0.38208755235937009 0 -0.34413293857164062 -0.37054757780120701 0 -0.35302350150803719 -0.38208755235937009 0 -0.33519042443293379 -0.3802220457599616 0 -0.35302350150803719 -0.38208755235937009 0 -0.33519042443293379 -0.3802220457599616 0 -0.34082557137486691 -0.39523504024196021 0 -0.33519042443293379 -0.3802220457599616 0 -0.32808226850220168 -0.39240284671641351 0 -0.3247168406287716 -0.38559411673624039 0 -0.33519042443293379 -0.3802220457599616 0 -0.34082557137486691 -0.39523504024196021 0 -0.32808226850220168 -0.39240284671641351 0 -0.34082557137486691 -0.39523504024196021 0 -0.32808226850220168 -0.39240284671641351 0 -0.33675831632547681 -0.41105613646481343 0 -0.32808226850220168 -0.39240284671641351 0 -0.33675831632547681 -0.41105613646481343 0 -0.3206477944579052 -0.41019310838576051 0 -0.35184044830027089 -0.40346733636007898 0 -0.34082557137486691 -0.39523504024196021 0 -0.33675831632547681 -0.41105613646481343 0 -0.32808226850220168 -0.39240284671641351 0 -0.31437491003333667 -0.39021680895226152 0 -0.3206477944579052 -0.41019310838576051 0 -0.32808226850220168 -0.39240284671641351 0 -0.3247168406287716 -0.38559411673624039 0 -0.31437491003333667 -0.39021680895226152 0 -0.31437491003333667 -0.39021680895226152 0 -0.32046337790252549 -0.37915946928209171 0 -0.30588070030683939 -0.38181824174751872 0 -0.3247168406287716 -0.38559411673624039 0 -0.31437491003333667 -0.39021680895226152 0 -0.32046337790252549 -0.37915946928209171 0 -0.31437491003333667 -0.39021680895226152 0 -0.32046337790252549 -0.37915946928209171 0 -0.33519042443293379 -0.3802220457599616 0 -0.3247168406287716 -0.38559411673624039 0 -0.32046337790252549 -0.37915946928209171 0 -0.32492704317595772 -0.44077768091168912 0 -0.33812272201467081 -0.43047089330918592 0 -0.32670905357880831 -0.42305010768611329 0 -0.35147677323475168 -0.42035333371671318 0 -0.33812272201467081 -0.43047089330918592 0 -0.33675831632547681 -0.41105613646481343 0 -0.33812272201467081 -0.43047089330918592 0 -0.33675831632547681 -0.41105613646481343 0 -0.32670905357880831 -0.42305010768611329 0 -0.33675831632547681 -0.41105613646481343 0 -0.3206477944579052 -0.41019310838576051 0 -0.32670905357880831 -0.42305010768611329 0 -0.3206477944579052 -0.41019310838576051 0 -0.31307232924124478 -0.42559811140412351 0 -0.32670905357880831 -0.42305010768611329 0 -0.32492704317595772 -0.44077768091168912 0 -0.31307232924124478 -0.42559811140412351 0 -0.31015853372433788 -0.44544301337781073 0 -0.32492704317595772 -0.44077768091168912 0 -0.31307232924124478 -0.42559811140412351 0 -0.32670905357880831 -0.42305010768611329 0 -0.31307232924124478 -0.42559811140412351 0 -0.29907098912325059 -0.43374406761790368 0 -0.29851577765410048 -0.41098608612968202 0 -0.31307232924124478 -0.42559811140412351 0 -0.29907098912325059 -0.43374406761790368 0 -0.31015853372433788 -0.44544301337781073 0 -0.3206477944579052 -0.41019310838576051 0 -0.31307232924124478 -0.42559811140412351 0 -0.29851577765410048 -0.41098608612968202 0 -0.3206477944579052 -0.41019310838576051 0 -0.29851577765410048 -0.41098608612968202 0 -0.29851577765410048 -0.41098608612968202 0 -0.27638376085029581 -0.41177906387360241 0 -0.29851577765410048 -0.41098608612968202 0 -0.28520748594282241 -0.3960441440340734 0 -0.27638376085029581 -0.41177906387360241 0 -0.29851577765410048 -0.41098608612968202 0 -0.28540276919059199 -0.42535658303670731 0 -0.27638376085029581 -0.41177906387360241 0 -0.29907098912325059 -0.43374406761790368 0 -0.29851577765410048 -0.41098608612968202 0 -0.28540276919059199 -0.42535658303670731 0 -0.28540276919059199 -0.42535658303670731 0 -0.27848929033898201 -0.43669604725877897 0 -0.28902284908971709 -0.44016681433255572 0 -0.29907098912325059 -0.43374406761790368 0 -0.28540276919059199 -0.42535658303670731 0 -0.28902284908971709 -0.44016681433255572 0 -0.3002892316592175 -0.36914960035789463 0 -0.32046337790252549 -0.37915946928209171 0 -0.30588070030683939 -0.38181824174751872 0 -0.3002892316592175 -0.36914960035789463 0 -0.29819443980788141 -0.38001079285233907 0 -0.30588070030683939 -0.38181824174751872 0 -0.3002892316592175 -0.36914960035789463 0 -0.29819443980788141 -0.38001079285233907 0 -0.29403121103535113 -0.38030922419454549 0 -0.31437491003333667 -0.39021680895226152 0 -0.30588070030683939 -0.38181824174751872 0 -0.30232780815510779 -0.39560758766926629 0 -0.29819443980788141 -0.38001079285233907 0 -0.30588070030683939 -0.38181824174751872 0 -0.29681739610749358 -0.387616864260033 0 -0.30588070030683939 -0.38181824174751872 0 -0.30232780815510779 -0.39560758766926629 0 -0.29681739610749358 -0.387616864260033 0 -0.31437491003333667 -0.39021680895226152 0 -0.3206477944579052 -0.41019310838576051 0 -0.30232780815510779 -0.39560758766926629 0 -0.3206477944579052 -0.41019310838576051 0 -0.29851577765410048 -0.41098608612968202 0 -0.30232780815510779 -0.39560758766926629 0 -0.30232780815510779 -0.39560758766926629 0 -0.28520748594282241 -0.3960441440340734 0 -0.29681739610749358 -0.387616864260033 0 -0.29851577765410048 -0.41098608612968202 0 -0.30232780815510779 -0.39560758766926629 0 -0.28520748594282241 -0.3960441440340734 0 -0.28520748594282241 -0.3960441440340734 0 -0.28484606126690931 -0.38205101510008821 0 -0.29403121103535113 -0.38030922419454549 0 -0.28520748594282241 -0.3960441440340734 0 -0.29403121103535113 -0.38030922419454549 0 -0.28520748594282241 -0.3960441440340734 0 -0.29681739610749358 -0.387616864260033 0 -0.29403121103535113 -0.38030922419454549 0 -0.28520748594282241 -0.3960441440340734 0 -0.28484606126690931 -0.38205101510008821 0 -0.2742629371717063 -0.37916463673385931 0 -0.28588261091775702 -0.37268605543787447 0 -0.28484606126690931 -0.38205101510008821 0 -0.2742629371717063 -0.37916463673385931 0 -0.28588261091775702 -0.37268605543787447 0 -0.28484606126690931 -0.38205101510008821 0 -0.29403121103535113 -0.38030922419454549 0 -0.29819443980788141 -0.38001079285233907 0 -0.29681739610749358 -0.387616864260033 0 -0.29403121103535113 -0.38030922419454549 0 -0.28520748594282241 -0.3960441440340734 0 -0.2742629371717063 -0.37916463673385931 0 -0.26755910350718881 -0.39582792531461569 0 -0.2742629371717063 -0.37916463673385931 0 -0.26755910350718881 -0.39582792531461569 0 -0.26281209396899169 -0.38517470131063508 0 -0.28520748594282241 -0.3960441440340734 0 -0.27638376085029581 -0.41177906387360241 0 -0.28520748594282241 -0.3960441440340734 0 -0.26755910350718881 -0.39582792531461569 0 -0.27638376085029581 -0.41177906387360241 0 -0.26755910350718881 -0.39582792531461569 0 -0.25033509129523179 -0.39094719032673231 0 -0.25487024651921952 -0.41254988102096568 0 -0.26755910350718881 -0.39582792531461569 0 -0.25033509129523179 -0.39094719032673231 0 -0.26281209396899169 -0.38517470131063508 0 -0.25909124390184018 -0.37475905286733341 0 -0.25033509129523179 -0.39094719032673231 0 -0.26281209396899169 -0.38517470131063508 0 -0.25909124390184018 -0.37475905286733341 0 -0.25033509129523179 -0.39094719032673231 0 -0.24748772700216881 -0.3717564301773445 0 -0.25909124390184018 -0.37475905286733341 0 -0.2742629371717063 -0.37916463673385931 0 -0.26281209396899169 -0.38517470131063508 0 -0.26911429951178012 -0.42474234074800371 0 -0.27848929033898201 -0.43669604725877897 0 -0.26690007516498948 -0.44242471351124879 0 -0.28540276919059199 -0.42535658303670731 0 -0.26911429951178012 -0.42474234074800371 0 -0.27848929033898201 -0.43669604725877897 0 -0.27638376085029581 -0.41177906387360241 0 -0.25487024651921952 -0.41254988102096568 0 -0.28540276919059199 -0.42535658303670731 0 -0.26911429951178012 -0.42474234074800371 0 -0.27638376085029581 -0.41177906387360241 0 -0.26911429951178012 -0.42474234074800371 0 -0.27638376085029581 -0.41177906387360241 0 -0.25487024651921952 -0.41254988102096568 0 -0.26755910350718881 -0.39582792531461569 0 -0.27638376085029581 -0.41177906387360241 0 -0.25487024651921952 -0.41254988102096568 0 -0.26911429951178012 -0.42474234074800371 0 -0.27638376085029581 -0.41177906387360241 0 -0.26911429951178012 -0.42474234074800371 0 -0.25908880606166329 -0.43064529781943001 0 -0.26690007516498948 -0.44242471351124879 0 -0.25487024651921952 -0.41254988102096568 0 -0.25908880606166329 -0.43064529781943001 0 -0.2468605885266735 -0.43014712497011809 0 -0.26911429951178012 -0.42474234074800371 0 -0.25487024651921952 -0.41254988102096568 0 -0.25908880606166329 -0.43064529781943001 0 -0.25908880606166329 -0.43064529781943001 0 -0.25479397652280911 -0.44050862113911837 0 -0.2468605885266735 -0.43014712497011809 0 -0.25479397652280911 -0.44050862113911837 0 -0.2546108597688766 -0.45375703833677078 0 -0.2450571310604201 -0.44414202720417628 0 -0.25479397652280911 -0.44050862113911837 0 -0.2546108597688766 -0.45375703833677078 0 -0.26690007516498948 -0.44242471351124879 0 -0.2546108597688766 -0.45375703833677078 0 -0.26838297633475061 -0.45652413347846638 0 -0.26690007516498948 -0.44242471351124879 0 -0.25908880606166329 -0.43064529781943001 0 -0.25479397652280911 -0.44050862113911837 0 -0.26690007516498948 -0.44242471351124879 0 -0.25109629719050858 -0.46406488014867903 0 -0.2546108597688766 -0.45375703833677078 0 -0.26079873433517492 -0.46936342421069649 0 -0.2546108597688766 -0.45375703833677078 0 -0.26838297633475061 -0.45652413347846638 0 -0.26079873433517492 -0.46936342421069649 0 -0.27799569035848881 -0.46687050799545499 0 -0.26838297633475061 -0.45652413347846638 0 -0.26079873433517492 -0.46936342421069649 0 -0.27799569035848881 -0.46687050799545499 0 -0.26838297633475061 -0.45652413347846638 0 -0.28160952204622303 -0.450204983338161 0 -0.26838297633475061 -0.45652413347846638 0 -0.26690007516498948 -0.44242471351124879 0 -0.28160952204622303 -0.450204983338161 0 -0.27848929033898201 -0.43669604725877897 0 -0.26690007516498948 -0.44242471351124879 0 -0.28160952204622303 -0.450204983338161 0 -0.29907098912325059 -0.43374406761790368 0 -0.28902284908971709 -0.44016681433255572 0 -0.29708038679871529 -0.44973292283788502 0 -0.27848929033898201 -0.43669604725877897 0 -0.28902284908971709 -0.44016681433255572 0 -0.28160952204622303 -0.450204983338161 0 -0.28902284908971709 -0.44016681433255572 0 -0.28160952204622303 -0.450204983338161 0 -0.29708038679871529 -0.44973292283788502 0 -0.27799569035848881 -0.46687050799545499 0 -0.29150619976335518 -0.46129715127825488 0 -0.29492343141974797 -0.47638763217473168 0 -0.27799569035848881 -0.46687050799545499 0 -0.28160952204622303 -0.450204983338161 0 -0.29150619976335518 -0.46129715127825488 0 -0.28160952204622303 -0.450204983338161 0 -0.29150619976335518 -0.46129715127825488 0 -0.29708038679871529 -0.44973292283788502 0 -0.29150619976335518 -0.46129715127825488 0 -0.30592196819360068 -0.46328971004504182 0 -0.29708038679871529 -0.44973292283788502 0 -0.31987457796333868 -0.4551426725204325 0 -0.30592196819360068 -0.46328971004504182 0 -0.31015853372433788 -0.44544301337781073 0 -0.29150619976335518 -0.46129715127825488 0 -0.30592196819360068 -0.46328971004504182 0 -0.29492343141974797 -0.47638763217473168 0 -0.29907098912325059 -0.43374406761790368 0 -0.31015853372433788 -0.44544301337781073 0 -0.29708038679871529 -0.44973292283788502 0 -0.30592196819360068 -0.46328971004504182 0 -0.31015853372433788 -0.44544301337781073 0 -0.29708038679871529 -0.44973292283788502 0 -0.31208929727375578 -0.48491526738579699 0 -0.29492343141974797 -0.47638763217473168 0 -0.29581575695060047 -0.5 0 -0.32221211863154181 -0.5 0 -0.31208929727375578 -0.48491526738579699 0 -0.29581575695060047 -0.5 0 -0.32094261384274558 -0.46854088973335889 0 -0.30592196819360068 -0.46328971004504182 0 -0.29492343141974797 -0.47638763217473168 0 -0.32094261384274558 -0.46854088973335889 0 -0.29492343141974797 -0.47638763217473168 0 -0.32094261384274558 -0.46854088973335889 0 -0.31208929727375578 -0.48491526738579699 0 -0.29492343141974797 -0.47638763217473168 0 -0.29492343141974797 -0.47638763217473168 0 -0.26890424899675031 -0.48423437461610452 0 -0.29492343141974797 -0.47638763217473168 0 -0.28441593737837417 -0.48860776134254891 0 -0.26890424899675031 -0.48423437461610452 0 -0.29492343141974797 -0.47638763217473168 0 -0.28441593737837417 -0.48860776134254891 0 -0.29581575695060047 -0.5 0 -0.28441593737837417 -0.48860776134254891 0 -0.29581575695060047 -0.5 0 -0.26941939526965919 -0.5 0 -0.28441593737837417 -0.48860776134254891 0 -0.26941939526965919 -0.5 0 -0.26890424899675031 -0.48423437461610452 0 -0.27799569035848881 -0.46687050799545499 0 -0.29492343141974797 -0.47638763217473168 0 -0.26890424899675031 -0.48423437461610452 0 -0.27799569035848881 -0.46687050799545499 0 -0.26890424899675031 -0.48423437461610452 0 -0.26079873433517492 -0.46936342421069649 0 -0.26890424899675031 -0.48423437461610452 0 -0.26079873433517492 -0.46936342421069649 0 -0.25379328426056558 -0.48205965705463422 0 -0.26079873433517492 -0.46936342421069649 0 -0.25379328426056558 -0.48205965705463422 0 -0.250874604213362 -0.47391739130808008 0 -0.25109629719050858 -0.46406488014867903 0 -0.26079873433517492 -0.46936342421069649 0 -0.250874604213362 -0.47391739130808008 0 -0.26941939526965919 -0.5 0 -0.26890424899675031 -0.48423437461610452 0 -0.2544134183364497 -0.49413622749019132 0 -0.26941939526965919 -0.5 0 -0.2544134183364497 -0.49413622749019132 0 -0.2430230335887178 -0.5 0 -0.26890424899675031 -0.48423437461610452 0 -0.2544134183364497 -0.49413622749019132 0 -0.24288506657375261 -0.49208111705747781 0 -0.26890424899675031 -0.48423437461610452 0 -0.25379328426056558 -0.48205965705463422 0 -0.24288506657375261 -0.49208111705747781 0 -0.26890424899675031 -0.48423437461610452 0 -0.24288506657375261 -0.49208111705747781 0 -0.2544134183364497 -0.49413622749019132 0 -0.2430230335887178 -0.5 0 -0.24783534725336881 -0.49436564577737419 0 -0.2544134183364497 -0.49413622749019132 0 -0.24783534725336881 -0.49436564577737419 0 -0.24288506657375261 -0.49208111705747781 0 -0.2430230335887178 -0.5 0 -0.24783534725336881 -0.49436564577737419 0 -0.24288506657375261 -0.49208111705747781 0 -0.24783534725336881 -0.49436564577737419 0 -0.24288506657375261 -0.49208111705747781 0 -0.24288506657375261 -0.49208111705747781 0 -0.24429345028001889 -0.4821559175287794 0 -0.23457410743521059 -0.47899140825596259 0 -0.25379328426056558 -0.48205965705463422 0 -0.24288506657375261 -0.49208111705747781 0 -0.24429345028001889 -0.4821559175287794 0 -0.25379328426056558 -0.48205965705463422 0 -0.250874604213362 -0.47391739130808008 0 -0.24429345028001889 -0.4821559175287794 0 -0.24429345028001889 -0.4821559175287794 0 -0.2443912550005416 -0.47194307759761112 0 -0.2395637252682277 -0.47605318874815389 0 -0.25109629719050858 -0.46406488014867903 0 -0.250874604213362 -0.47391739130808008 0 -0.2443912550005416 -0.47194307759761112 0 -0.250874604213362 -0.47391739130808008 0 -0.24429345028001889 -0.4821559175287794 0 -0.2443912550005416 -0.47194307759761112 0 -0.2443912550005416 -0.47194307759761112 0 -0.2395637252682277 -0.47605318874815389 0 -0.23499608835713959 -0.47112235161026261 0 -0.2395637252682277 -0.47605318874815389 0 -0.23499608835713959 -0.47112235161026261 0 -0.23457410743521059 -0.47899140825596259 0 -0.24429345028001889 -0.4821559175287794 0 -0.2395637252682277 -0.47605318874815389 0 -0.23457410743521059 -0.47899140825596259 0 -0.23457410743521059 -0.47899140825596259 0 -0.2250369990674011 -0.47003999804886298 0 -0.2204246459600448 -0.48171575006642248 0 -0.24288506657375261 -0.49208111705747781 0 -0.23457410743521059 -0.47899140825596259 0 -0.2204246459600448 -0.48171575006642248 0 -0.23499608835713959 -0.47112235161026261 0 -0.23457410743521059 -0.47899140825596259 0 -0.2250369990674011 -0.47003999804886298 0 -0.2430230335887178 -0.5 0 -0.24288506657375261 -0.49208111705747781 0 -0.21662667190777651 -0.49999999999999939 0 -0.24288506657375261 -0.49208111705747781 0 -0.21662667190777651 -0.49999999999999939 0 -0.24288506657375261 -0.49208111705747781 0 -0.2204246459600448 -0.48171575006642248 0 -0.24288506657375261 -0.49208111705747781 0 -0.2204246459600448 -0.48171575006642248 0 -0.21662667190777651 -0.49999999999999939 0 -0.2450571310604201 -0.44414202720417628 0 -0.23716380350122879 -0.45645441389937441 0 -0.23280677558438309 -0.43386548686292281 0 -0.2546108597688766 -0.45375703833677078 0 -0.2450571310604201 -0.44414202720417628 0 -0.23716380350122879 -0.45645441389937441 0 -0.25479397652280911 -0.44050862113911837 0 -0.2450571310604201 -0.44414202720417628 0 -0.2468605885266735 -0.43014712497011809 0 -0.25109629719050858 -0.46406488014867903 0 -0.2546108597688766 -0.45375703833677078 0 -0.23716380350122879 -0.45645441389937441 0 -0.25109629719050858 -0.46406488014867903 0 -0.2443912550005416 -0.47194307759761112 0 -0.23716380350122879 -0.45645441389937441 0 -0.2443912550005416 -0.47194307759761112 0 -0.23499608835713959 -0.47112235161026261 0 -0.23716380350122879 -0.45645441389937441 0 -0.2250369990674011 -0.47003999804886298 0 -0.21844010846223411 -0.44206575668227449 0 -0.2250369990674011 -0.47003999804886298 0 -0.23716380350122879 -0.45645441389937441 0 -0.21844010846223411 -0.44206575668227449 0 -0.23499608835713959 -0.47112235161026261 0 -0.2250369990674011 -0.47003999804886298 0 -0.23716380350122879 -0.45645441389937441 0 -0.23716380350122879 -0.45645441389937441 0 -0.21844010846223411 -0.44206575668227449 0 -0.23280677558438309 -0.43386548686292281 0 -0.21844010846223411 -0.44206575668227449 0 -0.21054881561508179 -0.46151962797655111 0 -0.19087809923939161 -0.44242625200982799 0 -0.2250369990674011 -0.47003999804886298 0 -0.21844010846223411 -0.44206575668227449 0 -0.21054881561508179 -0.46151962797655111 0 -0.21054881561508179 -0.46151962797655111 0 -0.19087809923939161 -0.44242625200982799 0 -0.1979642253463372 -0.47135038307536692 0 -0.19087809923939161 -0.44242625200982799 0 -0.1979642253463372 -0.47135038307536692 0 -0.17550380473262961 -0.46098501608431119 0 -0.2039060436575347 -0.48788306012054039 0 -0.21662667190777651 -0.49999999999999939 0 -0.191185415407293 -0.5 0 -0.2204246459600448 -0.48171575006642248 0 -0.2039060436575347 -0.48788306012054039 0 -0.21662667190777651 -0.49999999999999939 0 -0.2250369990674011 -0.47003999804886298 0 -0.2204246459600448 -0.48171575006642248 0 -0.21054881561508179 -0.46151962797655111 0 -0.2204246459600448 -0.48171575006642248 0 -0.2039060436575347 -0.48788306012054039 0 -0.1979642253463372 -0.47135038307536692 0 -0.2204246459600448 -0.48171575006642248 0 -0.1979642253463372 -0.47135038307536692 0 -0.2204246459600448 -0.48171575006642248 0 -0.21054881561508179 -0.46151962797655111 0 -0.1979642253463372 -0.47135038307536692 0 -0.2039060436575347 -0.48788306012054039 0 -0.1979642253463372 -0.47135038307536692 0 -0.18170511770794731 -0.48283447360099019 0 -0.2039060436575347 -0.48788306012054039 0 -0.191185415407293 -0.5 0 -0.18170511770794731 -0.48283447360099019 0 -0.191185415407293 -0.5 0 -0.16574415890680941 -0.5 0 -0.18170511770794731 -0.48283447360099019 0 -0.16574415890680941 -0.5 0 -0.18170511770794731 -0.48283447360099019 0 -0.1559270581970803 -0.47678838232572268 0 -0.18170511770794731 -0.48283447360099019 0 -0.17550380473262961 -0.46098501608431119 0 -0.1559270581970803 -0.47678838232572268 0 -0.1979642253463372 -0.47135038307536692 0 -0.18170511770794731 -0.48283447360099019 0 -0.17550380473262961 -0.46098501608431119 0 -0.1979642253463372 -0.47135038307536692 0 -0.17550380473262961 -0.46098501608431119 0 -0.19087809923939161 -0.44242625200982799 0 -0.17550380473262961 -0.46098501608431119 0 -0.16487953686040341 -0.43668708651363358 0 -0.17550380473262961 -0.46098501608431119 0 -0.15866236735209521 -0.45377864165300308 0 -0.16487953686040341 -0.43668708651363358 0 -0.17550380473262961 -0.46098501608431119 0 -0.15866236735209521 -0.45377864165300308 0 -0.1559270581970803 -0.47678838232572268 0 -0.15866236735209521 -0.45377864165300308 0 -0.14280129841846509 -0.46103953978105727 0 -0.1559270581970803 -0.47678838232572268 0 -0.15866236735209521 -0.45377864165300308 0 -0.14280129841846509 -0.46103953978105727 0 -0.1438484805828521 -0.43705968193712769 0 -0.15866236735209521 -0.45377864165300308 0 -0.1438484805828521 -0.43705968193712769 0 -0.16487953686040341 -0.43668708651363358 0 -0.14280129841846509 -0.46103953978105727 0 -0.13093011984253891 -0.44972195681556543 0 -0.1438484805828521 -0.43705968193712769 0 -0.13093011984253891 -0.44972195681556543 0 -0.1438484805828521 -0.43705968193712769 0 -0.123519809913229 -0.43733662075251151 0 -0.14280129841846509 -0.46103953978105727 0 -0.13093011984253891 -0.44972195681556543 0 -0.12704973474613379 -0.46277216333596533 0 -0.14280129841846509 -0.46103953978105727 0 -0.12704973474613379 -0.46277216333596533 0 -0.13010403334985379 -0.48000251283874379 0 -0.13010403334985379 -0.48000251283874379 0 -0.1403029024063259 -0.5 0 -0.1148616459058424 -0.5 0 -0.16574415890680941 -0.5 0 -0.1403029024063259 -0.5 0 -0.1559270581970803 -0.47678838232572268 0 -0.13010403334985379 -0.48000251283874379 0 -0.1403029024063259 -0.5 0 -0.1559270581970803 -0.47678838232572268 0 -0.14280129841846509 -0.46103953978105727 0 -0.13010403334985379 -0.48000251283874379 0 -0.1559270581970803 -0.47678838232572268 0 -0.13724659116883831 -0.38156720383825199 0 -0.13696324729183901 -0.40051159333262831 0 -0.1562511533772393 -0.40085091578326698 0 -0.13696324729183901 -0.40051159333262831 0 -0.14428023194946249 -0.41611080081516499 0 -0.1562511533772393 -0.40085091578326698 0 -0.13724659116883831 -0.38156720383825199 0 -0.1562511533772393 -0.40085091578326698 0 -0.1663441030446621 -0.37717300760659073 0 -0.13724659116883831 -0.38156720383825199 0 -0.11827115974421661 -0.40327967795429231 0 -0.13724659116883831 -0.38156720383825199 0 -0.13696324729183901 -0.40051159333262831 0 -0.11827115974421661 -0.40327967795429231 0 -0.13696324729183901 -0.40051159333262831 0 -0.12597911368703019 -0.41952469120143437 0 -0.14428023194946249 -0.41611080081516499 0 -0.13696324729183901 -0.40051159333262831 0 -0.12597911368703019 -0.41952469120143437 0 -0.11827115974421661 -0.40327967795429231 0 -0.12597911368703019 -0.41952469120143437 0 -0.1438484805828521 -0.43705968193712769 0 -0.123519809913229 -0.43733662075251151 0 -0.12597911368703019 -0.41952469120143437 0 -0.1438484805828521 -0.43705968193712769 0 -0.14428023194946249 -0.41611080081516499 0 -0.1438484805828521 -0.43705968193712769 0 -0.16487953686040341 -0.43668708651363358 0 -0.1579375607246061 -0.42228606781690858 0 -0.1438484805828521 -0.43705968193712769 0 -0.14428023194946249 -0.41611080081516499 0 -0.1579375607246061 -0.42228606781690858 0 -0.14428023194946249 -0.41611080081516499 0 -0.1579375607246061 -0.42228606781690858 0 -0.1562511533772393 -0.40085091578326698 0 -0.1717517290487513 -0.41486076781395709 0 -0.1579375607246061 -0.42228606781690858 0 -0.1562511533772393 -0.40085091578326698 0 -0.1717517290487513 -0.41486076781395709 0 -0.16487953686040341 -0.43668708651363358 0 -0.1579375607246061 -0.42228606781690858 0 -0.1717517290487513 -0.41486076781395709 0 -0.16487953686040341 -0.43668708651363358 0 -0.19087809923939161 -0.44242625200982799 0 -0.16487953686040341 -0.43668708651363358 0 -0.18049207608238291 -0.42812424827546058 0 -0.1717517290487513 -0.41486076781395709 0 -0.16487953686040341 -0.43668708651363358 0 -0.18049207608238291 -0.42812424827546058 0 -0.1717517290487513 -0.41486076781395709 0 -0.18680736564207029 -0.41498853585306777 0 -0.17862392123709919 -0.39303444911428059 0 -0.1717517290487513 -0.41486076781395709 0 -0.18049207608238291 -0.42812424827546058 0 -0.18680736564207029 -0.41498853585306777 0 -0.18680736564207029 -0.41498853585306777 0 -0.17862392123709919 -0.39303444911428059 0 -0.19656737959219739 -0.40219111980173922 0 -0.1717517290487513 -0.41486076781395709 0 -0.17862392123709919 -0.39303444911428059 0 -0.1717517290487513 -0.41486076781395709 0 -0.17862392123709919 -0.39303444911428059 0 -0.1562511533772393 -0.40085091578326698 0 -0.17862392123709919 -0.39303444911428059 0 -0.1562511533772393 -0.40085091578326698 0 -0.1663441030446621 -0.37717300760659073 0 -0.17862392123709919 -0.39303444911428059 0 -0.1663441030446621 -0.37717300760659073 0 -0.1854961134254472 -0.37120813041460421 0 -0.17862392123709919 -0.39303444911428059 0 -0.1854961134254472 -0.37120813041460421 0 -0.17862392123709919 -0.39303444911428059 0 -0.20527564977482679 -0.38624161667098289 0 -0.1854961134254472 -0.37120813041460421 0 -0.17862392123709919 -0.39303444911428059 0 -0.19656737959219739 -0.40219111980173922 0 -0.20527564977482679 -0.38624161667098289 0 -0.20527564977482679 -0.38624161667098289 0 -0.2118432178570665 -0.41409151531568628 0 -0.2281799985799623 -0.39436158075255778 0 -0.19656737959219739 -0.40219111980173922 0 -0.20527564977482679 -0.38624161667098289 0 -0.2118432178570665 -0.41409151531568628 0 -0.20527564977482679 -0.38624161667098289 0 -0.2118432178570665 -0.41409151531568628 0 -0.20527564977482679 -0.38624161667098289 0 -0.22195794658956111 -0.37463091785279867 0 -0.21168543115216709 -0.36681117402183649 0 -0.20527564977482679 -0.38624161667098289 0 -0.2281799985799623 -0.39436158075255778 0 -0.22195794658956111 -0.37463091785279867 0 -0.18049207608238291 -0.42812424827546058 0 -0.18680736564207029 -0.41498853585306777 0 -0.19899408631087909 -0.4269358685541359 0 -0.19087809923939161 -0.44242625200982799 0 -0.18049207608238291 -0.42812424827546058 0 -0.19899408631087909 -0.4269358685541359 0 -0.21844010846223411 -0.44206575668227449 0 -0.19087809923939161 -0.44242625200982799 0 -0.19899408631087909 -0.4269358685541359 0 -0.18680736564207029 -0.41498853585306777 0 -0.19656737959219739 -0.40219111980173922 0 -0.2118432178570665 -0.41409151531568628 0 -0.18680736564207029 -0.41498853585306777 0 -0.19899408631087909 -0.4269358685541359 0 -0.2118432178570665 -0.41409151531568628 0 -0.18680736564207029 -0.41498853585306777 0 -0.2118432178570665 -0.41409151531568628 0 -0.21844010846223411 -0.44206575668227449 0 -0.19899408631087909 -0.4269358685541359 0 -0.2118432178570665 -0.41409151531568628 0 -0.21844010846223411 -0.44206575668227449 0 -0.2118432178570665 -0.41409151531568628 0 -0.21844010846223411 -0.44206575668227449 0 -0.2118432178570665 -0.41409151531568628 0 -0.23280677558438309 -0.43386548686292281 0 -0.2118432178570665 -0.41409151531568628 0 -0.23335673218814301 -0.41332069816832789 0 -0.2281799985799623 -0.39436158075255778 0 -0.2118432178570665 -0.41409151531568628 0 -0.23335673218814301 -0.41332069816832789 0 -0.2118432178570665 -0.41409151531568628 0 -0.23280677558438309 -0.43386548686292281 0 -0.23335673218814301 -0.41332069816832789 0 -0.25487024651921952 -0.41254988102096568 0 -0.23335673218814301 -0.41332069816832789 0 -0.25487024651921952 -0.41254988102096568 0 -0.23335673218814301 -0.41332069816832789 0 -0.24168551714563921 -0.4027948375671459 0 -0.25487024651921952 -0.41254988102096568 0 -0.23335673218814301 -0.41332069816832789 0 -0.2468605885266735 -0.43014712497011809 0 -0.23280677558438309 -0.43386548686292281 0 -0.23335673218814301 -0.41332069816832789 0 -0.2468605885266735 -0.43014712497011809 0 -0.2450571310604201 -0.44414202720417628 0 -0.23280677558438309 -0.43386548686292281 0 -0.2468605885266735 -0.43014712497011809 0 -0.2281799985799623 -0.39436158075255778 0 -0.2359431282162788 -0.37698905115118858 0 -0.22195794658956111 -0.37463091785279867 0 -0.25033509129523179 -0.39094719032673231 0 -0.2281799985799623 -0.39436158075255778 0 -0.24168551714563921 -0.4027948375671459 0 -0.25033509129523179 -0.39094719032673231 0 -0.25487024651921952 -0.41254988102096568 0 -0.24168551714563921 -0.4027948375671459 0 -0.23335673218814301 -0.41332069816832789 0 -0.2281799985799623 -0.39436158075255778 0 -0.24168551714563921 -0.4027948375671459 0 -0.25033509129523179 -0.39094719032673231 0 -0.2359431282162788 -0.37698905115118858 0 -0.24748772700216881 -0.3717564301773445 0 -0.25033509129523179 -0.39094719032673231 0 -0.2281799985799623 -0.39436158075255778 0 -0.2359431282162788 -0.37698905115118858 0 -0.25494538795031141 -0.36273054802101118 0 -0.24748772700216881 -0.3717564301773445 0 -0.24521251836493849 -0.35951647641646678 0 -0.24748772700216881 -0.3717564301773445 0 -0.24521251836493849 -0.35951647641646678 0 -0.23939899228441261 -0.3655962622813349 0 -0.23939899228441261 -0.3655962622813349 0 -0.23024759562621139 -0.36380396142485888 0 -0.23761117654761921 -0.35850429625613017 0 -0.24521251836493849 -0.35951647641646678 0 -0.23939899228441261 -0.3655962622813349 0 -0.23761117654761921 -0.35850429625613017 0 -0.2359431282162788 -0.37698905115118858 0 -0.23939899228441261 -0.3655962622813349 0 -0.23024759562621139 -0.36380396142485888 0 -0.2359431282162788 -0.37698905115118858 0 -0.24748772700216881 -0.3717564301773445 0 -0.23939899228441261 -0.3655962622813349 0 -0.2359431282162788 -0.37698905115118858 0 -0.23024759562621139 -0.36380396142485888 0 -0.22195794658956111 -0.37463091785279867 0 -0.23024759562621139 -0.36380396142485888 0 -0.22135664398937441 -0.36020929429952131 0 -0.2310785660723691 -0.35440187846705151 0 -0.23024759562621139 -0.36380396142485888 0 -0.22135664398937441 -0.36020929429952131 0 -0.22195794658956111 -0.37463091785279867 0 -0.22135664398937441 -0.36020929429952131 0 -0.22331676928072861 -0.34527245129667988 0 -0.2310785660723691 -0.35440187846705151 0 -0.23024759562621139 -0.36380396142485888 0 -0.2310785660723691 -0.35440187846705151 0 -0.23761117654761921 -0.35850429625613017 0 -0.22331676928072861 -0.34527245129667988 0 -0.2337118992122327 -0.34903918396608452 0 -0.23708401688859529 -0.34365007901650441 0 -0.22331676928072861 -0.34527245129667988 0 -0.2310785660723691 -0.35440187846705151 0 -0.2337118992122327 -0.34903918396608452 0 -0.26017799311385281 -0.35268912854855933 0 -0.24808760514302669 -0.3536558827211943 0 -0.2404133442166683 -0.34213832018255058 0 -0.2310785660723691 -0.35440187846705151 0 -0.2337118992122327 -0.34903918396608452 0 -0.2396887820693627 -0.35120494043738398 0 -0.26017799311385281 -0.35268912854855933 0 -0.24325210797206609 -0.34084931319650169 0 -0.2404133442166683 -0.34213832018255058 0 -0.2396887820693627 -0.35120494043738398 0 -0.23708401688859529 -0.34365007901650441 0 -0.2404133442166683 -0.34213832018255058 0 -0.2337118992122327 -0.34903918396608452 0 -0.2396887820693627 -0.35120494043738398 0 -0.23708401688859529 -0.34365007901650441 0 -0.2310785660723691 -0.35440187846705151 0 -0.2396887820693627 -0.35120494043738398 0 -0.23761117654761921 -0.35850429625613017 0 -0.24521251836493849 -0.35951647641646678 0 -0.2396887820693627 -0.35120494043738398 0 -0.23761117654761921 -0.35850429625613017 0 -0.24521251836493849 -0.35951647641646678 0 -0.2396887820693627 -0.35120494043738398 0 -0.24808760514302669 -0.3536558827211943 0 -0.25494538795031141 -0.36273054802101118 0 -0.24521251836493849 -0.35951647641646678 0 -0.24808760514302669 -0.3536558827211943 0 -0.2396887820693627 -0.35120494043738398 0 -0.24808760514302669 -0.3536558827211943 0 -0.2404133442166683 -0.34213832018255058 0 -0.24325210797206609 -0.34084931319650169 0 -0.24518994726652291 -0.33234415230164399 0 -0.23958942898634211 -0.33903199036576709 0 -0.24518994726652291 -0.33234415230164399 0 -0.23560348244150561 -0.32909319502054812 0 -0.23958942898634211 -0.33903199036576709 0 -0.23708401688859529 -0.34365007901650441 0 -0.2404133442166683 -0.34213832018255058 0 -0.24325210797206609 -0.34084931319650169 0 -0.2404133442166683 -0.34213832018255058 0 -0.23958942898634211 -0.33903199036576709 0 -0.24325210797206609 -0.34084931319650169 0 -0.2404133442166683 -0.34213832018255058 0 -0.24325210797206609 -0.34084931319650169 0 -0.23958942898634211 -0.33903199036576709 0 -0.25915672867891859 -0.31415112243359272 0 -0.24308922262768951 -0.32099342612622928 0 -0.24047089863443691 -0.30798947189970438 0 -0.24518994726652291 -0.33234415230164399 0 -0.23560348244150561 -0.32909319502054812 0 -0.24308922262768951 -0.32099342612622928 0 -0.23560348244150561 -0.32909319502054812 0 -0.24308922262768951 -0.32099342612622928 0 -0.22938765682563561 -0.32144886021699343 0 -0.24308922262768951 -0.32099342612622928 0 -0.22938765682563561 -0.32144886021699343 0 -0.23158309368585001 -0.31181085789310747 0 -0.24308922262768951 -0.32099342612622928 0 -0.24047089863443691 -0.30798947189970438 0 -0.23158309368585001 -0.31181085789310747 0 -0.22938765682563561 -0.32144886021699343 0 -0.23158309368585001 -0.31181085789310747 0 -0.22249387381410951 -0.31123320620709588 0 -0.23560348244150561 -0.32909319502054812 0 -0.22938765682563561 -0.32144886021699343 0 -0.22076115650133771 -0.33164754609210678 0 -0.22938765682563561 -0.32144886021699343 0 -0.22076115650133771 -0.33164754609210678 0 -0.2180259411870723 -0.31620608063285149 0 -0.22938765682563561 -0.32144886021699343 0 -0.2180259411870723 -0.31620608063285149 0 -0.22249387381410951 -0.31123320620709588 0 -0.22331676928072861 -0.34527245129667988 0 -0.23708401688859529 -0.34365007901650441 0 -0.22076115650133771 -0.33164754609210678 0 -0.23560348244150561 -0.32909319502054812 0 -0.23958942898634211 -0.33903199036576709 0 -0.22076115650133771 -0.33164754609210678 0 -0.2404133442166683 -0.34213832018255058 0 -0.22076115650133771 -0.33164754609210678 0 -0.2404133442166683 -0.34213832018255058 0 -0.23958942898634211 -0.33903199036576709 0 -0.22076115650133771 -0.33164754609210678 0 -0.23708401688859529 -0.34365007901650441 0 -0.2404133442166683 -0.34213832018255058 0 -0.22076115650133771 -0.33164754609210678 0 -0.22331676928072861 -0.34527245129667988 0 -0.22076115650133771 -0.33164754609210678 0 -0.20784983644103361 -0.34097302903627591 0 -0.22076115650133771 -0.33164754609210678 0 -0.20348412114368319 -0.33156666209817831 0 -0.20784983644103361 -0.34097302903627591 0 -0.2180259411870723 -0.31620608063285149 0 -0.19974136112887431 -0.31343603927203523 0 -0.20110896878600679 -0.32115677200166343 0 -0.22076115650133771 -0.33164754609210678 0 -0.2180259411870723 -0.31620608063285149 0 -0.20110896878600679 -0.32115677200166343 0 -0.22076115650133771 -0.33164754609210678 0 -0.20348412114368319 -0.33156666209817831 0 -0.20110896878600679 -0.32115677200166343 0 -0.22076115650133771 -0.33164754609210678 0 -0.20110896878600679 -0.32115677200166343 0 -0.2180259411870723 -0.31620608063285149 0 -0.19974136112887431 -0.31343603927203523 0 -0.20904493575850211 -0.30938578927939081 0 -0.2180259411870723 -0.31620608063285149 0 -0.19974136112887431 -0.31343603927203523 0 -0.19974136112887431 -0.31343603927203523 0 -0.20110896878600679 -0.32115677200166343 0 -0.1814567810706762 -0.3106659979112194 0 -0.20110896878600679 -0.32115677200166343 0 -0.1814567810706762 -0.3106659979112194 0 -0.20110896878600679 -0.32115677200166343 0 -0.19214051361034601 -0.33054181938157612 0 -0.1814567810706762 -0.3106659979112194 0 -0.20348412114368319 -0.33156666209817831 0 -0.20110896878600679 -0.32115677200166343 0 -0.19214051361034601 -0.33054181938157612 0 -0.20348412114368319 -0.33156666209817831 0 -0.20784983644103361 -0.34097302903627591 0 -0.19214051361034601 -0.33054181938157612 0 -0.20784983644103361 -0.34097302903627591 0 -0.19214051361034601 -0.33054181938157612 0 -0.20232946575910341 -0.34593351830387509 0 -0.19214051361034601 -0.33054181938157612 0 -0.19236830561379509 -0.34938181171492771 0 -0.18622265824693729 -0.34003474470360739 0 -0.19214051361034601 -0.33054181938157612 0 -0.19236830561379509 -0.34938181171492771 0 -0.19870808169258641 -0.35839171802627962 0 -0.19214051361034601 -0.33054181938157612 0 -0.19870808169258641 -0.35839171802627962 0 -0.19214051361034601 -0.33054181938157612 0 -0.20232946575910341 -0.34593351830387509 0 -0.19870808169258641 -0.35839171802627962 0 -0.19236830561379509 -0.34938181171492771 0 -0.1854961134254472 -0.37120813041460421 0 -0.20527564977482679 -0.38624161667098289 0 -0.19870808169258641 -0.35839171802627962 0 -0.20527564977482679 -0.38624161667098289 0 -0.19870808169258641 -0.35839171802627962 0 -0.1854961134254472 -0.37120813041460421 0 -0.19236830561379509 -0.34938181171492771 0 -0.19870808169258641 -0.35839171802627962 0 -0.1854961134254472 -0.37120813041460421 0 -0.20527564977482679 -0.38624161667098289 0 -0.19870808169258641 -0.35839171802627962 0 -0.21168543115216709 -0.36681117402183649 0 -0.19870808169258641 -0.35839171802627962 0 -0.21168543115216709 -0.36681117402183649 0 -0.21061943129244759 -0.3538275067713687 0 -0.22135664398937441 -0.36020929429952131 0 -0.22195794658956111 -0.37463091785279867 0 -0.21168543115216709 -0.36681117402183649 0 -0.22135664398937441 -0.36020929429952131 0 -0.21168543115216709 -0.36681117402183649 0 -0.21061943129244759 -0.3538275067713687 0 -0.22135664398937441 -0.36020929429952131 0 -0.22331676928072861 -0.34527245129667988 0 -0.21061943129244759 -0.3538275067713687 0 -0.22331676928072861 -0.34527245129667988 0 -0.20784983644103361 -0.34097302903627591 0 -0.21061943129244759 -0.3538275067713687 0 -0.20784983644103361 -0.34097302903627591 0 -0.20232946575910341 -0.34593351830387509 0 -0.21061943129244759 -0.3538275067713687 0 -0.20232946575910341 -0.34593351830387509 0 -0.19870808169258641 -0.35839171802627962 0 -0.21061943129244759 -0.3538275067713687 0 -0.22866545068461799 -0.25948943059043711 0 -0.21759888839251429 -0.26212753750200368 0 -0.22025275826160279 -0.2471257797298928 0 -0.22866545068461799 -0.25948943059043711 0 -0.22398633244919169 -0.27132847136955079 0 -0.21759888839251429 -0.26212753750200368 0 -0.22866545068461799 -0.25948943059043711 0 -0.23442911476228809 -0.24683612341654529 0 -0.22025275826160279 -0.2471257797298928 0 -0.22866545068461799 -0.25948943059043711 0 -0.24233717299785959 -0.25960849866204011 0 -0.23442911476228809 -0.24683612341654529 0 -0.2565674865322034 -0.25340195958415102 0 -0.24233717299785959 -0.25960849866204011 0 -0.25018128361314113 -0.24746468840205441 0 -0.22866545068461799 -0.25948943059043711 0 -0.24233717299785959 -0.25960849866204011 0 -0.2333815926018066 -0.27110706845475141 0 -0.24233717299785959 -0.25960849866204011 0 -0.2333815926018066 -0.27110706845475141 0 -0.24140403581614819 -0.28379898528087227 0 -0.24233717299785959 -0.25960849866204011 0 -0.24140403581614819 -0.28379898528087227 0 -0.24233717299785959 -0.25960849866204011 0 -0.2484323970602714 -0.27706385987730509 0 -0.24140403581614819 -0.28379898528087227 0 -0.25309751137434572 -0.26289123234143091 0 -0.24233717299785959 -0.25960849866204011 0 -0.2484323970602714 -0.27706385987730509 0 -0.2333815926018066 -0.27110706845475141 0 -0.2300547693907766 -0.28178467995593781 0 -0.24140403581614819 -0.28379898528087227 0 -0.2333815926018066 -0.27110706845475141 0 -0.22398633244919169 -0.27132847136955079 0 -0.2300547693907766 -0.28178467995593781 0 -0.22866545068461799 -0.25948943059043711 0 -0.2333815926018066 -0.27110706845475141 0 -0.22398633244919169 -0.27132847136955079 0 -0.22398633244919169 -0.27132847136955079 0 -0.21947311754018139 -0.28174823216008099 0 -0.2300547693907766 -0.28178467995593781 0 -0.21947311754018139 -0.28174823216008099 0 -0.22569627159534009 -0.29064390563822362 0 -0.2300547693907766 -0.28178467995593781 0 -0.21947311754018139 -0.28174823216008099 0 -0.22569627159534009 -0.29064390563822362 0 -0.21595054291829549 -0.29285447433738648 0 -0.22569627159534009 -0.29064390563822362 0 -0.22453607640027501 -0.29842387346705762 0 -0.21595054291829549 -0.29285447433738648 0 -0.22569627159534009 -0.29064390563822362 0 -0.2341156104824163 -0.28973116501788848 0 -0.23104294706112549 -0.29817392722980551 0 -0.22569627159534009 -0.29064390563822362 0 -0.23104294706112549 -0.29817392722980551 0 -0.22453607640027501 -0.29842387346705762 0 -0.22569627159534009 -0.29064390563822362 0 -0.2341156104824163 -0.28973116501788848 0 -0.2300547693907766 -0.28178467995593781 0 -0.25108388684634803 -0.28956965662021522 0 -0.24140403581614819 -0.28379898528087227 0 -0.24047089863443691 -0.30798947189970438 0 -0.2341156104824163 -0.28973116501788848 0 -0.24140403581614819 -0.28379898528087227 0 -0.24047089863443691 -0.30798947189970438 0 -0.24140403581614819 -0.28379898528087227 0 -0.24047089863443691 -0.30798947189970438 0 -0.2341156104824163 -0.28973116501788848 0 -0.2300547693907766 -0.28178467995593781 0 -0.24140403581614819 -0.28379898528087227 0 -0.25108388684634803 -0.28956965662021522 0 -0.2484323970602714 -0.27706385987730509 0 -0.24140403581614819 -0.28379898528087227 0 -0.25718459078837252 -0.29759752524363881 0 -0.25108388684634803 -0.28956965662021522 0 -0.24047089863443691 -0.30798947189970438 0 -0.2341156104824163 -0.28973116501788848 0 -0.24047089863443691 -0.30798947189970438 0 -0.23104294706112549 -0.29817392722980551 0 -0.24047089863443691 -0.30798947189970438 0 -0.23158309368585001 -0.31181085789310747 0 -0.2303958781931594 -0.30408122012615352 0 -0.23158309368585001 -0.31181085789310747 0 -0.2303958781931594 -0.30408122012615352 0 -0.2249978911063876 -0.30539226771637512 0 -0.24047089863443691 -0.30798947189970438 0 -0.23104294706112549 -0.29817392722980551 0 -0.2303958781931594 -0.30408122012615352 0 -0.23104294706112549 -0.29817392722980551 0 -0.2303958781931594 -0.30408122012615352 0 -0.22453607640027501 -0.29842387346705762 0 -0.2303958781931594 -0.30408122012615352 0 -0.22453607640027501 -0.29842387346705762 0 -0.2249978911063876 -0.30539226771637512 0 -0.22453607640027501 -0.29842387346705762 0 -0.2249978911063876 -0.30539226771637512 0 -0.21872282414136721 -0.30136563651957121 0 -0.22453607640027501 -0.29842387346705762 0 -0.21872282414136721 -0.30136563651957121 0 -0.21595054291829549 -0.29285447433738648 0 -0.22249387381410951 -0.31123320620709588 0 -0.2249978911063876 -0.30539226771637512 0 -0.21872282414136721 -0.30136563651957121 0 -0.23158309368585001 -0.31181085789310747 0 -0.22249387381410951 -0.31123320620709588 0 -0.2249978911063876 -0.30539226771637512 0 -0.22249387381410951 -0.31123320620709588 0 -0.20819654573008861 -0.30010144335043992 0 -0.2180259411870723 -0.31620608063285149 0 -0.2144403241224431 -0.30923162986744451 0 -0.20904493575850211 -0.30938578927939081 0 -0.22249387381410951 -0.31123320620709588 0 -0.2144403241224431 -0.30923162986744451 0 -0.20819654573008861 -0.30010144335043992 0 -0.2180259411870723 -0.31620608063285149 0 -0.22249387381410951 -0.31123320620709588 0 -0.2144403241224431 -0.30923162986744451 0 -0.21872282414136721 -0.30136563651957121 0 -0.20819654573008861 -0.30010144335043992 0 -0.21595054291829549 -0.29285447433738648 0 -0.22249387381410951 -0.31123320620709588 0 -0.21872282414136721 -0.30136563651957121 0 -0.20819654573008861 -0.30010144335043992 0 -0.20819654573008861 -0.30010144335043992 0 -0.20288915614788011 -0.30684576889979082 0 -0.200327377448308 -0.30070497350852549 0 -0.19974136112887431 -0.31343603927203523 0 -0.20904493575850211 -0.30938578927939081 0 -0.20288915614788011 -0.30684576889979082 0 -0.2144403241224431 -0.30923162986744451 0 -0.20819654573008861 -0.30010144335043992 0 -0.20904493575850211 -0.30938578927939081 0 -0.20819654573008861 -0.30010144335043992 0 -0.20904493575850211 -0.30938578927939081 0 -0.20288915614788011 -0.30684576889979082 0 -0.19974136112887431 -0.31343603927203523 0 -0.1814567810706762 -0.3106659979112194 0 -0.19974136112887431 -0.31343603927203523 0 -0.20288915614788011 -0.30684576889979082 0 -0.19308950921137841 -0.30535425612401718 0 -0.19974136112887431 -0.31343603927203523 0 -0.19308950921137841 -0.30535425612401718 0 -0.1814567810706762 -0.3106659979112194 0 -0.19308950921137841 -0.30535425612401718 0 -0.1899902243989981 -0.29832565749187118 0 -0.1817779539512053 -0.30255714357571323 0 -0.19308950921137841 -0.30535425612401718 0 -0.1899902243989981 -0.29832565749187118 0 -0.200327377448308 -0.30070497350852549 0 -0.20288915614788011 -0.30684576889979082 0 -0.19308950921137841 -0.30535425612401718 0 -0.200327377448308 -0.30070497350852549 0 -0.20819654573008861 -0.30010144335043992 0 -0.19389921764606771 -0.28896968049378402 0 -0.200327377448308 -0.30070497350852549 0 -0.19389921764606771 -0.28896968049378402 0 -0.20819654573008861 -0.30010144335043992 0 -0.200327377448308 -0.30070497350852549 0 -0.19389921764606771 -0.28896968049378402 0 -0.20819654573008861 -0.30010144335043992 0 -0.19389921764606771 -0.28896968049378402 0 -0.2049502680629153 -0.28953974020436019 0 -0.1899902243989981 -0.29832565749187118 0 -0.19389921764606771 -0.28896968049378402 0 -0.18066470514172869 -0.29420676669921531 0 -0.1899902243989981 -0.29832565749187118 0 -0.200327377448308 -0.30070497350852549 0 -0.19389921764606771 -0.28896968049378402 0 -0.19389921764606771 -0.28896968049378402 0 -0.18643891475010321 -0.2753500999052107 0 -0.19389921764606771 -0.28896968049378402 0 -0.1815972113741586 -0.27939145610981342 0 -0.19389921764606771 -0.28896968049378402 0 -0.2049502680629153 -0.28953974020436019 0 -0.20163083764207049 -0.27816255368004889 0 -0.2099333729274668 -0.28317129254800538 0 -0.2049502680629153 -0.28953974020436019 0 -0.20163083764207049 -0.27816255368004889 0 -0.2099333729274668 -0.28317129254800538 0 -0.2049502680629153 -0.28953974020436019 0 -0.21595054291829549 -0.29285447433738648 0 -0.20819654573008861 -0.30010144335043992 0 -0.2049502680629153 -0.28953974020436019 0 -0.21595054291829549 -0.29285447433738648 0 -0.21947311754018139 -0.28174823216008099 0 -0.2099333729274668 -0.28317129254800538 0 -0.21595054291829549 -0.29285447433738648 0 -0.2117440640613063 -0.2714560660025862 0 -0.20163083764207049 -0.27816255368004889 0 -0.20334583650585281 -0.26123793981755161 0 -0.22398633244919169 -0.27132847136955079 0 -0.21947311754018139 -0.28174823216008099 0 -0.2117440640613063 -0.2714560660025862 0 -0.21947311754018139 -0.28174823216008099 0 -0.2099333729274668 -0.28317129254800538 0 -0.2117440640613063 -0.2714560660025862 0 -0.22398633244919169 -0.27132847136955079 0 -0.2117440640613063 -0.2714560660025862 0 -0.21759888839251429 -0.26212753750200368 0 -0.2099333729274668 -0.28317129254800538 0 -0.2117440640613063 -0.2714560660025862 0 -0.20163083764207049 -0.27816255368004889 0 -0.20163083764207049 -0.27816255368004889 0 -0.20334583650585281 -0.26123793981755161 0 -0.18643891475010321 -0.2753500999052107 0 -0.20334583650585281 -0.26123793981755161 0 -0.18643891475010321 -0.2753500999052107 0 -0.1892261620383611 -0.26071341320317981 0 -0.20334583650585281 -0.26123793981755161 0 -0.18643891475010321 -0.2753500999052107 0 -0.19389921764606771 -0.28896968049378402 0 -0.20163083764207049 -0.27816255368004889 0 -0.18643891475010321 -0.2753500999052107 0 -0.1892261620383611 -0.26071341320317981 0 -0.20334583650585281 -0.26123793981755161 0 -0.1971211098569064 -0.2485562144643311 0 -0.20334583650585281 -0.26123793981755161 0 -0.21759888839251429 -0.26212753750200368 0 -0.22025275826160279 -0.2471257797298928 0 -0.20334583650585281 -0.26123793981755161 0 -0.22025275826160279 -0.2471257797298928 0 -0.20334583650585281 -0.26123793981755161 0 -0.1971211098569064 -0.2485562144643311 0 -0.22025275826160279 -0.2471257797298928 0 -0.2117440640613063 -0.2714560660025862 0 -0.20334583650585281 -0.26123793981755161 0 -0.21759888839251429 -0.26212753750200368 0 -0.15821309250511281 -0.26118480488572993 0 -0.17536452169406261 -0.25513261131262932 0 -0.1815972113741586 -0.27939145610981342 0 -0.15821309250511281 -0.26118480488572993 0 -0.17536452169406261 -0.25513261131262932 0 -0.15566934165753701 -0.24482136105764621 0 -0.1892261620383611 -0.26071341320317981 0 -0.17536452169406261 -0.25513261131262932 0 -0.1971211098569064 -0.2485562144643311 0 -0.1892261620383611 -0.26071341320317981 0 -0.17536452169406261 -0.25513261131262932 0 -0.18643891475010321 -0.2753500999052107 0 -0.17536452169406261 -0.25513261131262932 0 -0.18643891475010321 -0.2753500999052107 0 -0.17536452169406261 -0.25513261131262932 0 -0.18643891475010321 -0.2753500999052107 0 -0.1815972113741586 -0.27939145610981342 0 -0.19389921764606771 -0.28896968049378402 0 -0.18643891475010321 -0.2753500999052107 0 -0.1815972113741586 -0.27939145610981342 0 -0.18643891475010321 -0.2753500999052107 0 -0.1815972113741586 -0.27939145610981342 0 -0.15821309250511281 -0.26118480488572993 0 -0.1815972113741586 -0.27939145610981342 0 -0.1605334253196628 -0.27705414769848019 0 -0.15821309250511281 -0.26118480488572993 0 -0.1815972113741586 -0.27939145610981342 0 -0.1605334253196628 -0.27705414769848019 0 -0.16662117086531369 -0.29189191504570172 0 -0.1460397447830028 -0.28392096720827609 0 -0.1815972113741586 -0.27939145610981342 0 -0.1605334253196628 -0.27705414769848019 0 -0.16662117086531369 -0.29189191504570172 0 -0.16662117086531369 -0.29189191504570172 0 -0.18066470514172869 -0.29420676669921531 0 -0.16807172941449361 -0.30108874618849107 0 -0.1815972113741586 -0.27939145610981342 0 -0.16662117086531369 -0.29189191504570172 0 -0.1815972113741586 -0.27939145610981342 0 -0.16662117086531369 -0.29189191504570172 0 -0.18066470514172869 -0.29420676669921531 0 -0.19389921764606771 -0.28896968049378402 0 -0.1815972113741586 -0.27939145610981342 0 -0.18066470514172869 -0.29420676669921531 0 -0.18066470514172869 -0.29420676669921531 0 -0.1817779539512053 -0.30255714357571323 0 -0.16807172941449361 -0.30108874618849107 0 -0.1817779539512053 -0.30255714357571323 0 -0.17538193411824851 -0.30742310974349601 0 -0.16807172941449361 -0.30108874618849107 0 -0.1899902243989981 -0.29832565749187118 0 -0.18066470514172869 -0.29420676669921531 0 -0.1817779539512053 -0.30255714357571323 0 -0.19308950921137841 -0.30535425612401718 0 -0.1817779539512053 -0.30255714357571323 0 -0.1814567810706762 -0.3106659979112194 0 -0.1817779539512053 -0.30255714357571323 0 -0.1814567810706762 -0.3106659979112194 0 -0.17538193411824851 -0.30742310974349601 0 -0.1814567810706762 -0.3106659979112194 0 -0.17538193411824851 -0.30742310974349601 0 -0.1814567810706762 -0.3106659979112194 0 -0.17538193411824851 -0.30742310974349601 0 -0.1521471234576928 -0.30622570102712859 0 -0.16662117086531369 -0.29189191504570172 0 -0.16807172941449361 -0.30108874618849107 0 -0.15164513035647001 -0.30439237398159158 0 -0.17538193411824851 -0.30742310974349601 0 -0.16807172941449361 -0.30108874618849107 0 -0.1521471234576928 -0.30622570102712859 0 -0.16807172941449361 -0.30108874618849107 0 -0.1521471234576928 -0.30622570102712859 0 -0.15164513035647001 -0.30439237398159158 0 -0.1814567810706762 -0.3106659979112194 0 -0.1521471234576928 -0.30622570102712859 0 -0.16662117086531369 -0.29189191504570172 0 -0.15164513035647001 -0.30439237398159158 0 -0.14986325126998301 -0.30587970344869631 0 -0.1472482395654931 -0.30806244637126978 0 -0.13137693926794269 -0.30307910049847142 0 -0.14986325126998301 -0.30587970344869631 0 -0.13137693926794269 -0.30307910049847142 0 -0.14191197011226919 -0.29595195204747682 0 -0.1521471234576928 -0.30622570102712859 0 -0.15536928910057479 -0.31799335959440589 0 -0.1521471234576928 -0.30622570102712859 0 -0.1472482395654931 -0.30806244637126978 0 -0.1481744133336001 -0.31559103279323952 0 -0.1521471234576928 -0.30622570102712859 0 -0.14986325126998301 -0.30587970344869631 0 -0.1472482395654931 -0.30806244637126978 0 -0.1521471234576928 -0.30622570102712859 0 -0.14986325126998301 -0.30587970344869631 0 -0.15164513035647001 -0.30439237398159158 0 -0.1521471234576928 -0.30622570102712859 0 -0.14986325126998301 -0.30587970344869631 0 -0.1521471234576928 -0.30622570102712859 0 -0.15164513035647001 -0.30439237398159158 0 -0.14986325126998301 -0.30587970344869631 0 -0.15164513035647001 -0.30439237398159158 0 -0.14986325126998301 -0.30587970344869631 0 -0.1472482395654931 -0.30806244637126978 0 -0.14986325126998301 -0.30587970344869631 0 -0.15164513035647001 -0.30439237398159158 0 -0.14191197011226919 -0.29595195204747682 0 -0.1472482395654931 -0.30806244637126978 0 -0.13676428411235661 -0.311985534419285 0 -0.1481744133336001 -0.31559103279323952 0 -0.14986325126998301 -0.30587970344869631 0 -0.13137693926794269 -0.30307910049847142 0 -0.1472482395654931 -0.30806244637126978 0 -0.13676428411235661 -0.311985534419285 0 -0.13137693926794269 -0.30307910049847142 0 -0.13137693926794269 -0.30307910049847142 0 -0.14191197011226919 -0.29595195204747682 0 -0.12354370332633501 -0.29237215235494779 0 -0.13676428411235661 -0.311985534419285 0 -0.13137693926794269 -0.30307910049847142 0 -0.12202825811921469 -0.30947938976295097 0 -0.1460397447830028 -0.28392096720827609 0 -0.14191197011226919 -0.29595195204747682 0 -0.13317406737037779 -0.2802173890703723 0 -0.14191197011226919 -0.29595195204747682 0 -0.13317406737037779 -0.2802173890703723 0 -0.12354370332633501 -0.29237215235494779 0 -0.13317406737037779 -0.2802173890703723 0 -0.121176560474238 -0.27855216134530347 0 -0.12354370332633501 -0.29237215235494779 0 -0.16662117086531369 -0.29189191504570172 0 -0.15164513035647001 -0.30439237398159158 0 -0.1460397447830028 -0.28392096720827609 0 -0.15164513035647001 -0.30439237398159158 0 -0.1460397447830028 -0.28392096720827609 0 -0.14191197011226919 -0.29595195204747682 0 -0.15164513035647001 -0.30439237398159158 0 -0.1460397447830028 -0.28392096720827609 0 -0.1460397447830028 -0.28392096720827609 0 -0.14043435920953651 -0.26344956043496021 0 -0.1605334253196628 -0.27705414769848019 0 -0.1460397447830028 -0.28392096720827609 0 -0.14043435920953651 -0.26344956043496021 0 -0.15821309250511281 -0.26118480488572993 0 -0.1605334253196628 -0.27705414769848019 0 -0.14043435920953651 -0.26344956043496021 0 -0.13317406737037779 -0.2802173890703723 0 -0.1259380663168852 -0.26705754103126977 0 -0.14043435920953651 -0.26344956043496021 0 -0.1460397447830028 -0.28392096720827609 0 -0.13317406737037779 -0.2802173890703723 0 -0.14043435920953651 -0.26344956043496021 0 -0.13317406737037779 -0.2802173890703723 0 -0.1259380663168852 -0.26705754103126977 0 -0.121176560474238 -0.27855216134530347 0 -0.14043435920953651 -0.26344956043496021 0 -0.1283361407779757 -0.25159171728621699 0 -0.13482897363606841 -0.24297815366164491 0 -0.14043435920953651 -0.26344956043496021 0 -0.13482897363606841 -0.24297815366164491 0 -0.1259380663168852 -0.26705754103126977 0 -0.14043435920953651 -0.26344956043496021 0 -0.1283361407779757 -0.25159171728621699 0 -0.15821309250511281 -0.26118480488572993 0 -0.13482897363606841 -0.24297815366164491 0 -0.15821309250511281 -0.26118480488572993 0 -0.14043435920953651 -0.26344956043496021 0 -0.13482897363606841 -0.24297815366164491 0 -0.17697510949039719 -0.35596577996135209 0 -0.17519745401808179 -0.33814225560617162 0 -0.1562220225934601 -0.35985472972221177 0 -0.17519745401808179 -0.33814225560617162 0 -0.1532624182972378 -0.33871633494107939 0 -0.1562220225934601 -0.35985472972221177 0 -0.17519745401808179 -0.33814225560617162 0 -0.1562220225934601 -0.35985472972221177 0 -0.1663441030446621 -0.37717300760659073 0 -0.17697510949039719 -0.35596577996135209 0 -0.1562220225934601 -0.35985472972221177 0 -0.1663441030446621 -0.37717300760659073 0 -0.1854961134254472 -0.37120813041460421 0 -0.17697510949039719 -0.35596577996135209 0 -0.19236830561379509 -0.34938181171492771 0 -0.1854961134254472 -0.37120813041460421 0 -0.17697510949039719 -0.35596577996135209 0 -0.17697510949039719 -0.35596577996135209 0 -0.17519745401808179 -0.33814225560617162 0 -0.18622265824693729 -0.34003474470360739 0 -0.19236830561379509 -0.34938181171492771 0 -0.17697510949039719 -0.35596577996135209 0 -0.18622265824693729 -0.34003474470360739 0 -0.19214051361034601 -0.33054181938157612 0 -0.17519745401808179 -0.33814225560617162 0 -0.18622265824693729 -0.34003474470360739 0 -0.19214051361034601 -0.33054181938157612 0 -0.17519745401808179 -0.33814225560617162 0 -0.17075841890319021 -0.32267991232295651 0 -0.19214051361034601 -0.33054181938157612 0 -0.1814567810706762 -0.3106659979112194 0 -0.17075841890319021 -0.32267991232295651 0 -0.1814567810706762 -0.3106659979112194 0 -0.1521471234576928 -0.30622570102712859 0 -0.17075841890319021 -0.32267991232295651 0 -0.1521471234576928 -0.30622570102712859 0 -0.17075841890319021 -0.32267991232295651 0 -0.15536928910057479 -0.31799335959440589 0 -0.17075841890319021 -0.32267991232295651 0 -0.15536928910057479 -0.31799335959440589 0 -0.15041885550205389 -0.32708722206771829 0 -0.17519745401808179 -0.33814225560617162 0 -0.17075841890319021 -0.32267991232295651 0 -0.1532624182972378 -0.33871633494107939 0 -0.17075841890319021 -0.32267991232295651 0 -0.1532624182972378 -0.33871633494107939 0 -0.15041885550205389 -0.32708722206771829 0 -0.1532624182972378 -0.33871633494107939 0 -0.15041885550205389 -0.32708722206771829 0 -0.13403844172661231 -0.33095488736429202 0 -0.15041885550205389 -0.32708722206771829 0 -0.14028103823900179 -0.32077908792264309 0 -0.13403844172661231 -0.33095488736429202 0 -0.15536928910057479 -0.31799335959440589 0 -0.15041885550205389 -0.32708722206771829 0 -0.1481744133336001 -0.31559103279323952 0 -0.1521471234576928 -0.30622570102712859 0 -0.15536928910057479 -0.31799335959440589 0 -0.1481744133336001 -0.31559103279323952 0 -0.15041885550205389 -0.32708722206771829 0 -0.1481744133336001 -0.31559103279323952 0 -0.14028103823900179 -0.32077908792264309 0 -0.13676428411235661 -0.311985534419285 0 -0.1481744133336001 -0.31559103279323952 0 -0.14028103823900179 -0.32077908792264309 0 -0.13676428411235661 -0.311985534419285 0 -0.14028103823900179 -0.32077908792264309 0 -0.12839564496088529 -0.32005881249807028 0 -0.14028103823900179 -0.32077908792264309 0 -0.12839564496088529 -0.32005881249807028 0 -0.13403844172661231 -0.33095488736429202 0 -0.12839564496088529 -0.32005881249807028 0 -0.13403844172661231 -0.33095488736429202 0 -0.1231279148664025 -0.32697127933959502 0 -0.13676428411235661 -0.311985534419285 0 -0.12839564496088529 -0.32005881249807028 0 -0.12202825811921469 -0.30947938976295097 0 -0.13403844172661231 -0.33095488736429202 0 -0.13290241802702499 -0.35265178330474523 0 -0.1166361947753133 -0.33638206822001748 0 -0.1532624182972378 -0.33871633494107939 0 -0.13403844172661231 -0.33095488736429202 0 -0.13290241802702499 -0.35265178330474523 0 -0.1532624182972378 -0.33871633494107939 0 -0.13290241802702499 -0.35265178330474523 0 -0.1562220225934601 -0.35985472972221177 0 -0.13724659116883831 -0.38156720383825199 0 -0.13290241802702499 -0.35265178330474523 0 -0.1562220225934601 -0.35985472972221177 0 -0.13724659116883831 -0.38156720383825199 0 -0.1663441030446621 -0.37717300760659073 0 -0.1562220225934601 -0.35985472972221177 0 -0.13724659116883831 -0.38156720383825199 0 -0.1562220225934601 -0.35985472972221177 0 -0.13724659116883831 -0.38156720383825199 0 -0.13290241802702499 -0.35265178330474523 0 -0.1192781490478088 -0.36668410834504778 0 -0.1192781490478088 -0.36668410834504778 0 -0.1016352808315869 -0.36700177770792092 0 -0.11220573075163159 -0.38220411347121069 0 -0.1192781490478088 -0.36668410834504778 0 -0.1016352808315869 -0.36700177770792092 0 -0.1099844304083452 -0.35257743562026572 0 -0.1016352808315869 -0.36700177770792092 0 -0.091783481537845241 -0.36974840743822202 0 -0.093334558199797538 -0.36412034719781128 0 -0.1016352808315869 -0.36700177770792092 0 -0.094364811557621053 -0.35389299716276579 0 -0.093334558199797538 -0.36412034719781128 0 -0.1016352808315869 -0.36700177770792092 0 -0.091783481537845241 -0.36974840743822202 0 -0.093814789784828018 -0.38091150164421111 0 -0.094364811557621053 -0.35389299716276579 0 -0.1099844304083452 -0.35257743562026572 0 -0.096042697554356071 -0.3397062417384924 0 -0.1016352808315869 -0.36700177770792092 0 -0.094364811557621053 -0.35389299716276579 0 -0.1099844304083452 -0.35257743562026572 0 -0.13290241802702499 -0.35265178330474523 0 -0.1099844304083452 -0.35257743562026572 0 -0.1166361947753133 -0.33638206822001748 0 -0.13290241802702499 -0.35265178330474523 0 -0.1192781490478088 -0.36668410834504778 0 -0.1099844304083452 -0.35257743562026572 0 -0.13403844172661231 -0.33095488736429202 0 -0.1166361947753133 -0.33638206822001748 0 -0.1231279148664025 -0.32697127933959502 0 -0.1166361947753133 -0.33638206822001748 0 -0.1152881905332649 -0.31967160768574748 0 -0.098893476597157901 -0.32632392269665411 0 -0.1166361947753133 -0.33638206822001748 0 -0.1231279148664025 -0.32697127933959502 0 -0.1152881905332649 -0.31967160768574748 0 -0.12839564496088529 -0.32005881249807028 0 -0.1152881905332649 -0.31967160768574748 0 -0.12202825811921469 -0.30947938976295097 0 -0.12839564496088529 -0.32005881249807028 0 -0.1231279148664025 -0.32697127933959502 0 -0.1152881905332649 -0.31967160768574748 0 -0.1152881905332649 -0.31967160768574748 0 -0.11397155121489801 -0.30848478901155318 0 -0.10823649018657309 -0.3106210867482716 0 -0.1152881905332649 -0.31967160768574748 0 -0.12202825811921469 -0.30947938976295097 0 -0.11397155121489801 -0.30848478901155318 0 -0.1152881905332649 -0.31967160768574748 0 -0.098893476597157901 -0.32632392269665411 0 -0.10823649018657309 -0.3106210867482716 0 -0.1166361947753133 -0.33638206822001748 0 -0.098893476597157901 -0.32632392269665411 0 -0.096042697554356071 -0.3397062417384924 0 -0.1099844304083452 -0.35257743562026572 0 -0.1166361947753133 -0.33638206822001748 0 -0.096042697554356071 -0.3397062417384924 0 -0.081273045807338212 -0.32012122354728773 0 -0.072383893537199012 -0.33396092306611819 0 -0.082523744249277803 -0.34494336359321798 0 -0.081273045807338212 -0.32012122354728773 0 -0.082523744249277803 -0.34494336359321798 0 -0.096042697554356071 -0.3397062417384924 0 -0.081273045807338212 -0.32012122354728773 0 -0.082523744249277803 -0.34494336359321798 0 -0.098893476597157901 -0.32632392269665411 0 -0.096042697554356071 -0.3397062417384924 0 -0.081273045807338212 -0.32012122354728773 0 -0.098893476597157901 -0.32632392269665411 0 -0.081273045807338212 -0.32012122354728773 0 -0.088490963390462057 -0.3073149594937738 0 -0.081273045807338212 -0.32012122354728773 0 -0.06349485352407537 -0.31994243130957151 0 -0.072383893537199012 -0.33396092306611819 0 -0.081273045807338212 -0.32012122354728773 0 -0.06349485352407537 -0.31994243130957151 0 -0.071882199735688629 -0.30989172464331072 0 -0.06349485352407537 -0.31994243130957151 0 -0.072383893537199012 -0.33396092306611819 0 -0.062587044379988993 -0.33886333000968721 0 -0.072383893537199012 -0.33396092306611819 0 -0.072040779725314613 -0.34593426687082662 0 -0.082523744249277803 -0.34494336359321798 0 -0.072383893537199012 -0.33396092306611819 0 -0.062587044379988993 -0.33886333000968721 0 -0.072040779725314613 -0.34593426687082662 0 -0.062587044379988993 -0.33886333000968721 0 -0.072040779725314613 -0.34593426687082662 0 -0.05778126825204781 -0.35817517109810632 0 -0.081484465201393491 -0.35485127927681481 0 -0.05778126825204781 -0.35817517109810632 0 -0.072289445743601369 -0.36429171085611578 0 -0.081484465201393491 -0.35485127927681481 0 -0.05778126825204781 -0.35817517109810632 0 -0.072040779725314613 -0.34593426687082662 0 -0.081484465201393491 -0.35485127927681481 0 -0.05778126825204781 -0.35817517109810632 0 -0.066117606829746781 -0.37437488941039382 0 -0.072289445743601369 -0.36429171085611578 0 -0.05778126825204781 -0.35817517109810632 0 -0.066117606829746781 -0.37437488941039382 0 -0.072289445743601369 -0.36429171085611578 0 -0.083774442691217046 -0.36976550363914829 0 -0.072289445743601369 -0.36429171085611578 0 -0.083774442691217046 -0.36976550363914829 0 -0.081484465201393491 -0.35485127927681481 0 -0.085554658872136979 -0.36583820648233678 0 -0.083774442691217046 -0.36976550363914829 0 -0.082523744249277803 -0.34494336359321798 0 -0.085554658872136979 -0.36583820648233678 0 -0.083774442691217046 -0.36976550363914829 0 -0.083774442691217046 -0.36976550363914829 0 -0.091783481537845241 -0.36974840743822202 0 -0.093814789784828018 -0.38091150164421111 0 -0.085554658872136979 -0.36583820648233678 0 -0.083774442691217046 -0.36976550363914829 0 -0.091783481537845241 -0.36974840743822202 0 -0.094364811557621053 -0.35389299716276579 0 -0.085554658872136979 -0.36583820648233678 0 -0.093334558199797538 -0.36412034719781128 0 -0.085554658872136979 -0.36583820648233678 0 -0.091783481537845241 -0.36974840743822202 0 -0.093334558199797538 -0.36412034719781128 0 -0.094364811557621053 -0.35389299716276579 0 -0.085554658872136979 -0.36583820648233678 0 -0.082523744249277803 -0.34494336359321798 0 -0.083774442691217046 -0.36976550363914829 0 -0.082523744249277803 -0.34494336359321798 0 -0.083774442691217046 -0.36976550363914829 0 -0.082523744249277803 -0.34494336359321798 0 -0.081484465201393491 -0.35485127927681481 0 -0.094364811557621053 -0.35389299716276579 0 -0.096042697554356071 -0.3397062417384924 0 -0.082523744249277803 -0.34494336359321798 0 -0.072040779725314613 -0.34593426687082662 0 -0.082523744249277803 -0.34494336359321798 0 -0.081484465201393491 -0.35485127927681481 0 -0.101475907254733 -0.26829823342826459 0 -0.093680051977193257 -0.25300014610948141 0 -0.1025516661405015 -0.24412656761791199 0 -0.1097432552782682 -0.2572086698476283 0 -0.101475907254733 -0.26829823342826459 0 -0.1025516661405015 -0.24412656761791199 0 -0.101475907254733 -0.26829823342826459 0 -0.1025516661405015 -0.24412656761791199 0 -0.101475907254733 -0.26829823342826459 0 -0.092490388530258719 -0.26367462890309928 0 -0.093680051977193257 -0.25300014610948141 0 -0.1097432552782682 -0.2572086698476283 0 -0.11415052326640381 -0.26847741843797612 0 -0.101475907254733 -0.26829823342826459 0 -0.1097432552782682 -0.2572086698476283 0 -0.1183855941197941 -0.25651062511641259 0 -0.1121525856099083 -0.24863050463757599 0 -0.1283361407779757 -0.25159171728621699 0 -0.1183855941197941 -0.25651062511641259 0 -0.11992695639240671 -0.24305274461581289 0 -0.1259380663168852 -0.26705754103126977 0 -0.1183855941197941 -0.25651062511641259 0 -0.11415052326640381 -0.26847741843797612 0 -0.1259380663168852 -0.26705754103126977 0 -0.1283361407779757 -0.25159171728621699 0 -0.1183855941197941 -0.25651062511641259 0 -0.1097432552782682 -0.2572086698476283 0 -0.1183855941197941 -0.25651062511641259 0 -0.11415052326640381 -0.26847741843797612 0 -0.1259380663168852 -0.26705754103126977 0 -0.11415052326640381 -0.26847741843797612 0 -0.121176560474238 -0.27855216134530347 0 -0.11415052326640381 -0.26847741843797612 0 -0.121176560474238 -0.27855216134530347 0 -0.112272911659429 -0.28340806039222649 0 -0.101475907254733 -0.26829823342826459 0 -0.1004001483689636 -0.29246989923861699 0 -0.089806853404465051 -0.2713401455271785 0 -0.101475907254733 -0.26829823342826459 0 -0.1004001483689636 -0.29246989923861699 0 -0.11415052326640381 -0.26847741843797612 0 -0.101475907254733 -0.26829823342826459 0 -0.112272911659429 -0.28340806039222649 0 -0.101475907254733 -0.26829823342826459 0 -0.089806853404465051 -0.2713401455271785 0 -0.092490388530258719 -0.26367462890309928 0 -0.1004001483689636 -0.29246989923861699 0 -0.112272911659429 -0.28340806039222649 0 -0.11289062726590229 -0.30027849754824781 0 -0.101475907254733 -0.26829823342826459 0 -0.1004001483689636 -0.29246989923861699 0 -0.112272911659429 -0.28340806039222649 0 -0.1004001483689636 -0.29246989923861699 0 -0.10013860532164209 -0.29834661679915908 0 -0.1004001483689636 -0.29246989923861699 0 -0.11289062726590229 -0.30027849754824781 0 -0.112272911659429 -0.28340806039222649 0 -0.12354370332633501 -0.29237215235494779 0 -0.11289062726590229 -0.30027849754824781 0 -0.121176560474238 -0.27855216134530347 0 -0.112272911659429 -0.28340806039222649 0 -0.12354370332633501 -0.29237215235494779 0 -0.13137693926794269 -0.30307910049847142 0 -0.11289062726590229 -0.30027849754824781 0 -0.13137693926794269 -0.30307910049847142 0 -0.11289062726590229 -0.30027849754824781 0 -0.12202825811921469 -0.30947938976295097 0 -0.13137693926794269 -0.30307910049847142 0 -0.12354370332633501 -0.29237215235494779 0 -0.11289062726590229 -0.30027849754824781 0 -0.11289062726590229 -0.30027849754824781 0 -0.11397155121489801 -0.30848478901155318 0 -0.10823649018657309 -0.3106210867482716 0 -0.11289062726590229 -0.30027849754824781 0 -0.12202825811921469 -0.30947938976295097 0 -0.11397155121489801 -0.30848478901155318 0 -0.098893476597157901 -0.32632392269665411 0 -0.10013860532164209 -0.29834661679915908 0 -0.098893476597157901 -0.32632392269665411 0 -0.10013860532164209 -0.29834661679915908 0 -0.088490963390462057 -0.3073149594937738 0 -0.098893476597157901 -0.32632392269665411 0 -0.10823649018657309 -0.3106210867482716 0 -0.10013860532164209 -0.29834661679915908 0 -0.11289062726590229 -0.30027849754824781 0 -0.10013860532164209 -0.29834661679915908 0 -0.1004001483689636 -0.29246989923861699 0 -0.11289062726590229 -0.30027849754824781 0 -0.10013860532164209 -0.29834661679915908 0 -0.11289062726590229 -0.30027849754824781 0 -0.10823649018657309 -0.3106210867482716 0 -0.10013860532164209 -0.29834661679915908 0 -0.081273045807338212 -0.32012122354728773 0 -0.075730545320634307 -0.30237183499028841 0 -0.080022347365398816 -0.29529908350135742 0 -0.081273045807338212 -0.32012122354728773 0 -0.088490963390462057 -0.3073149594937738 0 -0.080022347365398816 -0.29529908350135742 0 -0.10013860532164209 -0.29834661679915908 0 -0.088490963390462057 -0.3073149594937738 0 -0.080022347365398816 -0.29529908350135742 0 -0.081273045807338212 -0.32012122354728773 0 -0.080022347365398816 -0.29529908350135742 0 -0.06349485352407537 -0.31994243130957151 0 -0.067929239438661637 -0.29744245220773302 0 -0.06349485352407537 -0.31994243130957151 0 -0.067929239438661637 -0.29744245220773302 0 -0.05709164511789562 -0.30596989755068921 0 -0.081273045807338212 -0.32012122354728773 0 -0.071882199735688629 -0.30989172464331072 0 -0.075730545320634307 -0.30237183499028841 0 -0.06349485352407537 -0.31994243130957151 0 -0.071882199735688629 -0.30989172464331072 0 -0.067929239438661637 -0.29744245220773302 0 -0.067929239438661637 -0.29744245220773302 0 -0.075730545320634307 -0.30237183499028841 0 -0.074800211398343183 -0.29676828128919502 0 -0.071882199735688629 -0.30989172464331072 0 -0.067929239438661637 -0.29744245220773302 0 -0.075730545320634307 -0.30237183499028841 0 -0.075730545320634307 -0.30237183499028841 0 -0.074800211398343183 -0.29676828128919502 0 -0.080022347365398816 -0.29529908350135742 0 -0.067929239438661637 -0.29744245220773302 0 -0.072363625353247057 -0.27494247310589431 0 -0.074800211398343183 -0.29676828128919502 0 -0.075988861669628593 -0.29203098004520328 0 -0.080022347365398816 -0.29529908350135742 0 -0.067929239438661637 -0.29744245220773302 0 -0.063481929201992804 -0.28659419931659808 0 -0.072363625353247057 -0.27494247310589431 0 -0.067929239438661637 -0.29744245220773302 0 -0.075162920182542767 -0.28731555611229459 0 -0.072363625353247057 -0.27494247310589431 0 -0.075988861669628593 -0.29203098004520328 0 -0.075162920182542767 -0.28731555611229459 0 -0.080022347365398816 -0.29529908350135742 0 -0.067929239438661637 -0.29744245220773302 0 -0.075988861669628593 -0.29203098004520328 0 -0.075162920182542767 -0.28731555611229459 0 -0.067929239438661637 -0.29744245220773302 0 -0.074800211398343183 -0.29676828128919502 0 -0.075988861669628593 -0.29203098004520328 0 -0.067929239438661637 -0.29744245220773302 0 -0.063481929201992804 -0.28659419931659808 0 -0.057157199652218327 -0.29433345841048941 0 -0.1004001483689636 -0.29246989923861699 0 -0.079212385277153408 -0.27922407156230239 0 -0.10013860532164209 -0.29834661679915908 0 -0.080022347365398816 -0.29529908350135742 0 -0.075162920182542767 -0.28731555611229459 0 -0.080022347365398816 -0.29529908350135742 0 -0.079212385277153408 -0.27922407156230239 0 -0.1004001483689636 -0.29246989923861699 0 -0.080022347365398816 -0.29529908350135742 0 -0.079212385277153408 -0.27922407156230239 0 -0.1004001483689636 -0.29246989923861699 0 -0.10013860532164209 -0.29834661679915908 0 -0.080022347365398816 -0.29529908350135742 0 -0.080022347365398816 -0.29529908350135742 0 -0.079212385277153408 -0.27922407156230239 0 -0.1004001483689636 -0.29246989923861699 0 -0.089806853404465051 -0.2713401455271785 0 -0.079212385277153408 -0.27922407156230239 0 -0.089806853404465051 -0.2713401455271785 0 -0.084998741484643592 -0.26205999054747281 0 -0.092490388530258719 -0.26367462890309928 0 -0.089806853404465051 -0.2713401455271785 0 -0.078429256909339093 -0.26368161834739218 0 -0.084998741484643592 -0.26205999054747281 0 -0.079212385277153408 -0.27922407156230239 0 -0.078429256909339093 -0.26368161834739218 0 -0.089806853404465051 -0.2713401455271785 0 -0.079212385277153408 -0.27922407156230239 0 -0.078429256909339093 -0.26368161834739218 0 -0.075162920182542767 -0.28731555611229459 0 -0.079212385277153408 -0.27922407156230239 0 -0.072363625353247057 -0.27494247310589431 0 -0.072363625353247057 -0.27494247310589431 0 -0.052651973256824323 -0.26261945695013877 0 -0.072363625353247057 -0.27494247310589431 0 -0.065594040539757301 -0.27326720108960889 0 -0.052651973256824323 -0.26261945695013877 0 -0.079212385277153408 -0.27922407156230239 0 -0.072363625353247057 -0.27494247310589431 0 -0.072363625353247057 -0.27494247310589431 0 -0.065594040539757301 -0.27326720108960889 0 -0.061663959528748452 -0.27997783588547598 0 -0.063481929201992804 -0.28659419931659808 0 -0.072363625353247057 -0.27494247310589431 0 -0.061663959528748452 -0.27997783588547598 0 -0.079212385277153408 -0.27922407156230239 0 -0.072363625353247057 -0.27494247310589431 0 -0.078429256909339093 -0.26368161834739218 0 -0.072363625353247057 -0.27494247310589431 0 -0.077646128541525 -0.24813916513248199 0 -0.072363625353247057 -0.27494247310589431 0 -0.078429256909339093 -0.26368161834739218 0 -0.077646128541525 -0.24813916513248199 0 -0.072363625353247057 -0.27494247310589431 0 -0.052651973256824323 -0.26261945695013877 0 -0.077646128541525 -0.24813916513248199 0 -0.078429256909339093 -0.26368161834739218 0 -0.077646128541525 -0.24813916513248199 0 -0.084998741484643592 -0.26205999054747281 0 -0.088104632666654803 -0.24175912157342011 0 -0.084998741484643592 -0.26205999054747281 0 -0.093680051977193257 -0.25300014610948141 0 -0.088104632666654803 -0.24175912157342011 0 -0.084998741484643592 -0.26205999054747281 0 -0.088104632666654803 -0.24175912157342011 0 -0.077646128541525 -0.24813916513248199 0 -0.078429256909339093 -0.26368161834739218 0 -0.084998741484643592 -0.26205999054747281 0 -0.077646128541525 -0.24813916513248199 0 -0.084998741484643592 -0.26205999054747281 0 -0.092490388530258719 -0.26367462890309928 0 -0.093680051977193257 -0.25300014610948141 0 -0.032940321160402269 -0.25029644079438251 0 -0.052651973256824323 -0.26261945695013877 0 -0.050902643065861071 -0.24349095896983161 0 -0.032940321160402269 -0.25029644079438251 0 -0.052651973256824323 -0.26261945695013877 0 -0.030801127425925001 -0.25680016795848581 0 -0.032940321160402269 -0.25029644079438251 0 -0.052651973256824323 -0.26261945695013877 0 -0.052651973256824323 -0.26261945695013877 0 -0.048838748996681343 -0.27669498093657302 0 -0.030801127425925001 -0.25680016795848581 0 -0.032940321160402269 -0.25029644079438251 0 -0.030801127425925001 -0.25680016795848581 0 -0.052651973256824323 -0.26261945695013877 0 -0.050902643065861071 -0.24349095896983161 0 -0.077646128541525 -0.24813916513248199 0 -0.065594040539757301 -0.27326720108960889 0 -0.048838748996681343 -0.27669498093657302 0 -0.065594040539757301 -0.27326720108960889 0 -0.052651973256824323 -0.26261945695013877 0 -0.048838748996681343 -0.27669498093657302 0 -0.065594040539757301 -0.27326720108960889 0 -0.061663959528748452 -0.27997783588547598 0 -0.048838748996681343 -0.27669498093657302 0 -0.061663959528748452 -0.27997783588547598 0 -0.048838748996681343 -0.27669498093657302 0 -0.054451087829631463 -0.28288517796522222 0 -0.048838748996681343 -0.27669498093657302 0 -0.054451087829631463 -0.28288517796522222 0 -0.048838748996681343 -0.27669498093657302 0 -0.030801127425925001 -0.25680016795848581 0 -0.048838748996681343 -0.27669498093657302 0 -0.02248395618448398 -0.28208661661419232 0 -0.030801127425925001 -0.25680016795848581 0 -0.048838748996681343 -0.27669498093657302 0 -0.02248395618448398 -0.28208661661419232 0 -0.048838748996681343 -0.27669498093657302 0 -0.041077846387481028 -0.28937070966441081 0 -0.02248395618448398 -0.28208661661419232 0 -0.041077846387481028 -0.28937070966441081 0 -0.037109865356421391 -0.29952186761000271 0 -0.029468436869721851 -0.29252598106650862 0 -0.041077846387481028 -0.28937070966441081 0 -0.04975385330497957 -0.2890306135367654 0 -0.047244383658885593 -0.30186874070713182 0 -0.048838748996681343 -0.27669498093657302 0 -0.041077846387481028 -0.28937070966441081 0 -0.04975385330497957 -0.2890306135367654 0 -0.048838748996681343 -0.27669498093657302 0 -0.04975385330497957 -0.2890306135367654 0 -0.054451087829631463 -0.28288517796522222 0 -0.04975385330497957 -0.2890306135367654 0 -0.054451087829631463 -0.28288517796522222 0 -0.057157199652218327 -0.29433345841048941 0 -0.063481929201992804 -0.28659419931659808 0 -0.054451087829631463 -0.28288517796522222 0 -0.057157199652218327 -0.29433345841048941 0 -0.063481929201992804 -0.28659419931659808 0 -0.061663959528748452 -0.27997783588547598 0 -0.054451087829631463 -0.28288517796522222 0 -0.04975385330497957 -0.2890306135367654 0 -0.057157199652218327 -0.29433345841048941 0 -0.047244383658885593 -0.30186874070713182 0 -0.057157199652218327 -0.29433345841048941 0 -0.047244383658885593 -0.30186874070713182 0 -0.05709164511789562 -0.30596989755068921 0 -0.067929239438661637 -0.29744245220773302 0 -0.057157199652218327 -0.29433345841048941 0 -0.05709164511789562 -0.30596989755068921 0 -0.047244383658885593 -0.30186874070713182 0 -0.05709164511789562 -0.30596989755068921 0 -0.049632549315637188 -0.31626240511852 0 -0.047244383658885593 -0.30186874070713182 0 -0.049632549315637188 -0.31626240511852 0 -0.036505516356473318 -0.31400569198040618 0 -0.047244383658885593 -0.30186874070713182 0 -0.037109865356421391 -0.29952186761000271 0 -0.036505516356473318 -0.31400569198040618 0 -0.041077846387481028 -0.28937070966441081 0 -0.047244383658885593 -0.30186874070713182 0 -0.037109865356421391 -0.29952186761000271 0 -0.037109865356421391 -0.29952186761000271 0 -0.02678144107749017 -0.30078470409936309 0 -0.036505516356473318 -0.31400569198040618 0 -0.02678144107749017 -0.30078470409936309 0 -0.021312585502779081 -0.32213078764647213 0 -0.02678144107749017 -0.30078470409936309 0 -0.036505516356473318 -0.31400569198040618 0 -0.021312585502779081 -0.32213078764647213 0 -0.02678144107749017 -0.30078470409936309 0 -0.01630762940426286 -0.3038502133106713 0 -0.021312585502779081 -0.32213078764647213 0 -0.037109865356421391 -0.29952186761000271 0 -0.02678144107749017 -0.30078470409936309 0 -0.029468436869721851 -0.29252598106650862 0 -0.02678144107749017 -0.30078470409936309 0 -0.01630762940426286 -0.3038502133106713 0 -0.01957434403417008 -0.29093262400193609 0 -0.0063780240591087903 -0.31078717533589839 0 -0.0074917523477661804 -0.29461577546968681 0 0.013051880611257029 -0.30817184754300292 0 -0.01630762940426286 -0.3038502133106713 0 -0.0063780240591087903 -0.31078717533589839 0 -0.021312585502779081 -0.32213078764647213 0 -0.01630762940426286 -0.3038502133106713 0 -0.0063780240591087903 -0.31078717533589839 0 -0.0074917523477661804 -0.29461577546968681 0 -0.02248395618448398 -0.28208661661419232 0 0.0027723556212477219 -0.28725352620772771 0 -0.01075429771457371 -0.28163518560512563 0 -0.02248395618448398 -0.28208661661419232 0 0.0027723556212477219 -0.28725352620772771 0 -0.0074917523477661804 -0.29461577546968681 0 -0.02248395618448398 -0.28208661661419232 0 0.0027723556212477219 -0.28725352620772771 0 -0.01630762940426286 -0.3038502133106713 0 -0.0074917523477661804 -0.29461577546968681 0 -0.01957434403417008 -0.29093262400193609 0 -0.01075429771457371 -0.28163518560512563 0 -0.0017476628817073611 -0.27805551369469472 0 0.0027723556212477219 -0.28725352620772771 0 -0.041077846387481028 -0.28937070966441081 0 -0.02248395618448398 -0.28208661661419232 0 -0.029468436869721851 -0.29252598106650862 0 -0.02248395618448398 -0.28208661661419232 0 -0.01957434403417008 -0.29093262400193609 0 -0.0074917523477661804 -0.29461577546968681 0 -0.02248395618448398 -0.28208661661419232 0 -0.01957434403417008 -0.29093262400193609 0 -0.02678144107749017 -0.30078470409936309 0 -0.01957434403417008 -0.29093262400193609 0 -0.029468436869721851 -0.29252598106650862 0 -0.02248395618448398 -0.28208661661419232 0 -0.01957434403417008 -0.29093262400193609 0 -0.029468436869721851 -0.29252598106650862 0 -0.02248395618448398 -0.28208661661419232 0 -0.030801127425925001 -0.25680016795848581 0 -0.02248395618448398 -0.28208661661419232 0 -0.01520552987642871 -0.27187005660595642 0 -0.030801127425925001 -0.25680016795848581 0 -0.01075429771457371 -0.28163518560512563 0 -0.02248395618448398 -0.28208661661419232 0 -0.01520552987642871 -0.27187005660595642 0 -0.0017476628817073611 -0.27805551369469472 0 -0.01024060517545407 -0.26077279915728391 0 0.0057386521092319797 -0.26220041049146298 0 -0.0017476628817073611 -0.27805551369469472 0 -0.01520552987642871 -0.27187005660595642 0 -0.01024060517545407 -0.26077279915728391 0 -0.0017476628817073611 -0.27805551369469472 0 -0.01024060517545407 -0.26077279915728391 0 -0.01075429771457371 -0.28163518560512563 0 -0.0017476628817073611 -0.27805551369469472 0 -0.01520552987642871 -0.27187005660595642 0 -0.01075429771457371 -0.28163518560512563 0 -0.0017476628817073611 -0.27805551369469472 0 -0.01024060517545407 -0.26077279915728391 0 0.0057386521092319797 -0.26220041049146298 0 0.0025328853753160741 -0.24958102673793139 0 -0.01024060517545407 -0.26077279915728391 0 -0.018733547469201091 -0.24349008461987329 0 -0.01024060517545407 -0.26077279915728391 0 -0.018733547469201091 -0.24349008461987329 0 0.0025328853753160741 -0.24958102673793139 0 -0.01024060517545407 -0.26077279915728391 0 -0.030801127425925001 -0.25680016795848581 0 -0.018733547469201091 -0.24349008461987329 0 -0.01520552987642871 -0.27187005660595642 0 -0.01024060517545407 -0.26077279915728391 0 -0.030801127425925001 -0.25680016795848581 0 -0.032940321160402269 -0.25029644079438251 0 -0.030801127425925001 -0.25680016795848581 0 -0.026871719323301121 -0.24650256912316601 0 -0.030801127425925001 -0.25680016795848581 0 -0.018733547469201091 -0.24349008461987329 0 -0.034078071302702163 -0.36149906291939787 0 -0.05778126825204781 -0.35817517109810632 0 -0.044598414929564491 -0.33459332569111688 0 -0.034078071302702163 -0.36149906291939787 0 -0.044598414929564491 -0.33459332569111688 0 -0.02963630761074966 -0.34409655343526241 0 -0.034078071302702163 -0.36149906291939787 0 -0.05778126825204781 -0.35817517109810632 0 -0.034078071302702163 -0.36149906291939787 0 -0.031733352269984409 -0.37630872523495079 0 -0.04671422923235316 -0.37926911911211442 0 -0.034078071302702163 -0.36149906291939787 0 -0.05778126825204781 -0.35817517109810632 0 -0.04671422923235316 -0.37926911911211442 0 -0.066117606829746781 -0.37437488941039382 0 -0.05778126825204781 -0.35817517109810632 0 -0.04671422923235316 -0.37926911911211442 0 -0.062587044379988993 -0.33886333000968721 0 -0.05778126825204781 -0.35817517109810632 0 -0.044598414929564491 -0.33459332569111688 0 -0.06349485352407537 -0.31994243130957151 0 -0.062587044379988993 -0.33886333000968721 0 -0.044598414929564491 -0.33459332569111688 0 -0.06349485352407537 -0.31994243130957151 0 -0.049632549315637188 -0.31626240511852 0 -0.044598414929564491 -0.33459332569111688 0 -0.06349485352407537 -0.31994243130957151 0 -0.05709164511789562 -0.30596989755068921 0 -0.049632549315637188 -0.31626240511852 0 -0.049632549315637188 -0.31626240511852 0 -0.036505516356473318 -0.31400569198040618 0 -0.044598414929564491 -0.33459332569111688 0 -0.036505516356473318 -0.31400569198040618 0 -0.044598414929564491 -0.33459332569111688 0 -0.021312585502779081 -0.32213078764647213 0 -0.044598414929564491 -0.33459332569111688 0 -0.021312585502779081 -0.32213078764647213 0 -0.02963630761074966 -0.34409655343526241 0 -0.015843729928067991 -0.34347687119358122 0 -0.021312585502779081 -0.32213078764647213 0 -0.02963630761074966 -0.34409655343526241 0 -0.015843729928067991 -0.34347687119358122 0 -0.021312585502779081 -0.32213078764647213 0 -0.0063780240591087903 -0.31078717533589839 0 -0.021312585502779081 -0.32213078764647213 0 3.5896068887442723e-05 -0.32803491845883598 0 -0.015843729928067991 -0.34347687119358122 0 -0.00014080085946228561 -0.35082738964002957 0 3.5896068887442723e-05 -0.32803491845883598 0 -0.015843729928067991 -0.34347687119358122 0 -0.021312585502779081 -0.32213078764647213 0 3.5896068887442723e-05 -0.32803491845883598 0 -0.015843729928067991 -0.34347687119358122 0 -0.00014080085946228561 -0.35082738964002957 0 -0.01037487435335663 -0.3648229547406901 0 -0.015843729928067991 -0.34347687119358122 0 -0.01037487435335663 -0.3648229547406901 0 -0.015843729928067991 -0.34347687119358122 0 -0.02275820373048933 -0.35362182208710219 0 -0.02963630761074966 -0.34409655343526241 0 -0.015843729928067991 -0.34347687119358122 0 -0.02275820373048933 -0.35362182208710219 0 -0.01037487435335663 -0.3648229547406901 0 -0.034078071302702163 -0.36149906291939787 0 -0.02275820373048933 -0.35362182208710219 0 -0.02963630761074966 -0.34409655343526241 0 -0.034078071302702163 -0.36149906291939787 0 -0.02215424893162643 -0.37111505202744122 0 -0.01037487435335663 -0.3648229547406901 0 -0.034078071302702163 -0.36149906291939787 0 -0.01037487435335663 -0.3648229547406901 0 -0.034078071302702163 -0.36149906291939787 0 -0.02275820373048933 -0.35362182208710219 0 -0.01037487435335663 -0.3648229547406901 0 -0.034078071302702163 -0.36149906291939787 0 -0.02215424893162643 -0.37111505202744122 0 -0.031733352269984409 -0.37630872523495079 0 -0.02215424893162643 -0.37111505202744122 0 -0.016772253886492949 -0.37410089839641808 0 -0.01404568160319189 -0.3712617873641948 0 -0.01404568160319189 -0.3712617873641948 0 -0.0094265442937821464 -0.37378457166277412 0 -0.01319259440905524 -0.37623554315916408 0 -0.0078283346885702904 -0.37476262999778609 0 -0.0094265442937821464 -0.37378457166277412 0 -0.01037487435335663 -0.3648229547406901 0 -0.02215424893162643 -0.37111505202744122 0 -0.01404568160319189 -0.3712617873641948 0 -0.01037487435335663 -0.3648229547406901 0 -0.01037487435335663 -0.3648229547406901 0 0.0058490520874761691 -0.36709803082098191 0 -0.016772253886492949 -0.37410089839641808 0 -0.01404568160319189 -0.3712617873641948 0 -0.01319259440905524 -0.37623554315916408 0 -0.00014080085946228561 -0.35082738964002957 0 -0.01037487435335663 -0.3648229547406901 0 0.0058490520874761691 -0.36709803082098191 0 -0.0078283346885702904 -0.37476262999778609 0 -0.01037487435335663 -0.3648229547406901 0 0.0058490520874761691 -0.36709803082098191 0 -0.0078283346885702904 -0.37476262999778609 0 -0.01037487435335663 -0.3648229547406901 0 -0.01404568160319189 -0.3712617873641948 0 -0.0094265442937821464 -0.37378457166277412 0 -0.01037487435335663 -0.3648229547406901 0 -0.0078283346885702904 -0.37476262999778609 0 -0.0094265442937821464 -0.37378457166277412 0 -0.0078283346885702904 -0.37476262999778609 0 -0.0023576536845698339 -0.39611583857600319 0 -0.0078283346885702904 -0.37476262999778609 0 -0.011142097151610131 -0.38172381805447092 0 -0.0023576536845698339 -0.39611583857600319 0 -0.011142097151610131 -0.38172381805447092 0 -0.0023576536845698339 -0.39611583857600319 0 -0.01587325479487519 -0.38723674351337972 0 -0.011142097151610131 -0.38172381805447092 0 -0.01610234460482865 -0.37998891207167063 0 -0.01587325479487519 -0.38723674351337972 0 -0.01319259440905524 -0.37623554315916408 0 -0.011142097151610131 -0.38172381805447092 0 -0.01610234460482865 -0.37998891207167063 0 -0.016772253886492949 -0.37410089839641808 0 -0.01319259440905524 -0.37623554315916408 0 -0.01610234460482865 -0.37998891207167063 0 -0.01319259440905524 -0.37623554315916408 0 -0.010397392635754449 -0.37662664071854879 0 -0.011142097151610131 -0.38172381805447092 0 -0.0078283346885702904 -0.37476262999778609 0 -0.010397392635754449 -0.37662664071854879 0 -0.011142097151610131 -0.38172381805447092 0 -0.0094265442937821464 -0.37378457166277412 0 -0.01319259440905524 -0.37623554315916408 0 -0.010397392635754449 -0.37662664071854879 0 -0.0078283346885702904 -0.37476262999778609 0 -0.0094265442937821464 -0.37378457166277412 0 -0.010397392635754449 -0.37662664071854879 0 -0.0023576536845698339 -0.39611583857600319 0 -0.016854849126784088 -0.39742738565483049 0 -0.01587325479487519 -0.38723674351337972 0 -0.0023576536845698339 -0.39611583857600319 0 -0.016854849126784088 -0.39742738565483049 0 -0.0081630895937607941 -0.41129335178386173 0 -0.016854849126784088 -0.39742738565483049 0 -0.023392714889338931 -0.39064901327928331 0 -0.029305467632274609 -0.40049385546170407 0 -0.016854849126784088 -0.39742738565483049 0 -0.023392714889338931 -0.39064901327928331 0 -0.01587325479487519 -0.38723674351337972 0 -0.023392714889338931 -0.39064901327928331 0 -0.029305467632274609 -0.40049385546170407 0 -0.032188689101130562 -0.38901283488088068 0 -0.02215424893162643 -0.37111505202744122 0 -0.016772253886492949 -0.37410089839641808 0 -0.02353152278210973 -0.38064755723492022 0 -0.016772253886492949 -0.37410089839641808 0 -0.01610234460482865 -0.37998891207167063 0 -0.02353152278210973 -0.38064755723492022 0 -0.01610234460482865 -0.37998891207167063 0 -0.01587325479487519 -0.38723674351337972 0 -0.02353152278210973 -0.38064755723492022 0 -0.023392714889338931 -0.39064901327928331 0 -0.01587325479487519 -0.38723674351337972 0 -0.02353152278210973 -0.38064755723492022 0 -0.023392714889338931 -0.39064901327928331 0 -0.02353152278210973 -0.38064755723492022 0 -0.032188689101130562 -0.38901283488088068 0 -0.02353152278210973 -0.38064755723492022 0 -0.031733352269984409 -0.37630872523495079 0 -0.032188689101130562 -0.38901283488088068 0 -0.02215424893162643 -0.37111505202744122 0 -0.02353152278210973 -0.38064755723492022 0 -0.031733352269984409 -0.37630872523495079 0 -0.031733352269984409 -0.37630872523495079 0 -0.04671422923235316 -0.37926911911211442 0 -0.032188689101130562 -0.38901283488088068 0 -0.04671422923235316 -0.37926911911211442 0 -0.032188689101130562 -0.38901283488088068 0 -0.044289202763444772 -0.39135289085216762 0 -0.032188689101130562 -0.38901283488088068 0 -0.041257957344308177 -0.40487627914437913 0 -0.044289202763444772 -0.39135289085216762 0 -0.029305467632274609 -0.40049385546170407 0 -0.032188689101130562 -0.38901283488088068 0 -0.041257957344308177 -0.40487627914437913 0 -0.056230819367541693 -0.39440183914975269 0 -0.051493530029743613 -0.41277891791385168 0 -0.065747409502729032 -0.40953455918739179 0 -0.041257957344308177 -0.40487627914437913 0 -0.056230819367541693 -0.39440183914975269 0 -0.051493530029743613 -0.41277891791385168 0 -0.041257957344308177 -0.40487627914437913 0 -0.044289202763444772 -0.39135289085216762 0 -0.056230819367541693 -0.39440183914975269 0 -0.056230819367541693 -0.39440183914975269 0 -0.065747409502729032 -0.40953455918739179 0 -0.066117606829746781 -0.37437488941039382 0 -0.04671422923235316 -0.37926911911211442 0 -0.056230819367541693 -0.39440183914975269 0 -0.04671422923235316 -0.37926911911211442 0 -0.044289202763444772 -0.39135289085216762 0 -0.056230819367541693 -0.39440183914975269 0 -0.04671422923235316 -0.37926911911211442 0 -0.056230819367541693 -0.39440183914975269 0 -0.057674512383022389 -0.42734400629007657 0 -0.049601615263317987 -0.44515345339276252 0 -0.057674512383022389 -0.42734400629007657 0 -0.051493530029743613 -0.41277891791385168 0 -0.065747409502729032 -0.40953455918739179 0 -0.057674512383022389 -0.42734400629007657 0 -0.065747409502729032 -0.40953455918739179 0 -0.057674512383022389 -0.42734400629007657 0 -0.051493530029743613 -0.41277891791385168 0 -0.03322823219505102 -0.42129041952379648 0 -0.029305467632274609 -0.40049385546170407 0 -0.041257957344308177 -0.40487627914437913 0 -0.03322823219505102 -0.42129041952379648 0 -0.041257957344308177 -0.40487627914437913 0 -0.051493530029743613 -0.41277891791385168 0 -0.03322823219505102 -0.42129041952379648 0 -0.03322823219505102 -0.42129041952379648 0 -0.02439234541253921 -0.43490569650885758 0 -0.049601615263317987 -0.44515345339276252 0 -0.03322823219505102 -0.42129041952379648 0 -0.049601615263317987 -0.44515345339276252 0 -0.057674512383022389 -0.42734400629007657 0 -0.03322823219505102 -0.42129041952379648 0 -0.049601615263317987 -0.44515345339276252 0 -0.03322823219505102 -0.42129041952379648 0 -0.02439234541253921 -0.43490569650885758 0 -0.010818991714530671 -0.42579448288144173 0 -0.016854849126784088 -0.39742738565483049 0 -0.03322823219505102 -0.42129041952379648 0 -0.03322823219505102 -0.42129041952379648 0 -0.0081630895937607941 -0.41129335178386173 0 -0.010818991714530671 -0.42579448288144173 0 -0.016854849126784088 -0.39742738565483049 0 -0.029305467632274609 -0.40049385546170407 0 -0.03322823219505102 -0.42129041952379648 0 -0.016854849126784088 -0.39742738565483049 0 -0.03322823219505102 -0.42129041952379648 0 -0.0081630895937607941 -0.41129335178386173 0 -0.0081630895937607941 -0.41129335178386173 0 -0.010818991714530671 -0.42579448288144173 0 0.0026957591361241309 -0.41958824334712869 0 -0.02439234541253921 -0.43490569650885758 0 -0.010818991714530671 -0.42579448288144173 0 -0.01027783979290609 -0.4450418277695869 0 -0.010818991714530671 -0.42579448288144173 0 -0.01027783979290609 -0.4450418277695869 0 0.003851027954898749 -0.43172418954792041 0 -0.010818991714530671 -0.42579448288144173 0 0.0026957591361241309 -0.41958824334712869 0 0.003851027954898749 -0.43172418954792041 0 -0.01027783979290609 -0.4450418277695869 0 -0.011038280792740629 -0.46258843223684681 0 0.0031349746952128348 -0.45732154608844711 0 -0.01027783979290609 -0.4450418277695869 0 -0.011038280792740629 -0.46258843223684681 0 -0.02289260566061898 -0.45897742689034388 0 -0.011038280792740629 -0.46258843223684681 0 -0.00094907817261298132 -0.47112804672216879 0 0.0031349746952128348 -0.45732154608844711 0 -0.02289260566061898 -0.45897742689034388 0 -0.029356635895327849 -0.44930438287917762 0 -0.040413005672661102 -0.46542425011239508 0 -0.02289260566061898 -0.45897742689034388 0 -0.023377266149459251 -0.47252824145371342 0 -0.040413005672661102 -0.46542425011239508 0 -0.011038280792740629 -0.46258843223684681 0 -0.02289260566061898 -0.45897742689034388 0 -0.023377266149459251 -0.47252824145371342 0 -0.02439234541253921 -0.43490569650885758 0 -0.01027783979290609 -0.4450418277695869 0 -0.029356635895327849 -0.44930438287917762 0 -0.01027783979290609 -0.4450418277695869 0 -0.02289260566061898 -0.45897742689034388 0 -0.029356635895327849 -0.44930438287917762 0 -0.0023310323066341181 -0.5 0 -0.0043793089323552817 -0.49170101865338262 0 -0.02815109917196898 -0.49861636840837392 0 -0.0043793089323552817 -0.49170101865338262 0 -0.0043176495648967151 -0.48070428616945038 0 0.0053352152350804568 -0.4807791696356124 0 -0.0043793089323552817 -0.49170101865338262 0 -0.0106231170010091 -0.48419136288379427 0 -0.0043176495648967151 -0.48070428616945038 0 -0.0043793089323552817 -0.49170101865338262 0 -0.0106231170010091 -0.48419136288379427 0 -0.017950876149337221 -0.4893641285520216 0 -0.0106231170010091 -0.48419136288379427 0 -0.01097195895358667 -0.47572183295229409 0 -0.019957514846631629 -0.48311391022826639 0 -0.0106231170010091 -0.48419136288379427 0 -0.0043176495648967151 -0.48070428616945038 0 -0.01097195895358667 -0.47572183295229409 0 -0.011038280792740629 -0.46258843223684681 0 -0.00094907817261298132 -0.47112804672216879 0 -0.01097195895358667 -0.47572183295229409 0 -0.0043176495648967151 -0.48070428616945038 0 -0.00094907817261298132 -0.47112804672216879 0 -0.01097195895358667 -0.47572183295229409 0 -0.011038280792740629 -0.46258843223684681 0 -0.01097195895358667 -0.47572183295229409 0 -0.023377266149459251 -0.47252824145371342 0 -0.023377266149459251 -0.47252824145371342 0 -0.019957514846631629 -0.48311391022826639 0 -0.031224396082004221 -0.48569504683202769 0 -0.01097195895358667 -0.47572183295229409 0 -0.023377266149459251 -0.47252824145371342 0 -0.019957514846631629 -0.48311391022826639 0 -0.0023310323066341181 -0.5 0 -0.02815109917196898 -0.49861636840837392 0 -0.031360818006208928 -0.5 0 -0.0043793089323552817 -0.49170101865338262 0 -0.017950876149337221 -0.4893641285520216 0 -0.02815109917196898 -0.49861636840837392 0 -0.0043793089323552817 -0.49170101865338262 0 -0.02815109917196898 -0.49861636840837392 0 -0.0106231170010091 -0.48419136288379427 0 -0.019957514846631629 -0.48311391022826639 0 -0.017950876149337221 -0.4893641285520216 0 -0.019957514846631629 -0.48311391022826639 0 -0.017950876149337221 -0.4893641285520216 0 -0.025597474744393309 -0.49118284869574791 0 -0.019957514846631629 -0.48311391022826639 0 -0.031224396082004221 -0.48569504683202769 0 -0.025597474744393309 -0.49118284869574791 0 -0.025597474744393309 -0.49118284869574791 0 -0.02815109917196898 -0.49861636840837392 0 -0.031360818006208928 -0.5 0 -0.031224396082004221 -0.48569504683202769 0 -0.025597474744393309 -0.49118284869574791 0 -0.031360818006208928 -0.5 0 -0.017950876149337221 -0.4893641285520216 0 -0.025597474744393309 -0.49118284869574791 0 -0.02815109917196898 -0.49861636840837392 0 -0.031360818006208928 -0.5 0 -0.048343055904351132 -0.4819359294639956 0 -0.060390603705783863 -0.5 0 -0.031224396082004221 -0.48569504683202769 0 -0.031360818006208928 -0.5 0 -0.048343055904351132 -0.4819359294639956 0 -0.031224396082004221 -0.48569504683202769 0 -0.040413005672661102 -0.46542425011239508 0 -0.031224396082004221 -0.48569504683202769 0 -0.048343055904351132 -0.4819359294639956 0 -0.040413005672661102 -0.46542425011239508 0 -0.023377266149459251 -0.47252824145371342 0 -0.031224396082004221 -0.48569504683202769 0 -0.040413005672661102 -0.46542425011239508 0 -0.048343055904351132 -0.4819359294639956 0 -0.040413005672661102 -0.46542425011239508 0 -0.061868527913120197 -0.46303160055449383 0 -0.048343055904351132 -0.4819359294639956 0 -0.061868527913120197 -0.46303160055449383 0 -0.067715258758524743 -0.48343239441089819 0 -0.048343055904351132 -0.4819359294639956 0 -0.060390603705783863 -0.5 0 -0.067715258758524743 -0.48343239441089819 0 -0.02439234541253921 -0.43490569650885758 0 -0.029356635895327849 -0.44930438287917762 0 -0.049601615263317987 -0.44515345339276252 0 -0.029356635895327849 -0.44930438287917762 0 -0.040413005672661102 -0.46542425011239508 0 -0.049601615263317987 -0.44515345339276252 0 -0.040413005672661102 -0.46542425011239508 0 -0.049601615263317987 -0.44515345339276252 0 -0.040413005672661102 -0.46542425011239508 0 -0.061868527913120197 -0.46303160055449383 0 -0.049601615263317987 -0.44515345339276252 0 -0.061868527913120197 -0.46303160055449383 0 -0.049601615263317987 -0.44515345339276252 0 -0.057674512383022389 -0.42734400629007657 0 -0.049601615263317987 -0.44515345339276252 0 -0.067687044322660692 -0.44438888407200389 0 -0.061868527913120197 -0.46303160055449383 0 -0.049601615263317987 -0.44515345339276252 0 -0.067687044322660692 -0.44438888407200389 0 -0.067687044322660692 -0.44438888407200389 0 -0.087522951364224152 -0.44416074083195012 0 -0.076635180433477057 -0.42684765000967062 0 -0.067687044322660692 -0.44438888407200389 0 -0.078553716864009776 -0.47219444203600192 0 -0.067687044322660692 -0.44438888407200389 0 -0.080483752515153384 -0.45444307226959779 0 -0.078553716864009776 -0.47219444203600192 0 -0.061868527913120197 -0.46303160055449383 0 -0.067687044322660692 -0.44438888407200389 0 -0.078553716864009776 -0.47219444203600192 0 -0.088171297509719124 -0.45702822213843508 0 -0.078553716864009776 -0.47219444203600192 0 -0.094850460920166413 -0.46755552228499719 0 -0.080483752515153384 -0.45444307226959779 0 -0.088171297509719124 -0.45702822213843508 0 -0.078553716864009776 -0.47219444203600192 0 -0.088171297509719124 -0.45702822213843508 0 -0.092026296169145899 -0.451321693988255 0 -0.09646742034415963 -0.45806785732742278 0 -0.088171297509719124 -0.45702822213843508 0 -0.09646742034415963 -0.45806785732742278 0 -0.094850460920166413 -0.46755552228499719 0 -0.067687044322660692 -0.44438888407200389 0 -0.080483752515153384 -0.45444307226959779 0 -0.087522951364224152 -0.44416074083195012 0 -0.088171297509719124 -0.45702822213843508 0 -0.087522951364224152 -0.44416074083195012 0 -0.088171297509719124 -0.45702822213843508 0 -0.092026296169145899 -0.451321693988255 0 -0.087522951364224152 -0.44416074083195012 0 -0.092026296169145899 -0.451321693988255 0 -0.087522951364224152 -0.44416074083195012 0 -0.080483752515153384 -0.45444307226959779 0 -0.088171297509719124 -0.45702822213843508 0 -0.087522951364224152 -0.44416074083195012 0 -0.060390603705783863 -0.5 0 -0.067715258758524743 -0.48343239441089819 0 -0.089420389405358791 -0.49999999999999978 0 -0.061868527913120197 -0.46303160055449383 0 -0.067715258758524743 -0.48343239441089819 0 -0.078553716864009776 -0.47219444203600192 0 -0.078553716864009776 -0.47219444203600192 0 -0.098208235557426499 -0.48290520710575457 0 -0.094850460920166413 -0.46755552228499719 0 -0.067715258758524743 -0.48343239441089819 0 -0.078553716864009776 -0.47219444203600192 0 -0.089420389405358791 -0.49999999999999978 0 -0.078553716864009776 -0.47219444203600192 0 -0.089420389405358791 -0.49999999999999978 0 -0.078553716864009776 -0.47219444203600192 0 -0.089420389405358791 -0.49999999999999978 0 -0.098208235557426499 -0.48290520710575457 0 -0.098208235557426499 -0.48290520710575457 0 -0.1125398430852395 -0.48112820013538338 0 -0.1148616459058424 -0.5 0 -0.089420389405358791 -0.49999999999999978 0 -0.098208235557426499 -0.48290520710575457 0 -0.1148616459058424 -0.5 0 -0.098208235557426499 -0.48290520710575457 0 -0.1051850434628086 -0.47275710198064308 0 -0.1125398430852395 -0.48112820013538338 0 -0.098208235557426499 -0.48290520710575457 0 -0.1051850434628086 -0.47275710198064308 0 -0.094850460920166413 -0.46755552228499719 0 -0.12704973474613379 -0.46277216333596533 0 -0.13010403334985379 -0.48000251283874379 0 -0.1157083509407465 -0.46985326695645979 0 -0.13010403334985379 -0.48000251283874379 0 -0.1157083509407465 -0.46985326695645979 0 -0.1125398430852395 -0.48112820013538338 0 -0.1051850434628086 -0.47275710198064308 0 -0.1157083509407465 -0.46985326695645979 0 -0.1125398430852395 -0.48112820013538338 0 -0.13010403334985379 -0.48000251283874379 0 -0.1125398430852395 -0.48112820013538338 0 -0.1148616459058424 -0.5 0 -0.10267072031130239 -0.4520905348048061 0 -0.102335674083258 -0.43919792399196639 0 -0.11570487117906469 -0.45324354028800051 0 -0.092026296169145899 -0.451321693988255 0 -0.087522951364224152 -0.44416074083195012 0 -0.102335674083258 -0.43919792399196639 0 -0.092026296169145899 -0.451321693988255 0 -0.10267072031130239 -0.4520905348048061 0 -0.102335674083258 -0.43919792399196639 0 -0.10267072031130239 -0.4520905348048061 0 -0.09646742034415963 -0.45806785732742278 0 -0.1046183268104643 -0.46234331342062063 0 -0.092026296169145899 -0.451321693988255 0 -0.10267072031130239 -0.4520905348048061 0 -0.09646742034415963 -0.45806785732742278 0 -0.1051850434628086 -0.47275710198064308 0 -0.094850460920166413 -0.46755552228499719 0 -0.1046183268104643 -0.46234331342062063 0 -0.09646742034415963 -0.45806785732742278 0 -0.094850460920166413 -0.46755552228499719 0 -0.1046183268104643 -0.46234331342062063 0 -0.1051850434628086 -0.47275710198064308 0 -0.1157083509407465 -0.46985326695645979 0 -0.1046183268104643 -0.46234331342062063 0 -0.10267072031130239 -0.4520905348048061 0 -0.1046183268104643 -0.46234331342062063 0 -0.11570487117906469 -0.45324354028800051 0 -0.12704973474613379 -0.46277216333596533 0 -0.1157083509407465 -0.46985326695645979 0 -0.11570487117906469 -0.45324354028800051 0 -0.1157083509407465 -0.46985326695645979 0 -0.1046183268104643 -0.46234331342062063 0 -0.11570487117906469 -0.45324354028800051 0 -0.13093011984253891 -0.44972195681556543 0 -0.12704973474613379 -0.46277216333596533 0 -0.11570487117906469 -0.45324354028800051 0 -0.13093011984253891 -0.44972195681556543 0 -0.11570487117906469 -0.45324354028800051 0 -0.123519809913229 -0.43733662075251151 0 -0.102335674083258 -0.43919792399196639 0 -0.11570487117906469 -0.45324354028800051 0 -0.123519809913229 -0.43733662075251151 0 -0.102335674083258 -0.43919792399196639 0 -0.123519809913229 -0.43733662075251151 0 -0.1073839645685936 -0.41867419567875119 0 -0.12597911368703019 -0.41952469120143437 0 -0.123519809913229 -0.43733662075251151 0 -0.1073839645685936 -0.41867419567875119 0 -0.102335674083258 -0.43919792399196639 0 -0.1073839645685936 -0.41867419567875119 0 -0.086273448473222103 -0.4193623284343494 0 -0.1073839645685936 -0.41867419567875119 0 -0.1004955064841186 -0.39983262220326049 0 -0.086273448473222103 -0.4193623284343494 0 -0.1073839645685936 -0.41867419567875119 0 -0.11827115974421661 -0.40327967795429231 0 -0.1004955064841186 -0.39983262220326049 0 -0.12597911368703019 -0.41952469120143437 0 -0.1073839645685936 -0.41867419567875119 0 -0.11827115974421661 -0.40327967795429231 0 -0.11827115974421661 -0.40327967795429231 0 -0.11220573075163159 -0.38220411347121069 0 -0.1004955064841186 -0.39983262220326049 0 -0.13724659116883831 -0.38156720383825199 0 -0.1192781490478088 -0.36668410834504778 0 -0.11220573075163159 -0.38220411347121069 0 -0.13724659116883831 -0.38156720383825199 0 -0.11827115974421661 -0.40327967795429231 0 -0.11220573075163159 -0.38220411347121069 0 -0.11220573075163159 -0.38220411347121069 0 -0.093814789784828018 -0.38091150164421111 0 -0.1004955064841186 -0.39983262220326049 0 -0.1016352808315869 -0.36700177770792092 0 -0.11220573075163159 -0.38220411347121069 0 -0.093814789784828018 -0.38091150164421111 0 -0.093814789784828018 -0.38091150164421111 0 -0.1004955064841186 -0.39983262220326049 0 -0.085023945582219762 -0.39456391603674879 0 -0.085023945582219762 -0.39456391603674879 0 -0.074760926096971728 -0.38965003141326948 0 -0.077688182017724178 -0.40799169701628579 0 -0.1004955064841186 -0.39983262220326049 0 -0.085023945582219762 -0.39456391603674879 0 -0.086273448473222103 -0.4193623284343494 0 -0.083774442691217046 -0.36976550363914829 0 -0.093814789784828018 -0.38091150164421111 0 -0.085023945582219762 -0.39456391603674879 0 -0.083774442691217046 -0.36976550363914829 0 -0.085023945582219762 -0.39456391603674879 0 -0.074760926096971728 -0.38965003141326948 0 -0.083774442691217046 -0.36976550363914829 0 -0.085023945582219762 -0.39456391603674879 0 -0.083774442691217046 -0.36976550363914829 0 -0.074760926096971728 -0.38965003141326948 0 -0.066117606829746781 -0.37437488941039382 0 -0.083774442691217046 -0.36976550363914829 0 -0.074760926096971728 -0.38965003141326948 0 -0.066117606829746781 -0.37437488941039382 0 -0.056230819367541693 -0.39440183914975269 0 -0.074760926096971728 -0.38965003141326948 0 -0.074760926096971728 -0.38965003141326948 0 -0.065747409502729032 -0.40953455918739179 0 -0.056230819367541693 -0.39440183914975269 0 -0.074760926096971728 -0.38965003141326948 0 -0.065747409502729032 -0.40953455918739179 0 -0.074760926096971728 -0.38965003141326948 0 -0.077688182017724178 -0.40799169701628579 0 -0.065747409502729032 -0.40953455918739179 0 -0.057674512383022389 -0.42734400629007657 0 -0.065747409502729032 -0.40953455918739179 0 -0.076635180433477057 -0.42684765000967062 0 -0.065747409502729032 -0.40953455918739179 0 -0.076635180433477057 -0.42684765000967062 0 -0.077688182017724178 -0.40799169701628579 0 -0.065747409502729032 -0.40953455918739179 0 -0.076635180433477057 -0.42684765000967062 0 -0.057674512383022389 -0.42734400629007657 0 -0.067687044322660692 -0.44438888407200389 0 -0.076635180433477057 -0.42684765000967062 0 -0.087522951364224152 -0.44416074083195012 0 -0.102335674083258 -0.43919792399196639 0 -0.086273448473222103 -0.4193623284343494 0 -0.087522951364224152 -0.44416074083195012 0 -0.076635180433477057 -0.42684765000967062 0 -0.087522951364224152 -0.44416074083195012 0 -0.086273448473222103 -0.4193623284343494 0 -0.087522951364224152 -0.44416074083195012 0 -0.076635180433477057 -0.42684765000967062 0 -0.086273448473222103 -0.4193623284343494 0 -0.077688182017724178 -0.40799169701628579 0 -0.076635180433477057 -0.42684765000967062 0 -0.086273448473222103 -0.4193623284343494 0 -0.085023945582219762 -0.39456391603674879 0 -0.086273448473222103 -0.4193623284343494 0 -0.085023945582219762 -0.39456391603674879 0 -0.077688182017724178 -0.40799169701628579 0 -0.086273448473222103 -0.4193623284343494 0 -0.088492877882569029 -0.082108210476901852 0 -0.076927128592812144 -0.088910799915979499 0 -0.09750588448509391 -0.094492999713411269 0 -0.088492877882569029 -0.082108210476901852 0 -0.079577064860946206 -0.073577453582062496 0 -0.076927128592812144 -0.088910799915979499 0 -0.079577064860946206 -0.073577453582062496 0 -0.0985919344824224 -0.072778756797164931 0 -0.087769009107716192 -0.046193724725750278 0 -0.088492877882569029 -0.082108210476901852 0 -0.079577064860946206 -0.073577453582062496 0 -0.0985919344824224 -0.072778756797164931 0 -0.079577064860946206 -0.073577453582062496 0 -0.068797467898171552 -0.064113028811232264 0 -0.064240921843242857 -0.078969573753286809 0 -0.068797467898171552 -0.064113028811232264 0 -0.064240921843242857 -0.078969573753286809 0 -0.05461803829180413 -0.069755112608578862 0 -0.064240921843242857 -0.078969573753286809 0 -0.065719917437320752 -0.085301382988547655 0 -0.071622236241637716 -0.082994103557465768 0 -0.079577064860946206 -0.073577453582062496 0 -0.064240921843242857 -0.078969573753286809 0 -0.071622236241637716 -0.082994103557465768 0 -0.079577064860946206 -0.073577453582062496 0 -0.071622236241637716 -0.082994103557465768 0 -0.076927128592812144 -0.088910799915979499 0 -0.076927128592812144 -0.088910799915979499 0 -0.070013937980536456 -0.090181036700446429 0 -0.073360588416105155 -0.101926594449817 0 -0.071622236241637716 -0.082994103557465768 0 -0.076927128592812144 -0.088910799915979499 0 -0.070013937980536456 -0.090181036700446429 0 -0.065719917437320752 -0.085301382988547655 0 -0.070013937980536456 -0.090181036700446429 0 -0.057002573683865979 -0.089060817942991616 0 -0.065719917437320752 -0.085301382988547655 0 -0.071622236241637716 -0.082994103557465768 0 -0.070013937980536456 -0.090181036700446429 0 -0.073360588416105155 -0.101926594449817 0 -0.064648045787775776 -0.1114736180136202 0 -0.083029262804162729 -0.11173362360677321 0 -0.076927128592812144 -0.088910799915979499 0 -0.073360588416105155 -0.101926594449817 0 -0.083029262804162729 -0.11173362360677321 0 -0.070013937980536456 -0.090181036700446429 0 -0.064167586873575405 -0.098824988458513688 0 -0.073360588416105155 -0.101926594449817 0 -0.064167586873575405 -0.098824988458513688 0 -0.073360588416105155 -0.101926594449817 0 -0.064648045787775776 -0.1114736180136202 0 -0.064648045787775776 -0.1114736180136202 0 -0.083029262804162729 -0.11173362360677321 0 -0.072915517223638954 -0.12670463451369329 0 -0.064648045787775776 -0.1114736180136202 0 -0.060928146748241367 -0.123537549367131 0 -0.072915517223638954 -0.12670463451369329 0 -0.083029262804162729 -0.11173362360677321 0 -0.089131397015513494 -0.13455644729756691 0 -0.072915517223638954 -0.12670463451369329 0 -0.083029262804162729 -0.11173362360677321 0 -0.089131397015513494 -0.13455644729756691 0 -0.083029262804162729 -0.11173362360677321 0 -0.099989791654964619 -0.11261170107408 0 -0.089131397015513494 -0.13455644729756691 0 -0.076927128592812144 -0.088910799915979499 0 -0.083029262804162729 -0.11173362360677321 0 -0.076927128592812144 -0.088910799915979499 0 -0.083029262804162729 -0.11173362360677321 0 -0.09750588448509391 -0.094492999713411269 0 -0.083029262804162729 -0.11173362360677321 0 -0.09750588448509391 -0.094492999713411269 0 -0.099989791654964619 -0.11261170107408 0 -0.09750588448509391 -0.094492999713411269 0 -0.099989791654964619 -0.11261170107408 0 -0.11605893441195141 -0.10185107539240761 0 -0.099989791654964619 -0.11261170107408 0 -0.11422347955810171 -0.1204243593602408 0 -0.089131397015513494 -0.13455644729756691 0 -0.11422347955810171 -0.1204243593602408 0 -0.11605893441195141 -0.10185107539240761 0 -0.13931556210068971 -0.10629227142291391 0 -0.099989791654964619 -0.11261170107408 0 -0.11422347955810171 -0.1204243593602408 0 -0.11605893441195141 -0.10185107539240761 0 -0.09750588448509391 -0.094492999713411269 0 -0.11605893441195141 -0.10185107539240761 0 -0.121811479392537 -0.084095963505499416 0 -0.09750588448509391 -0.094492999713411269 0 -0.121811479392537 -0.084095963505499416 0 -0.0985919344824224 -0.072778756797164931 0 -0.088492877882569029 -0.082108210476901852 0 -0.09750588448509391 -0.094492999713411269 0 -0.0985919344824224 -0.072778756797164931 0 -0.121811479392537 -0.084095963505499416 0 -0.0985919344824224 -0.072778756797164931 0 -0.12197003300458489 -0.067133964797042034 0 -0.0985919344824224 -0.072778756797164931 0 -0.12197003300458489 -0.067133964797042034 0 -0.11173313641422659 -0.051099137712197359 0 -0.12197003300458489 -0.067133964797042034 0 -0.11173313641422659 -0.051099137712197359 0 -0.13241258759658719 -0.044529255409706578 0 -0.11719553878173181 -0.037741673539740471 0 -0.12411398995058071 -0.026208981462584841 0 -0.13241258759658719 -0.044529255409706578 0 -0.11173313641422659 -0.051099137712197359 0 -0.11719553878173181 -0.037741673539740471 0 -0.13241258759658719 -0.044529255409706578 0 -0.11719553878173181 -0.037741673539740471 0 -0.1033935341420949 -0.036608907929656417 0 -0.1118019010511415 -0.027957019938586129 0 -0.11173313641422659 -0.051099137712197359 0 -0.11719553878173181 -0.037741673539740471 0 -0.1033935341420949 -0.036608907929656417 0 -0.11173313641422659 -0.051099137712197359 0 -0.1033935341420949 -0.036608907929656417 0 -0.087769009107716192 -0.046193724725750278 0 -0.1033935341420949 -0.036608907929656417 0 -0.091700817231413184 -0.028161456197506499 0 -0.087769009107716192 -0.046193724725750278 0 -0.0985919344824224 -0.072778756797164931 0 -0.11173313641422659 -0.051099137712197359 0 -0.087769009107716192 -0.046193724725750278 0 -0.1152652699767374 -0.0044733142422073097 0 -0.1278640484455188 -0.012334690821253821 0 -0.1273771369441013 0.0023450629401116992 0 -0.1152652699767374 -0.0044733142422073097 0 -0.11303603589243651 -0.016818202060669259 0 -0.1278640484455188 -0.012334690821253821 0 -0.1152652699767374 -0.0044733142422073097 0 -0.11303603589243651 -0.016818202060669259 0 -0.1012139958851531 -0.0082010901258140791 0 -0.11303603589243651 -0.016818202060669259 0 -0.12411398995058071 -0.026208981462584841 0 -0.1278640484455188 -0.012334690821253821 0 -0.11719553878173181 -0.037741673539740471 0 -0.12411398995058071 -0.026208981462584841 0 -0.1118019010511415 -0.027957019938586129 0 -0.11303603589243651 -0.016818202060669259 0 -0.12411398995058071 -0.026208981462584841 0 -0.1118019010511415 -0.027957019938586129 0 -0.1033935341420949 -0.036608907929656417 0 -0.1118019010511415 -0.027957019938586129 0 -0.10074487633177411 -0.021927112774035699 0 -0.1033935341420949 -0.036608907929656417 0 -0.10074487633177411 -0.021927112774035699 0 -0.091700817231413184 -0.028161456197506499 0 -0.10074487633177411 -0.021927112774035699 0 -0.089359217900845153 -0.01537750648633354 0 -0.091700817231413184 -0.028161456197506499 0 -0.11303603589243651 -0.016818202060669259 0 -0.10074487633177411 -0.021927112774035699 0 -0.1012139958851531 -0.0082010901258140791 0 -0.11303603589243651 -0.016818202060669259 0 -0.1118019010511415 -0.027957019938586129 0 -0.10074487633177411 -0.021927112774035699 0 -0.10074487633177411 -0.021927112774035699 0 -0.1012139958851531 -0.0082010901258140791 0 -0.089359217900845153 -0.01537750648633354 0 -0.1012139958851531 -0.0082010901258140791 0 -0.089124004628701792 -0.0040277377021705899 0 -0.097507665945787692 0.0040820149966005574 0 -0.1012139958851531 -0.0082010901258140791 0 -0.097507665945787692 0.0040820149966005574 0 -0.1058521268010089 0.00073384547527136773 0 -0.1152652699767374 -0.0044733142422073097 0 -0.1012139958851531 -0.0082010901258140791 0 -0.1058521268010089 0.00073384547527136773 0 -0.079764572027605563 -0.001208843295517239 0 -0.089124004628701792 -0.0040277377021705899 0 -0.080379206648835008 -0.009775819102595687 0 -0.089124004628701792 -0.0040277377021705899 0 -0.089359217900845153 -0.01537750648633354 0 -0.080379206648835008 -0.009775819102595687 0 -0.1012139958851531 -0.0082010901258140791 0 -0.089124004628701792 -0.0040277377021705899 0 -0.089359217900845153 -0.01537750648633354 0 -0.089359217900845153 -0.01537750648633354 0 -0.080379206648835008 -0.009775819102595687 0 -0.076946083733010012 -0.019608692654335649 0 -0.089359217900845153 -0.01537750648633354 0 -0.091700817231413184 -0.028161456197506499 0 -0.076946083733010012 -0.019608692654335649 0 -0.066439508831189667 -0.02875513821822643 0 -0.076946083733010012 -0.019608692654335649 0 -0.073396792324475907 -0.036549185213838799 0 -0.066439508831189667 -0.02875513821822643 0 -0.068530762808199294 -0.019938962024248611 0 -0.056338296441182101 -0.027044179732367449 0 -0.066439508831189667 -0.02875513821822643 0 -0.068530762808199294 -0.019938962024248611 0 -0.076946083733010012 -0.019608692654335649 0 -0.080379206648835008 -0.009775819102595687 0 -0.076946083733010012 -0.019608692654335649 0 -0.066123158358303874 0.0069763394170788487 0 -0.079764572027605563 -0.001208843295517239 0 -0.080379206648835008 -0.009775819102595687 0 -0.066123158358303874 0.0069763394170788487 0 -0.076946083733010012 -0.019608692654335649 0 -0.059664616745900671 -0.0040500510012267867 0 -0.066123158358303874 0.0069763394170788487 0 -0.068530762808199294 -0.019938962024248611 0 -0.059664616745900671 -0.0040500510012267867 0 -0.068530762808199294 -0.019938962024248611 0 -0.076946083733010012 -0.019608692654335649 0 -0.059664616745900671 -0.0040500510012267867 0 -0.076946083733010012 -0.019608692654335649 0 -0.066123158358303874 0.0069763394170788487 0 -0.079577064860946206 -0.073577453582062496 0 -0.068797467898171552 -0.064113028811232264 0 -0.087769009107716192 -0.046193724725750278 0 -0.0985919344824224 -0.072778756797164931 0 -0.087769009107716192 -0.046193724725750278 0 -0.076946083733010012 -0.019608692654335649 0 -0.087769009107716192 -0.046193724725750278 0 -0.073396792324475907 -0.036549185213838799 0 -0.091700817231413184 -0.028161456197506499 0 -0.076946083733010012 -0.019608692654335649 0 -0.087769009107716192 -0.046193724725750278 0 -0.076946083733010012 -0.019608692654335649 0 -0.087769009107716192 -0.046193724725750278 0 -0.073396792324475907 -0.036549185213838799 0 -0.062271996897588083 -0.052791321925605532 0 -0.056985608849081007 -0.04063467146634165 0 -0.087769009107716192 -0.046193724725750278 0 -0.073396792324475907 -0.036549185213838799 0 -0.062271996897588083 -0.052791321925605532 0 -0.066439508831189667 -0.02875513821822643 0 -0.073396792324475907 -0.036549185213838799 0 -0.056985608849081007 -0.04063467146634165 0 -0.068797467898171552 -0.064113028811232264 0 -0.087769009107716192 -0.046193724725750278 0 -0.062271996897588083 -0.052791321925605532 0 -0.050876123791686781 -0.0557005837010279 0 -0.062271996897588083 -0.052791321925605532 0 -0.05461803829180413 -0.069755112608578862 0 -0.068797467898171552 -0.064113028811232264 0 -0.062271996897588083 -0.052791321925605532 0 -0.05461803829180413 -0.069755112608578862 0 -0.050876123791686781 -0.0557005837010279 0 -0.04125611079489349 -0.061033813963863537 0 -0.05461803829180413 -0.069755112608578862 0 -0.050876123791686781 -0.0557005837010279 0 -0.056985608849081007 -0.04063467146634165 0 -0.043217803893324663 -0.046983348469378128 0 -0.050876123791686781 -0.0557005837010279 0 -0.062271996897588083 -0.052791321925605532 0 -0.056985608849081007 -0.04063467146634165 0 -0.066439508831189667 -0.02875513821822643 0 -0.056985608849081007 -0.04063467146634165 0 -0.056338296441182101 -0.027044179732367449 0 -0.056985608849081007 -0.04063467146634165 0 -0.048013312662868769 -0.034084565957593307 0 -0.056338296441182101 -0.027044179732367449 0 -0.056985608849081007 -0.04063467146634165 0 -0.048013312662868769 -0.034084565957593307 0 -0.043217803893324663 -0.046983348469378128 0 -0.034747022969916552 -0.036023397885302497 0 -0.03178279228815796 -0.053256275703554248 0 -0.043217803893324663 -0.046983348469378128 0 -0.048013312662868769 -0.034084565957593307 0 -0.034747022969916552 -0.036023397885302497 0 -0.043217803893324663 -0.046983348469378128 0 -0.03178279228815796 -0.053256275703554248 0 -0.04125611079489349 -0.061033813963863537 0 -0.027189616291661511 -0.068956488044421491 0 -0.03178279228815796 -0.053256275703554248 0 -0.04125611079489349 -0.061033813963863537 0 -0.043217803893324663 -0.046983348469378128 0 -0.050876123791686781 -0.0557005837010279 0 -0.04125611079489349 -0.061033813963863537 0 -0.043217803893324663 -0.046983348469378128 0 -0.068530762808199294 -0.019938962024248611 0 -0.059664616745900671 -0.0040500510012267867 0 -0.057625718948113309 -0.01560592069947127 0 -0.047617207273071643 -0.0035118018543059538 0 -0.059664616745900671 -0.0040500510012267867 0 -0.057625718948113309 -0.01560592069947127 0 -0.047617207273071643 -0.0035118018543059538 0 -0.057625718948113309 -0.01560592069947127 0 -0.044435943862541481 -0.018862463730406901 0 -0.057625718948113309 -0.01560592069947127 0 -0.056338296441182101 -0.027044179732367449 0 -0.044435943862541481 -0.018862463730406901 0 -0.068530762808199294 -0.019938962024248611 0 -0.057625718948113309 -0.01560592069947127 0 -0.056338296441182101 -0.027044179732367449 0 -0.048013312662868769 -0.034084565957593307 0 -0.056338296441182101 -0.027044179732367449 0 -0.044435943862541481 -0.018862463730406901 0 -0.048013312662868769 -0.034084565957593307 0 -0.034747022969916552 -0.036023397885302497 0 -0.044435943862541481 -0.018862463730406901 0 -0.034747022969916552 -0.036023397885302497 0 -0.044435943862541481 -0.018862463730406901 0 -0.029096019340949839 -0.020089153358083849 0 -0.044435943862541481 -0.018862463730406901 0 -0.037331614038931003 -0.0090830911405071785 0 -0.029096019340949839 -0.020089153358083849 0 -0.047617207273071643 -0.0035118018543059538 0 -0.044435943862541481 -0.018862463730406901 0 -0.037331614038931003 -0.0090830911405071785 0 -0.047617207273071643 -0.0035118018543059538 0 -0.044435943862541481 -0.018862463730406901 0 -0.037331614038931003 -0.0090830911405071785 0 -0.025670282478897081 -0.0054027298625421993 0 -0.03671052455766443 0.0037031618858211421 0 -0.047617207273071643 -0.0035118018543059538 0 -0.037331614038931003 -0.0090830911405071785 0 -0.03671052455766443 0.0037031618858211421 0 -0.025670282478897081 -0.0054027298625421993 0 -0.029096019340949839 -0.020089153358083849 0 -0.01201491237982177 -0.012697106039732861 0 -0.025670282478897081 -0.0054027298625421993 0 -0.01201491237982177 -0.012697106039732861 0 -0.010105069976996849 0.0023765649732562961 0 -0.037331614038931003 -0.0090830911405071785 0 -0.025670282478897081 -0.0054027298625421993 0 -0.029096019340949839 -0.020089153358083849 0 -0.034747022969916552 -0.036023397885302497 0 -0.029096019340949839 -0.020089153358083849 0 -0.01621539074153976 -0.030149579770640821 0 -0.029096019340949839 -0.020089153358083849 0 -0.01621539074153976 -0.030149579770640821 0 -0.01201491237982177 -0.012697106039732861 0 -0.01621539074153976 -0.030149579770640821 0 0.0026421611525163911 -0.019923693291100199 0 0.001114662024295677 -0.034644724797188199 0 -0.01621539074153976 -0.030149579770640821 0 -0.01201491237982177 -0.012697106039732861 0 0.0026421611525163911 -0.019923693291100199 0 -0.01201491237982177 -0.012697106039732861 0 0.0047038114401232534 -0.001040937293712483 0 0.0026421611525163911 -0.019923693291100199 0 -0.01201491237982177 -0.012697106039732861 0 -0.010105069976996849 0.0023765649732562961 0 0.0047038114401232534 -0.001040937293712483 0 -0.03178279228815796 -0.053256275703554248 0 -0.015718878272565229 -0.058792224196781109 0 -0.02130541942185268 -0.044498810144407437 0 -0.03178279228815796 -0.053256275703554248 0 -0.015718878272565229 -0.058792224196781109 0 -0.027189616291661511 -0.068956488044421491 0 -0.034747022969916552 -0.036023397885302497 0 -0.01621539074153976 -0.030149579770640821 0 -0.02130541942185268 -0.044498810144407437 0 -0.034747022969916552 -0.036023397885302497 0 -0.03178279228815796 -0.053256275703554248 0 -0.02130541942185268 -0.044498810144407437 0 -0.01621539074153976 -0.030149579770640821 0 -0.0092606153764647689 -0.044492254616565037 0 0.001114662024295677 -0.034644724797188199 0 -0.0092606153764647689 -0.044492254616565037 0 0.001114662024295677 -0.034644724797188199 0 0.003426744450576454 -0.054815297075420773 0 -0.01621539074153976 -0.030149579770640821 0 -0.02130541942185268 -0.044498810144407437 0 -0.0092606153764647689 -0.044492254616565037 0 -0.015718878272565229 -0.058792224196781109 0 -0.0092606153764647689 -0.044492254616565037 0 0.003426744450576454 -0.054815297075420773 0 -0.015718878272565229 -0.058792224196781109 0 -0.0072319765520409062 -0.068818796064575097 0 0.003426744450576454 -0.054815297075420773 0 -0.015718878272565229 -0.058792224196781109 0 -0.02130541942185268 -0.044498810144407437 0 -0.0092606153764647689 -0.044492254616565037 0 -0.0072319765520409062 -0.068818796064575097 0 -0.0056293594721457006 -0.082036805430144924 0 0.0054575408194632406 -0.073720759659108445 0 -0.0072319765520409062 -0.068818796064575097 0 -0.016531268938654212 -0.068489504758274394 0 -0.015984604638349179 -0.077390510727319894 0 -0.0072319765520409062 -0.068818796064575097 0 -0.0056293594721457006 -0.082036805430144924 0 -0.015984604638349179 -0.077390510727319894 0 -0.015718878272565229 -0.058792224196781109 0 -0.0072319765520409062 -0.068818796064575097 0 -0.016531268938654212 -0.068489504758274394 0 -0.0075898384642912086 -0.092772169897659226 0 -0.0056293594721457006 -0.082036805430144924 0 0.0072012692200917657 -0.09144049599341271 0 -0.0056293594721457006 -0.082036805430144924 0 -0.01562854721774792 -0.088078100238794171 0 -0.015984604638349179 -0.077390510727319894 0 -0.0075898384642912086 -0.092772169897659226 0 -0.0056293594721457006 -0.082036805430144924 0 -0.01562854721774792 -0.088078100238794171 0 -0.0075898384642912086 -0.092772169897659226 0 -0.01562854721774792 -0.088078100238794171 0 -0.015839401072447711 -0.097831294581907868 0 -0.01562854721774792 -0.088078100238794171 0 -0.02305577581672685 -0.083163458542690943 0 -0.024670005891415589 -0.092262667611894875 0 -0.01562854721774792 -0.088078100238794171 0 -0.024670005891415589 -0.092262667611894875 0 -0.015839401072447711 -0.097831294581907868 0 -0.01562854721774792 -0.088078100238794171 0 -0.02305577581672685 -0.083163458542690943 0 -0.015984604638349179 -0.077390510727319894 0 -0.02305577581672685 -0.083163458542690943 0 -0.024670005891415589 -0.092262667611894875 0 -0.031754510724464793 -0.081253108138323094 0 -0.024670005891415589 -0.092262667611894875 0 -0.031754510724464793 -0.081253108138323094 0 -0.03344051123233422 -0.092098432850847969 0 -0.015718878272565229 -0.058792224196781109 0 -0.016531268938654212 -0.068489504758274394 0 -0.027189616291661511 -0.068956488044421491 0 -0.016531268938654212 -0.068489504758274394 0 -0.015984604638349179 -0.077390510727319894 0 -0.027189616291661511 -0.068956488044421491 0 -0.02305577581672685 -0.083163458542690943 0 -0.015984604638349179 -0.077390510727319894 0 -0.027189616291661511 -0.068956488044421491 0 -0.02305577581672685 -0.083163458542690943 0 -0.027189616291661511 -0.068956488044421491 0 -0.031754510724464793 -0.081253108138323094 0 -0.04125611079489349 -0.061033813963863537 0 -0.027189616291661511 -0.068956488044421491 0 -0.04053175759116228 -0.071452392996033218 0 -0.04125611079489349 -0.061033813963863537 0 -0.04053175759116228 -0.071452392996033218 0 -0.05461803829180413 -0.069755112608578862 0 -0.04053175759116228 -0.071452392996033218 0 -0.04331800788480706 -0.080321541169751709 0 -0.05461803829180413 -0.069755112608578862 0 -0.027189616291661511 -0.068956488044421491 0 -0.04053175759116228 -0.071452392996033218 0 -0.031754510724464793 -0.081253108138323094 0 -0.04053175759116228 -0.071452392996033218 0 -0.031754510724464793 -0.081253108138323094 0 -0.04331800788480706 -0.080321541169751709 0 -0.031754510724464793 -0.081253108138323094 0 -0.037920360895102763 -0.086728863392239786 0 -0.04331800788480706 -0.080321541169751709 0 -0.031754510724464793 -0.081253108138323094 0 -0.03344051123233422 -0.092098432850847969 0 -0.037920360895102763 -0.086728863392239786 0 -0.03344051123233422 -0.092098432850847969 0 -0.037920360895102763 -0.086728863392239786 0 -0.039477100495342581 -0.093081883261144749 0 -0.043535591074226332 -0.088659540190963698 0 -0.052607434978589038 -0.084605160310905272 0 -0.044151246104392423 -0.095288874830203096 0 -0.039477100495342581 -0.093081883261144749 0 -0.043535591074226332 -0.088659540190963698 0 -0.044151246104392423 -0.095288874830203096 0 -0.037920360895102763 -0.086728863392239786 0 -0.039477100495342581 -0.093081883261144749 0 -0.043535591074226332 -0.088659540190963698 0 -0.043535591074226332 -0.088659540190963698 0 -0.044151246104392423 -0.095288874830203096 0 -0.037920360895102763 -0.086728863392239786 0 -0.043535591074226332 -0.088659540190963698 0 -0.04331800788480706 -0.080321541169751709 0 -0.043535591074226332 -0.088659540190963698 0 -0.04331800788480706 -0.080321541169751709 0 -0.052607434978589038 -0.084605160310905272 0 -0.04331800788480706 -0.080321541169751709 0 -0.052607434978589038 -0.084605160310905272 0 -0.05461803829180413 -0.069755112608578862 0 -0.070013937980536456 -0.090181036700446429 0 -0.057002573683865979 -0.089060817942991616 0 -0.04460455598339258 -0.10017008709341529 0 -0.052607434978589038 -0.084605160310905272 0 -0.044151246104392423 -0.095288874830203096 0 -0.052607434978589038 -0.084605160310905272 0 -0.057002573683865979 -0.089060817942991616 0 -0.044151246104392423 -0.095288874830203096 0 -0.064240921843242857 -0.078969573753286809 0 -0.065719917437320752 -0.085301382988547655 0 -0.057002573683865979 -0.089060817942991616 0 -0.064240921843242857 -0.078969573753286809 0 -0.052607434978589038 -0.084605160310905272 0 -0.057002573683865979 -0.089060817942991616 0 -0.064240921843242857 -0.078969573753286809 0 -0.052607434978589038 -0.084605160310905272 0 -0.05461803829180413 -0.069755112608578862 0 -0.064648045787775776 -0.1114736180136202 0 -0.054889055151619223 -0.1064960745062641 0 -0.046573596299020338 -0.1213725893565638 0 -0.064648045787775776 -0.1114736180136202 0 -0.060928146748241367 -0.123537549367131 0 -0.046573596299020338 -0.1213725893565638 0 -0.064167586873575405 -0.098824988458513688 0 -0.054889055151619223 -0.1064960745062641 0 -0.04460455598339258 -0.10017008709341529 0 -0.054889055151619223 -0.1064960745062641 0 -0.04460455598339258 -0.10017008709341529 0 -0.046573596299020338 -0.1213725893565638 0 -0.070013937980536456 -0.090181036700446429 0 -0.04460455598339258 -0.10017008709341529 0 -0.070013937980536456 -0.090181036700446429 0 -0.064167586873575405 -0.098824988458513688 0 -0.04460455598339258 -0.10017008709341529 0 -0.064167586873575405 -0.098824988458513688 0 -0.064648045787775776 -0.1114736180136202 0 -0.054889055151619223 -0.1064960745062641 0 -0.057002573683865979 -0.089060817942991616 0 -0.044151246104392423 -0.095288874830203096 0 -0.04460455598339258 -0.10017008709341529 0 -0.04460455598339258 -0.10017008709341529 0 -0.038337793170655582 -0.1026337050414691 0 -0.046573596299020338 -0.1213725893565638 0 -0.039477100495342581 -0.093081883261144749 0 -0.044151246104392423 -0.095288874830203096 0 -0.038337793170655582 -0.1026337050414691 0 -0.044151246104392423 -0.095288874830203096 0 -0.04460455598339258 -0.10017008709341529 0 -0.044151246104392423 -0.095288874830203096 0 -0.038337793170655582 -0.1026337050414691 0 -0.04460455598339258 -0.10017008709341529 0 -0.038337793170655582 -0.1026337050414691 0 -0.044151246104392423 -0.095288874830203096 0 -0.04460455598339258 -0.10017008709341529 0 -0.038337793170655582 -0.1026337050414691 0 -0.03344051123233422 -0.092098432850847969 0 -0.039477100495342581 -0.093081883261144749 0 -0.038337793170655582 -0.1026337050414691 0 -0.03344051123233422 -0.092098432850847969 0 -0.038337793170655582 -0.1026337050414691 0 -0.030143021990877521 -0.097413384547063803 0 -0.038337793170655582 -0.1026337050414691 0 -0.046573596299020338 -0.1213725893565638 0 -0.032898799107638058 -0.1301455039054305 0 -0.04460455598339258 -0.10017008709341529 0 -0.046573596299020338 -0.1213725893565638 0 -0.038337793170655582 -0.1026337050414691 0 -0.02075820173733281 -0.1248441049076035 0 -0.038337793170655582 -0.1026337050414691 0 -0.02075820173733281 -0.1248441049076035 0 -0.032898799107638058 -0.1301455039054305 0 -0.038337793170655582 -0.1026337050414691 0 -0.02075820173733281 -0.1248441049076035 0 -0.013304609286582791 -0.1124748627422944 0 -0.038337793170655582 -0.1026337050414691 0 -0.013304609286582791 -0.1124748627422944 0 -0.038337793170655582 -0.1026337050414691 0 -0.024123777669104458 -0.10265873268404301 0 -0.013304609286582791 -0.1124748627422944 0 -0.038337793170655582 -0.1026337050414691 0 -0.030143021990877521 -0.097413384547063803 0 -0.024123777669104458 -0.10265873268404301 0 -0.024670005891415589 -0.092262667611894875 0 -0.030143021990877521 -0.097413384547063803 0 -0.024123777669104458 -0.10265873268404301 0 -0.024670005891415589 -0.092262667611894875 0 -0.03344051123233422 -0.092098432850847969 0 -0.030143021990877521 -0.097413384547063803 0 -0.024123777669104458 -0.10265873268404301 0 -0.015994782990863529 -0.1079378035875192 0 -0.013304609286582791 -0.1124748627422944 0 -0.024123777669104458 -0.10265873268404301 0 -0.015994782990863529 -0.1079378035875192 0 -0.015839401072447711 -0.097831294581907868 0 -0.024670005891415589 -0.092262667611894875 0 -0.024123777669104458 -0.10265873268404301 0 -0.015839401072447711 -0.097831294581907868 0 -0.0070294542012635762 -0.10327829347153671 0 -0.013304609286582791 -0.1124748627422944 0 0.0046245275045138064 -0.1076828264142336 0 -0.0075898384642912086 -0.092772169897659226 0 -0.015839401072447711 -0.097831294581907868 0 -0.0070294542012635762 -0.10327829347153671 0 -0.015994782990863529 -0.1079378035875192 0 -0.015839401072447711 -0.097831294581907868 0 -0.0070294542012635762 -0.10327829347153671 0 -0.015994782990863529 -0.1079378035875192 0 -0.0070294542012635762 -0.10327829347153671 0 -0.013304609286582791 -0.1124748627422944 0 -0.0075898384642912086 -0.092772169897659226 0 -0.0070294542012635762 -0.10327829347153671 0 0.0072012692200917657 -0.09144049599341271 0 -0.02075820173733281 -0.1248441049076035 0 -0.013304609286582791 -0.1124748627422944 0 -0.00221818493688669 -0.13117245205018849 0 -0.013304609286582791 -0.1124748627422944 0 -0.00221818493688669 -0.13117245205018849 0 0.014197789575412951 -0.12328672932727321 0 -0.013304609286582791 -0.1124748627422944 0 -0.00221818493688669 -0.13117245205018849 0 -0.015994782990863529 -0.1079378035875192 0 -0.013304609286582791 -0.1124748627422944 0 -0.02075820173733281 -0.1248441049076035 0 -0.0137133242766358 -0.14598078836242959 0 -0.0031786103040098569 -0.14705450477373769 0 -0.02075820173733281 -0.1248441049076035 0 -0.0031786103040098569 -0.14705450477373769 0 -0.02075820173733281 -0.1248441049076035 0 -0.00221818493688669 -0.13117245205018849 0 -0.0031786103040098569 -0.14705450477373769 0 -0.02075820173733281 -0.1248441049076035 0 -0.02657462786173766 -0.13400490724319661 0 -0.021326083532184278 -0.14069250208886769 0 -0.02075820173733281 -0.1248441049076035 0 -0.021326083532184278 -0.14069250208886769 0 -0.0137133242766358 -0.14598078836242959 0 -0.02657462786173766 -0.13400490724319661 0 -0.032898799107638058 -0.1301455039054305 0 -0.031315427069795509 -0.14033751807088471 0 -0.02657462786173766 -0.13400490724319661 0 -0.021326083532184278 -0.14069250208886769 0 -0.031315427069795509 -0.14033751807088471 0 -0.02075820173733281 -0.1248441049076035 0 -0.02657462786173766 -0.13400490724319661 0 -0.032898799107638058 -0.1301455039054305 0 -0.026655807174363451 -0.14845120392719069 0 -0.02210874630731275 -0.1561964137015745 0 -0.031495029160766817 -0.15509855920566379 0 -0.026655807174363451 -0.14845120392719069 0 -0.03449156258747036 -0.148917707105098 0 -0.031495029160766817 -0.15509855920566379 0 -0.026655807174363451 -0.14845120392719069 0 -0.021326083532184278 -0.14069250208886769 0 -0.031315427069795509 -0.14033751807088471 0 -0.026655807174363451 -0.14845120392719069 0 -0.031315427069795509 -0.14033751807088471 0 -0.03449156258747036 -0.148917707105098 0 -0.021326083532184278 -0.14069250208886769 0 -0.019449426413567759 -0.15004718796545319 0 -0.0137133242766358 -0.14598078836242959 0 -0.026655807174363451 -0.14845120392719069 0 -0.021326083532184278 -0.14069250208886769 0 -0.019449426413567759 -0.15004718796545319 0 -0.019449426413567759 -0.15004718796545319 0 -0.01542317820397726 -0.15505006264073101 0 -0.0137133242766358 -0.14598078836242959 0 -0.026655807174363451 -0.14845120392719069 0 -0.019449426413567759 -0.15004718796545319 0 -0.02210874630731275 -0.1561964137015745 0 -0.019449426413567759 -0.15004718796545319 0 -0.02210874630731275 -0.1561964137015745 0 -0.01542317820397726 -0.15505006264073101 0 -0.0137133242766358 -0.14598078836242959 0 -0.0031786103040098569 -0.14705450477373769 0 -0.0072073677341612146 -0.1544888065361133 0 -0.01542317820397726 -0.15505006264073101 0 -0.0137133242766358 -0.14598078836242959 0 -0.0072073677341612146 -0.1544888065361133 0 -0.0031786103040098569 -0.14705450477373769 0 -0.0072073677341612146 -0.1544888065361133 0 -0.0025999653858941639 -0.16131422913783491 0 -0.01542317820397726 -0.15505006264073101 0 -0.0084927016390539001 -0.17431231470194719 0 -0.01542317820397726 -0.15505006264073101 0 -0.0025999653858941639 -0.16131422913783491 0 -0.0084927016390539001 -0.17431231470194719 0 -0.01542317820397726 -0.15505006264073101 0 -0.0084927016390539001 -0.17431231470194719 0 -0.018600123305710169 -0.16452936741983731 0 -0.0025999653858941639 -0.16131422913783491 0 -0.0084927016390539001 -0.17431231470194719 0 0.0067086063528142403 -0.16809244781376179 0 -0.0084927016390539001 -0.17431231470194719 0 -0.019446339186483811 -0.17229591455881449 0 -0.018600123305710169 -0.16452936741983731 0 -0.01542317820397726 -0.15505006264073101 0 -0.0072073677341612146 -0.1544888065361133 0 -0.0025999653858941639 -0.16131422913783491 0 -0.0084927016390539001 -0.17431231470194719 0 -0.0015622250741301779 -0.1935745667631632 0 -0.01452589755716127 -0.18854972137590889 0 -0.0084927016390539001 -0.17431231470194719 0 -0.0015622250741301779 -0.1935745667631632 0 -0.0084927016390539001 -0.17431231470194719 0 -0.0015622250741301779 -0.1935745667631632 0 0.0091962193441852118 -0.18107109871456811 0 -0.0084927016390539001 -0.17431231470194719 0 -0.019789997202817391 -0.17944929683230451 0 -0.01452589755716127 -0.18854972137590889 0 -0.019789997202817391 -0.17944929683230451 0 -0.01452589755716127 -0.18854972137590889 0 -0.02459459850908961 -0.18853055632871979 0 -0.0084927016390539001 -0.17431231470194719 0 -0.019789997202817391 -0.17944929683230451 0 -0.019446339186483811 -0.17229591455881449 0 -0.019789997202817391 -0.17944929683230451 0 -0.019446339186483811 -0.17229591455881449 0 -0.025875972540285681 -0.17494695229964419 0 -0.019789997202817391 -0.17944929683230451 0 -0.025875972540285681 -0.17494695229964419 0 -0.028761852805915141 -0.18157091371807699 0 -0.025875972540285681 -0.17494695229964419 0 -0.032240004386850082 -0.17024588421870079 0 -0.032480769472988377 -0.1765838753595764 0 -0.025875972540285681 -0.17494695229964419 0 -0.028761852805915141 -0.18157091371807699 0 -0.032480769472988377 -0.1765838753595764 0 -0.028761852805915141 -0.18157091371807699 0 -0.032920373861235572 -0.18696580359983689 0 -0.02459459850908961 -0.18853055632871979 0 -0.019789997202817391 -0.17944929683230451 0 -0.028761852805915141 -0.18157091371807699 0 -0.02459459850908961 -0.18853055632871979 0 -0.02210874630731275 -0.1561964137015745 0 -0.02334206205745518 -0.16321350683772101 0 -0.018600123305710169 -0.16452936741983731 0 -0.02210874630731275 -0.1561964137015745 0 -0.01542317820397726 -0.15505006264073101 0 -0.018600123305710169 -0.16452936741983731 0 -0.019446339186483811 -0.17229591455881449 0 -0.018600123305710169 -0.16452936741983731 0 -0.024472901244551901 -0.1682416415403396 0 -0.019446339186483811 -0.17229591455881449 0 -0.025875972540285681 -0.17494695229964419 0 -0.024472901244551901 -0.1682416415403396 0 -0.02334206205745518 -0.16321350683772101 0 -0.018600123305710169 -0.16452936741983731 0 -0.024472901244551901 -0.1682416415403396 0 -0.02334206205745518 -0.16321350683772101 0 -0.024472901244551901 -0.1682416415403396 0 -0.028186477372245909 -0.16388660468913291 0 -0.025875972540285681 -0.17494695229964419 0 -0.024472901244551901 -0.1682416415403396 0 -0.032240004386850082 -0.17024588421870079 0 -0.024472901244551901 -0.1682416415403396 0 -0.028186477372245909 -0.16388660468913291 0 -0.032240004386850082 -0.17024588421870079 0 -0.02210874630731275 -0.1561964137015745 0 -0.036601677587355427 -0.1631254910080501 0 -0.02210874630731275 -0.1561964137015745 0 -0.028186477372245909 -0.16388660468913291 0 -0.036601677587355427 -0.1631254910080501 0 -0.02210874630731275 -0.1561964137015745 0 -0.036601677587355427 -0.1631254910080501 0 -0.031495029160766817 -0.15509855920566379 0 -0.02210874630731275 -0.1561964137015745 0 -0.02334206205745518 -0.16321350683772101 0 -0.028186477372245909 -0.16388660468913291 0 -0.036601677587355427 -0.1631254910080501 0 -0.031495029160766817 -0.15509855920566379 0 -0.03757233301838208 -0.1561293615731485 0 -0.036601677587355427 -0.1631254910080501 0 -0.042683024331232992 -0.16071659108817879 0 -0.03757233301838208 -0.1561293615731485 0 -0.036601677587355427 -0.1631254910080501 0 -0.032240004386850082 -0.17024588421870079 0 -0.040990311010288182 -0.1707810542940659 0 -0.028186477372245909 -0.16388660468913291 0 -0.036601677587355427 -0.1631254910080501 0 -0.032240004386850082 -0.17024588421870079 0 -0.036601677587355427 -0.1631254910080501 0 -0.040990311010288182 -0.1707810542940659 0 -0.051094608867397598 -0.17005456831452659 0 -0.036601677587355427 -0.1631254910080501 0 -0.042683024331232992 -0.16071659108817879 0 -0.051094608867397598 -0.17005456831452659 0 -0.036601677587355427 -0.1631254910080501 0 -0.051094608867397598 -0.17005456831452659 0 -0.042683024331232992 -0.16071659108817879 0 -0.03757233301838208 -0.1561293615731485 0 -0.042590371425084809 -0.152788459458752 0 -0.042683024331232992 -0.16071659108817879 0 -0.049852416986034973 -0.1566787242717059 0 -0.042590371425084809 -0.152788459458752 0 -0.042683024331232992 -0.16071659108817879 0 -0.049852416986034973 -0.1566787242717059 0 -0.032920373861235572 -0.18696580359983689 0 -0.035662893679222471 -0.1808176818492459 0 -0.039648887306358682 -0.18457447877016059 0 -0.028761852805915141 -0.18157091371807699 0 -0.032920373861235572 -0.18696580359983689 0 -0.035662893679222471 -0.1808176818492459 0 -0.032240004386850082 -0.17024588421870079 0 -0.040990311010288182 -0.1707810542940659 0 -0.038331319031698619 -0.1753090981098179 0 -0.035662893679222471 -0.1808176818492459 0 -0.038331319031698619 -0.1753090981098179 0 -0.042134054383572032 -0.1794085226548284 0 -0.035662893679222471 -0.1808176818492459 0 -0.032480769472988377 -0.1765838753595764 0 -0.038331319031698619 -0.1753090981098179 0 -0.028761852805915141 -0.18157091371807699 0 -0.035662893679222471 -0.1808176818492459 0 -0.032480769472988377 -0.1765838753595764 0 -0.032240004386850082 -0.17024588421870079 0 -0.032480769472988377 -0.1765838753595764 0 -0.038331319031698619 -0.1753090981098179 0 -0.040990311010288182 -0.1707810542940659 0 -0.045496547127059937 -0.17528527585558801 0 -0.051094608867397598 -0.17005456831452659 0 -0.040990311010288182 -0.1707810542940659 0 -0.038331319031698619 -0.1753090981098179 0 -0.045496547127059937 -0.17528527585558801 0 -0.045496547127059937 -0.17528527585558801 0 -0.042134054383572032 -0.1794085226548284 0 -0.049232931697160941 -0.18142535687920061 0 -0.038331319031698619 -0.1753090981098179 0 -0.045496547127059937 -0.17528527585558801 0 -0.042134054383572032 -0.1794085226548284 0 -0.042134054383572032 -0.1794085226548284 0 -0.039648887306358682 -0.18457447877016059 0 -0.049232931697160941 -0.18142535687920061 0 -0.039648887306358682 -0.18457447877016059 0 -0.049232931697160941 -0.18142535687920061 0 -0.037513132105194948 -0.19164621715467339 0 -0.035662893679222471 -0.1808176818492459 0 -0.042134054383572032 -0.1794085226548284 0 -0.039648887306358682 -0.18457447877016059 0 -0.052530262953744307 -0.18551360121156771 0 -0.064566778430722005 -0.1899668467895553 0 -0.070259181001566293 -0.17921715932508539 0 -0.052530262953744307 -0.18551360121156771 0 -0.051094608867397598 -0.17005456831452659 0 -0.070259181001566293 -0.17921715932508539 0 -0.051094608867397598 -0.17005456831452659 0 -0.070259181001566293 -0.17921715932508539 0 -0.052530262953744307 -0.18551360121156771 0 -0.049232931697160941 -0.18142535687920061 0 -0.051094608867397598 -0.17005456831452659 0 -0.052530262953744307 -0.18551360121156771 0 -0.051094608867397598 -0.17005456831452659 0 -0.045496547127059937 -0.17528527585558801 0 -0.049232931697160941 -0.18142535687920061 0 -0.051094608867397598 -0.17005456831452659 0 -0.051094608867397598 -0.17005456831452659 0 -0.061817946007188637 -0.1647032604190713 0 -0.070259181001566293 -0.17921715932508539 0 -0.049852416986034973 -0.1566787242717059 0 -0.051094608867397598 -0.17005456831452659 0 -0.061817946007188637 -0.1647032604190713 0 -0.042683024331232992 -0.16071659108817879 0 -0.049852416986034973 -0.1566787242717059 0 -0.051094608867397598 -0.17005456831452659 0 -0.049852416986034973 -0.1566787242717059 0 -0.051094608867397598 -0.17005456831452659 0 -0.049852416986034973 -0.1566787242717059 0 -0.061817946007188637 -0.1647032604190713 0 -0.059473492795946999 -0.1512600473178678 0 -0.049852416986034973 -0.1566787242717059 0 -0.059473492795946999 -0.1512600473178678 0 -0.049852416986034973 -0.1566787242717059 0 -0.048542636614648908 -0.14257509161971199 0 -0.042590371425084809 -0.152788459458752 0 -0.049852416986034973 -0.1566787242717059 0 -0.059473492795946999 -0.1512600473178678 0 -0.048542636614648908 -0.14257509161971199 0 -0.049852416986034973 -0.1566787242717059 0 -0.048542636614648908 -0.14257509161971199 0 -0.059473492795946999 -0.1512600473178678 0 -0.048542636614648908 -0.14257509161971199 0 -0.059473492795946999 -0.1512600473178678 0 -0.048542636614648908 -0.14257509161971199 0 -0.061100100412547438 -0.13647315015658409 0 -0.046573596299020338 -0.1213725893565638 0 -0.048542636614648908 -0.14257509161971199 0 -0.061100100412547438 -0.13647315015658409 0 -0.046573596299020338 -0.1213725893565638 0 -0.048542636614648908 -0.14257509161971199 0 -0.060928146748241367 -0.123537549367131 0 -0.046573596299020338 -0.1213725893565638 0 -0.061100100412547438 -0.13647315015658409 0 -0.046573596299020338 -0.1213725893565638 0 -0.048542636614648908 -0.14257509161971199 0 -0.032898799107638058 -0.1301455039054305 0 -0.048542636614648908 -0.14257509161971199 0 -0.032898799107638058 -0.1301455039054305 0 -0.031315427069795509 -0.14033751807088471 0 -0.048542636614648908 -0.14257509161971199 0 -0.032898799107638058 -0.1301455039054305 0 -0.048542636614648908 -0.14257509161971199 0 -0.031315427069795509 -0.14033751807088471 0 -0.03449156258747036 -0.148917707105098 0 -0.03449156258747036 -0.148917707105098 0 -0.03757233301838208 -0.1561293615731485 0 -0.042590371425084809 -0.152788459458752 0 -0.03449156258747036 -0.148917707105098 0 -0.031495029160766817 -0.15509855920566379 0 -0.03757233301838208 -0.1561293615731485 0 -0.048542636614648908 -0.14257509161971199 0 -0.03449156258747036 -0.148917707105098 0 -0.042590371425084809 -0.152788459458752 0 -0.030801127425925001 -0.25680016795848581 0 -0.026871719323301121 -0.24650256912316601 0 -0.018733547469201091 -0.24349008461987329 0 -0.032940321160402269 -0.25029644079438251 0 -0.026871719323301121 -0.24650256912316601 0 -0.030857658388656541 -0.2362056796655021 0 -0.032940321160402269 -0.25029644079438251 0 -0.026871719323301121 -0.24650256912316601 0 -0.026871719323301121 -0.24650256912316601 0 -0.030857658388656541 -0.2362056796655021 0 -0.018733547469201091 -0.24349008461987329 0 -0.018733547469201091 -0.24349008461987329 0 0.0010854142569982001 -0.23807309260292489 0 0.0025328853753160741 -0.24958102673793139 0 -0.018733547469201091 -0.24349008461987329 0 -0.0061584899570064598 -0.22962027277065361 0 0.0010854142569982001 -0.23807309260292489 0 -0.018733547469201091 -0.24349008461987329 0 -0.0061584899570064598 -0.22962027277065361 0 -0.018733547469201091 -0.24349008461987329 0 -0.0061584899570064598 -0.22962027277065361 0 -0.014959502272226489 -0.22084886391346231 0 -0.0061584899570064598 -0.22962027277065361 0 -0.0054289760133702037 -0.21457987404047249 0 0.0064165675551885711 -0.21575046092143421 0 -0.0061584899570064598 -0.22962027277065361 0 -0.014959502272226489 -0.22084886391346231 0 -0.0054289760133702037 -0.21457987404047249 0 -0.018733547469201091 -0.24349008461987329 0 -0.02919644603132129 -0.2221986071991269 0 -0.02714058579554627 -0.22330174697438809 0 -0.018733547469201091 -0.24349008461987329 0 -0.02919644603132129 -0.2221986071991269 0 -0.018733547469201091 -0.24349008461987329 0 -0.014959502272226489 -0.22084886391346231 0 -0.02714058579554627 -0.22330174697438809 0 -0.030857658388656541 -0.2362056796655021 0 -0.018733547469201091 -0.24349008461987329 0 -0.02919644603132129 -0.2221986071991269 0 -0.02919644603132129 -0.2221986071991269 0 -0.02714058579554627 -0.22330174697438809 0 -0.023298310508535151 -0.21367384618425 0 -0.02883797433537726 -0.20835292232393379 0 -0.020914866328615171 -0.2008213059726579 0 -0.039659344593441261 -0.20090712977838049 0 -0.02919644603132129 -0.2221986071991269 0 -0.02883797433537726 -0.20835292232393379 0 -0.023298310508535151 -0.21367384618425 0 -0.02883797433537726 -0.20835292232393379 0 -0.023298310508535151 -0.21367384618425 0 -0.020914866328615171 -0.2008213059726579 0 -0.023298310508535151 -0.21367384618425 0 -0.014351405434837939 -0.2084381568687759 0 -0.020914866328615171 -0.2008213059726579 0 -0.02714058579554627 -0.22330174697438809 0 -0.014351405434837939 -0.2084381568687759 0 -0.014959502272226489 -0.22084886391346231 0 -0.02714058579554627 -0.22330174697438809 0 -0.014351405434837939 -0.2084381568687759 0 -0.02714058579554627 -0.22330174697438809 0 -0.023298310508535151 -0.21367384618425 0 -0.014351405434837939 -0.2084381568687759 0 -0.014959502272226489 -0.22084886391346231 0 -0.0054289760133702037 -0.21457987404047249 0 -0.014351405434837939 -0.2084381568687759 0 -0.0054289760133702037 -0.21457987404047249 0 -0.014351405434837939 -0.2084381568687759 0 -0.0015622250741301779 -0.1935745667631632 0 -0.0054289760133702037 -0.21457987404047249 0 -0.0015622250741301779 -0.1935745667631632 0 0.0064165675551885711 -0.21575046092143421 0 -0.014351405434837939 -0.2084381568687759 0 -0.0015622250741301779 -0.1935745667631632 0 -0.014351405434837939 -0.2084381568687759 0 -0.01223217889679739 -0.19705511845509929 0 -0.0015622250741301779 -0.1935745667631632 0 -0.01223217889679739 -0.19705511845509929 0 -0.0015622250741301779 -0.1935745667631632 0 -0.01452589755716127 -0.18854972137590889 0 -0.020914866328615171 -0.2008213059726579 0 -0.039659344593441261 -0.20090712977838049 0 -0.01452589755716127 -0.18854972137590889 0 -0.020914866328615171 -0.2008213059726579 0 -0.02459459850908961 -0.18853055632871979 0 -0.020914866328615171 -0.2008213059726579 0 -0.030654603298793132 -0.19382629647353339 0 -0.039659344593441261 -0.20090712977838049 0 -0.014351405434837939 -0.2084381568687759 0 -0.01223217889679739 -0.19705511845509929 0 -0.020914866328615171 -0.2008213059726579 0 -0.01223217889679739 -0.19705511845509929 0 -0.01452589755716127 -0.18854972137590889 0 -0.020914866328615171 -0.2008213059726579 0 -0.020914866328615171 -0.2008213059726579 0 -0.030654603298793132 -0.19382629647353339 0 -0.02459459850908961 -0.18853055632871979 0 -0.032920373861235572 -0.18696580359983689 0 -0.030654603298793132 -0.19382629647353339 0 -0.02459459850908961 -0.18853055632871979 0 -0.049232931697160941 -0.18142535687920061 0 -0.037513132105194948 -0.19164621715467339 0 -0.039659344593441261 -0.20090712977838049 0 -0.049232931697160941 -0.18142535687920061 0 -0.039659344593441261 -0.20090712977838049 0 -0.032920373861235572 -0.18696580359983689 0 -0.039648887306358682 -0.18457447877016059 0 -0.037513132105194948 -0.19164621715467339 0 -0.032920373861235572 -0.18696580359983689 0 -0.030654603298793132 -0.19382629647353339 0 -0.037513132105194948 -0.19164621715467339 0 -0.030654603298793132 -0.19382629647353339 0 -0.037513132105194948 -0.19164621715467339 0 -0.039659344593441261 -0.20090712977838049 0 -0.039659344593441261 -0.20090712977838049 0 -0.049171036143441697 -0.20095068018059209 0 -0.052530262953744307 -0.18551360121156771 0 -0.053965917040092279 -0.20097263410860849 0 -0.052530262953744307 -0.18551360121156771 0 -0.049232931697160941 -0.18142535687920061 0 -0.039659344593441261 -0.20090712977838049 0 -0.052530262953744307 -0.18551360121156771 0 -0.053965917040092279 -0.20097263410860849 0 -0.064566778430722005 -0.1899668467895553 0 -0.052530262953744307 -0.18551360121156771 0 -0.039659344593441261 -0.20090712977838049 0 -0.049171036143441697 -0.20095068018059209 0 -0.053965917040092279 -0.20097263410860849 0 -0.049171036143441697 -0.20095068018059209 0 -0.052530262953744307 -0.18551360121156771 0 -0.053965917040092279 -0.20097263410860849 0 -0.049171036143441697 -0.20095068018059209 0 -0.049171036143441697 -0.20095068018059209 0 -0.054685660498906767 -0.208722786400212 0 -0.041055678651922348 -0.2256235604874875 0 -0.053965917040092279 -0.20097263410860849 0 -0.054685660498906767 -0.208722786400212 0 -0.075274492420391248 -0.20107019793555661 0 -0.054685660498906767 -0.208722786400212 0 -0.058782723788501128 -0.22597342721149569 0 -0.066300796797188796 -0.21509277327032089 0 -0.053965917040092279 -0.20097263410860849 0 -0.049171036143441697 -0.20095068018059209 0 -0.054685660498906767 -0.208722786400212 0 -0.053965917040092279 -0.20097263410860849 0 -0.054685660498906767 -0.208722786400212 0 -0.049171036143441697 -0.20095068018059209 0 -0.041055678651922348 -0.2256235604874875 0 -0.02919644603132129 -0.2221986071991269 0 -0.039659344593441261 -0.20090712977838049 0 -0.02919644603132129 -0.2221986071991269 0 -0.02883797433537726 -0.20835292232393379 0 -0.039659344593441261 -0.20090712977838049 0 -0.039659344593441261 -0.20090712977838049 0 -0.049171036143441697 -0.20095068018059209 0 -0.041055678651922348 -0.2256235604874875 0 -0.02919644603132129 -0.2221986071991269 0 -0.039659344593441261 -0.20090712977838049 0 -0.041055678651922348 -0.2256235604874875 0 -0.030857658388656541 -0.2362056796655021 0 -0.02919644603132129 -0.2221986071991269 0 -0.041055678651922348 -0.2256235604874875 0 -0.041055678651922348 -0.2256235604874875 0 -0.058782723788501128 -0.22597342721149569 0 -0.050902643065861071 -0.24349095896983161 0 -0.054685660498906767 -0.208722786400212 0 -0.041055678651922348 -0.2256235604874875 0 -0.058782723788501128 -0.22597342721149569 0 -0.058782723788501128 -0.22597342721149569 0 -0.050902643065861071 -0.24349095896983161 0 -0.077646128541525 -0.24813916513248199 0 -0.032940321160402269 -0.25029644079438251 0 -0.041055678651922348 -0.2256235604874875 0 -0.050902643065861071 -0.24349095896983161 0 -0.032940321160402269 -0.25029644079438251 0 -0.030857658388656541 -0.2362056796655021 0 -0.041055678651922348 -0.2256235604874875 0 -0.032940321160402269 -0.25029644079438251 0 -0.041055678651922348 -0.2256235604874875 0 -0.077646128541525 -0.24813916513248199 0 -0.082279147983734507 -0.22463132376819159 0 -0.088104632666654803 -0.24175912157342011 0 -0.077646128541525 -0.24813916513248199 0 -0.082279147983734507 -0.22463132376819159 0 -0.077646128541525 -0.24813916513248199 0 -0.076460310480956056 -0.22460468153401941 0 -0.058782723788501128 -0.22597342721149569 0 -0.077646128541525 -0.24813916513248199 0 -0.076460310480956056 -0.22460468153401941 0 -0.058782723788501128 -0.22597342721149569 0 -0.076460310480956056 -0.22460468153401941 0 -0.066300796797188796 -0.21509277327032089 0 -0.077646128541525 -0.24813916513248199 0 -0.076460310480956056 -0.22460468153401941 0 -0.082279147983734507 -0.22463132376819159 0 -0.088104632666654803 -0.24175912157342011 0 -0.091210523848666042 -0.22145825259936749 0 -0.096373561920523113 -0.2318247108995648 0 -0.088104632666654803 -0.24175912157342011 0 -0.082279147983734507 -0.22463132376819159 0 -0.091210523848666042 -0.22145825259936749 0 -0.088104632666654803 -0.24175912157342011 0 -0.091210523848666042 -0.22145825259936749 0 -0.082279147983734507 -0.22463132376819159 0 -0.075274492420391248 -0.20107019793555661 0 -0.086912167425944153 -0.20112348240390099 0 -0.082279147983734507 -0.22463132376819159 0 -0.091210523848666042 -0.22145825259936749 0 -0.086912167425944153 -0.20112348240390099 0 -0.091210523848666042 -0.22145825259936749 0 -0.094316415030678002 -0.20115738362531499 0 -0.091210523848666042 -0.22145825259936749 0 -0.086912167425944153 -0.20112348240390099 0 -0.094316415030678002 -0.20115738362531499 0 -0.082279147983734507 -0.22463132376819159 0 -0.086912167425944153 -0.20112348240390099 0 -0.076460310480956056 -0.22460468153401941 0 -0.066300796797188796 -0.21509277327032089 0 -0.075274492420391248 -0.20107019793555661 0 -0.054685660498906767 -0.208722786400212 0 -0.066300796797188796 -0.21509277327032089 0 -0.075274492420391248 -0.20107019793555661 0 -0.076460310480956056 -0.22460468153401941 0 -0.082279147983734507 -0.22463132376819159 0 -0.075274492420391248 -0.20107019793555661 0 -0.076460310480956056 -0.22460468153401941 0 -0.075274492420391248 -0.20107019793555661 0 -0.053965917040092279 -0.20097263410860849 0 -0.075274492420391248 -0.20107019793555661 0 -0.070100108945259781 -0.19629415080948229 0 -0.053965917040092279 -0.20097263410860849 0 -0.070100108945259781 -0.19629415080948229 0 -0.064566778430722005 -0.1899668467895553 0 -0.053965917040092279 -0.20097263410860849 0 -0.075274492420391248 -0.20107019793555661 0 -0.075274492420391248 -0.20107019793555661 0 -0.075113373652805612 -0.19571605274700751 0 -0.079733979793737045 -0.19605477611637959 0 -0.075274492420391248 -0.20107019793555661 0 -0.075113373652805612 -0.19571605274700751 0 -0.070100108945259781 -0.19629415080948229 0 -0.070100108945259781 -0.19629415080948229 0 -0.064566778430722005 -0.1899668467895553 0 -0.075377056328755521 -0.19008301367616509 0 -0.075113373652805612 -0.19571605274700751 0 -0.070100108945259781 -0.19629415080948229 0 -0.075377056328755521 -0.19008301367616509 0 -0.075113373652805612 -0.19571605274700751 0 -0.075377056328755521 -0.19008301367616509 0 -0.079733979793737045 -0.19605477611637959 0 -0.075377056328755521 -0.19008301367616509 0 -0.079733979793737045 -0.19605477611637959 0 -0.089423753135733974 -0.18837975033564619 0 -0.079733979793737045 -0.19605477611637959 0 -0.086912167425944153 -0.20112348240390099 0 -0.089423753135733974 -0.18837975033564619 0 -0.075274492420391248 -0.20107019793555661 0 -0.086912167425944153 -0.20112348240390099 0 -0.075274492420391248 -0.20107019793555661 0 -0.079733979793737045 -0.19605477611637959 0 -0.086912167425944153 -0.20112348240390099 0 -0.086912167425944153 -0.20112348240390099 0 -0.095804572093432044 -0.1914304229002349 0 -0.094316415030678002 -0.20115738362531499 0 -0.086912167425944153 -0.20112348240390099 0 -0.094316415030678002 -0.20115738362531499 0 -0.086912167425944153 -0.20112348240390099 0 -0.089423753135733974 -0.18837975033564619 0 -0.086912167425944153 -0.20112348240390099 0 -0.089423753135733974 -0.18837975033564619 0 -0.095804572093432044 -0.1914304229002349 0 -0.089423753135733974 -0.18837975033564619 0 -0.095804572093432044 -0.1914304229002349 0 -0.090500110278716836 -0.18291833725845449 0 -0.089423753135733974 -0.18837975033564619 0 -0.095804572093432044 -0.1914304229002349 0 -0.095804572093432044 -0.1914304229002349 0 -0.1055884512206339 -0.19610810014299959 0 -0.099028938128851704 -0.1826882615985625 0 -0.095804572093432044 -0.1914304229002349 0 -0.1055884512206339 -0.19610810014299959 0 -0.095804572093432044 -0.1914304229002349 0 -0.099726318276372988 -0.19712665769699661 0 -0.1055884512206339 -0.19610810014299959 0 -0.094316415030678002 -0.20115738362531499 0 -0.099726318276372988 -0.19712665769699661 0 -0.1069539478940484 -0.20121524606085259 0 -0.095804572093432044 -0.1914304229002349 0 -0.094316415030678002 -0.20115738362531499 0 -0.095804572093432044 -0.1914304229002349 0 -0.094316415030678002 -0.20115738362531499 0 -0.099726318276372988 -0.19712665769699661 0 -0.094316415030678002 -0.20115738362531499 0 -0.1069539478940484 -0.20121524606085259 0 -0.1006154135170836 -0.20550376286944089 0 -0.094316415030678002 -0.20115738362531499 0 -0.1069539478940484 -0.20121524606085259 0 -0.099726318276372988 -0.19712665769699661 0 -0.1069539478940484 -0.20121524606085259 0 -0.1055884512206339 -0.19610810014299959 0 -0.1069539478940484 -0.20121524606085259 0 -0.1055884512206339 -0.19610810014299959 0 -0.1143022105317214 -0.19176920984990589 0 -0.1234142843990034 -0.20129061165398179 0 -0.118443644943155 -0.18313735869921541 0 -0.1234142843990034 -0.20129061165398179 0 -0.118443644943155 -0.18313735869921541 0 -0.12836978379805469 -0.19505845874684749 0 -0.1055884512206339 -0.19610810014299959 0 -0.1143022105317214 -0.19176920984990589 0 -0.1095912747331507 -0.1796343382558257 0 -0.1234142843990034 -0.20129061165398179 0 -0.118443644943155 -0.18313735869921541 0 -0.1234142843990034 -0.20129061165398179 0 -0.11636069704563699 -0.20125831597190941 0 -0.12446659453658469 -0.2051337493999616 0 -0.1143022105317214 -0.19176920984990589 0 -0.1234142843990034 -0.20129061165398179 0 -0.11636069704563699 -0.20125831597190941 0 -0.1234142843990034 -0.20129061165398179 0 -0.11636069704563699 -0.20125831597190941 0 -0.1055884512206339 -0.19610810014299959 0 -0.1143022105317214 -0.19176920984990589 0 -0.11636069704563699 -0.20125831597190941 0 -0.1055884512206339 -0.19610810014299959 0 -0.11636069704563699 -0.20125831597190941 0 -0.1069539478940484 -0.20121524606085259 0 -0.11636069704563699 -0.20125831597190941 0 -0.116503442890511 -0.20615462214379501 0 -0.1069539478940484 -0.20121524606085259 0 -0.1055884512206339 -0.19610810014299959 0 -0.11636069704563699 -0.20125831597190941 0 -0.1069539478940484 -0.20121524606085259 0 -0.11636069704563699 -0.20125831597190941 0 -0.1069539478940484 -0.20121524606085259 0 -0.1182325320857732 -0.21701117714245771 0 -0.1146322195844853 -0.229933041338924 0 -0.1069539478940484 -0.20121524606085259 0 -0.1146322195844853 -0.229933041338924 0 -0.12446659453658469 -0.2051337493999616 0 -0.1182325320857732 -0.21701117714245771 0 -0.12964778408632779 -0.2240559515308029 0 -0.1069539478940484 -0.20121524606085259 0 -0.116503442890511 -0.20615462214379501 0 -0.1182325320857732 -0.21701117714245771 0 -0.116503442890511 -0.20615462214379501 0 -0.12446659453658469 -0.2051337493999616 0 -0.1182325320857732 -0.21701117714245771 0 -0.11636069704563699 -0.20125831597190941 0 -0.116503442890511 -0.20615462214379501 0 -0.12446659453658469 -0.2051337493999616 0 -0.11636069704563699 -0.20125831597190941 0 -0.12446659453658469 -0.2051337493999616 0 -0.1234142843990034 -0.20129061165398179 0 -0.12446659453658469 -0.2051337493999616 0 -0.1069539478940484 -0.20121524606085259 0 -0.1039432587622498 -0.21234961129803451 0 -0.1146322195844853 -0.229933041338924 0 -0.091210523848666042 -0.22145825259936749 0 -0.094316415030678002 -0.20115738362531499 0 -0.098742607236989521 -0.21208478243994361 0 -0.1039432587622498 -0.21234961129803451 0 -0.098742607236989521 -0.21208478243994361 0 -0.10362742502627011 -0.2199549018075595 0 -0.1069539478940484 -0.20121524606085259 0 -0.1039432587622498 -0.21234961129803451 0 -0.1006154135170836 -0.20550376286944089 0 -0.1039432587622498 -0.21234961129803451 0 -0.1006154135170836 -0.20550376286944089 0 -0.098742607236989521 -0.21208478243994361 0 -0.094316415030678002 -0.20115738362531499 0 -0.1006154135170836 -0.20550376286944089 0 -0.098742607236989521 -0.21208478243994361 0 -0.091210523848666042 -0.22145825259936749 0 -0.098742607236989521 -0.21208478243994361 0 -0.10362742502627011 -0.2199549018075595 0 -0.096373561920523113 -0.2318247108995648 0 -0.10362742502627011 -0.2199549018075595 0 -0.1025516661405015 -0.24412656761791199 0 -0.1039432587622498 -0.21234961129803451 0 -0.10362742502627011 -0.2199549018075595 0 -0.1146322195844853 -0.229933041338924 0 -0.10362742502627011 -0.2199549018075595 0 -0.1025516661405015 -0.24412656761791199 0 -0.10362742502627011 -0.2199549018075595 0 -0.11057817055071439 -0.23713955200355691 0 -0.1025516661405015 -0.24412656761791199 0 -0.091210523848666042 -0.22145825259936749 0 -0.096373561920523113 -0.2318247108995648 0 -0.10362742502627011 -0.2199549018075595 0 -0.10362742502627011 -0.2199549018075595 0 -0.1146322195844853 -0.229933041338924 0 -0.11057817055071439 -0.23713955200355691 0 -0.1182325320857732 -0.21701117714245771 0 -0.1146322195844853 -0.229933041338924 0 -0.12964778408632779 -0.2240559515308029 0 -0.1146322195844853 -0.229933041338924 0 -0.12594535918601221 -0.23537450645762351 0 -0.12964778408632779 -0.2240559515308029 0 -0.1146322195844853 -0.229933041338924 0 -0.11057817055071439 -0.23713955200355691 0 -0.11992695639240671 -0.24305274461581289 0 -0.1146322195844853 -0.229933041338924 0 -0.11992695639240671 -0.24305274461581289 0 -0.12594535918601221 -0.23537450645762351 0 -0.11992695639240671 -0.24305274461581289 0 -0.12594535918601221 -0.23537450645762351 0 -0.1270777831465402 -0.24161244513161839 0 -0.11057817055071439 -0.23713955200355691 0 -0.11992695639240671 -0.24305274461581289 0 -0.1121525856099083 -0.24863050463757599 0 -0.1183855941197941 -0.25651062511641259 0 -0.11992695639240671 -0.24305274461581289 0 -0.1121525856099083 -0.24863050463757599 0 -0.1097432552782682 -0.2572086698476283 0 -0.1121525856099083 -0.24863050463757599 0 -0.1025516661405015 -0.24412656761791199 0 -0.11057817055071439 -0.23713955200355691 0 -0.1121525856099083 -0.24863050463757599 0 -0.1025516661405015 -0.24412656761791199 0 -0.088104632666654803 -0.24175912157342011 0 -0.096373561920523113 -0.2318247108995648 0 -0.1025516661405015 -0.24412656761791199 0 -0.093680051977193257 -0.25300014610948141 0 -0.088104632666654803 -0.24175912157342011 0 -0.1025516661405015 -0.24412656761791199 0 -0.091208904987890735 -0.14232661368977559 0 -0.087323419063827665 -0.1566704494577609 0 -0.098398678104261977 -0.16921735691638781 0 -0.081276062778159672 -0.14883202435870879 0 -0.08710950077230438 -0.14178266396580899 0 -0.074302444905730333 -0.14290824730771751 0 -0.081276062778159672 -0.14883202435870879 0 -0.091208904987890735 -0.14232661368977559 0 -0.087323419063827665 -0.1566704494577609 0 -0.081276062778159672 -0.14883202435870879 0 -0.08710950077230438 -0.14178266396580899 0 -0.091208904987890735 -0.14232661368977559 0 -0.08710950077230438 -0.14178266396580899 0 -0.091208904987890735 -0.14232661368977559 0 -0.091208904987890735 -0.14232661368977559 0 -0.089131397015513494 -0.13455644729756691 0 -0.089131397015513494 -0.13455644729756691 0 -0.072915517223638954 -0.12670463451369329 0 -0.074302444905730333 -0.14290824730771751 0 -0.08710950077230438 -0.14178266396580899 0 -0.091208904987890735 -0.14232661368977559 0 -0.089131397015513494 -0.13455644729756691 0 -0.08710950077230438 -0.14178266396580899 0 -0.089131397015513494 -0.13455644729756691 0 -0.074302444905730333 -0.14290824730771751 0 -0.089131397015513494 -0.13455644729756691 0 -0.074302444905730333 -0.14290824730771751 0 -0.061100100412547438 -0.13647315015658409 0 -0.072915517223638954 -0.12670463451369329 0 -0.074302444905730333 -0.14290824730771751 0 -0.060928146748241367 -0.123537549367131 0 -0.061100100412547438 -0.13647315015658409 0 -0.072915517223638954 -0.12670463451369329 0 -0.059473492795946999 -0.1512600473178678 0 -0.081276062778159672 -0.14883202435870879 0 -0.074302444905730333 -0.14290824730771751 0 -0.059473492795946999 -0.1512600473178678 0 -0.081276062778159672 -0.14883202435870879 0 -0.078410030384998497 -0.16630580286617139 0 -0.059473492795946999 -0.1512600473178678 0 -0.074302444905730333 -0.14290824730771751 0 -0.059473492795946999 -0.1512600473178678 0 -0.061100100412547438 -0.13647315015658409 0 -0.074302444905730333 -0.14290824730771751 0 -0.061817946007188637 -0.1647032604190713 0 -0.070259181001566293 -0.17921715932508539 0 -0.078410030384998497 -0.16630580286617139 0 -0.059473492795946999 -0.1512600473178678 0 -0.078410030384998497 -0.16630580286617139 0 -0.061817946007188637 -0.1647032604190713 0 -0.059473492795946999 -0.1512600473178678 0 -0.078410030384998497 -0.16630580286617139 0 -0.064566778430722005 -0.1899668467895553 0 -0.075377056328755521 -0.19008301367616509 0 -0.070259181001566293 -0.17921715932508539 0 -0.070259181001566293 -0.17921715932508539 0 -0.08402443889557612 -0.1788939005998389 0 -0.078410030384998497 -0.16630580286617139 0 -0.089423753135733974 -0.18837975033564619 0 -0.070259181001566293 -0.17921715932508539 0 -0.075377056328755521 -0.19008301367616509 0 -0.089423753135733974 -0.18837975033564619 0 -0.070259181001566293 -0.17921715932508539 0 -0.078410030384998497 -0.16630580286617139 0 -0.098398678104261977 -0.16921735691638781 0 -0.097346567974052028 -0.18135155841447259 0 -0.078410030384998497 -0.16630580286617139 0 -0.097346567974052028 -0.18135155841447259 0 -0.08402443889557612 -0.1788939005998389 0 -0.078410030384998497 -0.16630580286617139 0 -0.097346567974052028 -0.18135155841447259 0 -0.089423753135733974 -0.18837975033564619 0 -0.070259181001566293 -0.17921715932508539 0 -0.08402443889557612 -0.1788939005998389 0 -0.089423753135733974 -0.18837975033564619 0 -0.08402443889557612 -0.1788939005998389 0 -0.090500110278716836 -0.18291833725845449 0 -0.08402443889557612 -0.1788939005998389 0 -0.090500110278716836 -0.18291833725845449 0 -0.097346567974052028 -0.18135155841447259 0 -0.089423753135733974 -0.18837975033564619 0 -0.090500110278716836 -0.18291833725845449 0 -0.081276062778159672 -0.14883202435870879 0 -0.078410030384998497 -0.16630580286617139 0 -0.087323419063827665 -0.1566704494577609 0 -0.078410030384998497 -0.16630580286617139 0 -0.087323419063827665 -0.1566704494577609 0 -0.098398678104261977 -0.16921735691638781 0 -0.098398678104261977 -0.16921735691638781 0 -0.1095912747331507 -0.1796343382558257 0 -0.1134730054873082 -0.16498410574444861 0 -0.098398678104261977 -0.16921735691638781 0 -0.1134730054873082 -0.16498410574444861 0 -0.1057127461594554 -0.15566112818699529 0 -0.1055884512206339 -0.19610810014299959 0 -0.098398678104261977 -0.16921735691638781 0 -0.099028938128851704 -0.1826882615985625 0 -0.1055884512206339 -0.19610810014299959 0 -0.098398678104261977 -0.16921735691638781 0 -0.1055884512206339 -0.19610810014299959 0 -0.098398678104261977 -0.16921735691638781 0 -0.1095912747331507 -0.1796343382558257 0 -0.095804572093432044 -0.1914304229002349 0 -0.097346567974052028 -0.18135155841447259 0 -0.099028938128851704 -0.1826882615985625 0 -0.095804572093432044 -0.1914304229002349 0 -0.090500110278716836 -0.18291833725845449 0 -0.097346567974052028 -0.18135155841447259 0 -0.095804572093432044 -0.1914304229002349 0 -0.097346567974052028 -0.18135155841447259 0 -0.097346567974052028 -0.18135155841447259 0 -0.099028938128851704 -0.1826882615985625 0 -0.098398678104261977 -0.16921735691638781 0 -0.097346567974052028 -0.18135155841447259 0 -0.099028938128851704 -0.1826882615985625 0 -0.118443644943155 -0.18313735869921541 0 -0.1134730054873082 -0.16498410574444861 0 -0.1288769000074067 -0.1787922372229141 0 -0.118443644943155 -0.18313735869921541 0 -0.1134730054873082 -0.16498410574444861 0 -0.1095912747331507 -0.1796343382558257 0 -0.118443644943155 -0.18313735869921541 0 -0.1134730054873082 -0.16498410574444861 0 -0.1143022105317214 -0.19176920984990589 0 -0.1095912747331507 -0.1796343382558257 0 -0.118443644943155 -0.18313735869921541 0 -0.1134730054873082 -0.16498410574444861 0 -0.1197703960583608 -0.14611643639736929 0 -0.1290470673658046 -0.1573335562640088 0 -0.1134730054873082 -0.16498410574444861 0 -0.1197703960583608 -0.14611643639736929 0 -0.1057127461594554 -0.15566112818699529 0 -0.091208904987890735 -0.14232661368977559 0 -0.1197703960583608 -0.14611643639736929 0 -0.1055319536065798 -0.13433424813048789 0 -0.091208904987890735 -0.14232661368977559 0 -0.1197703960583608 -0.14611643639736929 0 -0.091208904987890735 -0.14232661368977559 0 -0.098398678104261977 -0.16921735691638781 0 -0.091208904987890735 -0.14232661368977559 0 -0.1197703960583608 -0.14611643639736929 0 -0.1057127461594554 -0.15566112818699529 0 -0.091208904987890735 -0.14232661368977559 0 -0.098398678104261977 -0.16921735691638781 0 -0.1057127461594554 -0.15566112818699529 0 -0.11422347955810171 -0.1204243593602408 0 -0.089131397015513494 -0.13455644729756691 0 -0.1055319536065798 -0.13433424813048789 0 -0.091208904987890735 -0.14232661368977559 0 -0.089131397015513494 -0.13455644729756691 0 -0.1055319536065798 -0.13433424813048789 0 -0.11422347955810171 -0.1204243593602408 0 -0.089131397015513494 -0.13455644729756691 0 -0.11422347955810171 -0.1204243593602408 0 -0.1197703960583608 -0.14611643639736929 0 -0.13445671698849809 -0.1291024538471422 0 -0.11422347955810171 -0.1204243593602408 0 -0.1197703960583608 -0.14611643639736929 0 -0.1055319536065798 -0.13433424813048789 0 -0.1483318871288308 -0.14990625910496369 0 -0.16449988742022109 -0.13664022397910389 0 -0.1531014227808439 -0.1221458571451004 0 -0.13445671698849809 -0.1291024538471422 0 -0.1483318871288308 -0.14990625910496369 0 -0.1531014227808439 -0.1221458571451004 0 -0.1197703960583608 -0.14611643639736929 0 -0.1483318871288308 -0.14990625910496369 0 -0.1197703960583608 -0.14611643639736929 0 -0.13445671698849809 -0.1291024538471422 0 -0.1483318871288308 -0.14990625910496369 0 -0.1197703960583608 -0.14611643639736929 0 -0.1483318871288308 -0.14990625910496369 0 -0.1290470673658046 -0.1573335562640088 0 -0.1134730054873082 -0.16498410574444861 0 -0.13461298078871861 -0.16832742380925381 0 -0.1288769000074067 -0.1787922372229141 0 -0.1134730054873082 -0.16498410574444861 0 -0.1290470673658046 -0.1573335562640088 0 -0.13461298078871861 -0.16832742380925381 0 -0.1483318871288308 -0.14990625910496369 0 -0.1290470673658046 -0.1573335562640088 0 -0.13461298078871861 -0.16832742380925381 0 -0.1288769000074067 -0.1787922372229141 0 -0.13667151748925299 -0.18732448341615179 0 -0.12964513627792831 -0.18854704193980709 0 -0.118443644943155 -0.18313735869921541 0 -0.1288769000074067 -0.1787922372229141 0 -0.12964513627792831 -0.18854704193980709 0 -0.13461298078871861 -0.16832742380925381 0 -0.1288769000074067 -0.1787922372229141 0 -0.13971937495991149 -0.1792470101286355 0 -0.13971937495991149 -0.1792470101286355 0 -0.13667151748925299 -0.18732448341615179 0 -0.14496415935730611 -0.1865433765957375 0 -0.1288769000074067 -0.1787922372229141 0 -0.13971937495991149 -0.1792470101286355 0 -0.13667151748925299 -0.18732448341615179 0 -0.13461298078871861 -0.16832742380925381 0 -0.13971937495991149 -0.1792470101286355 0 -0.15185728900885839 -0.17281716391360821 0 -0.13971937495991149 -0.1792470101286355 0 -0.14496415935730611 -0.1865433765957375 0 -0.15185728900885839 -0.17281716391360821 0 -0.14496415935730611 -0.1865433765957375 0 -0.15185728900885839 -0.17281716391360821 0 -0.15433817598466459 -0.18776234762491931 0 -0.1483318871288308 -0.14990625910496369 0 -0.13461298078871861 -0.16832742380925381 0 -0.15185728900885839 -0.17281716391360821 0 -0.1483318871288308 -0.14990625910496369 0 -0.15185728900885839 -0.17281716391360821 0 -0.1768933781993007 -0.15369608181255809 0 -0.15185728900885839 -0.17281716391360821 0 -0.16517877359736971 -0.18077311964873491 0 -0.1768933781993007 -0.15369608181255809 0 -0.16517877359736971 -0.18077311964873491 0 -0.15433817598466459 -0.18776234762491931 0 -0.16707343948115469 -0.19329854854562631 0 -0.15185728900885839 -0.17281716391360821 0 -0.16517877359736971 -0.18077311964873491 0 -0.15433817598466459 -0.18776234762491931 0 -0.16517877359736971 -0.18077311964873491 0 -0.17993745220376059 -0.17895489523397801 0 -0.16707343948115469 -0.19329854854562631 0 -0.16517877359736971 -0.18077311964873491 0 -0.17993745220376059 -0.17895489523397801 0 -0.1768933781993007 -0.15369608181255809 0 -0.17993745220376059 -0.17895489523397801 0 -0.1768933781993007 -0.15369608181255809 0 -0.19905977422349169 -0.1755558360643551 0 -0.1768933781993007 -0.15369608181255809 0 -0.17856324423929071 -0.13411692648003359 0 -0.16449988742022109 -0.13664022397910389 0 -0.1768933781993007 -0.15369608181255809 0 -0.17856324423929071 -0.13411692648003359 0 -0.1900158864605431 -0.1418606691544825 0 -0.17856324423929071 -0.13411692648003359 0 -0.1912596026832544 -0.12883579632457359 0 -0.1900158864605431 -0.1418606691544825 0 -0.17856324423929071 -0.13411692648003359 0 -0.1912596026832544 -0.12883579632457359 0 -0.18212358698306741 -0.12142770117184561 0 -0.17856324423929071 -0.13411692648003359 0 -0.18212358698306741 -0.12142770117184561 0 -0.16904936396502779 -0.1225698900008125 0 -0.16449988742022109 -0.13664022397910389 0 -0.16904936396502779 -0.1225698900008125 0 -0.1531014227808439 -0.1221458571451004 0 -0.17856324423929071 -0.13411692648003359 0 -0.16449988742022109 -0.13664022397910389 0 -0.16904936396502779 -0.1225698900008125 0 -0.1483318871288308 -0.14990625910496369 0 -0.1768933781993007 -0.15369608181255809 0 -0.1483318871288308 -0.14990625910496369 0 -0.1768933781993007 -0.15369608181255809 0 -0.16449988742022109 -0.13664022397910389 0 -0.15566934165753701 -0.24482136105764621 0 -0.13482897363606841 -0.24297815366164491 0 -0.14564999181442231 -0.22989611270817639 0 -0.15566934165753701 -0.24482136105764621 0 -0.14564999181442231 -0.22989611270817639 0 -0.16429012863802009 -0.23491512272004891 0 -0.15821309250511281 -0.26118480488572993 0 -0.15566934165753701 -0.24482136105764621 0 -0.13482897363606841 -0.24297815366164491 0 -0.1283361407779757 -0.25159171728621699 0 -0.13482897363606841 -0.24297815366164491 0 -0.1310987251445577 -0.2446583467236331 0 -0.1283361407779757 -0.25159171728621699 0 -0.1310987251445577 -0.2446583467236331 0 -0.1270777831465402 -0.24161244513161839 0 -0.1283361407779757 -0.25159171728621699 0 -0.11992695639240671 -0.24305274461581289 0 -0.1270777831465402 -0.24161244513161839 0 -0.13482897363606841 -0.24297815366164491 0 -0.1310987251445577 -0.2446583467236331 0 -0.1270777831465402 -0.24161244513161839 0 -0.13482897363606841 -0.24297815366164491 0 -0.12594535918601221 -0.23537450645762351 0 -0.1270777831465402 -0.24161244513161839 0 -0.13482897363606841 -0.24297815366164491 0 -0.12964778408632779 -0.2240559515308029 0 -0.14564999181442231 -0.22989611270817639 0 -0.13482897363606841 -0.24297815366164491 0 -0.12594535918601221 -0.23537450645762351 0 -0.12964778408632779 -0.2240559515308029 0 -0.13482897363606841 -0.24297815366164491 0 -0.12964778408632779 -0.2240559515308029 0 -0.12964778408632779 -0.2240559515308029 0 -0.14564999181442231 -0.22989611270817639 0 -0.13906082520362789 -0.21424948005767519 0 -0.14564999181442231 -0.22989611270817639 0 -0.1532157355819776 -0.21469763412746851 0 -0.16429012863802009 -0.23491512272004891 0 -0.14564999181442231 -0.22989611270817639 0 -0.1532157355819776 -0.21469763412746851 0 -0.13906082520362789 -0.21424948005767519 0 -0.1532157355819776 -0.21469763412746851 0 -0.1421413425259351 -0.1944801455348881 0 -0.14344356041104711 -0.20138231805780499 0 -0.1532157355819776 -0.21469763412746851 0 -0.1421413425259351 -0.1944801455348881 0 -0.1532157355819776 -0.21469763412746851 0 -0.13906082520362789 -0.21424948005767519 0 -0.14344356041104711 -0.20138231805780499 0 -0.12964778408632779 -0.2240559515308029 0 -0.13906082520362789 -0.21424948005767519 0 -0.12775347419704111 -0.20670520812175669 0 -0.12446659453658469 -0.2051337493999616 0 -0.12964778408632779 -0.2240559515308029 0 -0.12775347419704111 -0.20670520812175669 0 -0.12446659453658469 -0.2051337493999616 0 -0.12964778408632779 -0.2240559515308029 0 -0.1234142843990034 -0.20129061165398179 0 -0.12775347419704111 -0.20670520812175669 0 -0.1342433848347403 -0.2059710501757869 0 -0.1234142843990034 -0.20129061165398179 0 -0.12446659453658469 -0.2051337493999616 0 -0.12775347419704111 -0.20670520812175669 0 -0.12446659453658469 -0.2051337493999616 0 -0.12775347419704111 -0.20670520812175669 0 -0.13906082520362789 -0.21424948005767519 0 -0.12775347419704111 -0.20670520812175669 0 -0.1342433848347403 -0.2059710501757869 0 -0.13906082520362789 -0.21424948005767519 0 -0.1342433848347403 -0.2059710501757869 0 -0.14344356041104711 -0.20138231805780499 0 -0.13448747671815081 -0.19705371152474219 0 -0.1421413425259351 -0.1944801455348881 0 -0.14344356041104711 -0.20138231805780499 0 -0.1234142843990034 -0.20129061165398179 0 -0.1342433848347403 -0.2059710501757869 0 -0.14344356041104711 -0.20138231805780499 0 -0.1234142843990034 -0.20129061165398179 0 -0.13448747671815081 -0.19705371152474219 0 -0.14344356041104711 -0.20138231805780499 0 -0.1234142843990034 -0.20129061165398179 0 -0.14344356041104711 -0.20138231805780499 0 -0.1234142843990034 -0.20129061165398179 0 -0.13448747671815081 -0.19705371152474219 0 -0.12836978379805469 -0.19505845874684749 0 -0.118443644943155 -0.18313735869921541 0 -0.12836978379805469 -0.19505845874684749 0 -0.12964513627792831 -0.18854704193980709 0 -0.12836978379805469 -0.19505845874684749 0 -0.12964513627792831 -0.18854704193980709 0 -0.1350684124567138 -0.19305702363018909 0 -0.13448747671815081 -0.19705371152474219 0 -0.12836978379805469 -0.19505845874684749 0 -0.1350684124567138 -0.19305702363018909 0 -0.13667151748925299 -0.18732448341615179 0 -0.12964513627792831 -0.18854704193980709 0 -0.1350684124567138 -0.19305702363018909 0 -0.13448747671815081 -0.19705371152474219 0 -0.1350684124567138 -0.19305702363018909 0 -0.1421413425259351 -0.1944801455348881 0 -0.13667151748925299 -0.18732448341615179 0 -0.1350684124567138 -0.19305702363018909 0 -0.1421413425259351 -0.1944801455348881 0 -0.1532157355819776 -0.21469763412746851 0 -0.1421413425259351 -0.1944801455348881 0 -0.15666351948114629 -0.1995899832452937 0 -0.13667151748925299 -0.18732448341615179 0 -0.14496415935730611 -0.1865433765957375 0 -0.1421413425259351 -0.1944801455348881 0 -0.14496415935730611 -0.1865433765957375 0 -0.1421413425259351 -0.1944801455348881 0 -0.15433817598466459 -0.18776234762491931 0 -0.1421413425259351 -0.1944801455348881 0 -0.15433817598466459 -0.18776234762491931 0 -0.15666351948114629 -0.1995899832452937 0 -0.15433817598466459 -0.18776234762491931 0 -0.15666351948114629 -0.1995899832452937 0 -0.16707343948115469 -0.19329854854562631 0 -0.15666351948114629 -0.1995899832452937 0 -0.16707343948115469 -0.19329854854562631 0 -0.16732224548458891 -0.20842311436722119 0 -0.16707343948115469 -0.19329854854562631 0 -0.17975878066101059 -0.20042989322362739 0 -0.16732224548458891 -0.20842311436722119 0 -0.17993745220376059 -0.17895489523397801 0 -0.17975878066101059 -0.20042989322362739 0 -0.19266467917721081 -0.1936257676085566 0 -0.17993745220376059 -0.17895489523397801 0 -0.16707343948115469 -0.19329854854562631 0 -0.17975878066101059 -0.20042989322362739 0 -0.17975878066101059 -0.20042989322362739 0 -0.18070391625864071 -0.21863984915545301 0 -0.19253239785726259 -0.2093467412910768 0 -0.17975878066101059 -0.20042989322362739 0 -0.18070391625864071 -0.21863984915545301 0 -0.16732224548458891 -0.20842311436722119 0 -0.1532157355819776 -0.21469763412746851 0 -0.15666351948114629 -0.1995899832452937 0 -0.16732224548458891 -0.20842311436722119 0 -0.1532157355819776 -0.21469763412746851 0 -0.16732224548458891 -0.20842311436722119 0 -0.16429012863802009 -0.23491512272004891 0 -0.1532157355819776 -0.21469763412746851 0 -0.16429012863802009 -0.23491512272004891 0 -0.18070391625864071 -0.21863984915545301 0 -0.16732224548458891 -0.20842311436722119 0 -0.16429012863802009 -0.23491512272004891 0 -0.18070391625864071 -0.21863984915545301 0 -0.18601458812680871 -0.23629827425452701 0 -0.16429012863802009 -0.23491512272004891 0 -0.18070391625864071 -0.21863984915545301 0 -0.18601458812680871 -0.23629827425452701 0 -0.19270158591305361 -0.22296204550849591 0 -0.17536452169406261 -0.25513261131262932 0 -0.18601458812680871 -0.23629827425452701 0 -0.1971211098569064 -0.2485562144643311 0 -0.17536452169406261 -0.25513261131262932 0 -0.18601458812680871 -0.23629827425452701 0 -0.16429012863802009 -0.23491512272004891 0 -0.17536452169406261 -0.25513261131262932 0 -0.16429012863802009 -0.23491512272004891 0 -0.17536452169406261 -0.25513261131262932 0 -0.15566934165753701 -0.24482136105764621 0 -0.16429012863802009 -0.23491512272004891 0 -0.2040044810152343 -0.23377727090047351 0 -0.22181314593257209 -0.22697511150882529 0 -0.22025275826160279 -0.2471257797298928 0 -0.1971211098569064 -0.2485562144643311 0 -0.2040044810152343 -0.23377727090047351 0 -0.22025275826160279 -0.2471257797298928 0 -0.18601458812680871 -0.23629827425452701 0 -0.1971211098569064 -0.2485562144643311 0 -0.2040044810152343 -0.23377727090047351 0 -0.18601458812680871 -0.23629827425452701 0 -0.19270158591305361 -0.22296204550849591 0 -0.2040044810152343 -0.23377727090047351 0 -0.19270158591305361 -0.22296204550849591 0 -0.20646661184779291 -0.2209366033754204 0 -0.2040044810152343 -0.23377727090047351 0 -0.20646661184779291 -0.2209366033754204 0 -0.2040044810152343 -0.23377727090047351 0 -0.22181314593257209 -0.22697511150882529 0 -0.20646661184779291 -0.2209366033754204 0 -0.22181314593257209 -0.22697511150882529 0 -0.20646661184779291 -0.2209366033754204 0 -0.21966781828876961 -0.21222017746694699 0 -0.22181314593257209 -0.22697511150882529 0 -0.20646661184779291 -0.2209366033754204 0 -0.20611948272011121 -0.20304611138236681 0 -0.21966781828876961 -0.21222017746694699 0 -0.20611948272011121 -0.20304611138236681 0 -0.21897926871800019 -0.19669337567287831 0 -0.21966781828876961 -0.21222017746694699 0 -0.20646661184779291 -0.2209366033754204 0 -0.19253239785726259 -0.2093467412910768 0 -0.20611948272011121 -0.20304611138236681 0 -0.19270158591305361 -0.22296204550849591 0 -0.20646661184779291 -0.2209366033754204 0 -0.19253239785726259 -0.2093467412910768 0 -0.18070391625864071 -0.21863984915545301 0 -0.19270158591305361 -0.22296204550849591 0 -0.19253239785726259 -0.2093467412910768 0 -0.19266467917721081 -0.1936257676085566 0 -0.20611948272011121 -0.20304611138236681 0 -0.2083219237785757 -0.1873320277690235 0 -0.17975878066101059 -0.20042989322362739 0 -0.19253239785726259 -0.2093467412910768 0 -0.19266467917721081 -0.1936257676085566 0 -0.19253239785726259 -0.2093467412910768 0 -0.19266467917721081 -0.1936257676085566 0 -0.20611948272011121 -0.20304611138236681 0 -0.20611948272011121 -0.20304611138236681 0 -0.21897926871800019 -0.19669337567287831 0 -0.2083219237785757 -0.1873320277690235 0 -0.21897926871800019 -0.19669337567287831 0 -0.23230424975577199 -0.20503470769258789 0 -0.23313215691775949 -0.18450877018534409 0 -0.2448317244682672 -0.19494017856122331 0 -0.23230424975577199 -0.20503470769258789 0 -0.23313215691775949 -0.18450877018534409 0 -0.2448317244682672 -0.19494017856122331 0 -0.24405101732391901 -0.2151790953022156 0 -0.23230424975577199 -0.20503470769258789 0 -0.2448317244682672 -0.19494017856122331 0 -0.24405101732391901 -0.2151790953022156 0 -0.24405101732391901 -0.2151790953022156 0 -0.23230424975577199 -0.20503470769258789 0 -0.23232415075836929 -0.22063515516960361 0 -0.23230424975577199 -0.20503470769258789 0 -0.21966781828876961 -0.21222017746694699 0 -0.23232415075836929 -0.22063515516960361 0 -0.21897926871800019 -0.19669337567287831 0 -0.23230424975577199 -0.20503470769258789 0 -0.21966781828876961 -0.21222017746694699 0 -0.21966781828876961 -0.21222017746694699 0 -0.22181314593257209 -0.22697511150882529 0 -0.23232415075836929 -0.22063515516960361 0 -0.22181314593257209 -0.22697511150882529 0 -0.23232415075836929 -0.22063515516960361 0 -0.2371596800173508 -0.23301361964223161 0 -0.22181314593257209 -0.22697511150882529 0 -0.2371596800173508 -0.23301361964223161 0 -0.24405101732391901 -0.2151790953022156 0 -0.24327031017957049 -0.23541801204320789 0 -0.24405101732391901 -0.2151790953022156 0 -0.24327031017957049 -0.23541801204320789 0 -0.25588924886857078 -0.22577026586403889 0 -0.24405101732391901 -0.2151790953022156 0 -0.23232415075836929 -0.22063515516960361 0 -0.23916826383476761 -0.23133706037317611 0 -0.24405101732391901 -0.2151790953022156 0 -0.23916826383476761 -0.23133706037317611 0 -0.24327031017957049 -0.23541801204320789 0 -0.23916826383476761 -0.23133706037317611 0 -0.2371596800173508 -0.23301361964223161 0 -0.24327031017957049 -0.23541801204320789 0 -0.2371596800173508 -0.23301361964223161 0 -0.24327031017957049 -0.23541801204320789 0 -0.23232415075836929 -0.22063515516960361 0 -0.23916826383476761 -0.23133706037317611 0 -0.2371596800173508 -0.23301361964223161 0 -0.23916826383476761 -0.23133706037317611 0 -0.2371596800173508 -0.23301361964223161 0 -0.24233717299785959 -0.25960849866204011 0 -0.24327031017957049 -0.23541801204320789 0 -0.23442911476228809 -0.24683612341654529 0 -0.24233717299785959 -0.25960849866204011 0 -0.24327031017957049 -0.23541801204320789 0 -0.25018128361314113 -0.24746468840205441 0 -0.2371596800173508 -0.23301361964223161 0 -0.24327031017957049 -0.23541801204320789 0 -0.23442911476228809 -0.24683612341654529 0 -0.24233717299785959 -0.25960849866204011 0 -0.24327031017957049 -0.23541801204320789 0 -0.2371596800173508 -0.23301361964223161 0 -0.22025275826160279 -0.2471257797298928 0 -0.2371596800173508 -0.23301361964223161 0 -0.23442911476228809 -0.24683612341654529 0 -0.22025275826160279 -0.2471257797298928 0 -0.22181314593257209 -0.22697511150882529 0 -0.2371596800173508 -0.23301361964223161 0 -0.22025275826160279 -0.2471257797298928 0 -0.21260261997950849 -0.1372892749024191 0 -0.20545486926977061 -0.1574859045201529 0 -0.21260261997950849 -0.1372892749024191 0 -0.20545486926977061 -0.1574859045201529 0 -0.22601880180638709 -0.14497793796819641 0 -0.21260261997950849 -0.1372892749024191 0 -0.20085213665154589 -0.13643960324073179 0 -0.20545486926977061 -0.1574859045201529 0 -0.21260261997950849 -0.1372892749024191 0 -0.2197503706892443 -0.1170926452846846 0 -0.20366324778073339 -0.1226314006036201 0 -0.21260261997950849 -0.1372892749024191 0 -0.2197503706892443 -0.1170926452846846 0 -0.21260261997950849 -0.1372892749024191 0 -0.20085213665154589 -0.13643960324073179 0 -0.20366324778073339 -0.1226314006036201 0 -0.20085213665154589 -0.13643960324073179 0 -0.1912596026832544 -0.12883579632457359 0 -0.20366324778073339 -0.1226314006036201 0 -0.20085213665154589 -0.13643960324073179 0 -0.1912596026832544 -0.12883579632457359 0 -0.1900158864605431 -0.1418606691544825 0 -0.1768933781993007 -0.15369608181255809 0 -0.1900158864605431 -0.1418606691544825 0 -0.20545486926977061 -0.1574859045201529 0 -0.1768933781993007 -0.15369608181255809 0 -0.20545486926977061 -0.1574859045201529 0 -0.20085213665154589 -0.13643960324073179 0 -0.1900158864605431 -0.1418606691544825 0 -0.20545486926977061 -0.1574859045201529 0 -0.1768933781993007 -0.15369608181255809 0 -0.19905977422349169 -0.1755558360643551 0 -0.20545486926977061 -0.1574859045201529 0 -0.19905977422349169 -0.1755558360643551 0 -0.20545486926977061 -0.1574859045201529 0 -0.19266467917721081 -0.1936257676085566 0 -0.19905977422349169 -0.1755558360643551 0 -0.19266467917721081 -0.1936257676085566 0 -0.19905977422349169 -0.1755558360643551 0 -0.2083219237785757 -0.1873320277690235 0 -0.17993745220376059 -0.17895489523397801 0 -0.19266467917721081 -0.1936257676085566 0 -0.19905977422349169 -0.1755558360643551 0 -0.21897926871800019 -0.19669337567287831 0 -0.2083219237785757 -0.1873320277690235 0 -0.21860002285518379 -0.17692462022396371 0 -0.19905977422349169 -0.1755558360643551 0 -0.2083219237785757 -0.1873320277690235 0 -0.21860002285518379 -0.17692462022396371 0 -0.19905977422349169 -0.1755558360643551 0 -0.21860002285518379 -0.17692462022396371 0 -0.20545486926977061 -0.1574859045201529 0 -0.21860002285518379 -0.17692462022396371 0 -0.20545486926977061 -0.1574859045201529 0 -0.2334194436613071 -0.16119652238585741 0 -0.20545486926977061 -0.1574859045201529 0 -0.2334194436613071 -0.16119652238585741 0 -0.21860002285518379 -0.17692462022396371 0 -0.2334194436613071 -0.16119652238585741 0 -0.23313215691775949 -0.18450877018534409 0 -0.21897926871800019 -0.19669337567287831 0 -0.21860002285518379 -0.17692462022396371 0 -0.23313215691775949 -0.18450877018534409 0 -0.2448317244682672 -0.19494017856122331 0 -0.24561243161261531 -0.1747012618202311 0 -0.2448317244682672 -0.19494017856122331 0 -0.23313215691775949 -0.18450877018534409 0 -0.24561243161261531 -0.1747012618202311 0 -0.2334194436613071 -0.16119652238585741 0 -0.23313215691775949 -0.18450877018534409 0 -0.24561243161261531 -0.1747012618202311 0 -0.2334194436613071 -0.16119652238585741 0 -0.24768759332024501 -0.15288591991307249 0 -0.26138401805284373 -0.16490714025156239 0 -0.2334194436613071 -0.16119652238585741 0 -0.24561243161261531 -0.1747012618202311 0 -0.26138401805284373 -0.16490714025156239 0 -0.2334194436613071 -0.16119652238585741 0 -0.26138401805284373 -0.16490714025156239 0 -0.24768759332024501 -0.15288591991307249 0 -0.24035206963199701 -0.13773520297616959 0 -0.25066558347885931 -0.13251764995053431 0 -0.23716828236838119 -0.14842713651880179 0 -0.22601880180638709 -0.14497793796819641 0 -0.24035206963199701 -0.13773520297616959 0 -0.24768759332024501 -0.15288591991307249 0 -0.23716828236838119 -0.14842713651880179 0 -0.24035206963199701 -0.13773520297616959 0 -0.2334194436613071 -0.16119652238585741 0 -0.24768759332024501 -0.15288591991307249 0 -0.23716828236838119 -0.14842713651880179 0 -0.20545486926977061 -0.1574859045201529 0 -0.2334194436613071 -0.16119652238585741 0 -0.22601880180638709 -0.14497793796819641 0 -0.2334194436613071 -0.16119652238585741 0 -0.23716828236838119 -0.14842713651880179 0 -0.22601880180638709 -0.14497793796819641 0 -0.21260261997950849 -0.1372892749024191 0 -0.22701037204806629 -0.12800517972509859 0 -0.2197503706892443 -0.1170926452846846 0 -0.22601880180638709 -0.14497793796819641 0 -0.22701037204806629 -0.12800517972509859 0 -0.24035206963199701 -0.13773520297616959 0 -0.21260261997950849 -0.1372892749024191 0 -0.22601880180638709 -0.14497793796819641 0 -0.22701037204806629 -0.12800517972509859 0 -0.22701037204806629 -0.12800517972509859 0 -0.23833475363582929 -0.12699719077821001 0 -0.24035206963199701 -0.13773520297616959 0 -0.23833475363582929 -0.12699719077821001 0 -0.24035206963199701 -0.13773520297616959 0 -0.25066558347885931 -0.13251764995053431 0 -0.23833475363582929 -0.12699719077821001 0 -0.2466021228926524 -0.1215603100838341 0 -0.25066558347885931 -0.13251764995053431 0 -0.2466021228926524 -0.1215603100838341 0 -0.23420880670407421 -0.115344861449812 0 -0.25028307647261949 -0.1119170655065333 0 -0.23833475363582929 -0.12699719077821001 0 -0.2466021228926524 -0.1215603100838341 0 -0.23420880670407421 -0.115344861449812 0 -0.23975108867161321 -0.096745383671773488 0 -0.23420880670407421 -0.115344861449812 0 -0.25028307647261949 -0.1119170655065333 0 -0.23975108867161321 -0.096745383671773488 0 -0.25028307647261949 -0.1119170655065333 0 -0.25454071313255938 -0.097810231909066098 0 -0.23975108867161321 -0.096745383671773488 0 -0.22550089202944229 -0.1008440162637169 0 -0.23125141336964011 -0.084595387242749231 0 -0.23975108867161321 -0.096745383671773488 0 -0.22550089202944229 -0.1008440162637169 0 -0.23420880670407421 -0.115344861449812 0 -0.22550089202944229 -0.1008440162637169 0 -0.23125141336964011 -0.084595387242749231 0 -0.20770402821161371 -0.098985744105056478 0 -0.22550089202944229 -0.1008440162637169 0 -0.2197503706892443 -0.1170926452846846 0 -0.22550089202944229 -0.1008440162637169 0 -0.2197503706892443 -0.1170926452846846 0 -0.23420880670407421 -0.115344861449812 0 -0.22701037204806629 -0.12800517972509859 0 -0.2197503706892443 -0.1170926452846846 0 -0.22701037204806629 -0.12800517972509859 0 -0.2197503706892443 -0.1170926452846846 0 -0.23420880670407421 -0.115344861449812 0 -0.22701037204806629 -0.12800517972509859 0 -0.23833475363582929 -0.12699719077821001 0 -0.23420880670407421 -0.115344861449812 0 -0.24621250417125429 -0.067242688607955695 0 -0.2359213828018043 -0.071399957410672343 0 -0.2460442741291925 -0.056732515276429897 0 -0.24101683233652779 -0.07862751170581421 0 -0.252754029676304 -0.071454636367457428 0 -0.24621250417125429 -0.067242688607955695 0 -0.24101683233652779 -0.07862751170581421 0 -0.252754029676304 -0.071454636367457428 0 -0.2359213828018043 -0.071399957410672343 0 -0.24101683233652779 -0.07862751170581421 0 -0.24621250417125429 -0.067242688607955695 0 -0.2359213828018043 -0.071399957410672343 0 -0.24101683233652779 -0.07862751170581421 0 -0.24101683233652779 -0.07862751170581421 0 -0.25454071313255938 -0.097810231909066098 0 -0.23975108867161321 -0.096745383671773488 0 -0.24101683233652779 -0.07862751170581421 0 -0.25454071313255938 -0.097810231909066098 0 -0.23975108867161321 -0.096745383671773488 0 -0.24101683233652779 -0.07862751170581421 0 -0.23125141336964011 -0.084595387242749231 0 -0.24101683233652779 -0.07862751170581421 0 -0.23125141336964011 -0.084595387242749231 0 -0.2359213828018043 -0.071399957410672343 0 -0.24101683233652779 -0.07862751170581421 0 -0.23125141336964011 -0.084595387242749231 0 -0.23125141336964011 -0.084595387242749231 0 -0.2244703125416819 -0.072794076224461268 0 -0.21310247649950159 -0.079773441579648038 0 -0.23125141336964011 -0.084595387242749231 0 -0.20770402821161371 -0.098985744105056478 0 -0.22550089202944229 -0.1008440162637169 0 -0.23125141336964011 -0.084595387242749231 0 -0.2359213828018043 -0.071399957410672343 0 -0.2235514570548072 -0.053854045248439182 0 -0.2244703125416819 -0.072794076224461268 0 -0.21482267827762841 -0.069082647852091478 0 -0.2235514570548072 -0.053854045248439182 0 -0.2359213828018043 -0.071399957410672343 0 -0.2244703125416819 -0.072794076224461268 0 -0.2235514570548072 -0.053854045248439182 0 -0.2359213828018043 -0.071399957410672343 0 -0.23125141336964011 -0.084595387242749231 0 -0.2244703125416819 -0.072794076224461268 0 -0.2359213828018043 -0.071399957410672343 0 -0.23125141336964011 -0.084595387242749231 0 -0.20472732395068391 -0.070425609547595483 0 -0.21310247649950159 -0.079773441579648038 0 -0.1942101978544846 -0.078703118630565005 0 -0.21482267827762841 -0.069082647852091478 0 -0.20472732395068391 -0.070425609547595483 0 -0.20783277774853701 -0.056374475910446593 0 -0.2244703125416819 -0.072794076224461268 0 -0.21482267827762841 -0.069082647852091478 0 -0.21310247649950159 -0.079773441579648038 0 -0.21482267827762841 -0.069082647852091478 0 -0.20472732395068391 -0.070425609547595483 0 -0.21310247649950159 -0.079773441579648038 0 -0.23125141336964011 -0.084595387242749231 0 -0.21310247649950159 -0.079773441579648038 0 -0.20770402821161371 -0.098985744105056478 0 -0.21310247649950159 -0.079773441579648038 0 -0.1942101978544846 -0.078703118630565005 0 -0.20770402821161371 -0.098985744105056478 0 -0.1942101978544846 -0.078703118630565005 0 -0.20770402821161371 -0.098985744105056478 0 -0.1942101978544846 -0.078703118630565005 0 -0.20770402821161371 -0.098985744105056478 0 -0.19331927689223261 -0.094690670375105077 0 -0.1942101978544846 -0.078703118630565005 0 -0.19331927689223261 -0.094690670375105077 0 -0.1804061946459036 -0.0975656506999769 0 -0.1942101978544846 -0.078703118630565005 0 -0.1807163674973549 -0.058420493156073998 0 -0.19569491766720151 -0.061370611856350392 0 -0.20472732395068391 -0.070425609547595483 0 -0.1942101978544846 -0.078703118630565005 0 -0.19569491766720151 -0.061370611856350392 0 -0.20472732395068391 -0.070425609547595483 0 -0.19569491766720151 -0.061370611856350392 0 -0.20783277774853701 -0.056374475910446593 0 -0.2197503706892443 -0.1170926452846846 0 -0.20366324778073339 -0.1226314006036201 0 -0.20770402821161371 -0.098985744105056478 0 -0.22550089202944229 -0.1008440162637169 0 -0.2197503706892443 -0.1170926452846846 0 -0.20770402821161371 -0.098985744105056478 0 -0.2197503706892443 -0.1170926452846846 0 -0.20770402821161371 -0.098985744105056478 0 -0.20770402821161371 -0.098985744105056478 0 -0.19331927689223261 -0.094690670375105077 0 -0.18400427859456039 -0.1134692144457318 0 -0.20770402821161371 -0.098985744105056478 0 -0.18400427859456039 -0.1134692144457318 0 -0.20770402821161371 -0.098985744105056478 0 -0.19170728544238649 -0.1194909919475228 0 -0.18400427859456039 -0.1134692144457318 0 -0.20366324778073339 -0.1226314006036201 0 -0.20770402821161371 -0.098985744105056478 0 -0.19170728544238649 -0.1194909919475228 0 -0.1912596026832544 -0.12883579632457359 0 -0.20366324778073339 -0.1226314006036201 0 -0.19170728544238649 -0.1194909919475228 0 -0.1912596026832544 -0.12883579632457359 0 -0.19170728544238649 -0.1194909919475228 0 -0.18212358698306741 -0.12142770117184561 0 -0.18212358698306741 -0.12142770117184561 0 -0.18400427859456039 -0.1134692144457318 0 -0.1804061946459036 -0.0975656506999769 0 -0.18212358698306741 -0.12142770117184561 0 -0.17231042801981861 -0.11010941660198729 0 -0.1804061946459036 -0.0975656506999769 0 -0.19170728544238649 -0.1194909919475228 0 -0.18212358698306741 -0.12142770117184561 0 -0.18400427859456039 -0.1134692144457318 0 -0.18212358698306741 -0.12142770117184561 0 -0.1804061946459036 -0.0975656506999769 0 -0.18212358698306741 -0.12142770117184561 0 -0.17231042801981861 -0.11010941660198729 0 -0.16904936396502779 -0.1225698900008125 0 -0.16904936396502779 -0.1225698900008125 0 -0.16303186383997401 -0.11054530689275879 0 -0.1531014227808439 -0.1221458571451004 0 -0.16303186383997401 -0.11054530689275879 0 -0.1531014227808439 -0.1221458571451004 0 -0.15302467802266631 -0.099964594768007481 0 -0.17231042801981861 -0.11010941660198729 0 -0.16904936396502779 -0.1225698900008125 0 -0.16303186383997401 -0.11054530689275879 0 -0.16694113066512001 -0.098438534244542714 0 -0.1583311292500037 -0.086155785580523059 0 -0.15302467802266631 -0.099964594768007481 0 -0.16303186383997401 -0.11054530689275879 0 -0.16694113066512001 -0.098438534244542714 0 -0.15302467802266631 -0.099964594768007481 0 -0.17231042801981861 -0.11010941660198729 0 -0.16303186383997401 -0.11054530689275879 0 -0.16694113066512001 -0.098438534244542714 0 -0.16694113066512001 -0.098438534244542714 0 -0.1804061946459036 -0.0975656506999769 0 -0.1699979234477183 -0.086164615643162509 0 -0.19331927689223261 -0.094690670375105077 0 -0.18400427859456039 -0.1134692144457318 0 -0.1804061946459036 -0.0975656506999769 0 -0.17231042801981861 -0.11010941660198729 0 -0.16694113066512001 -0.098438534244542714 0 -0.1804061946459036 -0.0975656506999769 0 -0.1942101978544846 -0.078703118630565005 0 -0.1804061946459036 -0.0975656506999769 0 -0.17868880230873979 -0.073703600228108263 0 -0.1804061946459036 -0.0975656506999769 0 -0.17868880230873979 -0.073703600228108263 0 -0.1804061946459036 -0.0975656506999769 0 -0.17868880230873979 -0.073703600228108263 0 -0.1699979234477183 -0.086164615643162509 0 -0.1942101978544846 -0.078703118630565005 0 -0.17868880230873979 -0.073703600228108263 0 -0.1807163674973549 -0.058420493156073998 0 -0.1942101978544846 -0.078703118630565005 0 -0.1807163674973549 -0.058420493156073998 0 -0.17868880230873979 -0.073703600228108263 0 -0.16456215259537851 -0.07423447470758808 0 -0.1687761726195266 -0.062055246708151823 0 -0.16456215259537851 -0.07423447470758808 0 -0.1601060057786266 -0.063048208625582775 0 -0.1687761726195266 -0.062055246708151823 0 -0.17868880230873979 -0.073703600228108263 0 -0.16456215259537851 -0.07423447470758808 0 -0.1699979234477183 -0.086164615643162509 0 -0.16456215259537851 -0.07423447470758808 0 -0.1601060057786266 -0.063048208625582775 0 -0.15147288216765581 -0.074279391460000108 0 -0.16694113066512001 -0.098438534244542714 0 -0.1699979234477183 -0.086164615643162509 0 -0.1583311292500037 -0.086155785580523059 0 -0.16456215259537851 -0.07423447470758808 0 -0.1699979234477183 -0.086164615643162509 0 -0.1583311292500037 -0.086155785580523059 0 -0.16456215259537851 -0.07423447470758808 0 -0.1583311292500037 -0.086155785580523059 0 -0.15147288216765581 -0.074279391460000108 0 -0.1583311292500037 -0.086155785580523059 0 -0.1406917504718985 -0.083199174386461974 0 -0.15147288216765581 -0.074279391460000108 0 -0.1583311292500037 -0.086155785580523059 0 -0.1406917504718985 -0.083199174386461974 0 -0.15302467802266631 -0.099964594768007481 0 -0.1601060057786266 -0.063048208625582775 0 -0.15147288216765581 -0.074279391460000108 0 -0.14916280428309589 -0.053864076679432472 0 -0.15147288216765581 -0.074279391460000108 0 -0.13891648936515211 -0.064472249171247775 0 -0.14916280428309589 -0.053864076679432472 0 -0.1406917504718985 -0.083199174386461974 0 -0.15147288216765581 -0.074279391460000108 0 -0.13891648936515211 -0.064472249171247775 0 -0.12197003300458489 -0.067133964797042034 0 -0.1406917504718985 -0.083199174386461974 0 -0.13891648936515211 -0.064472249171247775 0 -0.121811479392537 -0.084095963505499416 0 -0.12197003300458489 -0.067133964797042034 0 -0.1406917504718985 -0.083199174386461974 0 -0.121811479392537 -0.084095963505499416 0 -0.1406917504718985 -0.083199174386461974 0 -0.13931556210068971 -0.10629227142291391 0 -0.11605893441195141 -0.10185107539240761 0 -0.121811479392537 -0.084095963505499416 0 -0.13931556210068971 -0.10629227142291391 0 -0.11422347955810171 -0.1204243593602408 0 -0.13931556210068971 -0.10629227142291391 0 -0.11422347955810171 -0.1204243593602408 0 -0.13445671698849809 -0.1291024538471422 0 -0.13931556210068971 -0.10629227142291391 0 -0.13445671698849809 -0.1291024538471422 0 -0.13931556210068971 -0.10629227142291391 0 -0.1531014227808439 -0.1221458571451004 0 -0.13931556210068971 -0.10629227142291391 0 -0.1531014227808439 -0.1221458571451004 0 -0.15302467802266631 -0.099964594768007481 0 -0.1406917504718985 -0.083199174386461974 0 -0.13931556210068971 -0.10629227142291391 0 -0.15302467802266631 -0.099964594768007481 0 -0.14079925107272581 -0.02334449083682992 0 -0.15349169287978739 -0.035208883327978051 0 -0.15939520176274349 -0.015620398581745401 0 -0.14079925107272581 -0.02334449083682992 0 -0.14275634286812811 -0.006203461430080404 0 -0.15939520176274349 -0.015620398581745401 0 -0.14275634286812811 -0.006203461430080404 0 -0.15939520176274349 -0.015620398581745401 0 -0.15796117991031841 -0.00029962151665172479 0 -0.14079925107272581 -0.02334449083682992 0 -0.14275634286812811 -0.006203461430080404 0 -0.1278640484455188 -0.012334690821253821 0 -0.14275634286812811 -0.006203461430080404 0 -0.1278640484455188 -0.012334690821253821 0 -0.1273771369441013 0.0023450629401116992 0 -0.12411398995058071 -0.026208981462584841 0 -0.14079925107272581 -0.02334449083682992 0 -0.1278640484455188 -0.012334690821253821 0 -0.12411398995058071 -0.026208981462584841 0 -0.14079925107272581 -0.02334449083682992 0 -0.13241258759658719 -0.044529255409706578 0 -0.13891648936515211 -0.064472249171247775 0 -0.13241258759658719 -0.044529255409706578 0 -0.14916280428309589 -0.053864076679432472 0 -0.12197003300458489 -0.067133964797042034 0 -0.13891648936515211 -0.064472249171247775 0 -0.13241258759658719 -0.044529255409706578 0 -0.14079925107272581 -0.02334449083682992 0 -0.13241258759658719 -0.044529255409706578 0 -0.15349169287978739 -0.035208883327978051 0 -0.14916280428309589 -0.053864076679432472 0 -0.15349169287978739 -0.035208883327978051 0 -0.16249228466986629 -0.048723367468166891 0 -0.13241258759658719 -0.044529255409706578 0 -0.14916280428309589 -0.053864076679432472 0 -0.15349169287978739 -0.035208883327978051 0 -0.15349169287978739 -0.035208883327978051 0 -0.16249228466986629 -0.048723367468166891 0 -0.17525401763441231 -0.025979499284370731 0 -0.16249228466986629 -0.048723367468166891 0 -0.17697140997157609 -0.049841549756239563 0 -0.17525401763441231 -0.025979499284370731 0 -0.1601060057786266 -0.063048208625582775 0 -0.14916280428309589 -0.053864076679432472 0 -0.16249228466986629 -0.048723367468166891 0 -0.1601060057786266 -0.063048208625582775 0 -0.16249228466986629 -0.048723367468166891 0 -0.1687761726195266 -0.062055246708151823 0 -0.16249228466986629 -0.048723367468166891 0 -0.1687761726195266 -0.062055246708151823 0 -0.17697140997157609 -0.049841549756239563 0 -0.17868880230873979 -0.073703600228108263 0 -0.17697140997157609 -0.049841549756239563 0 -0.17868880230873979 -0.073703600228108263 0 -0.17697140997157609 -0.049841549756239563 0 -0.1807163674973549 -0.058420493156073998 0 -0.17868880230873979 -0.073703600228108263 0 -0.1687761726195266 -0.062055246708151823 0 -0.17697140997157609 -0.049841549756239563 0 -0.17697140997157609 -0.049841549756239563 0 -0.187061179232277 -0.050545000195171969 0 -0.1807163674973549 -0.058420493156073998 0 -0.17697140997157609 -0.049841549756239563 0 -0.17525401763441231 -0.025979499284370731 0 -0.17697140997157609 -0.049841549756239563 0 -0.1844822702309237 -0.037308153316215523 0 -0.17525401763441231 -0.025979499284370731 0 -0.17697140997157609 -0.049841549756239563 0 -0.187061179232277 -0.050545000195171969 0 -0.1844822702309237 -0.037308153316215523 0 -0.1844822702309237 -0.037308153316215523 0 -0.17525401763441231 -0.025979499284370731 0 -0.19881160556081021 -0.01876222092397466 0 -0.17525401763441231 -0.025979499284370731 0 -0.17967452986780849 -0.0030086181600807401 0 -0.19881160556081021 -0.01876222092397466 0 -0.15349169287978739 -0.035208883327978051 0 -0.17525401763441231 -0.025979499284370731 0 -0.15939520176274349 -0.015620398581745401 0 -0.17525401763441231 -0.025979499284370731 0 -0.15939520176274349 -0.015620398581745401 0 -0.17967452986780849 -0.0030086181600807401 0 -0.15939520176274349 -0.015620398581745401 0 -0.15796117991031841 -0.00029962151665172479 0 -0.17967452986780849 -0.0030086181600807401 0 -0.17967452986780849 -0.0030086181600807401 0 -0.19881160556081021 -0.01876222092397466 0 -0.20680301002479959 -0.0020434230711429339 0 -0.1844822702309237 -0.037308153316215523 0 -0.19881160556081021 -0.01876222092397466 0 -0.19797908447346779 -0.034540675054344362 0 -0.19881160556081021 -0.01876222092397466 0 -0.19797908447346779 -0.034540675054344362 0 -0.2111815313078087 -0.036308133086206937 0 -0.19881160556081021 -0.01876222092397466 0 -0.2111815313078087 -0.036308133086206937 0 -0.19881160556081021 -0.01876222092397466 0 -0.2111815313078087 -0.036308133086206937 0 -0.21993326537292579 -0.016570742696256829 0 -0.19881160556081021 -0.01876222092397466 0 -0.20680301002479959 -0.0020434230711429339 0 -0.21993326537292579 -0.016570742696256829 0 -0.20680301002479959 -0.0020434230711429339 0 -0.21993326537292579 -0.016570742696256829 0 -0.22850437187820721 0.00061554774341724197 0 -0.187061179232277 -0.050545000195171969 0 -0.1807163674973549 -0.058420493156073998 0 -0.19569491766720151 -0.061370611856350392 0 -0.187061179232277 -0.050545000195171969 0 -0.19569491766720151 -0.061370611856350392 0 -0.1974409307943287 -0.045784192890980333 0 -0.19569491766720151 -0.061370611856350392 0 -0.1974409307943287 -0.045784192890980333 0 -0.20783277774853701 -0.056374475910446593 0 -0.187061179232277 -0.050545000195171969 0 -0.1844822702309237 -0.037308153316215523 0 -0.1974409307943287 -0.045784192890980333 0 -0.1844822702309237 -0.037308153316215523 0 -0.1974409307943287 -0.045784192890980333 0 -0.19797908447346779 -0.034540675054344362 0 -0.1974409307943287 -0.045784192890980333 0 -0.19797908447346779 -0.034540675054344362 0 -0.2111815313078087 -0.036308133086206937 0 -0.1974409307943287 -0.045784192890980333 0 -0.2111815313078087 -0.036308133086206937 0 -0.20783277774853701 -0.056374475910446593 0 -0.2111815313078087 -0.036308133086206937 0 -0.2235514570548072 -0.053854045248439182 0 -0.21482267827762841 -0.069082647852091478 0 -0.20783277774853701 -0.056374475910446593 0 -0.2235514570548072 -0.053854045248439182 0 -0.2111815313078087 -0.036308133086206937 0 -0.20783277774853701 -0.056374475910446593 0 -0.2235514570548072 -0.053854045248439182 0 -0.2359213828018043 -0.071399957410672343 0 -0.2235514570548072 -0.053854045248439182 0 -0.23385975453729951 -0.05448316257834377 0 -0.2235514570548072 -0.053854045248439182 0 -0.23385975453729951 -0.05448316257834377 0 -0.23195090370150159 -0.044148728843497582 0 -0.2111815313078087 -0.036308133086206937 0 -0.23195090370150159 -0.044148728843497582 0 -0.2330954250503823 -0.030605580137893669 0 -0.2111815313078087 -0.036308133086206937 0 -0.2235514570548072 -0.053854045248439182 0 -0.23195090370150159 -0.044148728843497582 0 -0.2440152745910836 -0.048529918810766987 0 -0.25210916638036568 -0.025659880210862549 0 -0.23195090370150159 -0.044148728843497582 0 -0.2440152745910836 -0.048529918810766987 0 -0.2330954250503823 -0.030605580137893669 0 -0.2440152745910836 -0.048529918810766987 0 -0.2330954250503823 -0.030605580137893669 0 -0.25210916638036568 -0.025659880210862549 0 -0.2359213828018043 -0.071399957410672343 0 -0.2440152745910836 -0.048529918810766987 0 -0.2460442741291925 -0.056732515276429897 0 -0.2359213828018043 -0.071399957410672343 0 -0.2440152745910836 -0.048529918810766987 0 -0.2359213828018043 -0.071399957410672343 0 -0.23385975453729951 -0.05448316257834377 0 -0.2440152745910836 -0.048529918810766987 0 -0.23385975453729951 -0.05448316257834377 0 -0.23195090370150159 -0.044148728843497582 0 -0.2440152745910836 -0.048529918810766987 0 -0.2440152745910836 -0.048529918810766987 0 -0.2460442741291925 -0.056732515276429897 0 -0.25586239660102372 -0.042106716883949957 0 -0.21993326537292579 -0.016570742696256829 0 -0.2409228609234593 -0.01213331886889705 0 -0.22850437187820721 0.00061554774341724197 0 -0.21993326537292579 -0.016570742696256829 0 -0.2330954250503823 -0.030605580137893669 0 -0.2409228609234593 -0.01213331886889705 0 -0.2111815313078087 -0.036308133086206937 0 -0.21993326537292579 -0.016570742696256829 0 -0.2330954250503823 -0.030605580137893669 0 -0.2330954250503823 -0.030605580137893669 0 -0.2409228609234593 -0.01213331886889705 0 -0.25210916638036568 -0.025659880210862549 0 -0.2409228609234593 -0.01213331886889705 0 -0.25132042997239518 0.0027134119798401068 0 -0.22850437187820721 0.00061554774341724197 0 -0.2409228609234593 -0.01213331886889705 0 -0.26431478179583978 -0.01186883573312463 0 -0.25132042997239518 0.0027134119798401068 0 -0.2409228609234593 -0.01213331886889705 0 -0.26431478179583978 -0.01186883573312463 0 -0.25210916638036568 -0.025659880210862549 0 -0.26431478179583978 -0.01186883573312463 0 -0.25210916638036568 -0.025659880210862549 0 -0.26885463380623098 -0.032431385670777198 0 -0.26431478179583978 -0.01186883573312463 0 -0.28272693982295583 -0.022072801118422261 0 -0.26885463380623098 -0.032431385670777198 0 -0.26431478179583978 -0.01186883573312463 0 -0.2820771903446922 -0.0013122005201030101 0 -0.28272693982295583 -0.022072801118422261 0 -0.26431478179583978 -0.01186883573312463 0 -0.2820771903446922 -0.0013122005201030101 0 -0.26646431581863778 0.01029557754540468 0 -0.2820771903446922 -0.0013122005201030101 0 -0.29531588189047731 -0.01459302740547606 0 -0.28272693982295583 -0.022072801118422261 0 -0.2820771903446922 -0.0013122005201030101 0 -0.29531588189047731 -0.01459302740547606 0 -0.30047775033007851 -0.00039401612408775783 0 -0.28272693982295583 -0.022072801118422261 0 -0.29548818451705972 -0.026431314805352931 0 -0.29006158744840338 -0.043009214960059237 0 -0.29531588189047731 -0.01459302740547606 0 -0.28272693982295583 -0.022072801118422261 0 -0.29548818451705972 -0.026431314805352931 0 -0.30546101391149699 -0.021623392358951481 0 -0.31536924438116293 -0.015921951660718081 0 -0.31269309410946189 -0.035953378537937578 0 -0.29531588189047731 -0.01459302740547606 0 -0.29548818451705972 -0.026431314805352931 0 -0.30546101391149699 -0.021623392358951481 0 -0.29548818451705972 -0.026431314805352931 0 -0.30546101391149699 -0.021623392358951481 0 -0.30306546886548719 -0.032455918975325043 0 -0.30546101391149699 -0.021623392358951481 0 -0.31269309410946189 -0.035953378537937578 0 -0.30546101391149699 -0.021623392358951481 0 -0.30306546886548719 -0.032455918975325043 0 -0.31269309410946189 -0.035953378537937578 0 -0.30546101391149699 -0.021623392358951481 0 -0.30702321298661528 -0.0098616365840560535 0 -0.31536924438116293 -0.015921951660718081 0 -0.30702321298661528 -0.0098616365840560535 0 -0.30047775033007851 -0.00039401612408775783 0 -0.31849217441985911 0.0032242046289520012 0 -0.29531588189047731 -0.01459302740547606 0 -0.30702321298661528 -0.0098616365840560535 0 -0.30047775033007851 -0.00039401612408775783 0 -0.29531588189047731 -0.01459302740547606 0 -0.30546101391149699 -0.021623392358951481 0 -0.30702321298661528 -0.0098616365840560535 0 -0.30785263576887473 -0.062005008750064983 0 -0.31269309410946189 -0.035953378537937578 0 -0.30785263576887473 -0.062005008750064983 0 -0.29006158744840338 -0.043009214960059237 0 -0.31269309410946189 -0.035953378537937578 0 -0.30306546886548719 -0.032455918975325043 0 -0.29006158744840338 -0.043009214960059237 0 -0.31269309410946189 -0.035953378537937578 0 -0.29006158744840338 -0.043009214960059237 0 -0.31269309410946189 -0.035953378537937578 0 -0.29548818451705972 -0.026431314805352931 0 -0.30306546886548719 -0.032455918975325043 0 -0.29006158744840338 -0.043009214960059237 0 -0.30785263576887473 -0.062005008750064983 0 -0.29006158744840338 -0.043009214960059237 0 -0.29043964680931811 -0.063340758069959313 0 -0.29006158744840338 -0.043009214960059237 0 -0.27571433008302992 -0.061323808156972907 0 -0.29043964680931811 -0.063340758069959313 0 -0.27571433008302992 -0.061323808156972907 0 -0.26805293078879788 -0.049870865118244581 0 -0.25908974683711639 -0.062912752445689821 0 -0.29006158744840338 -0.043009214960059237 0 -0.27571433008302992 -0.061323808156972907 0 -0.26805293078879788 -0.049870865118244581 0 -0.28272693982295583 -0.022072801118422261 0 -0.29006158744840338 -0.043009214960059237 0 -0.26885463380623098 -0.032431385670777198 0 -0.29006158744840338 -0.043009214960059237 0 -0.26805293078879788 -0.049870865118244581 0 -0.29006158744840338 -0.043009214960059237 0 -0.26805293078879788 -0.049870865118244581 0 -0.26885463380623098 -0.032431385670777198 0 -0.2440152745910836 -0.048529918810766987 0 -0.25210916638036568 -0.025659880210862549 0 -0.25586239660102372 -0.042106716883949957 0 -0.26805293078879788 -0.049870865118244581 0 -0.26885463380623098 -0.032431385670777198 0 -0.25586239660102372 -0.042106716883949957 0 -0.25210916638036568 -0.025659880210862549 0 -0.26885463380623098 -0.032431385670777198 0 -0.25586239660102372 -0.042106716883949957 0 -0.2460442741291925 -0.056732515276429897 0 -0.26805293078879788 -0.049870865118244581 0 -0.2460442741291925 -0.056732515276429897 0 -0.26805293078879788 -0.049870865118244581 0 -0.25908974683711639 -0.062912752445689821 0 -0.2460442741291925 -0.056732515276429897 0 -0.26805293078879788 -0.049870865118244581 0 -0.25586239660102372 -0.042106716883949957 0 -0.24621250417125429 -0.067242688607955695 0 -0.2460442741291925 -0.056732515276429897 0 -0.25908974683711639 -0.062912752445689821 0 -0.24621250417125429 -0.067242688607955695 0 -0.25908974683711639 -0.062912752445689821 0 -0.252754029676304 -0.071454636367457428 0 -0.24101683233652779 -0.07862751170581421 0 -0.252754029676304 -0.071454636367457428 0 -0.26402766811367417 -0.083484384069295273 0 -0.25908974683711639 -0.062912752445689821 0 -0.252754029676304 -0.071454636367457428 0 -0.26621243399467659 -0.070844567870559746 0 -0.252754029676304 -0.071454636367457428 0 -0.26402766811367417 -0.083484384069295273 0 -0.26621243399467659 -0.070844567870559746 0 -0.24101683233652779 -0.07862751170581421 0 -0.26402766811367417 -0.083484384069295273 0 -0.25454071313255938 -0.097810231909066098 0 -0.26402766811367417 -0.083484384069295273 0 -0.27094601368544552 -0.10060299140421709 0 -0.28369928052750421 -0.089996057638050242 0 -0.26402766811367417 -0.083484384069295273 0 -0.27947639526325851 -0.075047258313383283 0 -0.28369928052750421 -0.089996057638050242 0 -0.27571433008302992 -0.061323808156972907 0 -0.25908974683711639 -0.062912752445689821 0 -0.26621243399467659 -0.070844567870559746 0 -0.27571433008302992 -0.061323808156972907 0 -0.27947639526325851 -0.075047258313383283 0 -0.26621243399467659 -0.070844567870559746 0 -0.26402766811367417 -0.083484384069295273 0 -0.27947639526325851 -0.075047258313383283 0 -0.26621243399467659 -0.070844567870559746 0 -0.25700205454408459 -0.1228995308742117 0 -0.25028307647261949 -0.1119170655065333 0 -0.26806459392859111 -0.11699295211231781 0 -0.25700205454408459 -0.1228995308742117 0 -0.26806459392859111 -0.11699295211231781 0 -0.26633673802341562 -0.13121143084146969 0 -0.2466021228926524 -0.1215603100838341 0 -0.25700205454408459 -0.1228995308742117 0 -0.25028307647261949 -0.1119170655065333 0 -0.25454071313255938 -0.097810231909066098 0 -0.27094601368544552 -0.10060299140421709 0 -0.26806459392859111 -0.11699295211231781 0 -0.25028307647261949 -0.1119170655065333 0 -0.25454071313255938 -0.097810231909066098 0 -0.26806459392859111 -0.11699295211231781 0 -0.25454071313255938 -0.097810231909066098 0 -0.26806459392859111 -0.11699295211231781 0 -0.26402766811367417 -0.083484384069295273 0 -0.25454071313255938 -0.097810231909066098 0 -0.27094601368544552 -0.10060299140421709 0 -0.27094601368544552 -0.10060299140421709 0 -0.28498588272658609 -0.10953694176986691 0 -0.28369928052750421 -0.089996057638050242 0 -0.27094601368544552 -0.10060299140421709 0 -0.26806459392859111 -0.11699295211231781 0 -0.28498588272658609 -0.10953694176986691 0 -0.26806459392859111 -0.11699295211231781 0 -0.28498588272658609 -0.10953694176986691 0 -0.26633673802341562 -0.13121143084146969 0 -0.28498588272658609 -0.10953694176986691 0 -0.26633673802341562 -0.13121143084146969 0 -0.28390483366507108 -0.12795146285425149 0 -0.28498588272658609 -0.10953694176986691 0 -0.26633673802341562 -0.13121143084146969 0 -0.28498588272658609 -0.10953694176986691 0 -0.29939047470698632 -0.1138850881088251 0 -0.28390483366507108 -0.12795146285425149 0 -0.28498588272658609 -0.10953694176986691 0 -0.29939047470698632 -0.1138850881088251 0 -0.30363502742975002 -0.087862452698258112 0 -0.28498588272658609 -0.10953694176986691 0 -0.28369928052750421 -0.089996057638050242 0 -0.30363502742975002 -0.087862452698258112 0 -0.28498588272658609 -0.10953694176986691 0 -0.30363502742975002 -0.087862452698258112 0 -0.31112038415555038 -0.105912916312301 0 -0.30363502742975002 -0.087862452698258112 0 -0.31872509099925939 -0.09489525911115787 0 -0.29939047470698632 -0.1138850881088251 0 -0.30363502742975002 -0.087862452698258112 0 -0.31112038415555038 -0.105912916312301 0 -0.29939047470698632 -0.1138850881088251 0 -0.30363502742975002 -0.087862452698258112 0 -0.31112038415555038 -0.105912916312301 0 -0.29939047470698632 -0.1138850881088251 0 -0.3108150907057583 -0.123289039988229 0 -0.27571433008302992 -0.061323808156972907 0 -0.27947639526325851 -0.075047258313383283 0 -0.29043964680931811 -0.063340758069959313 0 -0.27947639526325851 -0.075047258313383283 0 -0.29326350469267087 -0.075637034816957854 0 -0.29043964680931811 -0.063340758069959313 0 -0.27947639526325851 -0.075047258313383283 0 -0.29326350469267087 -0.075637034816957854 0 -0.28369928052750421 -0.089996057638050242 0 -0.29326350469267087 -0.075637034816957854 0 -0.28369928052750421 -0.089996057638050242 0 -0.30363502742975002 -0.087862452698258112 0 -0.30363502742975002 -0.087862452698258112 0 -0.3147457864693044 -0.074949258596716542 0 -0.31872509099925939 -0.09489525911115787 0 -0.30363502742975002 -0.087862452698258112 0 -0.3147457864693044 -0.074949258596716542 0 -0.30785263576887473 -0.062005008750064983 0 -0.29326350469267087 -0.075637034816957854 0 -0.30363502742975002 -0.087862452698258112 0 -0.30785263576887473 -0.062005008750064983 0 -0.30363502742975002 -0.087862452698258112 0 -0.3147457864693044 -0.074949258596716542 0 -0.30785263576887473 -0.062005008750064983 0 -0.29326350469267087 -0.075637034816957854 0 -0.29043964680931811 -0.063340758069959313 0 -0.30785263576887473 -0.062005008750064983 0 -0.30363502742975002 -0.087862452698258112 0 -0.3147457864693044 -0.074949258596716542 0 -0.3258565455088529 -0.062036064495169851 0 -0.3147457864693044 -0.074949258596716542 0 -0.33306166037992252 -0.0763126202985034 0 -0.3258565455088529 -0.062036064495169851 0 -0.30785263576887473 -0.062005008750064983 0 -0.3147457864693044 -0.074949258596716542 0 -0.3258565455088529 -0.062036064495169851 0 -0.3147457864693044 -0.074949258596716542 0 -0.32890001459834822 -0.087516828956376788 0 -0.31872509099925939 -0.09489525911115787 0 -0.3147457864693044 -0.074949258596716542 0 -0.32890001459834822 -0.087516828956376788 0 -0.33306166037992252 -0.0763126202985034 0 -0.32890001459834822 -0.087516828956376788 0 -0.34026677525099192 -0.090589176101837157 0 -0.33306166037992252 -0.0763126202985034 0 -0.34026677525099192 -0.090589176101837157 0 -0.33306166037992252 -0.0763126202985034 0 -0.34026677525099192 -0.090589176101837157 0 -0.33306166037992252 -0.0763126202985034 0 -0.34512097989852569 -0.077376017677512551 0 -0.3363426704622316 -0.065040097883454634 0 -0.33306166037992252 -0.0763126202985034 0 -0.34512097989852569 -0.077376017677512551 0 -0.3363426704622316 -0.065040097883454634 0 -0.34775082305034588 -0.06364522302323769 0 -0.34512097989852569 -0.077376017677512551 0 -0.33306166037992252 -0.0763126202985034 0 -0.3258565455088529 -0.062036064495169851 0 -0.3363426704622316 -0.065040097883454634 0 -0.33306166037992252 -0.0763126202985034 0 -0.3258565455088529 -0.062036064495169851 0 -0.31112038415555038 -0.105912916312301 0 -0.3108150907057583 -0.123289039988229 0 -0.32269556115348802 -0.1134475374517785 0 -0.32269556115348802 -0.1134475374517785 0 -0.33213803149032362 -0.1206207689722909 0 -0.32288905220234743 -0.1288405143651869 0 -0.3108150907057583 -0.123289039988229 0 -0.32269556115348802 -0.1134475374517785 0 -0.32288905220234743 -0.1288405143651869 0 -0.32269556115348802 -0.1134475374517785 0 -0.31872509099925939 -0.09489525911115787 0 -0.33360553934550968 -0.1041906416325506 0 -0.31112038415555038 -0.105912916312301 0 -0.32269556115348802 -0.1134475374517785 0 -0.31872509099925939 -0.09489525911115787 0 -0.32890001459834822 -0.087516828956376788 0 -0.31872509099925939 -0.09489525911115787 0 -0.33360553934550968 -0.1041906416325506 0 -0.3434725512788051 -0.1026137903417853 0 -0.33360553934550968 -0.1041906416325506 0 -0.3466874303271234 -0.11958926053505441 0 -0.32890001459834822 -0.087516828956376788 0 -0.34026677525099192 -0.090589176101837157 0 -0.33360553934550968 -0.1041906416325506 0 -0.34026677525099192 -0.090589176101837157 0 -0.3434725512788051 -0.1026137903417853 0 -0.33360553934550968 -0.1041906416325506 0 -0.33360553934550968 -0.1041906416325506 0 -0.33213803149032362 -0.1206207689722909 0 -0.3466874303271234 -0.11958926053505441 0 -0.32269556115348802 -0.1134475374517785 0 -0.33360553934550968 -0.1041906416325506 0 -0.33213803149032362 -0.1206207689722909 0 -0.3466874303271234 -0.11958926053505441 0 -0.36980343247362518 -0.1100922289949047 0 -0.35999293180258313 -0.1258522389537349 0 -0.3466874303271234 -0.11958926053505441 0 -0.35333046019159542 -0.096086083097699004 0 -0.36980343247362518 -0.1100922289949047 0 -0.3434725512788051 -0.1026137903417853 0 -0.3466874303271234 -0.11958926053505441 0 -0.35333046019159542 -0.096086083097699004 0 -0.3466874303271234 -0.11958926053505441 0 -0.35333046019159542 -0.096086083097699004 0 -0.34026677525099192 -0.090589176101837157 0 -0.3434725512788051 -0.1026137903417853 0 -0.35333046019159542 -0.096086083097699004 0 -0.35333046019159542 -0.096086083097699004 0 -0.36980343247362518 -0.1100922289949047 0 -0.37347114863240299 -0.089088331268139143 0 -0.36980343247362518 -0.1100922289949047 0 -0.35999293180258313 -0.1258522389537349 0 -0.37152802352755399 -0.13164580699010159 0 -0.36980343247362518 -0.1100922289949047 0 -0.37152802352755399 -0.13164580699010159 0 -0.38235470820745771 -0.123978498660336 0 -0.34775082305034588 -0.06364522302323769 0 -0.35997349005606738 -0.07258290566034345 0 -0.36099236519079719 -0.058965157594587259 0 -0.34775082305034588 -0.06364522302323769 0 -0.34512097989852569 -0.077376017677512551 0 -0.35997349005606738 -0.07258290566034345 0 -0.35333046019159542 -0.096086083097699004 0 -0.35997349005606738 -0.07258290566034345 0 -0.35333046019159542 -0.096086083097699004 0 -0.34512097989852569 -0.077376017677512551 0 -0.35997349005606738 -0.07258290566034345 0 -0.34026677525099192 -0.090589176101837157 0 -0.35333046019159542 -0.096086083097699004 0 -0.34512097989852569 -0.077376017677512551 0 -0.35333046019159542 -0.096086083097699004 0 -0.37347114863240299 -0.089088331268139143 0 -0.35997349005606738 -0.07258290566034345 0 -0.37347114863240299 -0.089088331268139143 0 -0.35997349005606738 -0.07258290566034345 0 -0.37513495807632252 -0.068027960422620465 0 -0.35997349005606738 -0.07258290566034345 0 -0.36099236519079719 -0.058965157594587259 0 -0.37513495807632252 -0.068027960422620465 0 -0.37357085562444819 -0.050327950541553881 0 -0.36099236519079719 -0.058965157594587259 0 -0.37513495807632252 -0.068027960422620465 0 -0.37357085562444819 -0.050327950541553881 0 -0.36080282922430701 -0.047544586661118063 0 -0.36099236519079719 -0.058965157594587259 0 -0.34775082305034588 -0.06364522302323769 0 -0.36099236519079719 -0.058965157594587259 0 -0.34872123511329239 -0.051662319258650009 0 -0.36080282922430701 -0.047544586661118063 0 -0.36099236519079719 -0.058965157594587259 0 -0.34872123511329239 -0.051662319258650009 0 -0.34775082305034588 -0.06364522302323769 0 -0.34872123511329239 -0.051662319258650009 0 -0.33906118872719399 -0.055758100993783748 0 -0.35023980363822049 -0.040197400203048239 0 -0.3638826905141766 -0.035463803005797899 0 -0.34258176142245139 -0.029723406047678591 0 -0.35023980363822049 -0.040197400203048239 0 -0.34258176142245139 -0.029723406047678591 0 -0.35023980363822049 -0.040197400203048239 0 -0.34258176142245139 -0.029723406047678591 0 -0.33960488145915169 -0.038902248398748569 0 -0.34872123511329239 -0.051662319258650009 0 -0.35023980363822049 -0.040197400203048239 0 -0.33950963895876157 -0.046563850177851397 0 -0.36080282922430701 -0.047544586661118063 0 -0.35023980363822049 -0.040197400203048239 0 -0.3638826905141766 -0.035463803005797899 0 -0.36080282922430701 -0.047544586661118063 0 -0.34872123511329239 -0.051662319258650009 0 -0.35023980363822049 -0.040197400203048239 0 -0.37357085562444819 -0.050327950541553881 0 -0.3638826905141766 -0.035463803005797899 0 -0.38712728366555788 -0.02974425569958293 0 -0.37357085562444819 -0.050327950541553881 0 -0.36080282922430701 -0.047544586661118063 0 -0.3638826905141766 -0.035463803005797899 0 -0.3638826905141766 -0.035463803005797899 0 -0.36897360951007507 -0.015245218881805699 0 -0.38712728366555788 -0.02974425569958293 0 -0.36897360951007507 -0.015245218881805699 0 -0.38465333842141641 -0.0066435457767305304 0 -0.36979036210562988 0.0025511841975563729 0 -0.36897360951007507 -0.015245218881805699 0 -0.35319748844548088 -0.0026450940697062141 0 -0.36979036210562988 0.0025511841975563729 0 -0.36897360951007507 -0.015245218881805699 0 -0.35319748844548088 -0.0026450940697062141 0 -0.36897360951007507 -0.015245218881805699 0 -0.35319748844548088 -0.0026450940697062141 0 -0.34557514790129729 -0.01385186480739395 0 -0.35319748844548088 -0.0026450940697062141 0 -0.34557514790129729 -0.01385186480739395 0 -0.33742136738088668 0.0099550307423931228 0 -0.36897360951007507 -0.015245218881805699 0 -0.34557514790129729 -0.01385186480739395 0 -0.34258176142245139 -0.029723406047678591 0 -0.3638826905141766 -0.035463803005797899 0 -0.36897360951007507 -0.015245218881805699 0 -0.34258176142245139 -0.029723406047678591 0 -0.36897360951007507 -0.015245218881805699 0 -0.34258176142245139 -0.029723406047678591 0 -0.34258176142245139 -0.029723406047678591 0 -0.33053696792115572 -0.013249600709362951 0 -0.34557514790129729 -0.01385186480739395 0 -0.34258176142245139 -0.029723406047678591 0 -0.33053696792115572 -0.013249600709362951 0 -0.34258176142245139 -0.029723406047678591 0 -0.33123792958382192 -0.02655418191443467 0 -0.33053696792115572 -0.013249600709362951 0 -0.33123792958382192 -0.02655418191443467 0 -0.33053696792115572 -0.013249600709362951 0 -0.32518110448499649 -0.02265309324021984 0 -0.33123792958382192 -0.02655418191443467 0 -0.32494971957893121 -0.032132124138264453 0 -0.33294009451157502 -0.035012685436647553 0 -0.34258176142245139 -0.029723406047678591 0 -0.33123792958382192 -0.02655418191443467 0 -0.33294009451157502 -0.035012685436647553 0 -0.33053696792115572 -0.013249600709362951 0 -0.31849217441985911 0.0032242046289520012 0 -0.33742136738088668 0.0099550307423931228 0 -0.34557514790129729 -0.01385186480739395 0 -0.33053696792115572 -0.013249600709362951 0 -0.33742136738088668 0.0099550307423931228 0 -0.30702321298661528 -0.0098616365840560535 0 -0.31536924438116293 -0.015921951660718081 0 -0.31849217441985911 0.0032242046289520012 0 -0.31536924438116293 -0.015921951660718081 0 -0.31849217441985911 0.0032242046289520012 0 -0.33053696792115572 -0.013249600709362951 0 -0.31849217441985911 0.0032242046289520012 0 -0.33053696792115572 -0.013249600709362951 0 -0.31536924438116293 -0.015921951660718081 0 -0.31849217441985911 0.0032242046289520012 0 -0.31536924438116293 -0.015921951660718081 0 -0.31269309410946189 -0.035953378537937578 0 -0.31536924438116293 -0.015921951660718081 0 -0.3196636581113782 -0.026330909640423061 0 -0.31269309410946189 -0.035953378537937578 0 -0.33123792958382192 -0.02655418191443467 0 -0.32518110448499649 -0.02265309324021984 0 -0.32494971957893121 -0.032132124138264453 0 -0.32518110448499649 -0.02265309324021984 0 -0.3196636581113782 -0.026330909640423061 0 -0.32494971957893121 -0.032132124138264453 0 -0.33053696792115572 -0.013249600709362951 0 -0.32518110448499649 -0.02265309324021984 0 -0.31536924438116293 -0.015921951660718081 0 -0.32518110448499649 -0.02265309324021984 0 -0.31536924438116293 -0.015921951660718081 0 -0.3196636581113782 -0.026330909640423061 0 -0.31269309410946189 -0.035953378537937578 0 -0.32494971957893121 -0.032132124138264453 0 -0.3196636581113782 -0.026330909640423061 0 -0.31269309410946189 -0.035953378537937578 0 -0.32494971957893121 -0.032132124138264453 0 -0.32589239144387999 -0.038804272667940308 0 -0.32494971957893121 -0.032132124138264453 0 -0.33294009451157502 -0.035012685436647553 0 -0.31269309410946189 -0.035953378537937578 0 -0.32589239144387999 -0.038804272667940308 0 -0.32494971957893121 -0.032132124138264453 0 -0.31269309410946189 -0.035953378537937578 0 -0.32589239144387999 -0.038804272667940308 0 -0.32612594025468172 -0.0479092750983348 0 -0.31269309410946189 -0.035953378537937578 0 -0.3258565455088529 -0.062036064495169851 0 -0.32612594025468172 -0.0479092750983348 0 -0.30785263576887473 -0.062005008750064983 0 -0.31269309410946189 -0.035953378537937578 0 -0.3258565455088529 -0.062036064495169851 0 -0.31269309410946189 -0.035953378537937578 0 -0.3258565455088529 -0.062036064495169851 0 -0.3258565455088529 -0.062036064495169851 0 -0.32612594025468172 -0.0479092750983348 0 -0.32948021068586231 -0.057824552786275359 0 -0.3258565455088529 -0.062036064495169851 0 -0.32948021068586231 -0.057824552786275359 0 -0.33273312926745618 -0.050000536382928867 0 -0.32948021068586231 -0.057824552786275359 0 -0.33906118872719399 -0.055758100993783748 0 -0.32612594025468172 -0.0479092750983348 0 -0.33273312926745618 -0.050000536382928867 0 -0.32948021068586231 -0.057824552786275359 0 -0.32612594025468172 -0.0479092750983348 0 -0.33273312926745618 -0.050000536382928867 0 -0.33275310876475001 -0.043013900128517107 0 -0.3363426704622316 -0.065040097883454634 0 -0.32948021068586231 -0.057824552786275359 0 -0.33906118872719399 -0.055758100993783748 0 -0.3363426704622316 -0.065040097883454634 0 -0.3258565455088529 -0.062036064495169851 0 -0.32948021068586231 -0.057824552786275359 0 -0.3363426704622316 -0.065040097883454634 0 -0.34775082305034588 -0.06364522302323769 0 -0.33906118872719399 -0.055758100993783748 0 -0.34872123511329239 -0.051662319258650009 0 -0.33906118872719399 -0.055758100993783748 0 -0.33950963895876157 -0.046563850177851397 0 -0.33273312926745618 -0.050000536382928867 0 -0.33906118872719399 -0.055758100993783748 0 -0.33950963895876157 -0.046563850177851397 0 -0.35023980363822049 -0.040197400203048239 0 -0.33950963895876157 -0.046563850177851397 0 -0.33960488145915169 -0.038902248398748569 0 -0.33950963895876157 -0.046563850177851397 0 -0.33960488145915169 -0.038902248398748569 0 -0.33275310876475001 -0.043013900128517107 0 -0.34258176142245139 -0.029723406047678591 0 -0.33294009451157502 -0.035012685436647553 0 -0.34258176142245139 -0.029723406047678591 0 -0.33960488145915169 -0.038902248398748569 0 -0.33294009451157502 -0.035012685436647553 0 -0.32589239144387999 -0.038804272667940308 0 -0.33294009451157502 -0.035012685436647553 0 -0.33275310876475001 -0.043013900128517107 0 -0.33960488145915169 -0.038902248398748569 0 -0.33294009451157502 -0.035012685436647553 0 -0.33275310876475001 -0.043013900128517107 0 -0.32589239144387999 -0.038804272667940308 0 -0.32612594025468172 -0.0479092750983348 0 -0.33275310876475001 -0.043013900128517107 0 -0.33273312926745618 -0.050000536382928867 0 -0.33950963895876157 -0.046563850177851397 0 -0.33275310876475001 -0.043013900128517107 0 -0.3072444938386063 -0.24298546540808871 0 -0.29465074886808879 -0.2402547820199166 0 -0.31547147842988582 -0.2330670094454039 0 -0.29465074886808879 -0.2402547820199166 0 -0.31547147842988582 -0.2330670094454039 0 -0.31283906540333922 -0.25031215033235238 0 -0.3072444938386063 -0.24298546540808871 0 -0.31547147842988582 -0.2330670094454039 0 -0.29948497002523827 -0.2483657822867901 0 -0.3072444938386063 -0.24298546540808871 0 -0.29465074886808879 -0.2402547820199166 0 -0.29948497002523827 -0.2483657822867901 0 -0.3072444938386063 -0.24298546540808871 0 -0.30623861516307299 -0.24935013043731349 0 -0.31283906540333922 -0.25031215033235238 0 -0.3072444938386063 -0.24298546540808871 0 -0.30623861516307299 -0.24935013043731349 0 -0.30340245666429422 -0.2199120115188499 0 -0.29465074886808879 -0.2402547820199166 0 -0.31547147842988582 -0.2330670094454039 0 -0.30340245666429422 -0.2199120115188499 0 -0.31790591229007997 -0.21133065133653661 0 -0.31547147842988582 -0.2330670094454039 0 -0.30340245666429422 -0.2199120115188499 0 -0.29465074886808879 -0.2402547820199166 0 -0.28241226381596191 -0.21797562975109799 0 -0.29465074886808879 -0.2402547820199166 0 -0.27816771109320582 -0.2439982651616662 0 -0.28241226381596191 -0.21797562975109799 0 -0.29465074886808879 -0.2402547820199166 0 -0.27383001930629169 -0.24744255459442921 0 -0.28942662192718172 -0.25357945894426132 0 -0.29465074886808879 -0.2402547820199166 0 -0.27383001930629169 -0.24744255459442921 0 -0.29465074886808879 -0.2402547820199166 0 -0.27816771109320582 -0.2439982651616662 0 -0.27383001930629169 -0.24744255459442921 0 -0.28942662192718172 -0.25357945894426132 0 -0.29948497002523827 -0.2483657822867901 0 -0.29465074886808879 -0.2402547820199166 0 -0.27816771109320582 -0.2439982651616662 0 -0.27383001930629169 -0.24744255459442921 0 -0.26926560585898118 -0.2360615599669478 0 -0.27383001930629169 -0.24744255459442921 0 -0.26926560585898118 -0.2360615599669478 0 -0.25855016474293108 -0.24143028331881861 0 -0.27383001930629169 -0.24744255459442921 0 -0.25855016474293108 -0.24143028331881861 0 -0.2565674865322034 -0.25340195958415102 0 -0.27383001930629169 -0.24744255459442921 0 -0.25855016474293108 -0.24143028331881861 0 -0.26926560585898118 -0.2360615599669478 0 -0.25855016474293108 -0.24143028331881861 0 -0.25588924886857078 -0.22577026586403889 0 -0.24327031017957049 -0.23541801204320789 0 -0.25855016474293108 -0.24143028331881861 0 -0.24327031017957049 -0.23541801204320789 0 -0.25855016474293108 -0.24143028331881861 0 -0.25018128361314113 -0.24746468840205441 0 -0.2565674865322034 -0.25340195958415102 0 -0.25855016474293108 -0.24143028331881861 0 -0.25018128361314113 -0.24746468840205441 0 -0.24327031017957049 -0.23541801204320789 0 -0.25855016474293108 -0.24143028331881861 0 -0.25588924886857078 -0.22577026586403889 0 -0.26926560585898118 -0.2360615599669478 0 -0.25588924886857078 -0.22577026586403889 0 -0.26783798195298542 -0.22189041659364681 0 -0.27816771109320582 -0.2439982651616662 0 -0.26926560585898118 -0.2360615599669478 0 -0.28241226381596191 -0.21797562975109799 0 -0.26926560585898118 -0.2360615599669478 0 -0.26783798195298542 -0.22189041659364681 0 -0.28241226381596191 -0.21797562975109799 0 -0.27816771109320582 -0.2439982651616662 0 -0.28241226381596191 -0.21797562975109799 0 -0.26378480926842768 -0.2077542107925027 0 -0.286656816538718 -0.19195299434052959 0 -0.28241226381596191 -0.21797562975109799 0 -0.26783798195298542 -0.22189041659364681 0 -0.26378480926842768 -0.2077542107925027 0 -0.28241226381596191 -0.21797562975109799 0 -0.25588924886857078 -0.22577026586403889 0 -0.26783798195298542 -0.22189041659364681 0 -0.26378480926842768 -0.2077542107925027 0 -0.2448317244682672 -0.19494017856122331 0 -0.24405101732391901 -0.2151790953022156 0 -0.26378480926842768 -0.2077542107925027 0 -0.24405101732391901 -0.2151790953022156 0 -0.25588924886857078 -0.22577026586403889 0 -0.26378480926842768 -0.2077542107925027 0 -0.2448317244682672 -0.19494017856122331 0 -0.26378480926842768 -0.2077542107925027 0 -0.26312512204060101 -0.18530650416748581 0 -0.26378480926842768 -0.2077542107925027 0 -0.286656816538718 -0.19195299434052959 0 -0.26312512204060101 -0.18530650416748581 0 -0.286656816538718 -0.19195299434052959 0 -0.28241226381596191 -0.21797562975109799 0 -0.30591086076688379 -0.19847336016990141 0 -0.286656816538718 -0.19195299434052959 0 -0.28241226381596191 -0.21797562975109799 0 -0.30340245666429422 -0.2199120115188499 0 -0.28241226381596191 -0.21797562975109799 0 -0.30591086076688379 -0.19847336016990141 0 -0.30340245666429422 -0.2199120115188499 0 -0.30591086076688379 -0.19847336016990141 0 -0.31790591229007997 -0.21133065133653661 0 -0.286656816538718 -0.19195299434052959 0 -0.30591086076688379 -0.19847336016990141 0 -0.31180552805921091 -0.17430838359622669 0 -0.31180552805921091 -0.17430838359622669 0 -0.29090136926147409 -0.16593035892996141 0 -0.30878195228896921 -0.15303576335633209 0 -0.286656816538718 -0.19195299434052959 0 -0.29090136926147409 -0.16593035892996141 0 -0.286656816538718 -0.19195299434052959 0 -0.31180552805921091 -0.17430838359622669 0 -0.29090136926147409 -0.16593035892996141 0 -0.286656816538718 -0.19195299434052959 0 -0.29090136926147409 -0.16593035892996141 0 -0.27584707269233227 -0.1739466899300364 0 -0.27584707269233227 -0.1739466899300364 0 -0.26312512204060101 -0.18530650416748581 0 -0.26138401805284373 -0.16490714025156239 0 -0.286656816538718 -0.19195299434052959 0 -0.27584707269233227 -0.1739466899300364 0 -0.26312512204060101 -0.18530650416748581 0 -0.2448317244682672 -0.19494017856122331 0 -0.24561243161261531 -0.1747012618202311 0 -0.26312512204060101 -0.18530650416748581 0 -0.24561243161261531 -0.1747012618202311 0 -0.26312512204060101 -0.18530650416748581 0 -0.26138401805284373 -0.16490714025156239 0 -0.27584707269233227 -0.1739466899300364 0 -0.26138401805284373 -0.16490714025156239 0 -0.27641132505293098 -0.14990407015019561 0 -0.29090136926147409 -0.16593035892996141 0 -0.27584707269233227 -0.1739466899300364 0 -0.27641132505293098 -0.14990407015019561 0 -0.27641132505293098 -0.14990407015019561 0 -0.26295491861235881 -0.14972714028907499 0 -0.26633673802341562 -0.13121143084146969 0 -0.26138401805284373 -0.16490714025156239 0 -0.27641132505293098 -0.14990407015019561 0 -0.26295491861235881 -0.14972714028907499 0 -0.24768759332024501 -0.15288591991307249 0 -0.26633673802341562 -0.13121143084146969 0 -0.24768759332024501 -0.15288591991307249 0 -0.26295491861235881 -0.14972714028907499 0 -0.26633673802341562 -0.13121143084146969 0 -0.24768759332024501 -0.15288591991307249 0 -0.26138401805284373 -0.16490714025156239 0 -0.26295491861235881 -0.14972714028907499 0 -0.25700205454408459 -0.1228995308742117 0 -0.25066558347885931 -0.13251764995053431 0 -0.26633673802341562 -0.13121143084146969 0 -0.24768759332024501 -0.15288591991307249 0 -0.25066558347885931 -0.13251764995053431 0 -0.26633673802341562 -0.13121143084146969 0 -0.2466021228926524 -0.1215603100838341 0 -0.25700205454408459 -0.1228995308742117 0 -0.25066558347885931 -0.13251764995053431 0 -0.27641132505293098 -0.14990407015019561 0 -0.26633673802341562 -0.13121143084146969 0 -0.28390483366507108 -0.12795146285425149 0 -0.27641132505293098 -0.14990407015019561 0 -0.29514592198423018 -0.13990772351939329 0 -0.28390483366507108 -0.12795146285425149 0 -0.29939047470698632 -0.1138850881088251 0 -0.29514592198423018 -0.13990772351939329 0 -0.28390483366507108 -0.12795146285425149 0 -0.29090136926147409 -0.16593035892996141 0 -0.27641132505293098 -0.14990407015019561 0 -0.29514592198423018 -0.13990772351939329 0 -0.29090136926147409 -0.16593035892996141 0 -0.29514592198423018 -0.13990772351939329 0 -0.29514592198423018 -0.13990772351939329 0 -0.30878195228896921 -0.15303576335633209 0 -0.31204687939749698 -0.1371714365216575 0 -0.29090136926147409 -0.16593035892996141 0 -0.29514592198423018 -0.13990772351939329 0 -0.30878195228896921 -0.15303576335633209 0 -0.3108150907057583 -0.123289039988229 0 -0.29514592198423018 -0.13990772351939329 0 -0.31204687939749698 -0.1371714365216575 0 -0.29939047470698632 -0.1138850881088251 0 -0.3108150907057583 -0.123289039988229 0 -0.29514592198423018 -0.13990772351939329 0 -0.29939047470698632 -0.1138850881088251 0 -0.29514592198423018 -0.13990772351939329 0 -0.32288905220234743 -0.1288405143651869 0 -0.32258299715563782 -0.14068177926995709 0 -0.33321030378869931 -0.13646686722665249 0 -0.3108150907057583 -0.123289039988229 0 -0.31204687939749698 -0.1371714365216575 0 -0.32288905220234743 -0.1288405143651869 0 -0.31204687939749698 -0.1371714365216575 0 -0.32288905220234743 -0.1288405143651869 0 -0.32258299715563782 -0.14068177926995709 0 -0.30878195228896921 -0.15303576335633209 0 -0.32482557091518699 -0.15217937608711771 0 -0.32258299715563782 -0.14068177926995709 0 -0.30878195228896921 -0.15303576335633209 0 -0.31204687939749698 -0.1371714365216575 0 -0.32258299715563782 -0.14068177926995709 0 -0.32482557091518699 -0.15217937608711771 0 -0.32258299715563782 -0.14068177926995709 0 -0.33321030378869931 -0.13646686722665249 0 -0.32482557091518699 -0.15217937608711771 0 -0.34004440046265172 -0.14309243797241011 0 -0.33321030378869931 -0.13646686722665249 0 -0.34004440046265172 -0.14309243797241011 0 -0.35498504575946821 -0.15757720561970059 0 -0.3332048416520596 -0.1672909388971599 0 -0.34004440046265172 -0.14309243797241011 0 -0.3332048416520596 -0.1672909388971599 0 -0.32482557091518699 -0.15217937608711771 0 -0.34004440046265172 -0.14309243797241011 0 -0.3332048416520596 -0.1672909388971599 0 -0.3466874303271234 -0.11958926053505441 0 -0.34004440046265172 -0.14309243797241011 0 -0.33213803149032362 -0.1206207689722909 0 -0.32288905220234743 -0.1288405143651869 0 -0.33321030378869931 -0.13646686722665249 0 -0.33213803149032362 -0.1206207689722909 0 -0.3466874303271234 -0.11958926053505441 0 -0.33321030378869931 -0.13646686722665249 0 -0.3466874303271234 -0.11958926053505441 0 -0.34004440046265172 -0.14309243797241011 0 -0.33321030378869931 -0.13646686722665249 0 -0.34004440046265172 -0.14309243797241011 0 -0.33321030378869931 -0.13646686722665249 0 -0.3466874303271234 -0.11958926053505441 0 -0.35676717686891291 -0.14006723761877321 0 -0.35999293180258313 -0.1258522389537349 0 -0.3466874303271234 -0.11958926053505441 0 -0.34004440046265172 -0.14309243797241011 0 -0.35676717686891291 -0.14006723761877321 0 -0.35676717686891291 -0.14006723761877321 0 -0.37152802352755399 -0.13164580699010159 0 -0.37069541475874412 -0.1487336244607225 0 -0.35676717686891291 -0.14006723761877321 0 -0.35999293180258313 -0.1258522389537349 0 -0.37152802352755399 -0.13164580699010159 0 -0.35676717686891291 -0.14006723761877321 0 -0.37069541475874412 -0.1487336244607225 0 -0.35498504575946821 -0.15757720561970059 0 -0.37069541475874412 -0.1487336244607225 0 -0.35498504575946821 -0.15757720561970059 0 -0.37692746124962329 -0.16011968929401549 0 -0.37152802352755399 -0.13164580699010159 0 -0.37069541475874412 -0.1487336244607225 0 -0.38190833683646341 -0.1417380771930716 0 -0.34004440046265172 -0.14309243797241011 0 -0.35676717686891291 -0.14006723761877321 0 -0.35498504575946821 -0.15757720561970059 0 -0.34004440046265172 -0.14309243797241011 0 -0.35498504575946821 -0.15757720561970059 0 -0.35102499454429859 -0.17065527247529391 0 -0.35498504575946821 -0.15757720561970059 0 -0.36992569105628492 -0.1720619732669908 0 -0.35102499454429859 -0.17065527247529391 0 -0.35498504575946821 -0.15757720561970059 0 -0.3332048416520596 -0.1672909388971599 0 -0.35498504575946821 -0.15757720561970059 0 -0.36992569105628492 -0.1720619732669908 0 -0.37692746124962329 -0.16011968929401549 0 -0.35498504575946821 -0.15757720561970059 0 -0.36992569105628492 -0.1720619732669908 0 -0.36802329911298681 -0.18587483615006681 0 -0.36992569105628492 -0.1720619732669908 0 -0.38452179946839471 -0.1862127167391712 0 -0.36802329911298681 -0.18587483615006681 0 -0.36992569105628492 -0.1720619732669908 0 -0.34598439970938172 -0.18569097211732419 0 -0.35102499454429859 -0.17065527247529391 0 -0.36992569105628492 -0.1720619732669908 0 -0.34598439970938172 -0.18569097211732419 0 -0.36992569105628492 -0.1720619732669908 0 -0.34598439970938172 -0.18569097211732419 0 -0.35102499454429859 -0.17065527247529391 0 -0.34598439970938172 -0.18569097211732419 0 -0.3332048416520596 -0.1672909388971599 0 -0.34598439970938172 -0.18569097211732419 0 -0.3332048416520596 -0.1672909388971599 0 -0.32636528284146782 -0.19148943982190991 0 -0.3332048416520596 -0.1672909388971599 0 -0.32636528284146782 -0.19148943982190991 0 -0.31180552805921091 -0.17430838359622669 0 -0.32482557091518699 -0.15217937608711771 0 -0.3332048416520596 -0.1672909388971599 0 -0.31180552805921091 -0.17430838359622669 0 -0.30878195228896921 -0.15303576335633209 0 -0.32482557091518699 -0.15217937608711771 0 -0.31180552805921091 -0.17430838359622669 0 -0.3332048416520596 -0.1672909388971599 0 -0.32636528284146782 -0.19148943982190991 0 -0.30591086076688379 -0.19847336016990141 0 -0.32636528284146782 -0.19148943982190991 0 -0.31790591229007997 -0.21133065133653661 0 -0.30591086076688379 -0.19847336016990141 0 -0.31180552805921091 -0.17430838359622669 0 -0.32636528284146782 -0.19148943982190991 0 -0.32636528284146782 -0.19148943982190991 0 -0.31790591229007997 -0.21133065133653661 0 -0.33039187961118982 -0.20742389982875531 0 -0.31790591229007997 -0.21133065133653661 0 -0.33039187961118982 -0.20742389982875531 0 -0.32870803705144969 -0.21844997174213321 0 -0.33039187961118982 -0.20742389982875531 0 -0.32870803705144969 -0.21844997174213321 0 -0.33850246058748812 -0.21389845468103499 0 -0.32870803705144969 -0.21844997174213321 0 -0.33850246058748812 -0.21389845468103499 0 -0.33596699493009807 -0.21993263715474329 0 -0.33850246058748812 -0.21389845468103499 0 -0.34687159193856038 -0.2183762197826761 0 -0.3403652740897718 -0.22150288532491411 0 -0.33850246058748812 -0.21389845468103499 0 -0.3403652740897718 -0.22150288532491411 0 -0.33596699493009807 -0.21993263715474329 0 -0.33039187961118982 -0.20742389982875531 0 -0.33850246058748812 -0.21389845468103499 0 -0.34047770528546362 -0.2019509815621614 0 -0.33850246058748812 -0.21389845468103499 0 -0.34047770528546362 -0.2019509815621614 0 -0.34737571748628571 -0.2101963969508848 0 -0.34598439970938172 -0.18569097211732419 0 -0.32636528284146782 -0.19148943982190991 0 -0.34047770528546362 -0.2019509815621614 0 -0.32636528284146782 -0.19148943982190991 0 -0.33039187961118982 -0.20742389982875531 0 -0.34047770528546362 -0.2019509815621614 0 -0.34598439970938172 -0.18569097211732419 0 -0.35303310702934909 -0.20231631441727971 0 -0.36343771537771569 -0.19566750525459251 0 -0.34598439970938172 -0.18569097211732419 0 -0.34047770528546362 -0.2019509815621614 0 -0.35303310702934909 -0.20231631441727971 0 -0.36802329911298681 -0.18587483615006681 0 -0.34598439970938172 -0.18569097211732419 0 -0.36343771537771569 -0.19566750525459251 0 -0.35303310702934909 -0.20231631441727971 0 -0.36343771537771569 -0.19566750525459251 0 -0.36388592792924168 -0.20758305467352059 0 -0.36343771537771569 -0.19566750525459251 0 -0.37301156641091737 -0.20337184000283479 0 -0.36388592792924168 -0.20758305467352059 0 -0.36343771537771569 -0.19566750525459251 0 -0.37438048369549509 -0.19384422148204511 0 -0.37301156641091737 -0.20337184000283479 0 -0.36802329911298681 -0.18587483615006681 0 -0.36343771537771569 -0.19566750525459251 0 -0.37438048369549509 -0.19384422148204511 0 -0.37273312771996808 -0.21396345107145709 0 -0.37301156641091737 -0.20337184000283479 0 -0.36388592792924168 -0.20758305467352059 0 -0.37273312771996808 -0.21396345107145709 0 -0.36388592792924168 -0.20758305467352059 0 -0.36460053442081081 -0.21946742083422599 0 -0.36388592792924168 -0.20758305467352059 0 -0.35626724818121019 -0.21440977701126371 0 -0.36460053442081081 -0.21946742083422599 0 -0.35626724818121019 -0.21440977701126371 0 -0.34687159193856038 -0.2183762197826761 0 -0.35361393690670712 -0.22275298964725909 0 -0.35303310702934909 -0.20231631441727971 0 -0.36388592792924168 -0.20758305467352059 0 -0.35626724818121019 -0.21440977701126371 0 -0.35303310702934909 -0.20231631441727971 0 -0.35626724818121019 -0.21440977701126371 0 -0.34737571748628571 -0.2101963969508848 0 -0.34047770528546362 -0.2019509815621614 0 -0.35303310702934909 -0.20231631441727971 0 -0.34737571748628571 -0.2101963969508848 0 -0.33850246058748812 -0.21389845468103499 0 -0.34737571748628571 -0.2101963969508848 0 -0.34687159193856038 -0.2183762197826761 0 -0.35626724818121019 -0.21440977701126371 0 -0.34737571748628571 -0.2101963969508848 0 -0.34687159193856038 -0.2183762197826761 0 -0.34687159193856038 -0.2183762197826761 0 -0.3448729074691318 -0.22568858673477191 0 -0.3403652740897718 -0.22150288532491411 0 -0.34687159193856038 -0.2183762197826761 0 -0.3448729074691318 -0.22568858673477191 0 -0.35361393690670712 -0.22275298964725909 0 -0.3448729074691318 -0.22568858673477191 0 -0.35311939258201253 -0.23120947699362049 0 -0.35361393690670712 -0.22275298964725909 0 -0.3448729074691318 -0.22568858673477191 0 -0.35311939258201253 -0.23120947699362049 0 -0.3466300329275056 -0.23782645962689411 0 -0.35311939258201253 -0.23120947699362049 0 -0.35361393690670712 -0.22275298964725909 0 -0.36278739720748587 -0.22937453583313699 0 -0.35311939258201253 -0.23120947699362049 0 -0.36278739720748587 -0.22937453583313699 0 -0.35743223323550471 -0.2390192939344549 0 -0.35626724818121019 -0.21440977701126371 0 -0.35361393690670712 -0.22275298964725909 0 -0.36460053442081081 -0.21946742083422599 0 -0.36460053442081081 -0.21946742083422599 0 -0.36278739720748587 -0.22937453583313699 0 -0.37306962678156358 -0.22430756502184571 0 -0.35361393690670712 -0.22275298964725909 0 -0.36460053442081081 -0.21946742083422599 0 -0.36278739720748587 -0.22937453583313699 0 -0.36278739720748587 -0.22937453583313699 0 -0.37393716339703942 -0.23401667981853819 0 -0.37306962678156358 -0.22430756502184571 0 -0.36278739720748587 -0.22937453583313699 0 -0.37393716339703942 -0.23401667981853819 0 -0.36594725961251939 -0.23889039006825119 0 -0.37273312771996808 -0.21396345107145709 0 -0.36460053442081081 -0.21946742083422599 0 -0.37306962678156358 -0.22430756502184571 0 -0.37393540655460039 -0.25504906339868932 0 -0.37362469669529808 -0.24416340610428999 0 -0.363557814049559 -0.2486896754833777 0 -0.37362469669529808 -0.24416340610428999 0 -0.36594725961251939 -0.23889039006825119 0 -0.363557814049559 -0.2486896754833777 0 -0.37393716339703942 -0.23401667981853819 0 -0.37362469669529808 -0.24416340610428999 0 -0.36594725961251939 -0.23889039006825119 0 -0.36278739720748587 -0.22937453583313699 0 -0.36594725961251939 -0.23889039006825119 0 -0.35743223323550471 -0.2390192939344549 0 -0.36594725961251939 -0.23889039006825119 0 -0.363557814049559 -0.2486896754833777 0 -0.35743223323550471 -0.2390192939344549 0 -0.363557814049559 -0.2486896754833777 0 -0.35255150303394622 -0.24812522560144931 0 -0.35743223323550471 -0.2390192939344549 0 -0.35311939258201253 -0.23120947699362049 0 -0.35743223323550471 -0.2390192939344549 0 -0.3466300329275056 -0.23782645962689411 0 -0.35255150303394622 -0.24812522560144931 0 -0.35743223323550471 -0.2390192939344549 0 -0.3466300329275056 -0.23782645962689411 0 -0.35255150303394622 -0.24812522560144931 0 -0.3466300329275056 -0.23782645962689411 0 -0.3420777495351906 -0.24844208584564559 0 -0.33131030172746923 -0.25321851497678438 0 -0.33373364759712132 -0.2373308373461466 0 -0.32202724095639168 -0.2495658441092535 0 -0.33131030172746923 -0.25321851497678438 0 -0.33373364759712132 -0.2373308373461466 0 -0.33131030172746923 -0.25321851497678438 0 -0.3420777495351906 -0.24844208584564559 0 -0.33373364759712132 -0.2373308373461466 0 -0.3466300329275056 -0.23782645962689411 0 -0.3420777495351906 -0.24844208584564559 0 -0.33373364759712132 -0.2373308373461466 0 -0.3448729074691318 -0.22568858673477191 0 -0.33373364759712132 -0.2373308373461466 0 -0.33513500532203722 -0.22814340766163391 0 -0.3448729074691318 -0.22568858673477191 0 -0.33373364759712132 -0.2373308373461466 0 -0.3448729074691318 -0.22568858673477191 0 -0.3466300329275056 -0.23782645962689411 0 -0.33373364759712132 -0.2373308373461466 0 -0.3362922079916828 -0.22587923687089109 0 -0.33513500532203722 -0.22814340766163391 0 -0.31547147842988582 -0.2330670094454039 0 -0.3448729074691318 -0.22568858673477191 0 -0.3362922079916828 -0.22587923687089109 0 -0.33513500532203722 -0.22814340766163391 0 -0.3448729074691318 -0.22568858673477191 0 -0.3403652740897718 -0.22150288532491411 0 -0.3362922079916828 -0.22587923687089109 0 -0.3403652740897718 -0.22150288532491411 0 -0.3362922079916828 -0.22587923687089109 0 -0.33596699493009807 -0.21993263715474329 0 -0.32870803705144969 -0.21844997174213321 0 -0.3362922079916828 -0.22587923687089109 0 -0.33596699493009807 -0.21993263715474329 0 -0.33373364759712132 -0.2373308373461466 0 -0.33513500532203722 -0.22814340766163391 0 -0.31790591229007997 -0.21133065133653661 0 -0.32870803705144969 -0.21844997174213321 0 -0.31547147842988582 -0.2330670094454039 0 -0.3362922079916828 -0.22587923687089109 0 -0.31547147842988582 -0.2330670094454039 0 -0.32870803705144969 -0.21844997174213321 0 -0.3362922079916828 -0.22587923687089109 0 -0.31547147842988582 -0.2330670094454039 0 -0.33373364759712132 -0.2373308373461466 0 -0.33513500532203722 -0.22814340766163391 0 -0.31547147842988582 -0.2330670094454039 0 -0.33373364759712132 -0.2373308373461466 0 -0.31547147842988582 -0.2330670094454039 0 -0.32202724095639168 -0.2495658441092535 0 -0.31283906540333922 -0.25031215033235238 0 -0.31547147842988582 -0.2330670094454039 0 -0.32202724095639168 -0.2495658441092535 0 -0.33373364759712132 -0.2373308373461466 0 -0.32202724095639168 -0.2495658441092535 0 -0.42931567121415071 -0.25028064732030619 0 -0.41974440223132548 -0.2277223948390894 0 -0.42931567121415071 -0.25028064732030619 0 -0.43665732485841618 -0.24137016429136929 0 -0.41974440223132548 -0.2277223948390894 0 -0.43487007995442373 -0.25384069753834382 0 -0.42931567121415071 -0.25028064732030619 0 -0.43665732485841618 -0.24137016429136929 0 -0.43665732485841618 -0.24137016429136929 0 -0.41974440223132548 -0.2277223948390894 0 -0.44277641758923081 -0.23102430468348881 0 -0.43377720402095787 -0.21991138490827611 0 -0.41974440223132548 -0.2277223948390894 0 -0.44277641758923081 -0.23102430468348881 0 -0.43377720402095787 -0.21991138490827611 0 -0.41974440223132548 -0.2277223948390894 0 -0.42075205755079043 -0.21398522646416529 0 -0.41974440223132548 -0.2277223948390894 0 -0.40847937369743209 -0.24258689873782929 0 -0.40379864078896821 -0.22147517947459039 0 -0.42931567121415071 -0.25028064732030619 0 -0.41974440223132548 -0.2277223948390894 0 -0.40847937369743209 -0.24258689873782929 0 -0.3945867816951415 -0.25828321704239809 0 -0.40847937369743209 -0.24258689873782929 0 -0.3933004523496676 -0.24484402304582939 0 -0.40847937369743209 -0.24258689873782929 0 -0.3933004523496676 -0.24484402304582939 0 -0.39478669289115392 -0.23309544567896751 0 -0.3933004523496676 -0.24484402304582939 0 -0.38349803953804651 -0.2389949919606586 0 -0.38258347849844832 -0.24967798674395081 0 -0.3933004523496676 -0.24484402304582939 0 -0.38349803953804651 -0.2389949919606586 0 -0.39478669289115392 -0.23309544567896751 0 -0.37393716339703942 -0.23401667981853819 0 -0.37362469669529808 -0.24416340610428999 0 -0.38349803953804651 -0.2389949919606586 0 -0.37393540655460039 -0.25504906339868932 0 -0.37362469669529808 -0.24416340610428999 0 -0.38258347849844832 -0.24967798674395081 0 -0.37362469669529808 -0.24416340610428999 0 -0.38349803953804651 -0.2389949919606586 0 -0.38258347849844832 -0.24967798674395081 0 -0.37306962678156358 -0.22430756502184571 0 -0.38469596054732291 -0.22836918992304631 0 -0.38295547739377761 -0.21861943378263729 0 -0.37273312771996808 -0.21396345107145709 0 -0.37306962678156358 -0.22430756502184571 0 -0.38295547739377761 -0.21861943378263729 0 -0.37393716339703942 -0.23401667981853819 0 -0.38349803953804651 -0.2389949919606586 0 -0.38469596054732291 -0.22836918992304631 0 -0.37393716339703942 -0.23401667981853819 0 -0.37306962678156358 -0.22430756502184571 0 -0.38469596054732291 -0.22836918992304631 0 -0.38349803953804651 -0.2389949919606586 0 -0.38469596054732291 -0.22836918992304631 0 -0.39478669289115392 -0.23309544567896751 0 -0.38469596054732291 -0.22836918992304631 0 -0.39264909581396568 -0.2229573829789786 0 -0.38295547739377761 -0.21861943378263729 0 -0.39264909581396568 -0.2229573829789786 0 -0.39478669289115392 -0.23309544567896751 0 -0.40379864078896821 -0.22147517947459039 0 -0.40847937369743209 -0.24258689873782929 0 -0.39478669289115392 -0.23309544567896751 0 -0.40379864078896821 -0.22147517947459039 0 -0.40847937369743209 -0.24258689873782929 0 -0.40379864078896821 -0.22147517947459039 0 -0.39264909581396568 -0.2229573829789786 0 -0.40379864078896821 -0.22147517947459039 0 -0.39247153470499518 -0.2129117927155128 0 -0.38469596054732291 -0.22836918992304631 0 -0.39264909581396568 -0.2229573829789786 0 -0.39478669289115392 -0.23309544567896751 0 -0.40379864078896821 -0.22147517947459039 0 -0.39911790788050461 -0.2003634602113514 0 -0.40379864078896821 -0.22147517947459039 0 -0.39247153470499518 -0.2129117927155128 0 -0.39911790788050461 -0.2003634602113514 0 -0.40379864078896821 -0.22147517947459039 0 -0.40520524043689871 -0.20626505254016059 0 -0.39911790788050461 -0.2003634602113514 0 -0.40520524043689871 -0.20626505254016059 0 -0.39911790788050461 -0.2003634602113514 0 -0.41017313324850019 -0.2051641423578727 0 -0.40520524043689871 -0.20626505254016059 0 -0.39911790788050461 -0.2003634602113514 0 -0.39247153470499518 -0.2129117927155128 0 -0.38971867217429529 -0.20303686442097379 0 -0.39911790788050461 -0.2003634602113514 0 -0.39247153470499518 -0.2129117927155128 0 -0.38295547739377761 -0.21861943378263729 0 -0.38211351879485039 -0.2092072209849834 0 -0.39264909581396568 -0.2229573829789786 0 -0.39247153470499518 -0.2129117927155128 0 -0.38295547739377761 -0.21861943378263729 0 -0.38211351879485039 -0.2092072209849834 0 -0.38151862494823319 -0.19996558655041019 0 -0.38971867217429529 -0.20303686442097379 0 -0.39247153470499518 -0.2129117927155128 0 -0.38211351879485039 -0.2092072209849834 0 -0.38971867217429529 -0.20303686442097379 0 -0.37273312771996808 -0.21396345107145709 0 -0.37301156641091737 -0.20337184000283479 0 -0.38211351879485039 -0.2092072209849834 0 -0.37301156641091737 -0.20337184000283479 0 -0.38211351879485039 -0.2092072209849834 0 -0.38151862494823319 -0.19996558655041019 0 -0.37273312771996808 -0.21396345107145709 0 -0.38295547739377761 -0.21861943378263729 0 -0.38211351879485039 -0.2092072209849834 0 -0.36802329911298681 -0.18587483615006681 0 -0.37438048369549509 -0.19384422148204511 0 -0.38452179946839471 -0.1862127167391712 0 -0.38151862494823319 -0.19996558655041019 0 -0.38971867217429529 -0.20303686442097379 0 -0.38452179946839471 -0.1862127167391712 0 -0.37438048369549509 -0.19384422148204511 0 -0.38151862494823319 -0.19996558655041019 0 -0.38452179946839471 -0.1862127167391712 0 -0.37438048369549509 -0.19384422148204511 0 -0.37301156641091737 -0.20337184000283479 0 -0.38151862494823319 -0.19996558655041019 0 -0.39911790788050461 -0.2003634602113514 0 -0.39550730918059213 -0.18407841519480589 0 -0.38452179946839471 -0.1862127167391712 0 -0.39911790788050461 -0.2003634602113514 0 -0.40135005364381798 -0.19305297691017151 0 -0.39550730918059213 -0.18407841519480589 0 -0.39911790788050461 -0.2003634602113514 0 -0.39550730918059213 -0.18407841519480589 0 -0.38971867217429529 -0.20303686442097379 0 -0.39911790788050461 -0.2003634602113514 0 -0.38452179946839471 -0.1862127167391712 0 -0.41017313324850019 -0.2051641423578727 0 -0.40060186426567512 -0.18260588987665591 0 -0.40135005364381798 -0.19305297691017151 0 -0.41017313324850019 -0.2051641423578727 0 -0.40060186426567512 -0.18260588987665591 0 -0.39911790788050461 -0.2003634602113514 0 -0.38452179946839471 -0.1862127167391712 0 -0.39911790788050461 -0.2003634602113514 0 -0.40135005364381798 -0.19305297691017151 0 -0.41017313324850019 -0.2051641423578727 0 -0.40882722491020068 -0.19324634934951379 0 -0.40670914653930851 -0.1871811045826946 0 -0.40060186426567512 -0.18260588987665591 0 -0.40882722491020068 -0.19324634934951379 0 -0.41182634361573828 -0.18846823012601879 0 -0.40670914653930851 -0.1871811045826946 0 -0.40882722491020068 -0.19324634934951379 0 -0.41017313324850019 -0.2051641423578727 0 -0.40060186426567512 -0.18260588987665591 0 -0.40882722491020068 -0.19324634934951379 0 -0.41332632127240471 -0.19520135196246871 0 -0.41182634361573828 -0.18846823012601879 0 -0.41182634361573828 -0.18846823012601879 0 -0.42015528071935893 -0.19373976728588371 0 -0.42086010939994178 -0.18624419393877539 0 -0.41332632127240471 -0.19520135196246871 0 -0.41182634361573828 -0.18846823012601879 0 -0.42015528071935893 -0.19373976728588371 0 -0.42015528071935893 -0.19373976728588371 0 -0.41596892406105851 -0.2005599774501266 0 -0.4250272884910265 -0.2012921483654643 0 -0.41596892406105851 -0.2005599774501266 0 -0.41798035083784391 -0.20525037365940721 0 -0.4250272884910265 -0.2012921483654643 0 -0.41332632127240471 -0.19520135196246871 0 -0.42015528071935893 -0.19373976728588371 0 -0.41596892406105851 -0.2005599774501266 0 -0.41596892406105851 -0.2005599774501266 0 -0.41190905555667651 -0.19876129696974801 0 -0.41017313324850019 -0.2051641423578727 0 -0.40882722491020068 -0.19324634934951379 0 -0.41190905555667651 -0.19876129696974801 0 -0.41017313324850019 -0.2051641423578727 0 -0.40882722491020068 -0.19324634934951379 0 -0.41332632127240471 -0.19520135196246871 0 -0.41190905555667651 -0.19876129696974801 0 -0.41332632127240471 -0.19520135196246871 0 -0.41596892406105851 -0.2005599774501266 0 -0.41190905555667651 -0.19876129696974801 0 -0.41974440223132548 -0.2277223948390894 0 -0.40379864078896821 -0.22147517947459039 0 -0.41017313324850019 -0.2051641423578727 0 -0.41974440223132548 -0.2277223948390894 0 -0.41017313324850019 -0.2051641423578727 0 -0.42075205755079043 -0.21398522646416529 0 -0.40379864078896821 -0.22147517947459039 0 -0.40520524043689871 -0.20626505254016059 0 -0.41017313324850019 -0.2051641423578727 0 -0.41974440223132548 -0.2277223948390894 0 -0.41017313324850019 -0.2051641423578727 0 -0.41017313324850019 -0.2051641423578727 0 -0.42075205755079043 -0.21398522646416529 0 -0.41798035083784391 -0.20525037365940721 0 -0.42075205755079043 -0.21398522646416529 0 -0.41798035083784391 -0.20525037365940721 0 -0.4250272884910265 -0.2012921483654643 0 -0.41596892406105851 -0.2005599774501266 0 -0.41017313324850019 -0.2051641423578727 0 -0.41798035083784391 -0.20525037365940721 0 -0.42075205755079043 -0.21398522646416529 0 -0.43601245252430942 -0.20793643678791121 0 -0.4250272884910265 -0.2012921483654643 0 -0.43377720402095787 -0.21991138490827611 0 -0.42075205755079043 -0.21398522646416529 0 -0.43601245252430942 -0.20793643678791121 0 -0.42704416580793209 -0.1915833167308334 0 -0.4250272884910265 -0.2012921483654643 0 -0.43829012180726529 -0.19322062900912909 0 -0.43601245252430942 -0.20793643678791121 0 -0.4250272884910265 -0.2012921483654643 0 -0.43829012180726529 -0.19322062900912909 0 -0.42704416580793209 -0.1915833167308334 0 -0.43088802862206788 -0.18341984505491449 0 -0.43829012180726529 -0.19322062900912909 0 -0.42015528071935893 -0.19373976728588371 0 -0.42704416580793209 -0.1915833167308334 0 -0.42086010939994178 -0.18624419393877539 0 -0.42015528071935893 -0.19373976728588371 0 -0.42704416580793209 -0.1915833167308334 0 -0.4250272884910265 -0.2012921483654643 0 -0.4285734277027195 -0.1734756855885477 0 -0.43088802862206788 -0.18341984505491449 0 -0.41995474680429618 -0.17713819565942951 0 -0.42704416580793209 -0.1915833167308334 0 -0.43088802862206788 -0.18341984505491449 0 -0.42086010939994178 -0.18624419393877539 0 -0.43088802862206788 -0.18341984505491449 0 -0.41995474680429618 -0.17713819565942951 0 -0.42086010939994178 -0.18624419393877539 0 -0.43088802862206788 -0.18341984505491449 0 -0.44104422433457419 -0.1777922577957152 0 -0.43829012180726529 -0.19322062900912909 0 -0.4285734277027195 -0.1734756855885477 0 -0.43088802862206788 -0.18341984505491449 0 -0.44104422433457419 -0.1777922577957152 0 -0.4285734277027195 -0.1734756855885477 0 -0.4344270590450659 -0.1609053943072484 0 -0.44104422433457419 -0.1777922577957152 0 -0.4285734277027195 -0.1734756855885477 0 -0.4344270590450659 -0.1609053943072484 0 -0.4151480566294905 -0.1680004084026471 0 -0.4151480566294905 -0.1680004084026471 0 -0.40323096316088519 -0.16793215078578741 0 -0.41306883257355248 -0.1475019853524365 0 -0.4344270590450659 -0.1609053943072484 0 -0.4151480566294905 -0.1680004084026471 0 -0.41306883257355248 -0.1475019853524365 0 -0.4151480566294905 -0.1680004084026471 0 -0.40690801218449152 -0.1762036959065488 0 -0.40323096316088519 -0.16793215078578741 0 -0.4151480566294905 -0.1680004084026471 0 -0.40690801218449152 -0.1762036959065488 0 -0.4136865446123984 -0.1757543503219206 0 -0.40690801218449152 -0.1762036959065488 0 -0.4136865446123984 -0.1757543503219206 0 -0.41273536283131562 -0.1816751013190569 0 -0.4151480566294905 -0.1680004084026471 0 -0.4136865446123984 -0.1757543503219206 0 -0.41995474680429618 -0.17713819565942951 0 -0.4285734277027195 -0.1734756855885477 0 -0.4151480566294905 -0.1680004084026471 0 -0.41995474680429618 -0.17713819565942951 0 -0.4136865446123984 -0.1757543503219206 0 -0.41995474680429618 -0.17713819565942951 0 -0.41273536283131562 -0.1816751013190569 0 -0.41995474680429618 -0.17713819565942951 0 -0.42086010939994178 -0.18624419393877539 0 -0.41273536283131562 -0.1816751013190569 0 -0.41182634361573828 -0.18846823012601879 0 -0.42086010939994178 -0.18624419393877539 0 -0.41273536283131562 -0.1816751013190569 0 -0.41182634361573828 -0.18846823012601879 0 -0.41273536283131562 -0.1816751013190569 0 -0.4077561458873058 -0.18322680436219499 0 -0.40690801218449152 -0.1762036959065488 0 -0.41273536283131562 -0.1816751013190569 0 -0.4077561458873058 -0.18322680436219499 0 -0.41182634361573828 -0.18846823012601879 0 -0.4077561458873058 -0.18322680436219499 0 -0.40670914653930851 -0.1871811045826946 0 -0.39550730918059213 -0.18407841519480589 0 -0.38736231178750308 -0.177259124355894 0 -0.39189671048067998 -0.1677933701782604 0 -0.40135005364381798 -0.19305297691017151 0 -0.40060186426567512 -0.18260588987665591 0 -0.39550730918059213 -0.18407841519480589 0 -0.4077561458873058 -0.18322680436219499 0 -0.40670914653930851 -0.1871811045826946 0 -0.40060186426567512 -0.18260588987665591 0 -0.39550730918059213 -0.18407841519480589 0 -0.39189671048067998 -0.1677933701782604 0 -0.40060186426567512 -0.18260588987665591 0 -0.39550730918059213 -0.18407841519480589 0 -0.39189671048067998 -0.1677933701782604 0 -0.40690801218449152 -0.1762036959065488 0 -0.4077561458873058 -0.18322680436219499 0 -0.40060186426567512 -0.18260588987665591 0 -0.40690801218449152 -0.1762036959065488 0 -0.40060186426567512 -0.18260588987665591 0 -0.40323096316088519 -0.16793215078578741 0 -0.36992569105628492 -0.1720619732669908 0 -0.38736231178750308 -0.177259124355894 0 -0.39189671048067998 -0.1677933701782604 0 -0.36992569105628492 -0.1720619732669908 0 -0.38452179946839471 -0.1862127167391712 0 -0.38736231178750308 -0.177259124355894 0 -0.39550730918059213 -0.18407841519480589 0 -0.38452179946839471 -0.1862127167391712 0 -0.38736231178750308 -0.177259124355894 0 -0.36992569105628492 -0.1720619732669908 0 -0.38452179946839471 -0.1862127167391712 0 -0.36992569105628492 -0.1720619732669908 0 -0.37692746124962329 -0.16011968929401549 0 -0.39103059528285172 -0.16004763739543851 0 -0.36992569105628492 -0.1720619732669908 0 -0.39189671048067998 -0.1677933701782604 0 -0.39103059528285172 -0.16004763739543851 0 -0.36992569105628492 -0.1720619732669908 0 -0.39103059528285172 -0.16004763739543851 0 -0.37692746124962329 -0.16011968929401549 0 -0.39103059528285172 -0.16004763739543851 0 -0.38828980922767731 -0.15358795645443499 0 -0.39103059528285172 -0.16004763739543851 0 -0.38828980922767731 -0.15358795645443499 0 -0.40060186426567512 -0.18260588987665591 0 -0.39103059528285172 -0.16004763739543851 0 -0.40323096316088519 -0.16793215078578741 0 -0.40060186426567512 -0.18260588987665591 0 -0.39189671048067998 -0.1677933701782604 0 -0.39103059528285172 -0.16004763739543851 0 -0.40060186426567512 -0.18260588987665591 0 -0.39103059528285172 -0.16004763739543851 0 -0.39103059528285172 -0.16004763739543851 0 -0.40323096316088519 -0.16793215078578741 0 -0.41306883257355248 -0.1475019853524365 0 -0.39103059528285172 -0.16004763739543851 0 -0.39795981207507403 -0.14502431583870179 0 -0.41306883257355248 -0.1475019853524365 0 -0.39795981207507403 -0.14502431583870179 0 -0.40633267592073652 -0.13102661860532899 0 -0.41306883257355248 -0.1475019853524365 0 -0.39103059528285172 -0.16004763739543851 0 -0.41306883257355248 -0.1475019853524365 0 -0.39103059528285172 -0.16004763739543851 0 -0.39795981207507403 -0.14502431583870179 0 -0.38828980922767731 -0.15358795645443499 0 -0.39795981207507403 -0.14502431583870179 0 -0.38828980922767731 -0.15358795645443499 0 -0.38190833683646341 -0.1417380771930716 0 -0.38828980922767731 -0.15358795645443499 0 -0.38190833683646341 -0.1417380771930716 0 -0.37945525551812698 -0.15104483685056111 0 -0.37069541475874412 -0.1487336244607225 0 -0.38190833683646341 -0.1417380771930716 0 -0.37945525551812698 -0.15104483685056111 0 -0.37692746124962329 -0.16011968929401549 0 -0.38828980922767731 -0.15358795645443499 0 -0.37945525551812698 -0.15104483685056111 0 -0.37069541475874412 -0.1487336244607225 0 -0.37692746124962329 -0.16011968929401549 0 -0.37945525551812698 -0.15104483685056111 0 -0.37152802352755399 -0.13164580699010159 0 -0.38190833683646341 -0.1417380771930716 0 -0.38235470820745771 -0.123978498660336 0 -0.38190833683646341 -0.1417380771930716 0 -0.39228294530364349 -0.13316426080004001 0 -0.38235470820745771 -0.123978498660336 0 -0.39228294530364349 -0.13316426080004001 0 -0.40633267592073652 -0.13102661860532899 0 -0.39306930808202878 -0.1142539450673672 0 -0.39795981207507403 -0.14502431583870179 0 -0.38190833683646341 -0.1417380771930716 0 -0.39228294530364349 -0.13316426080004001 0 -0.39795981207507403 -0.14502431583870179 0 -0.39228294530364349 -0.13316426080004001 0 -0.40633267592073652 -0.13102661860532899 0 -0.40633267592073652 -0.13102661860532899 0 -0.42371591628165239 -0.12841039464220819 0 -0.41294233195137359 -0.116724400289887 0 -0.40633267592073652 -0.13102661860532899 0 -0.41306883257355248 -0.1475019853524365 0 -0.42371591628165239 -0.12841039464220819 0 -0.4344270590450659 -0.1609053943072484 0 -0.41306883257355248 -0.1475019853524365 0 -0.43782831476482847 -0.1415704877041897 0 -0.41306883257355248 -0.1475019853524365 0 -0.42371591628165239 -0.12841039464220819 0 -0.43782831476482847 -0.1415704877041897 0 -0.42371591628165239 -0.12841039464220819 0 -0.43782831476482847 -0.1415704877041897 0 -0.44295770465017009 -0.12292285668534771 0 -0.43782831476482847 -0.1415704877041897 0 -0.45407528277834919 -0.1346042898317954 0 -0.44295770465017009 -0.12292285668534771 0 -0.43782831476482847 -0.1415704877041897 0 -0.45305184803309972 -0.15210272433296521 0 -0.45407528277834919 -0.1346042898317954 0 -0.4344270590450659 -0.1609053943072484 0 -0.43782831476482847 -0.1415704877041897 0 -0.45305184803309972 -0.15210272433296521 0 -0.45305184803309972 -0.15210272433296521 0 -0.45407528277834919 -0.1346042898317954 0 -0.47213782278640881 -0.13623393318828281 0 -0.45305184803309972 -0.15210272433296521 0 -0.47213782278640881 -0.13623393318828281 0 -0.46702369577757719 -0.16066454859793791 0 -0.45407528277834919 -0.1346042898317954 0 -0.47213782278640881 -0.13623393318828281 0 -0.46296805171726468 -0.11640170438458371 0 -0.47213782278640881 -0.13623393318828281 0 -0.5 -0.14556247672259531 0 -0.48245330698995931 -0.121898764666846 0 -0.5 -0.14556247672259531 0 -0.48245330698995931 -0.121898764666846 0 -0.50000000000000089 -0.1198938119733675 0 -0.47213782278640881 -0.13623393318828281 0 -0.5 -0.14556247672259531 0 -0.48142521519093828 -0.15645589086587239 0 -0.47213782278640881 -0.13623393318828281 0 -0.48142521519093828 -0.15645589086587239 0 -0.47213782278640881 -0.13623393318828281 0 -0.48142521519093828 -0.15645589086587239 0 -0.46702369577757719 -0.16066454859793791 0 -0.48142521519093828 -0.15645589086587239 0 -0.47632052375980027 -0.17461649056753861 0 -0.46702369577757719 -0.16066454859793791 0 -0.48142521519093828 -0.15645589086587239 0 -0.49071260759546798 -0.17667784854346191 0 -0.47632052375980027 -0.17461649056753861 0 -0.47632052375980027 -0.17461649056753861 0 -0.46570520523623959 -0.1757931846103527 0 -0.46702369577757719 -0.16066454859793791 0 -0.48142521519093828 -0.15645589086587239 0 -0.49071260759546798 -0.17667784854346191 0 -0.5 -0.14556247672259531 0 -0.48142521519093828 -0.15645589086587239 0 -0.5 -0.17123114147182319 0 -0.48142521519093828 -0.15645589086587239 0 -0.5 -0.17123114147182319 0 -0.49071260759546798 -0.17667784854346191 0 -0.49071260759546798 -0.17667784854346191 0 -0.49999999999999861 -0.19689980622105099 0 -0.5 -0.17123114147182319 0 -0.49071260759546798 -0.17667784854346191 0 -0.49999999999999861 -0.19689980622105099 0 -0.49071260759546798 -0.17667784854346191 0 -0.47632052375980027 -0.17461649056753861 0 -0.47993034859498662 -0.18922987045237161 0 -0.47632052375980027 -0.17461649056753861 0 -0.46763136520864318 -0.18653340036078911 0 -0.46570520523623959 -0.1757931846103527 0 -0.47632052375980027 -0.17461649056753861 0 -0.46763136520864318 -0.18653340036078911 0 -0.47993034859498662 -0.18922987045237161 0 -0.46570520523623959 -0.1757931846103527 0 -0.45350155965897682 -0.1687850680226157 0 -0.45596312027128949 -0.18794868189772959 0 -0.46763136520864318 -0.18653340036078911 0 -0.46570520523623959 -0.1757931846103527 0 -0.45596312027128949 -0.18794868189772959 0 -0.45305184803309972 -0.15210272433296521 0 -0.46702369577757719 -0.16066454859793791 0 -0.45350155965897682 -0.1687850680226157 0 -0.46570520523623959 -0.1757931846103527 0 -0.46702369577757719 -0.16066454859793791 0 -0.45350155965897682 -0.1687850680226157 0 -0.4344270590450659 -0.1609053943072484 0 -0.45305184803309972 -0.15210272433296521 0 -0.45350155965897682 -0.1687850680226157 0 -0.4344270590450659 -0.1609053943072484 0 -0.45350155965897682 -0.1687850680226157 0 -0.44104422433457419 -0.1777922577957152 0 -0.45350155965897682 -0.1687850680226157 0 -0.44104422433457419 -0.1777922577957152 0 -0.45596312027128949 -0.18794868189772959 0 -0.44104422433457419 -0.1777922577957152 0 -0.43829012180726529 -0.19322062900912909 0 -0.45596312027128949 -0.18794868189772959 0 -0.45013906333809789 -0.2009404811944836 0 -0.43829012180726529 -0.19322062900912909 0 -0.45596312027128949 -0.18794868189772959 0 -0.43601245252430942 -0.20793643678791121 0 -0.45013906333809789 -0.2009404811944836 0 -0.43829012180726529 -0.19322062900912909 0 -0.43377720402095787 -0.21991138490827611 0 -0.43601245252430942 -0.20793643678791121 0 -0.45297794936819918 -0.2159919965998246 0 -0.43601245252430942 -0.20793643678791121 0 -0.45013906333809789 -0.2009404811944836 0 -0.45297794936819918 -0.2159919965998246 0 -0.45013906333809789 -0.2009404811944836 0 -0.45297794936819918 -0.2159919965998246 0 -0.46745167271942573 -0.1996046616778234 0 -0.45297794936819918 -0.2159919965998246 0 -0.46745167271942573 -0.1996046616778234 0 -0.46956062781061803 -0.21704188818370149 0 -0.45013906333809789 -0.2009404811944836 0 -0.46745167271942573 -0.1996046616778234 0 -0.45596312027128949 -0.18794868189772959 0 -0.46763136520864318 -0.18653340036078911 0 -0.46745167271942573 -0.1996046616778234 0 -0.45596312027128949 -0.18794868189772959 0 -0.46745167271942573 -0.1996046616778234 0 -0.47993034859498662 -0.18922987045237161 0 -0.48475058775642699 -0.21058337118561141 0 -0.46763136520864318 -0.18653340036078911 0 -0.46745167271942573 -0.1996046616778234 0 -0.47993034859498662 -0.18922987045237161 0 -0.47993034859498662 -0.18922987045237161 0 -0.49999999999999861 -0.19689980622105099 0 -0.48475058775642699 -0.21058337118561141 0 -0.49071260759546798 -0.17667784854346191 0 -0.47993034859498662 -0.18922987045237161 0 -0.49999999999999861 -0.19689980622105099 0 -0.49999999999999861 -0.19689980622105099 0 -0.48475058775642699 -0.21058337118561141 0 -0.50000000000000355 -0.22426693615016591 0 -0.46745167271942573 -0.1996046616778234 0 -0.48475058775642699 -0.21058337118561141 0 -0.46956062781061803 -0.21704188818370149 0 -0.46956062781061803 -0.21704188818370149 0 -0.47829002665147741 -0.2341248566128927 0 -0.46279731583591321 -0.22891002208815581 0 -0.48475058775642699 -0.21058337118561141 0 -0.46956062781061803 -0.21704188818370149 0 -0.47829002665147741 -0.2341248566128927 0 -0.47829002665147741 -0.2341248566128927 0 -0.49757451855253881 -0.23053548086278239 0 -0.50000000000000355 -0.22426693615016591 0 -0.48475058775642699 -0.21058337118561141 0 -0.47829002665147741 -0.2341248566128927 0 -0.50000000000000355 -0.22426693615016591 0 -0.47829002665147741 -0.2341248566128927 0 -0.50000000000000355 -0.22426693615016591 0 -0.47829002665147741 -0.2341248566128927 0 -0.49757451855253881 -0.23053548086278239 0 -0.47793059070477772 -0.24540990329775009 0 -0.5 -0.25006354863638108 0 -0.49757451855253881 -0.23053548086278239 0 -0.49068252501969761 -0.24549971615663649 0 -0.49757451855253881 -0.23053548086278239 0 -0.49068252501969761 -0.24549971615663649 0 -0.47793059070477772 -0.24540990329775009 0 -0.49757451855253881 -0.23053548086278239 0 -0.47793059070477772 -0.24540990329775009 0 -0.5 -0.25006354863638108 0 -0.49757451855253881 -0.23053548086278239 0 -0.50000000000000355 -0.22426693615016591 0 -0.4872249908214738 -0.25598993182963242 0 -0.49068252501969761 -0.24549971615663649 0 -0.47793059070477772 -0.24540990329775009 0 -0.47829002665147741 -0.2341248566128927 0 -0.47793059070477772 -0.24540990329775009 0 -0.45658005330295048 -0.2439827770756183 0 -0.45658005330295048 -0.2439827770756183 0 -0.46279731583591321 -0.22891002208815581 0 -0.44277641758923081 -0.23102430468348881 0 -0.47829002665147741 -0.2341248566128927 0 -0.45658005330295048 -0.2439827770756183 0 -0.45828666285701658 -0.26028432573271792 0 -0.47793059070477772 -0.24540990329775009 0 -0.45658005330295048 -0.2439827770756183 0 -0.47829002665147741 -0.2341248566128927 0 -0.45658005330295048 -0.2439827770756183 0 -0.46279731583591321 -0.22891002208815581 0 -0.45297794936819918 -0.2159919965998246 0 -0.46956062781061803 -0.21704188818370149 0 -0.46279731583591321 -0.22891002208815581 0 -0.45297794936819918 -0.2159919965998246 0 -0.46279731583591321 -0.22891002208815581 0 -0.44277641758923081 -0.23102430468348881 0 -0.43377720402095787 -0.21991138490827611 0 -0.45297794936819918 -0.2159919965998246 0 -0.44277641758923081 -0.23102430468348881 0 -0.43487007995442373 -0.25384069753834382 0 -0.45658005330295048 -0.2439827770756183 0 -0.43487007995442373 -0.25384069753834382 0 -0.43665732485841618 -0.24137016429136929 0 -0.45658005330295048 -0.2439827770756183 0 -0.43665732485841618 -0.24137016429136929 0 -0.45658005330295048 -0.2439827770756183 0 -0.44277641758923081 -0.23102430468348881 0 -0.42837915354319411 -0.040827216461995969 0 -0.4199205163048339 -0.024265820886729 0 -0.40528095782104068 -0.044243292517360297 0 -0.42343463197652342 -0.05874232933513765 0 -0.42837915354319411 -0.040827216461995969 0 -0.40528095782104068 -0.044243292517360297 0 -0.42343463197652342 -0.05874232933513765 0 -0.40528095782104068 -0.044243292517360297 0 -0.42343463197652342 -0.05874232933513765 0 -0.40528095782104068 -0.044243292517360297 0 -0.40670414160736479 -0.063195666982337848 0 -0.42343463197652342 -0.05874232933513765 0 -0.42837915354319411 -0.040827216461995969 0 -0.44094154444346079 -0.04995238034171972 0 -0.42343463197652342 -0.05874232933513765 0 -0.44158830613200611 -0.073241366152915127 0 -0.44094154444346079 -0.04995238034171972 0 -0.42837915354319411 -0.040827216461995969 0 -0.4342900889778567 -0.026770694848987801 0 -0.4453801544960031 -0.037531923181514312 0 -0.4342900889778567 -0.026770694848987801 0 -0.43033724725149269 -0.0037964727450953309 0 -0.4199205163048339 -0.024265820886729 0 -0.4342900889778567 -0.026770694848987801 0 -0.43033724725149269 -0.0037964727450953309 0 -0.44743337329375982 -0.027432040969604381 0 -0.42837915354319411 -0.040827216461995969 0 -0.4342900889778567 -0.026770694848987801 0 -0.4199205163048339 -0.024265820886729 0 -0.43033724725149269 -0.0037964727450953309 0 -0.4131572459017161 -0.004875649818797438 0 -0.4199205163048339 -0.024265820886729 0 -0.4131572459017161 -0.004875649818797438 0 -0.4199205163048339 -0.024265820886729 0 -0.40195427741026962 -0.018113178269922089 0 -0.4199205163048339 -0.024265820886729 0 -0.40195427741026962 -0.018113178269922089 0 -0.40528095782104068 -0.044243292517360297 0 -0.40195427741026962 -0.018113178269922089 0 -0.38465333842141641 -0.0066435457767305304 0 -0.38712728366555788 -0.02974425569958293 0 -0.40195427741026962 -0.018113178269922089 0 -0.38712728366555788 -0.02974425569958293 0 -0.40528095782104068 -0.044243292517360297 0 -0.40195427741026962 -0.018113178269922089 0 -0.38465333842141641 -0.0066435457767305304 0 -0.40033306733275759 0.0019581273283447299 0 -0.4131572459017161 -0.004875649818797438 0 -0.40195427741026962 -0.018113178269922089 0 -0.40033306733275759 0.0019581273283447299 0 -0.38465333842141641 -0.0066435457767305304 0 -0.40033306733275759 0.0019581273283447299 0 -0.36897360951007507 -0.015245218881805699 0 -0.38465333842141641 -0.0066435457767305304 0 -0.36897360951007507 -0.015245218881805699 0 -0.38465333842141641 -0.0066435457767305304 0 -0.38712728366555788 -0.02974425569958293 0 -0.36897360951007507 -0.015245218881805699 0 -0.38712728366555788 -0.02974425569958293 0 -0.37357085562444819 -0.050327950541553881 0 -0.38712728366555788 -0.02974425569958293 0 -0.39147992867528753 -0.058279446621744307 0 -0.38712728366555788 -0.02974425569958293 0 -0.40528095782104068 -0.044243292517360297 0 -0.38712728366555788 -0.02974425569958293 0 -0.40528095782104068 -0.044243292517360297 0 -0.39147992867528753 -0.058279446621744307 0 -0.40528095782104068 -0.044243292517360297 0 -0.39147992867528753 -0.058279446621744307 0 -0.40670414160736479 -0.063195666982337848 0 -0.37357085562444819 -0.050327950541553881 0 -0.39147992867528753 -0.058279446621744307 0 -0.37513495807632252 -0.068027960422620465 0 -0.39147992867528753 -0.058279446621744307 0 -0.37513495807632252 -0.068027960422620465 0 -0.3944429598887787 -0.078419500118194568 0 -0.37347114863240299 -0.089088331268139143 0 -0.37513495807632252 -0.068027960422620465 0 -0.3944429598887787 -0.078419500118194568 0 -0.37347114863240299 -0.089088331268139143 0 -0.3944429598887787 -0.078419500118194568 0 -0.38844874713165228 -0.097169733216879689 0 -0.3944429598887787 -0.078419500118194568 0 -0.38844874713165228 -0.097169733216879689 0 -0.40907098738890341 -0.097978282768044114 0 -0.39147992867528753 -0.058279446621744307 0 -0.3944429598887787 -0.078419500118194568 0 -0.40670414160736479 -0.063195666982337848 0 -0.3944429598887787 -0.078419500118194568 0 -0.41749625226094061 -0.077358517460495352 0 -0.40670414160736479 -0.063195666982337848 0 -0.39228294530364349 -0.13316426080004001 0 -0.38235470820745771 -0.123978498660336 0 -0.39306930808202878 -0.1142539450673672 0 -0.36980343247362518 -0.1100922289949047 0 -0.38235470820745771 -0.123978498660336 0 -0.39306930808202878 -0.1142539450673672 0 -0.36980343247362518 -0.1100922289949047 0 -0.37347114863240299 -0.089088331268139143 0 -0.38844874713165228 -0.097169733216879689 0 -0.36980343247362518 -0.1100922289949047 0 -0.38844874713165228 -0.097169733216879689 0 -0.39306930808202878 -0.1142539450673672 0 -0.38844874713165228 -0.097169733216879689 0 -0.39306930808202878 -0.1142539450673672 0 -0.40907098738890341 -0.097978282768044114 0 -0.39306930808202878 -0.1142539450673672 0 -0.41294233195137359 -0.116724400289887 0 -0.40907098738890341 -0.097978282768044114 0 -0.40633267592073652 -0.13102661860532899 0 -0.39306930808202878 -0.1142539450673672 0 -0.41294233195137359 -0.116724400289887 0 -0.41294233195137359 -0.116724400289887 0 -0.40907098738890341 -0.097978282768044114 0 -0.42916563782925382 -0.1107160192160596 0 -0.42916563782925382 -0.1107160192160596 0 -0.42904349786494111 -0.093106334976964328 0 -0.44668080241849201 -0.10304266906569499 0 -0.40907098738890341 -0.097978282768044114 0 -0.42916563782925382 -0.1107160192160596 0 -0.42904349786494111 -0.093106334976964328 0 -0.42371591628165239 -0.12841039464220819 0 -0.42916563782925382 -0.1107160192160596 0 -0.44295770465017009 -0.12292285668534771 0 -0.42371591628165239 -0.12841039464220819 0 -0.41294233195137359 -0.116724400289887 0 -0.42916563782925382 -0.1107160192160596 0 -0.42343463197652342 -0.05874232933513765 0 -0.41749625226094061 -0.077358517460495352 0 -0.40670414160736479 -0.063195666982337848 0 -0.40907098738890341 -0.097978282768044114 0 -0.41749625226094061 -0.077358517460495352 0 -0.42904349786494111 -0.093106334976964328 0 -0.3944429598887787 -0.078419500118194568 0 -0.40907098738890341 -0.097978282768044114 0 -0.41749625226094061 -0.077358517460495352 0 -0.41749625226094061 -0.077358517460495352 0 -0.42904349786494111 -0.093106334976964328 0 -0.44158830613200611 -0.073241366152915127 0 -0.42904349786494111 -0.093106334976964328 0 -0.44158830613200611 -0.073241366152915127 0 -0.42343463197652342 -0.05874232933513765 0 -0.44158830613200611 -0.073241366152915127 0 -0.42343463197652342 -0.05874232933513765 0 -0.41749625226094061 -0.077358517460495352 0 -0.44158830613200611 -0.073241366152915127 0 -0.44158830613200611 -0.073241366152915127 0 -0.46118581313569179 -0.071431252447136412 0 -0.45067286806919349 -0.058855770468984832 0 -0.44158830613200611 -0.073241366152915127 0 -0.45067286806919349 -0.058855770468984832 0 -0.44158830613200611 -0.073241366152915127 0 -0.44459286929252761 -0.089545637905493386 0 -0.46105887075467122 -0.088792181426399025 0 -0.42904349786494111 -0.093106334976964328 0 -0.44158830613200611 -0.073241366152915127 0 -0.44459286929252761 -0.089545637905493386 0 -0.44158830613200611 -0.073241366152915127 0 -0.46105887075467122 -0.088792181426399025 0 -0.46105887075467122 -0.088792181426399025 0 -0.46118581313569179 -0.071431252447136412 0 -0.48115195350555812 -0.076249636056848105 0 -0.44158830613200611 -0.073241366152915127 0 -0.46105887075467122 -0.088792181426399025 0 -0.46118581313569179 -0.071431252447136412 0 -0.44295770465017009 -0.12292285668534771 0 -0.44668080241849201 -0.10304266906569499 0 -0.46296805171726468 -0.11640170438458371 0 -0.42916563782925382 -0.1107160192160596 0 -0.44295770465017009 -0.12292285668534771 0 -0.44668080241849201 -0.10304266906569499 0 -0.44459286929252761 -0.089545637905493386 0 -0.46105887075467122 -0.088792181426399025 0 -0.44668080241849201 -0.10304266906569499 0 -0.42904349786494111 -0.093106334976964328 0 -0.44459286929252761 -0.089545637905493386 0 -0.44668080241849201 -0.10304266906569499 0 -0.46105887075467122 -0.088792181426399025 0 -0.46296805171726468 -0.11640170438458371 0 -0.48052943537733628 -0.1043429966998831 0 -0.46105887075467122 -0.088792181426399025 0 -0.44668080241849201 -0.10304266906569499 0 -0.46296805171726468 -0.11640170438458371 0 -0.45407528277834919 -0.1346042898317954 0 -0.44295770465017009 -0.12292285668534771 0 -0.46296805171726468 -0.11640170438458371 0 -0.46296805171726468 -0.11640170438458371 0 -0.48245330698995931 -0.121898764666846 0 -0.48052943537733628 -0.1043429966998831 0 -0.47213782278640881 -0.13623393318828281 0 -0.46296805171726468 -0.11640170438458371 0 -0.48245330698995931 -0.121898764666846 0 -0.46105887075467122 -0.088792181426399025 0 -0.48052943537733628 -0.1043429966998831 0 -0.48052943537733628 -0.1043429966998831 0 -0.50000000000000089 -0.1198938119733675 0 -0.5 -0.090898883536528308 0 -0.48245330698995931 -0.121898764666846 0 -0.48052943537733628 -0.1043429966998831 0 -0.50000000000000089 -0.1198938119733675 0 -0.48052943537733628 -0.1043429966998831 0 -0.50000000000000089 -0.1198938119733675 0 -0.46118581313569179 -0.071431252447136412 0 -0.48115195350555812 -0.076249636056848105 0 -0.46833584839527592 -0.05632992550213807 0 -0.48115195350555812 -0.076249636056848105 0 -0.48490864188954641 -0.055044389119401932 0 -0.46833584839527592 -0.05632992550213807 0 -0.46105887075467122 -0.088792181426399025 0 -0.48052943537733628 -0.1043429966998831 0 -0.48115195350555812 -0.076249636056848105 0 -0.48052943537733628 -0.1043429966998831 0 -0.48115195350555812 -0.076249636056848105 0 -0.5 -0.090898883536528308 0 -0.48115195350555812 -0.076249636056848105 0 -0.5 -0.090898883536528308 0 -0.5 -0.061903955099689163 0 -0.48115195350555812 -0.076249636056848105 0 -0.5 -0.061903955099689163 0 -0.48490864188954641 -0.055044389119401932 0 -0.5 -0.061903955099689163 0 -0.48490864188954641 -0.055044389119401932 0 -0.5 -0.032909026662849998 0 -0.48490864188954641 -0.055044389119401932 0 -0.5 -0.032909026662849998 0 -0.47623700986288742 -0.042296174380792313 0 -0.47623700986288742 -0.042296174380792313 0 -0.45975743000638192 -0.044470174785055258 0 -0.47133789178420182 -0.026132268992706809 0 -0.5 -0.032909026662849998 0 -0.47623700986288742 -0.042296174380792313 0 -0.47133789178420182 -0.026132268992706809 0 -0.48490864188954641 -0.055044389119401932 0 -0.47623700986288742 -0.042296174380792313 0 -0.46833584839527592 -0.05632992550213807 0 -0.46118581313569179 -0.071431252447136412 0 -0.46833584839527592 -0.05632992550213807 0 -0.45067286806919349 -0.058855770468984832 0 -0.47623700986288742 -0.042296174380792313 0 -0.46833584839527592 -0.05632992550213807 0 -0.45975743000638192 -0.044470174785055258 0 -0.46833584839527592 -0.05632992550213807 0 -0.45975743000638192 -0.044470174785055258 0 -0.45067286806919349 -0.058855770468984832 0 -0.45975743000638192 -0.044470174785055258 0 -0.45067286806919349 -0.058855770468984832 0 -0.46833584839527592 -0.05632992550213807 0 -0.45975743000638192 -0.044470174785055258 0 -0.45964620516156041 -0.031574428691672249 0 -0.45975743000638192 -0.044470174785055258 0 -0.44743337329375982 -0.027432040969604381 0 -0.45975743000638192 -0.044470174785055258 0 -0.44743337329375982 -0.027432040969604381 0 -0.45975743000638192 -0.044470174785055258 0 -0.47133789178420182 -0.026132268992706809 0 -0.45964620516156041 -0.031574428691672249 0 -0.45975743000638192 -0.044470174785055258 0 -0.47133789178420182 -0.026132268992706809 0 -0.45975743000638192 -0.044470174785055258 0 -0.4453801544960031 -0.037531923181514312 0 -0.44743337329375982 -0.027432040969604381 0 -0.45975743000638192 -0.044470174785055258 0 -0.4453801544960031 -0.037531923181514312 0 -0.44094154444346079 -0.04995238034171972 0 -0.42837915354319411 -0.040827216461995969 0 -0.4453801544960031 -0.037531923181514312 0 -0.44094154444346079 -0.04995238034171972 0 -0.4453801544960031 -0.037531923181514312 0 -0.44743337329375982 -0.027432040969604381 0 -0.44158830613200611 -0.073241366152915127 0 -0.44094154444346079 -0.04995238034171972 0 -0.45067286806919349 -0.058855770468984832 0 -0.45975743000638192 -0.044470174785055258 0 -0.44094154444346079 -0.04995238034171972 0 -0.45067286806919349 -0.058855770468984832 0 -0.43033724725149269 -0.0037964727450953309 0 -0.45268467479845531 -0.00160063580491273 0 -0.44743337329375982 -0.027432040969604381 0 -0.45268467479845531 -0.00160063580491273 0 -0.44743337329375982 -0.027432040969604381 0 -0.43033724725149269 -0.0037964727450953309 0 -0.44743337329375982 -0.027432040969604381 0 -0.4342900889778567 -0.026770694848987801 0 -0.4453801544960031 -0.037531923181514312 0 -0.44743337329375982 -0.027432040969604381 0 -0.45964620516156041 -0.031574428691672249 0 -0.44743337329375982 -0.027432040969604381 0 -0.46065164258955998 -0.015998841515816709 0 -0.45964620516156041 -0.031574428691672249 0 -0.46065164258955998 -0.015998841515816709 0 -0.47133789178420182 -0.026132268992706809 0 -0.45268467479845531 -0.00160063580491273 0 -0.46065164258955998 -0.015998841515816709 0 -0.47044579822050858 0.003730308873902122 0 -0.45268467479845531 -0.00160063580491273 0 -0.44743337329375982 -0.027432040969604381 0 -0.46065164258955998 -0.015998841515816709 0 -0.46065164258955998 -0.015998841515816709 0 -0.48291835356202167 -0.0077943632003582772 0 -0.47044579822050858 0.003730308873902122 0 -0.46065164258955998 -0.015998841515816709 0 -0.48291835356202167 -0.0077943632003582772 0 -0.47133789178420182 -0.026132268992706809 0 -0.48291835356202167 -0.0077943632003582772 0 -0.47133789178420182 -0.026132268992706809 0 -0.5 -0.032909026662849998 0 -0.48291835356202167 -0.0077943632003582772 0 -0.47133789178420182 -0.026132268992706809 0 -0.5 -0.032909026662849998 0 -0.48291835356202167 -0.0077943632003582772 0 -0.5 -0.0039140982260107426 0 -0.48291835356202167 -0.0077943632003582772 0 -0.5 -0.0039140982260107426 0 -0.48656778433615411 0.0071434676601368312 0 -0.5 -0.0039140982260107426 0 -0.48656778433615411 0.0071434676601368312 0 -0.5 0.02508083021082835 0 -0.5 0.02508083021082835 0 -0.47947476989823978 0.0186146606423227 0 -0.48053744464613157 0.038241937480116027 0 -0.48656778433615411 0.0071434676601368312 0 -0.5 0.02508083021082835 0 -0.47947476989823978 0.0186146606423227 0 -0.47947476989823978 0.0186146606423227 0 -0.48053744464613157 0.038241937480116027 0 -0.45793597630314969 0.024230769359779091 0 -0.48656778433615411 0.0071434676601368312 0 -0.47947476989823978 0.0186146606423227 0 -0.47044579822050858 0.003730308873902122 0 -0.48291835356202167 -0.0077943632003582772 0 -0.48656778433615411 0.0071434676601368312 0 -0.47044579822050858 0.003730308873902122 0 -0.47947476989823978 0.0186146606423227 0 -0.47044579822050858 0.003730308873902122 0 -0.45793597630314969 0.024230769359779091 0 -0.5 0.05407575864766756 0 -0.48053744464613157 0.038241937480116027 0 -0.48160115767747708 0.06010989829645641 0 -0.5 0.02508083021082835 0 -0.5 0.05407575864766756 0 -0.48053744464613157 0.038241937480116027 0 -0.48053744464613157 0.038241937480116027 0 -0.48160115767747708 0.06010989829645641 0 -0.4631872778078443 0.050062174524471058 0 -0.48160115767747708 0.06010989829645641 0 -0.4631872778078443 0.050062174524471058 0 -0.46843857931253879 0.07589357968916309 0 -0.4631872778078443 0.050062174524471058 0 -0.4467001814262947 0.061097152827744368 0 -0.46843857931253879 0.07589357968916309 0 -0.48053744464613157 0.038241937480116027 0 -0.4631872778078443 0.050062174524471058 0 -0.45793597630314969 0.024230769359779091 0 -0.4631872778078443 0.050062174524471058 0 -0.45793597630314969 0.024230769359779091 0 -0.4631872778078443 0.050062174524471058 0 -0.44755765064800451 0.039790068000500847 0 -0.45793597630314969 0.024230769359779091 0 -0.44755765064800451 0.039790068000500847 0 -0.43523671041618939 0.023434885238954581 0 -0.43070758581248142 0.047053180835022322 0 -0.4631872778078443 0.050062174524471058 0 -0.44755765064800451 0.039790068000500847 0 -0.4467001814262947 0.061097152827744368 0 -0.44755765064800451 0.039790068000500847 0 -0.4467001814262947 0.061097152827744368 0 -0.43070758581248142 0.047053180835022322 0 -0.45268467479845531 -0.00160063580491273 0 -0.45793597630314969 0.024230769359779091 0 -0.45268467479845531 -0.00160063580491273 0 -0.47044579822050858 0.003730308873902122 0 -0.45793597630314969 0.024230769359779091 0 -0.44755765064800451 0.039790068000500847 0 -0.45793597630314969 0.024230769359779091 0 -0.43523671041618939 0.023434885238954581 0 -0.45268467479845531 -0.00160063580491273 0 -0.45793597630314969 0.024230769359779091 0 -0.43523671041618939 0.023434885238954581 0 -0.43033724725149269 -0.0037964727450953309 0 -0.45268467479845531 -0.00160063580491273 0 -0.43523671041618939 0.023434885238954581 0 -0.43033724725149269 -0.0037964727450953309 0 -0.41324112120922679 0.019839095479414509 0 -0.43523671041618939 0.023434885238954581 0 -0.4131572459017161 -0.004875649818797438 0 -0.41324112120922679 0.019839095479414509 0 -0.40033306733275759 0.0019581273283447299 0 -0.43033724725149269 -0.0037964727450953309 0 -0.4131572459017161 -0.004875649818797438 0 -0.41324112120922679 0.019839095479414509 0 -0.43033724725149269 -0.0037964727450953309 0 -0.41324112120922679 0.019839095479414509 0 -0.41324112120922679 0.019839095479414509 0 -0.43523671041618939 0.023434885238954581 0 -0.4159879611894004 0.038538653043845933 0 -0.43523671041618939 0.023434885238954581 0 -0.43070758581248142 0.047053180835022322 0 -0.4159879611894004 0.038538653043845933 0 -0.4467001814262947 0.061097152827744368 0 -0.43070758581248142 0.047053180835022322 0 -0.43187545736445182 0.065921103617004775 0 -0.43070758581248142 0.047053180835022322 0 -0.41322656597679058 0.058941655142102069 0 -0.43187545736445182 0.065921103617004775 0 -0.43070758581248142 0.047053180835022322 0 -0.41322656597679058 0.058941655142102069 0 -0.4159879611894004 0.038538653043845933 0 -0.41322656597679058 0.058941655142102069 0 -0.4159879611894004 0.038538653043845933 0 -0.39614499516696089 0.04347466370392436 0 -0.41324112120922679 0.019839095479414509 0 -0.4159879611894004 0.038538653043845933 0 -0.39614499516696089 0.04347466370392436 0 -0.41324112120922679 0.019839095479414509 0 -0.39614499516696089 0.04347466370392436 0 -0.39614499516696089 0.04347466370392436 0 -0.37904886912469499 0.067110231928434197 0 -0.39695674231957478 0.074929810419583368 0 -0.41322656597679058 0.058941655142102069 0 -0.39614499516696089 0.04347466370392436 0 -0.39695674231957478 0.074929810419583368 0 -0.39614499516696089 0.04347466370392436 0 -0.37904886912469499 0.067110231928434197 0 -0.39614499516696089 0.04347466370392436 0 -0.37830855690199738 0.048851891747440382 0 -0.37904886912469499 0.067110231928434197 0 -0.37830855690199738 0.048851891747440382 0 -0.37904886912469499 0.067110231928434197 0 -0.37119345183321822 0.058853827639881867 0 -0.39614499516696089 0.04347466370392436 0 -0.37753126207020948 0.034899308803226177 0 -0.39262774316901877 0.02112007510405265 0 -0.39614499516696089 0.04347466370392436 0 -0.37830855690199738 0.048851891747440382 0 -0.37753126207020948 0.034899308803226177 0 -0.38389636562500351 0.0078670615218947963 0 -0.39262774316901877 0.02112007510405265 0 -0.37274578052696178 0.01868977009819147 0 -0.37753126207020948 0.034899308803226177 0 -0.39262774316901877 0.02112007510405265 0 -0.37274578052696178 0.01868977009819147 0 -0.38465333842141641 -0.0066435457767305304 0 -0.38389636562500351 0.0078670615218947963 0 -0.40033306733275759 0.0019581273283447299 0 -0.38389636562500351 0.0078670615218947963 0 -0.37274578052696178 0.01868977009819147 0 -0.36979036210562988 0.0025511841975563729 0 -0.38465333842141641 -0.0066435457767305304 0 -0.38389636562500351 0.0078670615218947963 0 -0.36979036210562988 0.0025511841975563729 0 -0.38389636562500351 0.0078670615218947963 0 -0.40033306733275759 0.0019581273283447299 0 -0.39262774316901877 0.02112007510405265 0 -0.41324112120922679 0.019839095479414509 0 -0.40033306733275759 0.0019581273283447299 0 -0.39262774316901877 0.02112007510405265 0 -0.41324112120922679 0.019839095479414509 0 -0.39614499516696089 0.04347466370392436 0 -0.39262774316901877 0.02112007510405265 0 -0.38940712396436111 0.098535478259042519 0 -0.39976920250104669 0.086913075381088473 0 -0.40655062222011962 0.096340958868671334 0 -0.39063101314785642 0.1199442217017349 0 -0.40655062222011962 0.096340958868671334 0 -0.40795026737523371 0.1101441825861223 0 -0.39063101314785642 0.1199442217017349 0 -0.38940712396436111 0.098535478259042519 0 -0.40655062222011962 0.096340958868671334 0 -0.39063101314785642 0.1199442217017349 0 -0.40655062222011962 0.096340958868671334 0 -0.39063101314785642 0.1199442217017349 0 -0.40795026737523371 0.1101441825861223 0 -0.40406865080306442 0.1250183431131778 0 -0.39063101314785642 0.1199442217017349 0 -0.37896648635229202 0.10715504183998489 0 -0.36716541190589658 0.118616890008602 0 -0.39063101314785642 0.1199442217017349 0 -0.37896648635229202 0.10715504183998489 0 -0.38940712396436111 0.098535478259042519 0 -0.37896648635229202 0.10715504183998489 0 -0.38940712396436111 0.098535478259042519 0 -0.37643332436138899 0.09558572737664002 0 -0.38119130922167832 0.078766060501995444 0 -0.3856317933390121 0.08567132342606161 0 -0.39695674231957478 0.074929810419583368 0 -0.37643332436138899 0.09558572737664002 0 -0.3856317933390121 0.08567132342606161 0 -0.37016311523106599 0.083751267223082917 0 -0.38119130922167832 0.078766060501995444 0 -0.3856317933390121 0.08567132342606161 0 -0.37016311523106599 0.083751267223082917 0 -0.38940712396436111 0.098535478259042519 0 -0.37643332436138899 0.09558572737664002 0 -0.3856317933390121 0.08567132342606161 0 -0.39695674231957478 0.074929810419583368 0 -0.37201358599706058 0.070711840939253895 0 -0.38119130922167832 0.078766060501995444 0 -0.39695674231957478 0.074929810419583368 0 -0.37201358599706058 0.070711840939253895 0 -0.37904886912469499 0.067110231928434197 0 -0.39695674231957478 0.074929810419583368 0 -0.37201358599706058 0.070711840939253895 0 -0.39695674231957478 0.074929810419583368 0 -0.39976920250104669 0.086913075381088473 0 -0.42189989864208899 0.079147779899912826 0 -0.38940712396436111 0.098535478259042519 0 -0.3856317933390121 0.08567132342606161 0 -0.39976920250104669 0.086913075381088473 0 -0.3856317933390121 0.08567132342606161 0 -0.39695674231957478 0.074929810419583368 0 -0.39976920250104669 0.086913075381088473 0 -0.42189989864208899 0.079147779899912826 0 -0.41823283762125668 0.10021421029095 0 -0.40655062222011962 0.096340958868671334 0 -0.39976920250104669 0.086913075381088473 0 -0.42189989864208899 0.079147779899912826 0 -0.40655062222011962 0.096340958868671334 0 -0.39695674231957478 0.074929810419583368 0 -0.42189989864208899 0.079147779899912826 0 -0.41322656597679058 0.058941655142102069 0 -0.39695674231957478 0.074929810419583368 0 -0.42189989864208899 0.079147779899912826 0 -0.43187545736445182 0.065921103617004775 0 -0.42189989864208899 0.079147779899912826 0 -0.44684305496460319 0.083365749380242285 0 -0.41322656597679058 0.058941655142102069 0 -0.43187545736445182 0.065921103617004775 0 -0.42189989864208899 0.079147779899912826 0 -0.42189989864208899 0.079147779899912826 0 -0.43230900050581528 0.10074033507248679 0 -0.44684305496460319 0.083365749380242285 0 -0.42189989864208899 0.079147779899912826 0 -0.43230900050581528 0.10074033507248679 0 -0.41823283762125668 0.10021421029095 0 -0.42189989864208899 0.079147779899912826 0 -0.44684305496460319 0.083365749380242285 0 -0.43230900050581528 0.10074033507248679 0 -0.41823283762125668 0.10021421029095 0 -0.42245439936302609 0.1146977950275566 0 -0.41823283762125668 0.10021421029095 0 -0.40795026737523371 0.1101441825861223 0 -0.42245439936302609 0.1146977950275566 0 -0.41823283762125668 0.10021421029095 0 -0.40655062222011962 0.096340958868671334 0 -0.40795026737523371 0.1101441825861223 0 -0.40795026737523371 0.1101441825861223 0 -0.42245439936302609 0.1146977950275566 0 -0.41854804079657681 0.1335618185962307 0 -0.40795026737523371 0.1101441825861223 0 -0.41854804079657681 0.1335618185962307 0 -0.40795026737523371 0.1101441825861223 0 -0.41854804079657681 0.1335618185962307 0 -0.40406865080306442 0.1250183431131778 0 -0.4361514068569779 0.1212930370016405 0 -0.42245439936302609 0.1146977950275566 0 -0.41854804079657681 0.1335618185962307 0 -0.43230900050581528 0.10074033507248679 0 -0.4361514068569779 0.1212930370016405 0 -0.42245439936302609 0.1146977950275566 0 -0.4361514068569779 0.1212930370016405 0 -0.45131059104818438 0.10389771754541841 0 -0.45603072582896947 0.12415654782577901 0 -0.43230900050581528 0.10074033507248679 0 -0.4361514068569779 0.1212930370016405 0 -0.45131059104818438 0.10389771754541841 0 -0.43230900050581528 0.10074033507248679 0 -0.45131059104818438 0.10389771754541841 0 -0.44684305496460319 0.083365749380242285 0 -0.45131059104818438 0.10389771754541841 0 -0.46040635620489312 0.091287960740373597 0 -0.47503319949424611 0.10199479634667059 0 -0.45131059104818438 0.10389771754541841 0 -0.45603072582896947 0.12415654782577901 0 -0.47503319949424611 0.10199479634667059 0 -0.4467001814262947 0.061097152827744368 0 -0.43187545736445182 0.065921103617004775 0 -0.44684305496460319 0.083365749380242285 0 -0.45131059104818438 0.10389771754541841 0 -0.44684305496460319 0.083365749380242285 0 -0.46040635620489312 0.091287960740373597 0 -0.46040635620489312 0.091287960740373597 0 -0.46843857931253879 0.07589357968916309 0 -0.47503319949424611 0.10199479634667059 0 -0.44684305496460319 0.083365749380242285 0 -0.46040635620489312 0.091287960740373597 0 -0.46843857931253879 0.07589357968916309 0 -0.4631872778078443 0.050062174524471058 0 -0.46843857931253879 0.07589357968916309 0 -0.4467001814262947 0.061097152827744368 0 -0.44684305496460319 0.083365749380242285 0 -0.46843857931253879 0.07589357968916309 0 -0.48160115767747708 0.06010989829645641 0 -0.46843857931253879 0.07589357968916309 0 -0.5 0.083070687084506711 0 -0.46843857931253879 0.07589357968916309 0 -0.5 0.083070687084506711 0 -0.47503319949424611 0.10199479634667059 0 -0.5 0.05407575864766756 0 -0.48160115767747708 0.06010989829645641 0 -0.5 0.083070687084506711 0 -0.45603072582896947 0.12415654782577901 0 -0.47503319949424611 0.10199479634667059 0 -0.47840746745339868 0.1318715347448986 0 -0.5 0.083070687084506711 0 -0.47503319949424611 0.10199479634667059 0 -0.5 0.11206561552134579 0 -0.47503319949424611 0.10199479634667059 0 -0.5 0.11206561552134579 0 -0.47840746745339868 0.1318715347448986 0 -0.5 0.11206561552134579 0 -0.47840746745339868 0.1318715347448986 0 -0.5 0.14106054395818479 0 -0.47840746745339868 0.1318715347448986 0 -0.4813713775429343 0.15534342778339541 0 -0.45584990199199521 0.14839652371063539 0 -0.47840746745339868 0.1318715347448986 0 -0.4813713775429343 0.15534342778339541 0 -0.5 0.14106054395818479 0 -0.4813713775429343 0.15534342778339541 0 -0.5 0.14106054395818479 0 -0.5 0.17005547239502389 0 -0.4813713775429343 0.15534342778339541 0 -0.5 0.17005547239502389 0 -0.47888983910924399 0.1833910978263659 0 -0.5 0.17005547239502389 0 -0.47888983910924399 0.1833910978263659 0 -0.49999999999999639 0.19905040083186301 0 -0.4813713775429343 0.15534342778339541 0 -0.47888983910924399 0.1833910978263659 0 -0.46013732273498392 0.17116473448995881 0 -0.4813713775429343 0.15534342778339541 0 -0.47888983910924399 0.1833910978263659 0 -0.4813713775429343 0.15534342778339541 0 -0.46013732273498392 0.17116473448995881 0 -0.45584990199199521 0.14839652371063539 0 -0.47888983910924399 0.1833910978263659 0 -0.46013732273498392 0.17116473448995881 0 -0.4553652866229031 0.19812390853730849 0 -0.46013732273498392 0.17116473448995881 0 -0.43974358763926291 0.18039709061644729 0 -0.4553652866229031 0.19812390853730849 0 -0.46013732273498392 0.17116473448995881 0 -0.45584990199199521 0.14839652371063539 0 -0.42914581421791992 0.156979454606339 0 -0.46013732273498392 0.17116473448995881 0 -0.43974358763926291 0.18039709061644729 0 -0.42914581421791992 0.156979454606339 0 -0.43890233478009338 0.1378395493323826 0 -0.45584990199199521 0.14839652371063539 0 -0.42914581421791992 0.156979454606339 0 -0.4361514068569779 0.1212930370016405 0 -0.45603072582896947 0.12415654782577901 0 -0.43890233478009338 0.1378395493323826 0 -0.45603072582896947 0.12415654782577901 0 -0.43890233478009338 0.1378395493323826 0 -0.45584990199199521 0.14839652371063539 0 -0.45603072582896947 0.12415654782577901 0 -0.47840746745339868 0.1318715347448986 0 -0.45584990199199521 0.14839652371063539 0 -0.48510068849613291 0.2464952989699998 0 -0.5 0.22952651967534751 0 -0.5 0.27058277969487637 0 -0.48510068849613291 0.2464952989699998 0 -0.47450648191078398 0.23293413722231679 0 -0.4662317729600568 0.24711617116125539 0 -0.48510068849613291 0.2464952989699998 0 -0.5 0.22952651967534751 0 -0.47450648191078398 0.23293413722231679 0 -0.5 0.22952651967534751 0 -0.47450648191078398 0.23293413722231679 0 -0.47640830067555312 0.21143876786933641 0 -0.47450648191078398 0.23293413722231679 0 -0.47640830067555312 0.21143876786933641 0 -0.47640830067555312 0.21143876786933641 0 -0.49999999999999639 0.19905040083186301 0 -0.5 0.22952651967534751 0 -0.47640830067555312 0.21143876786933641 0 -0.49999999999999639 0.19905040083186301 0 -0.47888983910924399 0.1833910978263659 0 -0.47640830067555312 0.21143876786933641 0 -0.49999999999999639 0.19905040083186301 0 -0.47888983910924399 0.1833910978263659 0 -0.47640830067555312 0.21143876786933641 0 -0.47888983910924399 0.1833910978263659 0 -0.47640830067555312 0.21143876786933641 0 -0.4553652866229031 0.19812390853730849 0 -0.43974358763926291 0.18039709061644729 0 -0.4553652866229031 0.19812390853730849 0 -0.43067986422853077 0.20940139548392031 0 -0.4553652866229031 0.19812390853730849 0 -0.45283971357182312 0.22381499832142371 0 -0.43067986422853077 0.20940139548392031 0 -0.47640830067555312 0.21143876786933641 0 -0.4553652866229031 0.19812390853730849 0 -0.45283971357182312 0.22381499832142371 0 -0.47640830067555312 0.21143876786933641 0 -0.45283971357182312 0.22381499832142371 0 -0.47450648191078398 0.23293413722231679 0 -0.45283971357182312 0.22381499832142371 0 -0.45078000859246359 0.24156244513336969 0 -0.47450648191078398 0.23293413722231679 0 -0.47640830067555312 0.21143876786933641 0 -0.45283971357182312 0.22381499832142371 0 -0.45283971357182312 0.22381499832142371 0 -0.43294786837480398 0.2404538296894207 0 -0.42927112646809362 0.23619122877351181 0 -0.45283971357182312 0.22381499832142371 0 -0.42927112646809362 0.23619122877351181 0 -0.45283971357182312 0.22381499832142371 0 -0.42927112646809362 0.23619122877351181 0 -0.43067986422853077 0.20940139548392031 0 -0.45283971357182312 0.22381499832142371 0 -0.45078000859246359 0.24156244513336969 0 -0.43294786837480398 0.2404538296894207 0 -0.43294786837480398 0.2404538296894207 0 -0.44957601688056159 0.25938839971938082 0 -0.45078000859246359 0.24156244513336969 0 -0.43294786837480398 0.2404538296894207 0 -0.44957601688056159 0.25938839971938082 0 -0.45078000859246359 0.24156244513336969 0 -0.4662317729600568 0.24711617116125539 0 -0.44957601688056159 0.25938839971938082 0 -0.47450648191078398 0.23293413722231679 0 -0.45078000859246359 0.24156244513336969 0 -0.4662317729600568 0.24711617116125539 0 -0.42927112646809362 0.23619122877351181 0 -0.40439403923729561 0.237116777479636 0 -0.40570253936436479 0.24856745922560119 0 -0.42927112646809362 0.23619122877351181 0 -0.40570253936436479 0.24856745922560119 0 -0.43294786837480398 0.2404538296894207 0 -0.42927112646809362 0.23619122877351181 0 -0.40570253936436479 0.24856745922560119 0 -0.42927112646809362 0.23619122877351181 0 -0.41099867150134572 0.22378265931279079 0 -0.43067986422853077 0.20940139548392031 0 -0.42927112646809362 0.23619122877351181 0 -0.41099867150134572 0.22378265931279079 0 -0.40439403923729561 0.237116777479636 0 -0.40693149157881192 0.20854646138297669 0 -0.43067986422853077 0.20940139548392031 0 -0.41468845130467291 0.19268004053423909 0 -0.41099867150134572 0.22378265931279079 0 -0.40693149157881192 0.20854646138297669 0 -0.43067986422853077 0.20940139548392031 0 -0.43974358763926291 0.18039709061644729 0 -0.43067986422853077 0.20940139548392031 0 -0.41468845130467291 0.19268004053423909 0 -0.40693149157881192 0.20854646138297669 0 -0.41468845130467291 0.19268004053423909 0 -0.3971577940731173 0.19827573187671929 0 -0.41468845130467291 0.19268004053423909 0 -0.3971577940731173 0.19827573187671929 0 -0.39721082993519219 0.18448993107768991 0 -0.3971577940731173 0.19827573187671929 0 -0.38589476142810619 0.19424352100093389 0 -0.39721082993519219 0.18448993107768991 0 -0.38589476142810619 0.19424352100093389 0 -0.37633455857784293 0.18261391494179069 0 -0.37360736010814782 0.20134128663860251 0 -0.38589476142810619 0.19424352100093389 0 -0.388204088430469 0.2080493245121296 0 -0.37360736010814782 0.20134128663860251 0 -0.3971577940731173 0.19827573187671929 0 -0.38589476142810619 0.19424352100093389 0 -0.388204088430469 0.2080493245121296 0 -0.388204088430469 0.2080493245121296 0 -0.37752279527241261 0.21261086987475841 0 -0.37360736010814782 0.20134128663860251 0 -0.388204088430469 0.2080493245121296 0 -0.39698893960476778 0.22105750592270679 0 -0.38334950790794681 0.2216260941536595 0 -0.388204088430469 0.2080493245121296 0 -0.37752279527241261 0.21261086987475841 0 -0.38334950790794681 0.2216260941536595 0 -0.40693149157881192 0.20854646138297669 0 -0.3971577940731173 0.19827573187671929 0 -0.388204088430469 0.2080493245121296 0 -0.40693149157881192 0.20854646138297669 0 -0.388204088430469 0.2080493245121296 0 -0.39698893960476778 0.22105750592270679 0 -0.41099867150134572 0.22378265931279079 0 -0.40693149157881192 0.20854646138297669 0 -0.39698893960476778 0.22105750592270679 0 -0.41099867150134572 0.22378265931279079 0 -0.39817935363044121 0.2307605800777236 0 -0.39698893960476778 0.22105750592270679 0 -0.41099867150134572 0.22378265931279079 0 -0.39817935363044121 0.2307605800777236 0 -0.40439403923729561 0.237116777479636 0 -0.39817935363044121 0.2307605800777236 0 -0.39698893960476778 0.22105750592270679 0 -0.38938082192181989 0.23429513208400299 0 -0.39698893960476778 0.22105750592270679 0 -0.38334950790794681 0.2216260941536595 0 -0.38938082192181989 0.23429513208400299 0 -0.37752279527241261 0.21261086987475841 0 -0.38334950790794681 0.2216260941536595 0 -0.37349668708843092 0.2226496950895116 0 -0.38334950790794681 0.2216260941536595 0 -0.37780308712422273 0.23309721308500589 0 -0.37349668708843092 0.2226496950895116 0 -0.38334950790794681 0.2216260941536595 0 -0.37780308712422273 0.23309721308500589 0 -0.38938082192181989 0.23429513208400299 0 -0.37780308712422273 0.23309721308500589 0 -0.38938082192181989 0.23429513208400299 0 -0.38455494932564349 0.24416718140159829 0 -0.38938082192181989 0.23429513208400299 0 -0.38455494932564349 0.24416718140159829 0 -0.39556747567899392 0.24292135359640349 0 -0.37780308712422273 0.23309721308500589 0 -0.37552267705158737 0.2431978490864326 0 -0.38455494932564349 0.24416718140159829 0 -0.37552267705158737 0.2431978490864326 0 -0.38455494932564349 0.24416718140159829 0 -0.37675611103540763 0.25409865512553548 0 -0.38455494932564349 0.24416718140159829 0 -0.39556747567899392 0.24292135359640349 0 -0.38900306751682168 0.25733661077056619 0 -0.39556747567899392 0.24292135359640349 0 -0.40570253936436479 0.24856745922560119 0 -0.38900306751682168 0.25733661077056619 0 -0.39817935363044121 0.2307605800777236 0 -0.38938082192181989 0.23429513208400299 0 -0.39556747567899392 0.24292135359640349 0 -0.39817935363044121 0.2307605800777236 0 -0.39556747567899392 0.24292135359640349 0 -0.40439403923729561 0.237116777479636 0 -0.39556747567899392 0.24292135359640349 0 -0.40439403923729561 0.237116777479636 0 -0.40570253936436479 0.24856745922560119 0 -0.40439403923729561 0.237116777479636 0 -0.40570253936436479 0.24856745922560119 0 -0.41854804079657681 0.1335618185962307 0 -0.42914581421791992 0.156979454606339 0 -0.40043471814444209 0.15516303321545699 0 -0.41854804079657681 0.1335618185962307 0 -0.39914528189259102 0.13642314956862331 0 -0.40406865080306442 0.1250183431131778 0 -0.4361514068569779 0.1212930370016405 0 -0.43890233478009338 0.1378395493323826 0 -0.41854804079657681 0.1335618185962307 0 -0.41854804079657681 0.1335618185962307 0 -0.42914581421791992 0.156979454606339 0 -0.43890233478009338 0.1378395493323826 0 -0.41854804079657681 0.1335618185962307 0 -0.42914581421791992 0.156979454606339 0 -0.43974358763926291 0.18039709061644729 0 -0.42914581421791992 0.156979454606339 0 -0.43974358763926291 0.18039709061644729 0 -0.42914581421791992 0.156979454606339 0 -0.41320507520050959 0.17295104721716609 0 -0.43974358763926291 0.18039709061644729 0 -0.41468845130467291 0.19268004053423909 0 -0.41320507520050959 0.17295104721716609 0 -0.41468845130467291 0.19268004053423909 0 -0.41320507520050959 0.17295104721716609 0 -0.39721082993519219 0.18448993107768991 0 -0.42914581421791992 0.156979454606339 0 -0.41320507520050959 0.17295104721716609 0 -0.40043471814444209 0.15516303321545699 0 -0.41320507520050959 0.17295104721716609 0 -0.39020731289493082 0.17075062011690681 0 -0.40043471814444209 0.15516303321545699 0 -0.41320507520050959 0.17295104721716609 0 -0.39721082993519219 0.18448993107768991 0 -0.39020731289493082 0.17075062011690681 0 -0.38589476142810619 0.19424352100093389 0 -0.39721082993519219 0.18448993107768991 0 -0.37633455857784293 0.18261391494179069 0 -0.39721082993519219 0.18448993107768991 0 -0.37633455857784293 0.18261391494179069 0 -0.39020731289493082 0.17075062011690681 0 -0.37604315808934557 0.1616159605326225 0 -0.39020731289493082 0.17075062011690681 0 -0.40043471814444209 0.15516303321545699 0 -0.37633455857784293 0.18261391494179069 0 -0.37604315808934557 0.1616159605326225 0 -0.39020731289493082 0.17075062011690681 0 -0.37604315808934557 0.1616159605326225 0 -0.40043471814444209 0.15516303321545699 0 -0.37471140407559322 0.1435474845347986 0 -0.40043471814444209 0.15516303321545699 0 -0.39914528189259102 0.13642314956862331 0 -0.37471140407559322 0.1435474845347986 0 -0.41854804079657681 0.1335618185962307 0 -0.40043471814444209 0.15516303321545699 0 -0.39914528189259102 0.13642314956862331 0 -0.39063101314785642 0.1199442217017349 0 -0.39914528189259102 0.13642314956862331 0 -0.40406865080306442 0.1250183431131778 0 -0.39063101314785642 0.1199442217017349 0 -0.37471140407559322 0.1435474845347986 0 -0.39063101314785642 0.1199442217017349 0 -0.39914528189259102 0.13642314956862331 0 -0.37471140407559322 0.1435474845347986 0 -0.39063101314785642 0.1199442217017349 0 -0.37471140407559322 0.1435474845347986 0 -0.36716541190589658 0.118616890008602 0 -0.35994195951422209 0.1344452768815545 0 -0.37471140407559322 0.1435474845347986 0 -0.36716541190589658 0.118616890008602 0 -0.35994195951422209 0.1344452768815545 0 -0.36716541190589658 0.118616890008602 0 -0.35352278934268327 0.12307152153672141 0 -0.34641309729257957 0.13731862859844601 0 -0.34013489564456101 0.1359120708212119 0 -0.34492978578452338 0.1096826786703838 0 -0.35994195951422209 0.1344452768815545 0 -0.34641309729257957 0.13731862859844601 0 -0.35352278934268327 0.12307152153672141 0 -0.35994195951422209 0.1344452768815545 0 -0.34641309729257957 0.13731862859844601 0 -0.35789709495435779 0.14967185972920441 0 -0.34641309729257957 0.13731862859844601 0 -0.34789640880063583 0.16495457852650819 0 -0.34475730797662613 0.16425129963789131 0 -0.34641309729257957 0.13731862859844601 0 -0.34789640880063583 0.16495457852650819 0 -0.34641309729257957 0.13731862859844601 0 -0.35789709495435779 0.14967185972920441 0 -0.34789640880063583 0.16495457852650819 0 -0.34641309729257957 0.13731862859844601 0 -0.34475730797662613 0.16425129963789131 0 -0.34013489564456101 0.1359120708212119 0 -0.35994195951422209 0.1344452768815545 0 -0.35789709495435779 0.14967185972920441 0 -0.37471140407559322 0.1435474845347986 0 -0.37471140407559322 0.1435474845347986 0 -0.35879179500333003 0.16715074736786231 0 -0.35789709495435779 0.14967185972920441 0 -0.37471140407559322 0.1435474845347986 0 -0.35879179500333003 0.16715074736786231 0 -0.37604315808934557 0.1616159605326225 0 -0.37471140407559322 0.1435474845347986 0 -0.35879179500333003 0.16715074736786231 0 -0.37604315808934557 0.1616159605326225 0 -0.36770080355277779 0.17295393471821821 0 -0.35879179500333003 0.16715074736786231 0 -0.37633455857784293 0.18261391494179069 0 -0.37604315808934557 0.1616159605326225 0 -0.36770080355277779 0.17295393471821821 0 -0.37633455857784293 0.18261391494179069 0 -0.36024484160731629 0.17922248672973989 0 -0.36412185028301147 0.19234279238731111 0 -0.37633455857784293 0.18261391494179069 0 -0.36770080355277779 0.17295393471821821 0 -0.36024484160731629 0.17922248672973989 0 -0.36770080355277779 0.17295393471821821 0 -0.36024484160731629 0.17922248672973989 0 -0.35879179500333003 0.16715074736786231 0 -0.34475730797662613 0.16425129963789131 0 -0.34937972030869158 0.1925905284545705 0 -0.34475730797662613 0.16425129963789131 0 -0.33955964773429331 0.17429409395644799 0 -0.34937972030869158 0.1925905284545705 0 -0.34789640880063583 0.16495457852650819 0 -0.34937972030869158 0.1925905284545705 0 -0.36024484160731629 0.17922248672973989 0 -0.34789640880063583 0.16495457852650819 0 -0.34937972030869158 0.1925905284545705 0 -0.34789640880063583 0.16495457852650819 0 -0.34475730797662613 0.16425129963789131 0 -0.34937972030869158 0.1925905284545705 0 -0.35789709495435779 0.14967185972920441 0 -0.35879179500333003 0.16715074736786231 0 -0.34789640880063583 0.16495457852650819 0 -0.36024484160731629 0.17922248672973989 0 -0.35879179500333003 0.16715074736786231 0 -0.34789640880063583 0.16495457852650819 0 -0.34475730797662613 0.16425129963789131 0 -0.33718479128260948 0.15937809544746401 0 -0.33738994680948231 0.15124435901621999 0 -0.34475730797662613 0.16425129963789131 0 -0.33718479128260948 0.15937809544746401 0 -0.33813633189250208 0.16634522180797001 0 -0.34475730797662613 0.16425129963789131 0 -0.33813633189250208 0.16634522180797001 0 -0.33955964773429331 0.17429409395644799 0 -0.33813633189250208 0.16634522180797001 0 -0.33104358057647992 0.16745739819007679 0 -0.33955964773429331 0.17429409395644799 0 -0.33718479128260948 0.15937809544746401 0 -0.33813633189250208 0.16634522180797001 0 -0.33104358057647992 0.16745739819007679 0 -0.33718479128260948 0.15937809544746401 0 -0.33104358057647992 0.16745739819007679 0 -0.33026858376101731 0.15190637449176561 0 -0.33104358057647992 0.16745739819007679 0 -0.33403331992976748 0.18227938602527921 0 -0.31962491903722229 0.18594758427241961 0 -0.33955964773429331 0.17429409395644799 0 -0.33403331992976748 0.18227938602527921 0 -0.34937972030869158 0.1925905284545705 0 -0.33104358057647992 0.16745739819007679 0 -0.33955964773429331 0.17429409395644799 0 -0.33403331992976748 0.18227938602527921 0 -0.31962491903722229 0.18594758427241961 0 -0.31796283648197832 0.1633337389314328 0 -0.30596240671843039 0.18080678990447141 0 -0.31962491903722229 0.18594758427241961 0 -0.31796283648197832 0.1633337389314328 0 -0.33104358057647992 0.16745739819007679 0 -0.31962491903722229 0.18594758427241961 0 -0.31796283648197832 0.1633337389314328 0 -0.33104358057647992 0.16745739819007679 0 -0.31796283648197832 0.1633337389314328 0 -0.33026858376101731 0.15190637449176561 0 -0.31796283648197832 0.1633337389314328 0 -0.31630075392673418 0.14071989359044609 0 -0.31796283648197832 0.1633337389314328 0 -0.31630075392673418 0.14071989359044609 0 -0.33026858376101731 0.15190637449176561 0 -0.31630075392673418 0.14071989359044609 0 -0.32855297285770901 0.13997743418302819 0 -0.33026858376101731 0.15190637449176561 0 -0.31630075392673418 0.14071989359044609 0 -0.30835875028686138 0.12836861128214669 0 -0.32196666651361477 0.12487749701900901 0 -0.31630075392673418 0.14071989359044609 0 -0.32855297285770901 0.13997743418302819 0 -0.32196666651361477 0.12487749701900901 0 -0.32855297285770901 0.13997743418302819 0 -0.33106980320980312 0.1246503866679774 0 -0.32196666651361477 0.12487749701900901 0 -0.32855297285770901 0.13997743418302819 0 -0.34013489564456101 0.1359120708212119 0 -0.3346041553825978 0.14477395468276741 0 -0.32855297285770901 0.13997743418302819 0 -0.34013489564456101 0.1359120708212119 0 -0.33106980320980312 0.1246503866679774 0 -0.34475730797662613 0.16425129963789131 0 -0.34013489564456101 0.1359120708212119 0 -0.34013489564456101 0.1359120708212119 0 -0.33738994680948231 0.15124435901621999 0 -0.3346041553825978 0.14477395468276741 0 -0.34475730797662613 0.16425129963789131 0 -0.34013489564456101 0.1359120708212119 0 -0.33738994680948231 0.15124435901621999 0 -0.33718479128260948 0.15937809544746401 0 -0.33738994680948231 0.15124435901621999 0 -0.33026858376101731 0.15190637449176561 0 -0.33738994680948231 0.15124435901621999 0 -0.33026858376101731 0.15190637449176561 0 -0.3346041553825978 0.14477395468276741 0 -0.32855297285770901 0.13997743418302819 0 -0.33026858376101731 0.15190637449176561 0 -0.3346041553825978 0.14477395468276741 0 -0.35208907389890948 0.24306917690434299 0 -0.33787454055877381 0.24529314191448051 0 -0.34142207509263922 0.25572960106260723 0 -0.35208907389890948 0.24306917690434299 0 -0.34508884738596168 0.2342440782649087 0 -0.33787454055877381 0.24529314191448051 0 -0.35689366634974828 0.23865726176967661 0 -0.35926376548055328 0.2486735779402334 0 -0.35208907389890948 0.24306917690434299 0 -0.35926376548055328 0.2486735779402334 0 -0.36665925593476811 0.2402392529692276 0 -0.36723308052532222 0.25309369692869038 0 -0.35689366634974828 0.23865726176967661 0 -0.35926376548055328 0.2486735779402334 0 -0.36665925593476811 0.2402392529692276 0 -0.37552267705158737 0.2431978490864326 0 -0.36665925593476811 0.2402392529692276 0 -0.36723308052532222 0.25309369692869038 0 -0.37780308712422273 0.23309721308500589 0 -0.37552267705158737 0.2431978490864326 0 -0.36665925593476811 0.2402392529692276 0 -0.37780308712422273 0.23309721308500589 0 -0.36665925593476811 0.2402392529692276 0 -0.36843053074319038 0.2307028505946831 0 -0.3637449320256837 0.23462317477255459 0 -0.36665925593476811 0.2402392529692276 0 -0.36843053074319038 0.2307028505946831 0 -0.35689366634974828 0.23865726176967661 0 -0.3637449320256837 0.23462317477255459 0 -0.36304404037139409 0.23042929735762199 0 -0.35689366634974828 0.23865726176967661 0 -0.3637449320256837 0.23462317477255459 0 -0.36665925593476811 0.2402392529692276 0 -0.35689366634974828 0.23865726176967661 0 -0.36304404037139409 0.23042929735762199 0 -0.36041387714694573 0.22521835140317789 0 -0.36304404037139409 0.23042929735762199 0 -0.36843053074319038 0.2307028505946831 0 -0.36573719559140289 0.222944848248018 0 -0.3637449320256837 0.23462317477255459 0 -0.36304404037139409 0.23042929735762199 0 -0.36843053074319038 0.2307028505946831 0 -0.37780308712422273 0.23309721308500589 0 -0.36843053074319038 0.2307028505946831 0 -0.37349668708843092 0.2226496950895116 0 -0.36843053074319038 0.2307028505946831 0 -0.37349668708843092 0.2226496950895116 0 -0.36573719559140289 0.222944848248018 0 -0.37349668708843092 0.2226496950895116 0 -0.36573719559140289 0.222944848248018 0 -0.36813700589141007 0.21491629458094519 0 -0.36304404037139409 0.23042929735762199 0 -0.36573719559140289 0.222944848248018 0 -0.36041387714694573 0.22521835140317789 0 -0.36573719559140289 0.222944848248018 0 -0.36041387714694573 0.22521835140317789 0 -0.36096209089537368 0.21759825830877291 0 -0.36041387714694573 0.22521835140317789 0 -0.35785158193032179 0.22427444164843771 0 -0.36096209089537368 0.21759825830877291 0 -0.35689366634974828 0.23865726176967661 0 -0.35785158193032179 0.22427444164843771 0 -0.35313669332921982 0.21562389511212349 0 -0.35785158193032179 0.22427444164843771 0 -0.35313669332921982 0.21562389511212349 0 -0.36096209089537368 0.21759825830877291 0 -0.35689366634974828 0.23865726176967661 0 -0.35313669332921982 0.21562389511212349 0 -0.35208907389890948 0.24306917690434299 0 -0.34508884738596168 0.2342440782649087 0 -0.35073439710380072 0.2178298526794567 0 -0.34508884738596168 0.2342440782649087 0 -0.35073439710380072 0.2178298526794567 0 -0.33965737798236312 0.2307841415613546 0 -0.35208907389890948 0.24306917690434299 0 -0.35073439710380072 0.2178298526794567 0 -0.35689366634974828 0.23865726176967661 0 -0.35073439710380072 0.2178298526794567 0 -0.35313669332921982 0.21562389511212349 0 -0.35689366634974828 0.23865726176967661 0 -0.35208907389890948 0.24306917690434299 0 -0.35073439710380072 0.2178298526794567 0 -0.35689366634974828 0.23865726176967661 0 -0.36041387714694573 0.22521835140317789 0 -0.35785158193032179 0.22427444164843771 0 -0.35073439710380072 0.2178298526794567 0 -0.34937972030869158 0.1925905284545705 0 -0.35313669332921982 0.21562389511212349 0 -0.36104277081305908 0.20594574517185199 0 -0.34937972030869158 0.1925905284545705 0 -0.35073439710380072 0.2178298526794567 0 -0.35313669332921982 0.21562389511212349 0 -0.34937972030869158 0.1925905284545705 0 -0.35313669332921982 0.21562389511212349 0 -0.34937972030869158 0.1925905284545705 0 -0.35073439710380072 0.2178298526794567 0 -0.34937972030869158 0.1925905284545705 0 -0.34310613959102931 0.2055031457500841 0 -0.35073439710380072 0.2178298526794567 0 -0.34310613959102931 0.2055031457500841 0 -0.34102096872395049 0.21330790674795511 0 -0.35073439710380072 0.2178298526794567 0 -0.34102096872395049 0.21330790674795511 0 -0.34050958406480097 0.2204489809667724 0 -0.35313669332921982 0.21562389511212349 0 -0.36096209089537368 0.21759825830877291 0 -0.36104277081305908 0.20594574517185199 0 -0.36573719559140289 0.222944848248018 0 -0.36096209089537368 0.21759825830877291 0 -0.36813700589141007 0.21491629458094519 0 -0.36096209089537368 0.21759825830877291 0 -0.36813700589141007 0.21491629458094519 0 -0.36104277081305908 0.20594574517185199 0 -0.37752279527241261 0.21261086987475841 0 -0.37349668708843092 0.2226496950895116 0 -0.36813700589141007 0.21491629458094519 0 -0.37752279527241261 0.21261086987475841 0 -0.36813700589141007 0.21491629458094519 0 -0.37360736010814782 0.20134128663860251 0 -0.36813700589141007 0.21491629458094519 0 -0.36104277081305908 0.20594574517185199 0 -0.37360736010814782 0.20134128663860251 0 -0.37633455857784293 0.18261391494179069 0 -0.37360736010814782 0.20134128663860251 0 -0.36412185028301147 0.19234279238731111 0 -0.36104277081305908 0.20594574517185199 0 -0.37360736010814782 0.20134128663860251 0 -0.36412185028301147 0.19234279238731111 0 -0.36024484160731629 0.17922248672973989 0 -0.36412185028301147 0.19234279238731111 0 -0.34937972030869158 0.1925905284545705 0 -0.36104277081305908 0.20594574517185199 0 -0.36412185028301147 0.19234279238731111 0 -0.34937972030869158 0.1925905284545705 0 -0.33403331992976748 0.18227938602527921 0 -0.34937972030869158 0.1925905284545705 0 -0.33132558757267788 0.19645560619981381 0 -0.34937972030869158 0.1925905284545705 0 -0.33132558757267788 0.19645560619981381 0 -0.34310613959102931 0.2055031457500841 0 -0.33132558757267788 0.19645560619981381 0 -0.33206760714527173 0.20694684499318661 0 -0.34310613959102931 0.2055031457500841 0 -0.33403331992976748 0.18227938602527921 0 -0.31962491903722229 0.18594758427241961 0 -0.33132558757267788 0.19645560619981381 0 -0.31962491903722229 0.18594758427241961 0 -0.33132558757267788 0.19645560619981381 0 -0.32128700159246643 0.2085614296134064 0 -0.31962491903722229 0.18594758427241961 0 -0.32128700159246643 0.2085614296134064 0 -0.31094130810426679 0.20146887601233149 0 -0.31962491903722229 0.18594758427241961 0 -0.32128700159246643 0.2085614296134064 0 -0.32128700159246643 0.2085614296134064 0 -0.30991457648112369 0.2265504040794763 0 -0.30833129431909739 0.21334832502430981 0 -0.32128700159246643 0.2085614296134064 0 -0.30833129431909739 0.21334832502430981 0 -0.31094130810426679 0.20146887601233149 0 -0.32128700159246643 0.2085614296134064 0 -0.334517009846864 0.21514148884522391 0 -0.33414886994078158 0.22469785659874761 0 -0.334517009846864 0.21514148884522391 0 -0.33206760714527173 0.20694684499318661 0 -0.34102096872395049 0.21330790674795511 0 -0.33132558757267788 0.19645560619981381 0 -0.32128700159246643 0.2085614296134064 0 -0.33206760714527173 0.20694684499318661 0 -0.32128700159246643 0.2085614296134064 0 -0.334517009846864 0.21514148884522391 0 -0.33206760714527173 0.20694684499318661 0 -0.33206760714527173 0.20694684499318661 0 -0.34310613959102931 0.2055031457500841 0 -0.34102096872395049 0.21330790674795511 0 -0.334517009846864 0.21514148884522391 0 -0.34102096872395049 0.21330790674795511 0 -0.34050958406480097 0.2204489809667724 0 -0.33965737798236312 0.2307841415613546 0 -0.33414886994078158 0.22469785659874761 0 -0.32294908414771051 0.231175274954393 0 -0.34050958406480097 0.2204489809667724 0 -0.33965737798236312 0.2307841415613546 0 -0.33414886994078158 0.22469785659874761 0 -0.334517009846864 0.21514148884522391 0 -0.34050958406480097 0.2204489809667724 0 -0.33414886994078158 0.22469785659874761 0 -0.35073439710380072 0.2178298526794567 0 -0.34050958406480097 0.2204489809667724 0 -0.33965737798236312 0.2307841415613546 0 -0.32128700159246643 0.2085614296134064 0 -0.33414886994078158 0.22469785659874761 0 -0.32294908414771051 0.231175274954393 0 -0.32128700159246643 0.2085614296134064 0 -0.32294908414771051 0.231175274954393 0 -0.32128700159246643 0.2085614296134064 0 -0.32294908414771051 0.231175274954393 0 -0.30991457648112369 0.2265504040794763 0 -0.32294908414771051 0.231175274954393 0 -0.30659471691689572 0.242716670786389 0 -0.30991457648112369 0.2265504040794763 0 -0.32294908414771051 0.231175274954393 0 -0.30659471691689572 0.242716670786389 0 -0.32493898666941562 0.25370598596143412 0 -0.33965737798236312 0.2307841415613546 0 -0.32294908414771051 0.231175274954393 0 -0.33787454055877381 0.24529314191448051 0 -0.32294908414771051 0.231175274954393 0 -0.33787454055877381 0.24529314191448051 0 -0.32493898666941562 0.25370598596143412 0 -0.34508884738596168 0.2342440782649087 0 -0.33965737798236312 0.2307841415613546 0 -0.33787454055877381 0.24529314191448051 0 -0.28392805579818597 0.24584677119781029 0 -0.30659471691689572 0.242716670786389 0 -0.29475597619187288 0.23283261746471121 0 -0.28392805579818597 0.24584677119781029 0 -0.29475597619187288 0.23283261746471121 0 -0.28109078806307641 0.23123665432302171 0 -0.30991457648112369 0.2265504040794763 0 -0.2995127007984647 0.22240216811521779 0 -0.29475597619187288 0.23283261746471121 0 -0.30659471691689572 0.242716670786389 0 -0.30991457648112369 0.2265504040794763 0 -0.29475597619187288 0.23283261746471121 0 -0.30991457648112369 0.2265504040794763 0 -0.2995127007984647 0.22240216811521779 0 -0.30833129431909739 0.21334832502430981 0 -0.2995127007984647 0.22240216811521779 0 -0.29475597619187288 0.23283261746471121 0 -0.28658767146556752 0.2208426317688808 0 -0.29475597619187288 0.23283261746471121 0 -0.28658767146556752 0.2208426317688808 0 -0.28109078806307641 0.23123665432302171 0 -0.28658767146556752 0.2208426317688808 0 -0.28549164962408852 0.20589081089837991 0 -0.27599235506858921 0.213338138612501 0 -0.2995127007984647 0.22240216811521779 0 -0.28658767146556752 0.2208426317688808 0 -0.29782091388006071 0.2077851852193662 0 -0.28658767146556752 0.2208426317688808 0 -0.28549164962408852 0.20589081089837991 0 -0.29782091388006071 0.2077851852193662 0 -0.2995127007984647 0.22240216811521779 0 -0.30833129431909739 0.21334832502430981 0 -0.29782091388006071 0.2077851852193662 0 -0.30833129431909739 0.21334832502430981 0 -0.29782091388006071 0.2077851852193662 0 -0.31094130810426679 0.20146887601233149 0 -0.31094130810426679 0.20146887601233149 0 -0.28918285092023371 0.18809301854234381 0 -0.30596240671843039 0.18080678990447141 0 -0.31094130810426679 0.20146887601233149 0 -0.28918285092023371 0.18809301854234381 0 -0.31962491903722229 0.18594758427241961 0 -0.31094130810426679 0.20146887601233149 0 -0.30596240671843039 0.18080678990447141 0 -0.29782091388006071 0.2077851852193662 0 -0.31094130810426679 0.20146887601233149 0 -0.28918285092023371 0.18809301854234381 0 -0.28549164962408852 0.20589081089837991 0 -0.28918285092023371 0.18809301854234381 0 -0.27469451239495962 0.19856643751398209 0 -0.28549164962408852 0.20589081089837991 0 -0.29782091388006071 0.2077851852193662 0 -0.28918285092023371 0.18809301854234381 0 -0.27469451239495962 0.19856643751398209 0 -0.25846339158769432 0.19477026040294029 0 -0.26742439373620053 0.1747171610723561 0 -0.27469451239495962 0.19856643751398209 0 -0.25846339158769432 0.19477026040294029 0 -0.26373521695980739 0.20854805576629271 0 -0.25846339158769432 0.19477026040294029 0 -0.25264776582176801 0.2054066783297176 0 -0.24512564856919611 0.1966003761625241 0 -0.25846339158769432 0.19477026040294029 0 -0.26373521695980739 0.20854805576629271 0 -0.25264776582176801 0.2054066783297176 0 -0.26373521695980739 0.20854805576629271 0 -0.25264776582176801 0.2054066783297176 0 -0.25326648915379463 0.21765104414027969 0 -0.26373521695980739 0.20854805576629271 0 -0.25326648915379463 0.21765104414027969 0 -0.26696116117740232 0.2188897629996385 0 -0.26373521695980739 0.20854805576629271 0 -0.27599235506858921 0.213338138612501 0 -0.26696116117740232 0.2188897629996385 0 -0.27469451239495962 0.19856643751398209 0 -0.26373521695980739 0.20854805576629271 0 -0.27599235506858921 0.213338138612501 0 -0.28549164962408852 0.20589081089837991 0 -0.27469451239495962 0.19856643751398209 0 -0.27599235506858921 0.213338138612501 0 -0.28658767146556752 0.2208426317688808 0 -0.27599235506858921 0.213338138612501 0 -0.27366575233363138 0.22408994750137051 0 -0.28658767146556752 0.2208426317688808 0 -0.27366575233363138 0.22408994750137051 0 -0.28109078806307641 0.23123665432302171 0 -0.27366575233363138 0.22408994750137051 0 -0.28109078806307641 0.23123665432302171 0 -0.26613842301448931 0.22948780180005629 0 -0.27366575233363138 0.22408994750137051 0 -0.26613842301448931 0.22948780180005629 0 -0.27599235506858921 0.213338138612501 0 -0.27366575233363138 0.22408994750137051 0 -0.26696116117740232 0.2188897629996385 0 -0.27366575233363138 0.22408994750137051 0 -0.26613842301448931 0.22948780180005629 0 -0.26696116117740232 0.2188897629996385 0 -0.25326648915379463 0.21765104414027969 0 -0.26613842301448931 0.22948780180005629 0 -0.25326648915379463 0.21765104414027969 0 -0.26613842301448931 0.22948780180005629 0 -0.26696116117740232 0.2188897629996385 0 -0.26613842301448931 0.22948780180005629 0 -0.25250373055295899 0.22903132158689779 0 -0.2468893326351202 0.24329134098969171 0 -0.25326648915379463 0.21765104414027969 0 -0.26613842301448931 0.22948780180005629 0 -0.25250373055295899 0.22903132158689779 0 -0.26613842301448931 0.22948780180005629 0 -0.2468893326351202 0.24329134098969171 0 -0.26613842301448931 0.22948780180005629 0 -0.26514282027817931 0.24842266601513599 0 -0.2468893326351202 0.24329134098969171 0 -0.28392805579818597 0.24584677119781029 0 -0.26613842301448931 0.22948780180005629 0 -0.26514282027817931 0.24842266601513599 0 -0.28392805579818597 0.24584677119781029 0 -0.26613842301448931 0.22948780180005629 0 -0.28392805579818597 0.24584677119781029 0 -0.28109078806307641 0.23123665432302171 0 -0.26613842301448931 0.22948780180005629 0 -0.29674228528268098 0.14167201189203629 0 -0.29210011904845101 0.16519073176382951 0 -0.2788144627000812 0.14703818685698561 0 -0.29674228528268098 0.14167201189203629 0 -0.2788144627000812 0.14703818685698561 0 -0.2804226891664876 0.12940513594623221 0 -0.29674228528268098 0.14167201189203629 0 -0.2804226891664876 0.12940513594623221 0 -0.29563289833704792 0.1211109261551389 0 -0.29674228528268098 0.14167201189203629 0 -0.30835875028686138 0.12836861128214669 0 -0.29563289833704792 0.1211109261551389 0 -0.31630075392673418 0.14071989359044609 0 -0.29674228528268098 0.14167201189203629 0 -0.30835875028686138 0.12836861128214669 0 -0.31796283648197832 0.1633337389314328 0 -0.31630075392673418 0.14071989359044609 0 -0.29674228528268098 0.14167201189203629 0 -0.31796283648197832 0.1633337389314328 0 -0.30596240671843039 0.18080678990447141 0 -0.29210011904845101 0.16519073176382951 0 -0.31796283648197832 0.1633337389314328 0 -0.29674228528268098 0.14167201189203629 0 -0.29210011904845101 0.16519073176382951 0 -0.28918285092023371 0.18809301854234381 0 -0.30596240671843039 0.18080678990447141 0 -0.29210011904845101 0.16519073176382951 0 -0.28918285092023371 0.18809301854234381 0 -0.29210011904845101 0.16519073176382951 0 -0.26742439373620053 0.1747171610723561 0 -0.29210011904845101 0.16519073176382951 0 -0.26645859331151961 0.15770478106228089 0 -0.2788144627000812 0.14703818685698561 0 -0.29210011904845101 0.16519073176382951 0 -0.26645859331151961 0.15770478106228089 0 -0.26742439373620053 0.1747171610723561 0 -0.28918285092023371 0.18809301854234381 0 -0.27469451239495962 0.19856643751398209 0 -0.26742439373620053 0.1747171610723561 0 -0.28918285092023371 0.18809301854234381 0 -0.26742439373620053 0.1747171610723561 0 -0.25846339158769432 0.19477026040294029 0 -0.26742439373620053 0.1747171610723561 0 -0.2425545525554833 0.18325607046718431 0 -0.26742439373620053 0.1747171610723561 0 -0.24566593655216731 0.1613413036023684 0 -0.2425545525554833 0.18325607046718431 0 -0.26742439373620053 0.1747171610723561 0 -0.24566593655216731 0.1613413036023684 0 -0.26645859331151961 0.15770478106228089 0 -0.26742439373620053 0.1747171610723561 0 -0.24566593655216731 0.1613413036023684 0 -0.26645859331151961 0.15770478106228089 0 -0.26077588748637798 0.14053443996503889 0 -0.24566593655216731 0.1613413036023684 0 -0.26645859331151961 0.15770478106228089 0 -0.2788144627000812 0.14703818685698561 0 -0.26077588748637798 0.14053443996503889 0 -0.2788144627000812 0.14703818685698561 0 -0.2804226891664876 0.12940513594623221 0 -0.26077588748637798 0.14053443996503889 0 -0.2804226891664876 0.12940513594623221 0 -0.26077588748637798 0.14053443996503889 0 -0.26620622488190782 0.1187168322113534 0 -0.26077588748637798 0.14053443996503889 0 -0.25033803458298193 0.12914144363467839 0 -0.2394413917758374 0.14053574488666021 0 -0.26077588748637798 0.14053443996503889 0 -0.25033803458298193 0.12914144363467839 0 -0.26620622488190782 0.1187168322113534 0 -0.25033803458298193 0.12914144363467839 0 -0.25364395357421121 0.10678394025260531 0 -0.26620622488190782 0.1187168322113534 0 -0.25364395357421121 0.10678394025260531 0 -0.26910496068450029 0.10059928658519129 0 -0.26340159681891351 0.087305486383429762 0 -0.25364395357421121 0.10678394025260531 0 -0.26910496068450029 0.10059928658519129 0 -0.26620622488190782 0.1187168322113534 0 -0.26910496068450029 0.10059928658519129 0 -0.28436437631082973 0.10735841859683989 0 -0.28176033911896858 0.090840469038767704 0 -0.26910496068450029 0.10059928658519129 0 -0.26620622488190782 0.1187168322113534 0 -0.28436437631082973 0.10735841859683989 0 -0.2804226891664876 0.12940513594623221 0 -0.26620622488190782 0.1187168322113534 0 -0.28436437631082973 0.10735841859683989 0 -0.2804226891664876 0.12940513594623221 0 -0.29563289833704792 0.1211109261551389 0 -0.28436437631082973 0.10735841859683989 0 -0.29563289833704792 0.1211109261551389 0 -0.28436437631082973 0.10735841859683989 0 -0.30333203744139958 0.1018092028156232 0 -0.28436437631082973 0.10735841859683989 0 -0.30333203744139958 0.1018092028156232 0 -0.29505738772415852 0.092466809089677027 0 -0.28436437631082973 0.10735841859683989 0 -0.29505738772415852 0.092466809089677027 0 -0.28176033911896858 0.090840469038767704 0 -0.30333203744139958 0.1018092028156232 0 -0.31115114737422961 0.1134627277541034 0 -0.31621893882499519 0.096173217231134644 0 -0.29563289833704792 0.1211109261551389 0 -0.30333203744139958 0.1018092028156232 0 -0.31115114737422961 0.1134627277541034 0 -0.30835875028686138 0.12836861128214669 0 -0.29563289833704792 0.1211109261551389 0 -0.31115114737422961 0.1134627277541034 0 -0.2988364877494265 0.069896585727329402 0 -0.3095990562077543 0.082833834969606807 0 -0.31708477734686968 0.066938799678275263 0 -0.2988364877494265 0.069896585727329402 0 -0.30266664287706341 0.054708362279179482 0 -0.31708477734686968 0.066938799678275263 0 -0.2988364877494265 0.069896585727329402 0 -0.28935545939309398 0.062964548691125152 0 -0.30266664287706341 0.054708362279179482 0 -0.30333203744139958 0.1018092028156232 0 -0.3095990562077543 0.082833834969606807 0 -0.31621893882499519 0.096173217231134644 0 -0.30333203744139958 0.1018092028156232 0 -0.3095990562077543 0.082833834969606807 0 -0.29505738772415852 0.092466809089677027 0 -0.3095990562077543 0.082833834969606807 0 -0.29687345717375091 0.081902945336330912 0 -0.29505738772415852 0.092466809089677027 0 -0.2988364877494265 0.069896585727329402 0 -0.3095990562077543 0.082833834969606807 0 -0.29687345717375091 0.081902945336330912 0 -0.29687345717375091 0.081902945336330912 0 -0.28176033911896858 0.090840469038767704 0 -0.2804463735768567 0.075556206852953223 0 -0.29687345717375091 0.081902945336330912 0 -0.29505738772415852 0.092466809089677027 0 -0.28176033911896858 0.090840469038767704 0 -0.2988364877494265 0.069896585727329402 0 -0.28935545939309398 0.062964548691125152 0 -0.2804463735768567 0.075556206852953223 0 -0.2988364877494265 0.069896585727329402 0 -0.29687345717375091 0.081902945336330912 0 -0.2804463735768567 0.075556206852953223 0 -0.28935545939309398 0.062964548691125152 0 -0.28020443427428848 0.065937434716272045 0 -0.28232948387749679 0.060243429622273227 0 -0.28935545939309398 0.062964548691125152 0 -0.28020443427428848 0.065937434716272045 0 -0.2804463735768567 0.075556206852953223 0 -0.2804463735768567 0.075556206852953223 0 -0.26340159681891351 0.087305486383429762 0 -0.26195798501385009 0.070226375813507561 0 -0.28020443427428848 0.065937434716272045 0 -0.26195798501385009 0.070226375813507561 0 -0.2800946942601637 0.055740888585776333 0 -0.28020443427428848 0.065937434716272045 0 -0.2804463735768567 0.075556206852953223 0 -0.26195798501385009 0.070226375813507561 0 -0.26195798501385009 0.070226375813507561 0 -0.2800946942601637 0.055740888585776333 0 -0.26910496068450029 0.10059928658519129 0 -0.28176033911896858 0.090840469038767704 0 -0.26340159681891351 0.087305486383429762 0 -0.28176033911896858 0.090840469038767704 0 -0.2804463735768567 0.075556206852953223 0 -0.26340159681891351 0.087305486383429762 0 -0.26340159681891351 0.087305486383429762 0 -0.26195798501385009 0.070226375813507561 0 -0.24382127576753621 0.084711863041238192 0 -0.25364395357421121 0.10678394025260531 0 -0.26340159681891351 0.087305486383429762 0 -0.24382127576753621 0.084711863041238192 0 -0.26195798501385009 0.070226375813507561 0 -0.24382127576753621 0.084711863041238192 0 -0.26195798501385009 0.070226375813507561 0 -0.26253060434091768 0.04486583530805522 0 -0.24534917185526489 0.049526218608574313 0 -0.26253060434091768 0.04486583530805522 0 -0.25642639863326749 0.02710060176493858 0 -0.24534917185526489 0.049526218608574313 0 -0.26253060434091768 0.04486583530805522 0 -0.27431483662099609 0.037465275048419483 0 -0.25642639863326749 0.02710060176493858 0 -0.26253060434091768 0.04486583530805522 0 -0.27431483662099609 0.037465275048419483 0 -0.2800946942601637 0.055740888585776333 0 -0.26195798501385009 0.070226375813507561 0 -0.26253060434091768 0.04486583530805522 0 -0.2800946942601637 0.055740888585776333 0 -0.28020443427428848 0.065937434716272045 0 -0.2800946942601637 0.055740888585776333 0 -0.28232948387749679 0.060243429622273227 0 -0.26431478179583978 -0.01186883573312463 0 -0.25132042997239518 0.0027134119798401068 0 -0.26646431581863778 0.01029557754540468 0 -0.25132042997239518 0.0027134119798401068 0 -0.25642639863326749 0.02710060176493858 0 -0.26646431581863778 0.01029557754540468 0 -0.27431483662099609 0.037465275048419483 0 -0.25642639863326749 0.02710060176493858 0 -0.27962863155723588 0.021383722316491719 0 -0.25642639863326749 0.02710060176493858 0 -0.27962863155723588 0.021383722316491719 0 -0.26646431581863778 0.01029557754540468 0 -0.2820771903446922 -0.0013122005201030101 0 -0.27962863155723588 0.021383722316491719 0 -0.26646431581863778 0.01029557754540468 0 -0.2820771903446922 -0.0013122005201030101 0 -0.30047775033007851 -0.00039401612408775783 0 -0.29196914664965867 0.01010181790504874 0 -0.2820771903446922 -0.0013122005201030101 0 -0.27962863155723588 0.021383722316491719 0 -0.29196914664965867 0.01010181790504874 0 -0.27962863155723588 0.021383722316491719 0 -0.29196914664965867 0.01010181790504874 0 -0.3056930143666281 0.020729765947894 0 -0.27962863155723588 0.021383722316491719 0 -0.3056930143666281 0.020729765947894 0 -0.2928938543133956 0.038235327266834943 0 -0.3056930143666281 0.020729765947894 0 -0.2928938543133956 0.038235327266834943 0 -0.3056930143666281 0.020729765947894 0 -0.30086997028822832 0.039148022070134687 0 -0.32164524631629432 0.022555155554494829 0 -0.30086997028822832 0.039148022070134687 0 -0.32164524631629432 0.022555155554494829 0 -0.3056930143666281 0.020729765947894 0 -0.31849217441985911 0.0032242046289520012 0 -0.30047775033007851 -0.00039401612408775783 0 -0.3056930143666281 0.020729765947894 0 -0.31849217441985911 0.0032242046289520012 0 -0.30047775033007851 -0.00039401612408775783 0 -0.29196914664965867 0.01010181790504874 0 -0.3056930143666281 0.020729765947894 0 -0.2800946942601637 0.055740888585776333 0 -0.30086997028822832 0.039148022070134687 0 -0.28935545939309398 0.062964548691125152 0 -0.2800946942601637 0.055740888585776333 0 -0.30266664287706341 0.054708362279179482 0 -0.2800946942601637 0.055740888585776333 0 -0.2928938543133956 0.038235327266834943 0 -0.2800946942601637 0.055740888585776333 0 -0.30086997028822832 0.039148022070134687 0 -0.30266664287706341 0.054708362279179482 0 -0.28935545939309398 0.062964548691125152 0 -0.2800946942601637 0.055740888585776333 0 -0.28232948387749679 0.060243429622273227 0 -0.2800946942601637 0.055740888585776333 0 -0.2928938543133956 0.038235327266834943 0 -0.30086997028822832 0.039148022070134687 0 -0.27431483662099609 0.037465275048419483 0 -0.27962863155723588 0.021383722316491719 0 -0.2928938543133956 0.038235327266834943 0 -0.27431483662099609 0.037465275048419483 0 -0.2800946942601637 0.055740888585776333 0 -0.2928938543133956 0.038235327266834943 0 -0.3056930143666281 0.020729765947894 0 -0.2928938543133956 0.038235327266834943 0 -0.30086997028822832 0.039148022070134687 0 -0.30086997028822832 0.039148022070134687 0 -0.30266664287706341 0.054708362279179482 0 -0.3262676586483656 0.050894384371173287 0 -0.30266664287706341 0.054708362279179482 0 -0.3262676586483656 0.050894384371173287 0 -0.31708477734686968 0.066938799678275263 0 -0.3262676586483656 0.050894384371173287 0 -0.32164524631629432 0.022555155554494829 0 -0.30086997028822832 0.039148022070134687 0 -0.3262676586483656 0.050894384371173287 0 -0.32164524631629432 0.022555155554494829 0 -0.3262676586483656 0.050894384371173287 0 -0.32164524631629432 0.022555155554494829 0 -0.34047985126035502 0.026774828886197279 0 -0.3419631627684111 0.054410778814259472 0 -0.34047985126035502 0.026774828886197279 0 -0.3262676586483656 0.050894384371173287 0 -0.3419631627684111 0.054410778814259472 0 -0.34047985126035502 0.026774828886197279 0 -0.3262676586483656 0.050894384371173287 0 -0.3419631627684111 0.054410778814259472 0 -0.33089007098043072 0.079233613187852742 0 -0.3056930143666281 0.020729765947894 0 -0.31849217441985911 0.0032242046289520012 0 -0.32164524631629432 0.022555155554494829 0 -0.31849217441985911 0.0032242046289520012 0 -0.32164524631629432 0.022555155554494829 0 -0.33742136738088668 0.0099550307423931228 0 -0.31849217441985911 0.0032242046289520012 0 -0.32164524631629432 0.022555155554494829 0 -0.32164524631629432 0.022555155554494829 0 -0.33742136738088668 0.0099550307423931228 0 -0.32164524631629432 0.022555155554494829 0 -0.34047985126035502 0.026774828886197279 0 -0.33742136738088668 0.0099550307423931228 0 -0.35319748844548088 -0.0026450940697062141 0 -0.33742136738088668 0.0099550307423931228 0 -0.35319748844548088 -0.0026450940697062141 0 -0.33742136738088668 0.0099550307423931228 0 -0.35568472126330458 0.01398178967161531 0 -0.34047985126035502 0.026774828886197279 0 -0.35568472126330458 0.01398178967161531 0 -0.36050468596179641 0.029201478886372499 0 -0.34047985126035502 0.026774828886197279 0 -0.33742136738088668 0.0099550307423931228 0 -0.35568472126330458 0.01398178967161531 0 -0.35568472126330458 0.01398178967161531 0 -0.36050468596179641 0.029201478886372499 0 -0.37274578052696178 0.01868977009819147 0 -0.37753126207020948 0.034899308803226177 0 -0.36050468596179641 0.029201478886372499 0 -0.37274578052696178 0.01868977009819147 0 -0.35319748844548088 -0.0026450940697062141 0 -0.35568472126330458 0.01398178967161531 0 -0.36979036210562988 0.0025511841975563729 0 -0.35568472126330458 0.01398178967161531 0 -0.37274578052696178 0.01868977009819147 0 -0.36979036210562988 0.0025511841975563729 0 -0.35367539322405089 0.052192583201526178 0 -0.35229578078182711 0.042127528613546239 0 -0.36485581069452189 0.048057973279375742 0 -0.35367539322405089 0.052192583201526178 0 -0.36174043644781612 0.059537200304905107 0 -0.34707042967454638 0.066493871458924422 0 -0.3419631627684111 0.054410778814259472 0 -0.35367539322405089 0.052192583201526178 0 -0.34707042967454638 0.066493871458924422 0 -0.3419631627684111 0.054410778814259472 0 -0.35367539322405089 0.052192583201526178 0 -0.35229578078182711 0.042127528613546239 0 -0.34047985126035502 0.026774828886197279 0 -0.36050468596179641 0.029201478886372499 0 -0.35229578078182711 0.042127528613546239 0 -0.3419631627684111 0.054410778814259472 0 -0.34047985126035502 0.026774828886197279 0 -0.35229578078182711 0.042127528613546239 0 -0.36050468596179641 0.029201478886372499 0 -0.35229578078182711 0.042127528613546239 0 -0.36485581069452189 0.048057973279375742 0 -0.37753126207020948 0.034899308803226177 0 -0.36050468596179641 0.029201478886372499 0 -0.36485581069452189 0.048057973279375742 0 -0.37830855690199738 0.048851891747440382 0 -0.37753126207020948 0.034899308803226177 0 -0.36485581069452189 0.048057973279375742 0 -0.37830855690199738 0.048851891747440382 0 -0.36485581069452189 0.048057973279375742 0 -0.37119345183321822 0.058853827639881867 0 -0.35367539322405089 0.052192583201526178 0 -0.36485581069452189 0.048057973279375742 0 -0.36174043644781612 0.059537200304905107 0 -0.36485581069452189 0.048057973279375742 0 -0.36174043644781612 0.059537200304905107 0 -0.37119345183321822 0.058853827639881867 0 -0.37201358599706058 0.070711840939253895 0 -0.36026946930678239 0.075913175113325196 0 -0.34707042967454638 0.066493871458924422 0 -0.37904886912469499 0.067110231928434197 0 -0.37119345183321822 0.058853827639881867 0 -0.37201358599706058 0.070711840939253895 0 -0.37201358599706058 0.070711840939253895 0 -0.34707042967454638 0.066493871458924422 0 -0.36174043644781612 0.059537200304905107 0 -0.37119345183321822 0.058853827639881867 0 -0.37201358599706058 0.070711840939253895 0 -0.36174043644781612 0.059537200304905107 0 -0.37201358599706058 0.070711840939253895 0 -0.34707042967454638 0.066493871458924422 0 -0.37201358599706058 0.070711840939253895 0 -0.36026946930678239 0.075913175113325196 0 -0.37016311523106599 0.083751267223082917 0 -0.38119130922167832 0.078766060501995444 0 -0.37201358599706058 0.070711840939253895 0 -0.37016311523106599 0.083751267223082917 0 -0.3419631627684111 0.054410778814259472 0 -0.34707042967454638 0.066493871458924422 0 -0.34344647427646718 0.082046728742321648 0 -0.36026946930678239 0.075913175113325196 0 -0.35274187612612162 0.077211514003190262 0 -0.34707042967454638 0.066493871458924422 0 -0.35274187612612162 0.077211514003190262 0 -0.34707042967454638 0.066493871458924422 0 -0.34344647427646718 0.082046728742321648 0 -0.35295667425925747 0.085123838591775802 0 -0.35001973748798287 0.095551702326820934 0 -0.34344647427646718 0.082046728742321648 0 -0.35274187612612162 0.077211514003190262 0 -0.35295667425925747 0.085123838591775802 0 -0.34344647427646718 0.082046728742321648 0 -0.35274187612612162 0.077211514003190262 0 -0.35295667425925747 0.085123838591775802 0 -0.35935833950511731 0.08139738194217451 0 -0.35295667425925747 0.085123838591775802 0 -0.35935833950511731 0.08139738194217451 0 -0.35921694390059838 0.089411865944371699 0 -0.36026946930678239 0.075913175113325196 0 -0.35274187612612162 0.077211514003190262 0 -0.35935833950511731 0.08139738194217451 0 -0.35295667425925747 0.085123838591775802 0 -0.35921694390059838 0.089411865944371699 0 -0.35001973748798287 0.095551702326820934 0 -0.35921694390059838 0.089411865944371699 0 -0.37016311523106599 0.083751267223082917 0 -0.36611800641667808 0.094109198156665408 0 -0.36026946930678239 0.075913175113325196 0 -0.35935833950511731 0.08139738194217451 0 -0.37016311523106599 0.083751267223082917 0 -0.35935833950511731 0.08139738194217451 0 -0.35921694390059838 0.089411865944371699 0 -0.37016311523106599 0.083751267223082917 0 -0.37643332436138899 0.09558572737664002 0 -0.37016311523106599 0.083751267223082917 0 -0.36611800641667808 0.094109198156665408 0 -0.37643332436138899 0.09558572737664002 0 -0.36831342086492491 0.1042920553550029 0 -0.36611800641667808 0.094109198156665408 0 -0.37896648635229202 0.10715504183998489 0 -0.37643332436138899 0.09558572737664002 0 -0.36831342086492491 0.1042920553550029 0 -0.36831342086492491 0.1042920553550029 0 -0.35948680904503588 0.10793893666500461 0 -0.35938862515943509 0.099383552161339872 0 -0.35921694390059838 0.089411865944371699 0 -0.35938862515943509 0.099383552161339872 0 -0.36611800641667808 0.094109198156665408 0 -0.36831342086492491 0.1042920553550029 0 -0.35938862515943509 0.099383552161339872 0 -0.36611800641667808 0.094109198156665408 0 -0.37896648635229202 0.10715504183998489 0 -0.36831342086492491 0.1042920553550029 0 -0.36716541190589658 0.118616890008602 0 -0.36831342086492491 0.1042920553550029 0 -0.35948680904503588 0.10793893666500461 0 -0.36716541190589658 0.118616890008602 0 -0.35948680904503588 0.10793893666500461 0 -0.36716541190589658 0.118616890008602 0 -0.35375916145188291 0.11350041634001019 0 -0.34641309729257957 0.13731862859844601 0 -0.34492978578452338 0.1096826786703838 0 -0.34641309729257957 0.13731862859844601 0 -0.35352278934268327 0.12307152153672141 0 -0.34492978578452338 0.1096826786703838 0 -0.36716541190589658 0.118616890008602 0 -0.35352278934268327 0.12307152153672141 0 -0.35375916145188291 0.11350041634001019 0 -0.35375916145188291 0.11350041634001019 0 -0.34492978578452338 0.1096826786703838 0 -0.35317683324139082 0.10499755452017361 0 -0.35352278934268327 0.12307152153672141 0 -0.35375916145188291 0.11350041634001019 0 -0.34492978578452338 0.1096826786703838 0 -0.34492978578452338 0.1096826786703838 0 -0.35001973748798287 0.095551702326820934 0 -0.34344647427646718 0.082046728742321648 0 -0.34492978578452338 0.1096826786703838 0 -0.34344647427646718 0.082046728742321648 0 -0.35921694390059838 0.089411865944371699 0 -0.35938862515943509 0.099383552161339872 0 -0.35001973748798287 0.095551702326820934 0 -0.35938862515943509 0.099383552161339872 0 -0.35317683324139082 0.10499755452017361 0 -0.35001973748798287 0.095551702326820934 0 -0.35948680904503588 0.10793893666500461 0 -0.35938862515943509 0.099383552161339872 0 -0.35317683324139082 0.10499755452017361 0 -0.35948680904503588 0.10793893666500461 0 -0.35375916145188291 0.11350041634001019 0 -0.35317683324139082 0.10499755452017361 0 -0.34492978578452338 0.1096826786703838 0 -0.35317683324139082 0.10499755452017361 0 -0.35001973748798287 0.095551702326820934 0 -0.33551248331249578 0.10757284200453231 0 -0.32636827877939262 0.096437598311714251 0 -0.33089007098043072 0.079233613187852742 0 -0.34492978578452338 0.1096826786703838 0 -0.33551248331249578 0.10757284200453231 0 -0.34344647427646718 0.082046728742321648 0 -0.34013489564456101 0.1359120708212119 0 -0.33551248331249578 0.10757284200453231 0 -0.33106980320980312 0.1246503866679774 0 -0.33551248331249578 0.10757284200453231 0 -0.33106980320980312 0.1246503866679774 0 -0.3276422557938925 0.11637059862038419 0 -0.34013489564456101 0.1359120708212119 0 -0.33551248331249578 0.10757284200453231 0 -0.34013489564456101 0.1359120708212119 0 -0.34492978578452338 0.1096826786703838 0 -0.33551248331249578 0.10757284200453231 0 -0.33551248331249578 0.10757284200453231 0 -0.3276422557938925 0.11637059862038419 0 -0.32202007013965611 0.108381668790018 0 -0.31115114737422961 0.1134627277541034 0 -0.32196666651361477 0.12487749701900901 0 -0.32202007013965611 0.108381668790018 0 -0.32196666651361477 0.12487749701900901 0 -0.3276422557938925 0.11637059862038419 0 -0.32202007013965611 0.108381668790018 0 -0.33106980320980312 0.1246503866679774 0 -0.32196666651361477 0.12487749701900901 0 -0.3276422557938925 0.11637059862038419 0 -0.30835875028686138 0.12836861128214669 0 -0.31115114737422961 0.1134627277541034 0 -0.32196666651361477 0.12487749701900901 0 -0.31115114737422961 0.1134627277541034 0 -0.32202007013965611 0.108381668790018 0 -0.31621893882499519 0.096173217231134644 0 -0.32636827877939262 0.096437598311714251 0 -0.32202007013965611 0.108381668790018 0 -0.31621893882499519 0.096173217231134644 0 -0.33551248331249578 0.10757284200453231 0 -0.32636827877939262 0.096437598311714251 0 -0.32202007013965611 0.108381668790018 0 -0.32636827877939262 0.096437598311714251 0 -0.3206518095107353 0.086423961441370711 0 -0.33089007098043072 0.079233613187852742 0 -0.3095990562077543 0.082833834969606807 0 -0.31621893882499519 0.096173217231134644 0 -0.3206518095107353 0.086423961441370711 0 -0.32636827877939262 0.096437598311714251 0 -0.31621893882499519 0.096173217231134644 0 -0.3206518095107353 0.086423961441370711 0 -0.3206518095107353 0.086423961441370711 0 -0.3195564285114475 0.078857552319276381 0 -0.33089007098043072 0.079233613187852742 0 -0.3095990562077543 0.082833834969606807 0 -0.3206518095107353 0.086423961441370711 0 -0.3195564285114475 0.078857552319276381 0 -0.3095990562077543 0.082833834969606807 0 -0.3195564285114475 0.078857552319276381 0 -0.31708477734686968 0.066938799678275263 0 -0.3262676586483656 0.050894384371173287 0 -0.31708477734686968 0.066938799678275263 0 -0.33089007098043072 0.079233613187852742 0 -0.3195564285114475 0.078857552319276381 0 -0.31708477734686968 0.066938799678275263 0 -0.33089007098043072 0.079233613187852742 0 -0.3262676586483656 0.050894384371173287 0 -0.33089007098043072 0.079233613187852742 0 -0.3419631627684111 0.054410778814259472 0 -0.34344647427646718 0.082046728742321648 0 -0.3419631627684111 0.054410778814259472 0 -0.34344647427646718 0.082046728742321648 0 -0.33089007098043072 0.079233613187852742 0 -0.33551248331249578 0.10757284200453231 0 -0.34344647427646718 0.082046728742321648 0 -0.33089007098043072 0.079233613187852742 0 -0.33551248331249578 0.10757284200453231 0 -0.33089007098043072 0.079233613187852742 0 -0.38413367002432852 0.48466820949397371 0 -0.39197467039505129 0.46611734068214988 0 -0.41460981883164078 0.48516798004791117 0 -0.3981750166650535 0.50000000000000056 0 -0.38413367002432852 0.48466820949397371 0 -0.41460981883164078 0.48516798004791117 0 -0.3981750166650535 0.50000000000000056 0 -0.38413367002432852 0.48466820949397371 0 -0.37107410569903487 0.5 0 -0.39197467039505129 0.46611734068214988 0 -0.36482960672615539 0.47476559140937902 0 -0.38413367002432852 0.48466820949397371 0 -0.39197467039505129 0.46611734068214988 0 -0.36580706476392733 0.47631646954851292 0 -0.38785270990024268 0.44600589254376838 0 -0.39197467039505129 0.46611734068214988 0 -0.37006527051019528 0.45259743283909409 0 -0.39197467039505129 0.46611734068214988 0 -0.37006527051019528 0.45259743283909409 0 -0.36482960672615539 0.47476559140937902 0 -0.38785270990024268 0.44600589254376838 0 -0.37388199021079188 0.43349662060099697 0 -0.37006527051019528 0.45259743283909409 0 -0.38785270990024268 0.44600589254376838 0 -0.40320620376676342 0.45007503942677379 0 -0.39595691431975 0.42995942871021692 0 -0.38785270990024268 0.44600589254376838 0 -0.40320620376676342 0.45007503942677379 0 -0.39197467039505129 0.46611734068214988 0 -0.40320620376676342 0.45007503942677379 0 -0.39197467039505129 0.46611734068214988 0 -0.41277096383307582 0.46532813801804862 0 -0.40320620376676342 0.45007503942677379 0 -0.42781315099835598 0.44205737320498029 0 -0.39595691431975 0.42995942871021692 0 -0.40320620376676342 0.45007503942677379 0 -0.41277096383307582 0.46532813801804862 0 -0.42781315099835598 0.44205737320498029 0 -0.42781315099835598 0.44205737320498029 0 -0.43466730821188831 0.46706657063262308 0 -0.44460389203804629 0.44806533343805571 0 -0.42781315099835598 0.44205737320498029 0 -0.4310446209982266 0.47033596009582029 0 -0.42781315099835598 0.44205737320498029 0 -0.43466730821188831 0.46706657063262308 0 -0.4310446209982266 0.47033596009582029 0 -0.41277096383307582 0.46532813801804862 0 -0.42781315099835598 0.44205737320498029 0 -0.4310446209982266 0.47033596009582029 0 -0.43466730821188831 0.46706657063262308 0 -0.4310446209982266 0.47033596009582029 0 -0.4310446209982266 0.47033596009582029 0 -0.43443441043131342 0.50000000000000755 0 -0.4447827686264566 0.47926022536349122 0 -0.4310446209982266 0.47033596009582029 0 -0.41460981883164078 0.48516798004791117 0 -0.4310446209982266 0.47033596009582029 0 -0.41460981883164078 0.48516798004791117 0 -0.42409839095234109 0.48887598503593521 0 -0.43466730821188831 0.46706657063262308 0 -0.4310446209982266 0.47033596009582029 0 -0.4447827686264566 0.47926022536349122 0 -0.39197467039505129 0.46611734068214988 0 -0.41277096383307582 0.46532813801804862 0 -0.41460981883164078 0.48516798004791117 0 -0.41277096383307582 0.46532813801804862 0 -0.4310446209982266 0.47033596009582029 0 -0.41460981883164078 0.48516798004791117 0 -0.3981750166650535 0.50000000000000056 0 -0.41460981883164078 0.48516798004791117 0 -0.3981750166650535 0.50000000000000056 0 -0.41460981883164078 0.48516798004791117 0 -0.41630471354818338 0.5 0 -0.41460981883164078 0.48516798004791117 0 -0.41630471354818338 0.5 0 -0.42409839095234109 0.48887598503593521 0 -0.41630471354818338 0.5 0 -0.43443441043131342 0.50000000000000755 0 -0.42409839095234109 0.48887598503593521 0 -0.4310446209982266 0.47033596009582029 0 -0.43443441043131342 0.50000000000000755 0 -0.4310446209982266 0.47033596009582029 0 -0.43443441043131342 0.50000000000000755 0 -0.42409839095234109 0.48887598503593521 0 -0.43443441043131342 0.50000000000000755 0 -0.4447827686264566 0.47926022536349122 0 -0.4595127163698095 0.50000000000000022 0 -0.5 0.5 0 -0.47335596745111108 0.44169355163120572 0 -0.5 0.40038011321019712 0 -0.43466730821188831 0.46706657063262308 0 -0.4447827686264566 0.47926022536349122 0 -0.44899911668232212 0.46303481381032341 0 -0.4447827686264566 0.47926022536349122 0 -0.46015144363500948 0.47359397987248231 0 -0.44899911668232212 0.46303481381032341 0 -0.4447827686264566 0.47926022536349122 0 -0.46015144363500948 0.47359397987248231 0 -0.4595127163698095 0.50000000000000022 0 -0.46015144363500948 0.47359397987248231 0 -0.4595127163698095 0.50000000000000022 0 -0.46015144363500948 0.47359397987248231 0 -0.4595127163698095 0.50000000000000022 0 -0.5 0.5 0 -0.46015144363500948 0.47359397987248231 0 -0.5 0.5 0 -0.47335596745111108 0.44169355163120572 0 -0.46015144363500948 0.47359397987248231 0 -0.47335596745111108 0.44169355163120572 0 -0.46079017090020952 0.44718795974496428 0 -0.46079017090020952 0.44718795974496428 0 -0.44460389203804629 0.44806533343805571 0 -0.45590269758544211 0.43346995798949911 0 -0.47335596745111108 0.44169355163120572 0 -0.46079017090020952 0.44718795974496428 0 -0.45590269758544211 0.43346995798949911 0 -0.46015144363500948 0.47359397987248231 0 -0.46079017090020952 0.44718795974496428 0 -0.44899911668232212 0.46303481381032341 0 -0.46015144363500948 0.47359397987248231 0 -0.46079017090020952 0.44718795974496428 0 -0.43466730821188831 0.46706657063262308 0 -0.44899911668232212 0.46303481381032341 0 -0.44460389203804629 0.44806533343805571 0 -0.42781315099835598 0.44205737320498029 0 -0.44460389203804629 0.44806533343805571 0 -0.44268906624812487 0.42665452579602331 0 -0.46079017090020952 0.44718795974496428 0 -0.44899911668232212 0.46303481381032341 0 -0.44460389203804629 0.44806533343805571 0 -0.44460389203804629 0.44806533343805571 0 -0.44268906624812487 0.42665452579602331 0 -0.45590269758544211 0.43346995798949911 0 -0.44268906624812487 0.42665452579602331 0 -0.45186506472241439 0.42144574071262142 0 -0.45590269758544211 0.43346995798949911 0 -0.44268906624812487 0.42665452579602331 0 -0.45186506472241439 0.42144574071262142 0 -0.44576315445017062 0.40546276927260178 0 -0.44268906624812487 0.42665452579602331 0 -0.44576315445017062 0.40546276927260178 0 -0.42458168099848842 0.41377878631413989 0 -0.46310534060592018 0.42019570979236182 0 -0.47346151536459102 0.41731684507507272 0 -0.46374026742882618 0.39151162716981691 0 -0.45186506472241439 0.42144574071262142 0 -0.46310534060592018 0.42019570979236182 0 -0.44576315445017062 0.40546276927260178 0 -0.47335596745111108 0.44169355163120572 0 -0.46310534060592018 0.42019570979236182 0 -0.45590269758544211 0.43346995798949911 0 -0.45186506472241439 0.42144574071262142 0 -0.46310534060592018 0.42019570979236182 0 -0.45590269758544211 0.43346995798949911 0 -0.47335596745111108 0.44169355163120572 0 -0.46310534060592018 0.42019570979236182 0 -0.47346151536459102 0.41731684507507272 0 -0.47335596745111108 0.44169355163120572 0 -0.47346151536459102 0.41731684507507272 0 -0.5 0.40038011321019712 0 -0.47346151536459102 0.41731684507507272 0 -0.5 0.40038011321019712 0 -0.47533567507008778 0.39330498401591851 0 -0.47346151536459102 0.41731684507507272 0 -0.47533567507008778 0.39330498401591851 0 -0.47346151536459102 0.41731684507507272 0 -0.47533567507008778 0.39330498401591851 0 -0.46374026742882618 0.39151162716981691 0 -0.5 0.40038011321019712 0 -0.47533567507008778 0.39330498401591851 0 -0.47720983477558448 0.36929312295676431 0 -0.47533567507008778 0.39330498401591851 0 -0.47720983477558448 0.36929312295676431 0 -0.47533567507008778 0.39330498401591851 0 -0.46374026742882618 0.39151162716981691 0 -0.47720983477558448 0.36929312295676431 0 -0.46374026742882618 0.39151162716981691 0 -0.45297946443592813 0.37787116286410599 0 -0.46437519425173218 0.36282754454727217 0 -0.46374026742882618 0.39151162716981691 0 -0.45297946443592813 0.37787116286410599 0 -0.44807155782876301 0.39051600802545461 0 -0.46374026742882618 0.39151162716981691 0 -0.46437519425173218 0.36282754454727217 0 -0.46310534060592018 0.42019570979236182 0 -0.46374026742882618 0.39151162716981691 0 -0.46310534060592018 0.42019570979236182 0 -0.46374026742882618 0.39151162716981691 0 -0.44576315445017062 0.40546276927260178 0 -0.46374026742882618 0.39151162716981691 0 -0.44576315445017062 0.40546276927260178 0 -0.44807155782876301 0.39051600802545461 0 -0.44576315445017062 0.40546276927260178 0 -0.44807155782876301 0.39051600802545461 0 -0.43603237714897469 0.39502180629923989 0 -0.45297946443592813 0.37787116286410599 0 -0.44807155782876301 0.39051600802545461 0 -0.44039528146883089 0.37985126846070372 0 -0.44807155782876301 0.39051600802545461 0 -0.44039528146883089 0.37985126846070372 0 -0.43603237714897469 0.39502180629923989 0 -0.44039528146883089 0.37985126846070372 0 -0.42135021099862069 0.38550019942329938 0 -0.43603237714897469 0.39502180629923989 0 -0.44039528146883089 0.37985126846070372 0 -0.42135021099862069 0.38550019942329938 0 -0.43330693618304927 0.36743111704715392 0 -0.42135021099862069 0.38550019942329938 0 -0.3928737426436214 0.38288862872844909 0 -0.41811874099875312 0.35722161253245888 0 -0.42135021099862069 0.38550019942329938 0 -0.42458168099848842 0.41377878631413989 0 -0.40302940150938782 0.40252809503019821 0 -0.44576315445017062 0.40546276927260178 0 -0.43603237714897469 0.39502180629923989 0 -0.42458168099848842 0.41377878631413989 0 -0.42135021099862069 0.38550019942329938 0 -0.42458168099848842 0.41377878631413989 0 -0.42135021099862069 0.38550019942329938 0 -0.43603237714897469 0.39502180629923989 0 -0.42458168099848842 0.41377878631413989 0 -0.42781315099835598 0.44205737320498029 0 -0.42458168099848842 0.41377878631413989 0 -0.39595691431975 0.42995942871021692 0 -0.42781315099835598 0.44205737320498029 0 -0.44268906624812487 0.42665452579602331 0 -0.42458168099848842 0.41377878631413989 0 -0.42781315099835598 0.44205737320498029 0 -0.42458168099848842 0.41377878631413989 0 -0.42458168099848842 0.41377878631413989 0 -0.39595691431975 0.42995942871021692 0 -0.40302940150938782 0.40252809503019821 0 -0.39595691431975 0.42995942871021692 0 -0.38133644129271771 0.41060795377957438 0 -0.40302940150938782 0.40252809503019821 0 -0.39595691431975 0.42995942871021692 0 -0.38133644129271771 0.41060795377957438 0 -0.37388199021079188 0.43349662060099697 0 -0.38785270990024268 0.44600589254376838 0 -0.39595691431975 0.42995942871021692 0 -0.37388199021079188 0.43349662060099697 0 -0.39595691431975 0.42995942871021692 0 -0.38133644129271771 0.41060795377957438 0 -0.38133644129271771 0.41060795377957438 0 -0.3928737426436214 0.38288862872844909 0 -0.36671596826568531 0.39125647884893172 0 -0.3928737426436214 0.38288862872844909 0 -0.37126589511329411 0.37377724987418581 0 -0.36671596826568531 0.39125647884893172 0 -0.42135021099862069 0.38550019942329938 0 -0.3928737426436214 0.38288862872844909 0 -0.40302940150938782 0.40252809503019821 0 -0.38133644129271771 0.41060795377957438 0 -0.3928737426436214 0.38288862872844909 0 -0.40302940150938782 0.40252809503019821 0 -0.39068435811404417 0.36093702398180222 0 -0.39395667907880888 0.34326368506717603 0 -0.41811874099875312 0.35722161253245888 0 -0.3928737426436214 0.38288862872844909 0 -0.39068435811404417 0.36093702398180222 0 -0.41811874099875312 0.35722161253245888 0 -0.3928737426436214 0.38288862872844909 0 -0.39068435811404417 0.36093702398180222 0 -0.37126589511329411 0.37377724987418581 0 -0.39068435811404417 0.36093702398180222 0 -0.37302608715873109 0.35758434449273291 0 -0.37126589511329411 0.37377724987418581 0 -0.39395667907880888 0.34326368506717603 0 -0.37302608715873109 0.35758434449273291 0 -0.39068435811404417 0.36093702398180222 0 -0.39395667907880888 0.34326368506717603 0 -0.37302608715873109 0.35758434449273291 0 -0.37563375498023588 0.33893957100260502 0 -0.39395667907880888 0.34326368506717603 0 -0.37302608715873109 0.35758434449273291 0 -0.37563375498023588 0.33893957100260502 0 -0.3809584867257152 0.31995934924364311 0 -0.39395667907880888 0.34326368506717603 0 -0.3809584867257152 0.31995934924364311 0 -0.40019053093036899 0.31727751782089808 0 -0.39395667907880888 0.34326368506717603 0 -0.40019053093036899 0.31727751782089808 0 -0.39395667907880888 0.34326368506717603 0 -0.414887270998886 0.32894302564161831 0 -0.39395667907880888 0.34326368506717603 0 -0.414887270998886 0.32894302564161831 0 -0.414887270998886 0.32894302564161831 0 -0.41811874099875312 0.35722161253245888 0 -0.39395667907880888 0.34326368506717603 0 -0.414887270998886 0.32894302564161831 0 -0.41811874099875312 0.35722161253245888 0 -0.414887270998886 0.32894302564161831 0 -0.4287524947490482 0.33739992334137159 0 -0.41811874099875312 0.35722161253245888 0 -0.414887270998886 0.32894302564161831 0 -0.42784370751339318 0.3200782636988328 0 -0.41182569378737999 0.30215117016961263 0 -0.414887270998886 0.32894302564161831 0 -0.41182569378737999 0.30215117016961263 0 -0.40019053093036899 0.31727751782089808 0 -0.414887270998886 0.32894302564161831 0 -0.41182569378737999 0.30215117016961263 0 -0.414887270998886 0.32894302564161831 0 -0.42784370751339318 0.3200782636988328 0 -0.42784370751339318 0.3200782636988328 0 -0.44080014402789969 0.3112135017560464 0 -0.414887270998886 0.32894302564161831 0 -0.42784370751339318 0.3200782636988328 0 -0.4287524947490482 0.33739992334137159 0 -0.42784370751339318 0.3200782636988328 0 -0.4287524947490482 0.33739992334137159 0 -0.44455732798665581 0.33082357613192309 0 -0.4287524947490482 0.33739992334137159 0 -0.43835542624755341 0.34993313870202492 0 -0.44455732798665581 0.33082357613192309 0 -0.4287524947490482 0.33739992334137159 0 -0.41811874099875312 0.35722161253245888 0 -0.43835542624755341 0.34993313870202492 0 -0.41811874099875312 0.35722161253245888 0 -0.43330693618304927 0.36743111704715392 0 -0.43835542624755341 0.34993313870202492 0 -0.42135021099862069 0.38550019942329938 0 -0.41811874099875312 0.35722161253245888 0 -0.42135021099862069 0.38550019942329938 0 -0.41811874099875312 0.35722161253245888 0 -0.43330693618304927 0.36743111704715392 0 -0.44039528146883089 0.37985126846070372 0 -0.43330693618304927 0.36743111704715392 0 -0.44831502120148831 0.36464936611728249 0 -0.5 0.40038011321019712 0 -0.47720983477558448 0.36929312295676431 0 -0.5 0.32588146503443682 0 -0.43330693618304927 0.36743111704715392 0 -0.44831502120148831 0.36464936611728249 0 -0.43835542624755341 0.34993313870202492 0 -0.45297946443592813 0.37787116286410599 0 -0.44039528146883089 0.37985126846070372 0 -0.44831502120148831 0.36464936611728249 0 -0.44831502120148831 0.36464936611728249 0 -0.45212261815241361 0.34847541748464589 0 -0.43835542624755341 0.34993313870202492 0 -0.46437519425173218 0.36282754454727217 0 -0.46501012107463818 0.3341434619247271 0 -0.45212261815241361 0.34847541748464589 0 -0.46437519425173218 0.36282754454727217 0 -0.46501012107463818 0.3341434619247271 0 -0.44831502120148831 0.36464936611728249 0 -0.45212261815241361 0.34847541748464589 0 -0.46437519425173218 0.36282754454727217 0 -0.45297946443592813 0.37787116286410599 0 -0.44831502120148831 0.36464936611728249 0 -0.46437519425173218 0.36282754454727217 0 -0.46374026742882618 0.39151162716981691 0 -0.46437519425173218 0.36282754454727217 0 -0.47720983477558448 0.36929312295676431 0 -0.47720983477558448 0.36929312295676431 0 -0.4790839944810813 0.34528126189761021 0 -0.5 0.32588146503443682 0 -0.46437519425173218 0.36282754454727217 0 -0.47720983477558448 0.36929312295676431 0 -0.4790839944810813 0.34528126189761021 0 -0.46437519425173218 0.36282754454727217 0 -0.4790839944810813 0.34528126189761021 0 -0.46501012107463818 0.3341434619247271 0 -0.47720983477558448 0.36929312295676431 0 -0.4790839944810813 0.34528126189761021 0 -0.5 0.32588146503443682 0 -0.48095815418657811 0.32126940083845601 0 -0.48438341280173691 0.2990237851864897 0 -0.4790839944810813 0.34528126189761021 0 -0.5 0.32588146503443682 0 -0.48095815418657811 0.32126940083845601 0 -0.4790839944810813 0.34528126189761021 0 -0.48095815418657811 0.32126940083845601 0 -0.4790839944810813 0.34528126189761021 0 -0.48095815418657811 0.32126940083845601 0 -0.46501012107463818 0.3341434619247271 0 -0.48095815418657811 0.32126940083845601 0 -0.46501012107463818 0.3341434619247271 0 -0.46564504789754418 0.30545937930218209 0 -0.46501012107463818 0.3341434619247271 0 -0.46564504789754418 0.30545937930218209 0 -0.45334860311094782 0.31584311053598302 0 -0.46501012107463818 0.3341434619247271 0 -0.44455732798665581 0.33082357613192309 0 -0.45334860311094782 0.31584311053598302 0 -0.46501012107463818 0.3341434619247271 0 -0.46564504789754418 0.30545937930218209 0 -0.45212261815241361 0.34847541748464589 0 -0.46501012107463818 0.3341434619247271 0 -0.44455732798665581 0.33082357613192309 0 -0.45212261815241361 0.34847541748464589 0 -0.43835542624755341 0.34993313870202492 0 -0.44455732798665581 0.33082357613192309 0 -0.45334860311094782 0.31584311053598302 0 -0.44455732798665581 0.33082357613192309 0 -0.44080014402789969 0.3112135017560464 0 -0.42784370751339318 0.3200782636988328 0 -0.44455732798665581 0.33082357613192309 0 -0.44080014402789969 0.3112135017560464 0 -0.45334860311094782 0.31584311053598302 0 -0.44080014402789969 0.3112135017560464 0 -0.45212090372732222 0.29751224224269018 0 -0.44080014402789969 0.3112135017560464 0 -0.45212090372732222 0.29751224224269018 0 -0.43098419661848369 0.29848737705662681 0 -0.45212090372732222 0.29751224224269018 0 -0.44106680473088589 0.27968718865599468 0 -0.43098419661848369 0.29848737705662681 0 -0.45212090372732222 0.29751224224269018 0 -0.46878861662768212 0.293945894508436 0 -0.46620416538631942 0.27832296974934079 0 -0.45212090372732222 0.29751224224269018 0 -0.46620416538631942 0.27832296974934079 0 -0.44106680473088589 0.27968718865599468 0 -0.45334860311094782 0.31584311053598302 0 -0.45212090372732222 0.29751224224269018 0 -0.46564504789754418 0.30545937930218209 0 -0.45212090372732222 0.29751224224269018 0 -0.46564504789754418 0.30545937930218209 0 -0.46878861662768212 0.293945894508436 0 -0.48095815418657811 0.32126940083845601 0 -0.46564504789754418 0.30545937930218209 0 -0.47422271850004488 0.30257989257828583 0 -0.48095815418657811 0.32126940083845601 0 -0.48283231389207593 0.29725753977930192 0 -0.48095815418657811 0.32126940083845601 0 -0.48283231389207593 0.29725753977930192 0 -0.48438341280173691 0.2990237851864897 0 -0.48095815418657811 0.32126940083845601 0 -0.48283231389207593 0.29725753977930192 0 -0.47422271850004488 0.30257989257828583 0 -0.5 0.32588146503443682 0 -0.48438341280173691 0.2990237851864897 0 -0.5 0.27058277969487637 0 -0.48283231389207593 0.29725753977930192 0 -0.48438341280173691 0.2990237851864897 0 -0.48283231389207593 0.29725753977930192 0 -0.47422271850004488 0.30257989257828583 0 -0.46878861662768212 0.293945894508436 0 -0.46564504789754418 0.30545937930218209 0 -0.47422271850004488 0.30257989257828583 0 -0.46878861662768212 0.293945894508436 0 -0.48283231389207593 0.29725753977930192 0 -0.46620416538631942 0.27832296974934079 0 -0.4832665619079245 0.29169392479429618 0 -0.48272378290968532 0.2745465744653578 0 -0.46620416538631942 0.27832296974934079 0 -0.48283231389207593 0.29725753977930192 0 -0.46878861662768212 0.293945894508436 0 -0.46620416538631942 0.27832296974934079 0 -0.48283231389207593 0.29725753977930192 0 -0.4832665619079245 0.29169392479429618 0 -0.46620416538631942 0.27832296974934079 0 -0.48283231389207593 0.29725753977930192 0 -0.4832665619079245 0.29169392479429618 0 -0.48438341280173691 0.2990237851864897 0 -0.48283231389207593 0.29725753977930192 0 -0.4832665619079245 0.29169392479429618 0 -0.4832665619079245 0.29169392479429618 0 -0.48438341280173691 0.2990237851864897 0 -0.5 0.27058277969487637 0 -0.48510068849613291 0.2464952989699998 0 -0.5 0.27058277969487637 0 -0.47736829551405641 0.25971614189080378 0 -0.4832665619079245 0.29169392479429618 0 -0.5 0.27058277969487637 0 -0.48272378290968532 0.2745465744653578 0 -0.5 0.27058277969487637 0 -0.48272378290968532 0.2745465744653578 0 -0.47736829551405641 0.25971614189080378 0 -0.48272378290968532 0.2745465744653578 0 -0.47736829551405641 0.25971614189080378 0 -0.46620416538631942 0.27832296974934079 0 -0.48510068849613291 0.2464952989699998 0 -0.4662317729600568 0.24711617116125539 0 -0.47736829551405641 0.25971614189080378 0 -0.4662317729600568 0.24711617116125539 0 -0.47736829551405641 0.25971614189080378 0 -0.44957601688056159 0.25938839971938082 0 -0.47736829551405641 0.25971614189080378 0 -0.46620416538631942 0.27832296974934079 0 -0.44957601688056159 0.25938839971938082 0 -0.46620416538631942 0.27832296974934079 0 -0.44957601688056159 0.25938839971938082 0 -0.46620416538631942 0.27832296974934079 0 -0.44106680473088589 0.27968718865599468 0 -0.44957601688056159 0.25938839971938082 0 -0.44106680473088589 0.27968718865599468 0 -0.44957601688056159 0.25938839971938082 0 -0.42702456861835142 0.26373592368695459 0 -0.43294786837480398 0.2404538296894207 0 -0.44957601688056159 0.25938839971938082 0 -0.42702456861835142 0.26373592368695459 0 -0.43294786837480398 0.2404538296894207 0 -0.40570253936436479 0.24856745922560119 0 -0.42702456861835142 0.26373592368695459 0 -0.40570253936436479 0.24856745922560119 0 -0.40876411657587441 0.27535931469760672 0 -0.40570253936436479 0.24856745922560119 0 -0.42702456861835142 0.26373592368695459 0 -0.40876411657587441 0.27535931469760672 0 -0.42702456861835142 0.26373592368695459 0 -0.40876411657587441 0.27535931469760672 0 -0.42393307606619501 0.28388419485335897 0 -0.44106680473088589 0.27968718865599468 0 -0.42702456861835142 0.26373592368695459 0 -0.42393307606619501 0.28388419485335897 0 -0.44106680473088589 0.27968718865599468 0 -0.42393307606619501 0.28388419485335897 0 -0.43098419661848369 0.29848737705662681 0 -0.42393307606619501 0.28388419485335897 0 -0.43098419661848369 0.29848737705662681 0 -0.41182569378737999 0.30215117016961263 0 -0.42784370751339318 0.3200782636988328 0 -0.44080014402789969 0.3112135017560464 0 -0.43098419661848369 0.29848737705662681 0 -0.42784370751339318 0.3200782636988328 0 -0.43098419661848369 0.29848737705662681 0 -0.41182569378737999 0.30215117016961263 0 -0.40876411657587441 0.27535931469760672 0 -0.42393307606619501 0.28388419485335897 0 -0.41182569378737999 0.30215117016961263 0 -0.40876411657587441 0.27535931469760672 0 -0.41182569378737999 0.30215117016961263 0 -0.40876411657587441 0.27535931469760672 0 -0.41182569378737999 0.30215117016961263 0 -0.38942632587964537 0.29641120061531351 0 -0.40876411657587441 0.27535931469760672 0 -0.38942632587964537 0.29641120061531351 0 -0.38778179087320769 0.27529621765694001 0 -0.40019053093036899 0.31727751782089808 0 -0.41182569378737999 0.30215117016961263 0 -0.38942632587964537 0.29641120061531351 0 -0.3809584867257152 0.31995934924364311 0 -0.38942632587964537 0.29641120061531351 0 -0.36990774782730562 0.30465198401604282 0 -0.3809584867257152 0.31995934924364311 0 -0.40019053093036899 0.31727751782089808 0 -0.38942632587964537 0.29641120061531351 0 -0.38942632587964537 0.29641120061531351 0 -0.38778179087320769 0.27529621765694001 0 -0.37124129201382 0.2841753332327091 0 -0.38942632587964537 0.29641120061531351 0 -0.37124129201382 0.2841753332327091 0 -0.36990774782730562 0.30465198401604282 0 -0.38778179087320769 0.27529621765694001 0 -0.37230359566927929 0.26610576231553251 0 -0.37124129201382 0.2841753332327091 0 -0.38778179087320769 0.27529621765694001 0 -0.38900306751682168 0.25733661077056619 0 -0.37230359566927929 0.26610576231553251 0 -0.38900306751682168 0.25733661077056619 0 -0.37230359566927929 0.26610576231553251 0 -0.37675611103540763 0.25409865512553548 0 -0.38900306751682168 0.25733661077056619 0 -0.37230359566927929 0.26610576231553251 0 -0.38455494932564349 0.24416718140159829 0 -0.37675611103540763 0.25409865512553548 0 -0.38900306751682168 0.25733661077056619 0 -0.40570253936436479 0.24856745922560119 0 -0.40876411657587441 0.27535931469760672 0 -0.38900306751682168 0.25733661077056619 0 -0.40570253936436479 0.24856745922560119 0 -0.38900306751682168 0.25733661077056619 0 -0.40876411657587441 0.27535931469760672 0 -0.38778179087320769 0.27529621765694001 0 -0.38900306751682168 0.25733661077056619 0 -0.35344375069401829 0.26830850112922933 0 -0.35479842748912699 0.29354782535411539 0 -0.33783775680192157 0.27023153782616838 0 -0.35344375069401829 0.26830850112922933 0 -0.35479842748912699 0.29354782535411539 0 -0.35926376548055328 0.2486735779402334 0 -0.35208907389890948 0.24306917690434299 0 -0.35344375069401829 0.26830850112922933 0 -0.35208907389890948 0.24306917690434299 0 -0.35344375069401829 0.26830850112922933 0 -0.34142207509263922 0.25572960106260723 0 -0.35208907389890948 0.24306917690434299 0 -0.35344375069401829 0.26830850112922933 0 -0.35344375069401829 0.26830850112922933 0 -0.33783775680192157 0.27023153782616838 0 -0.34142207509263922 0.25572960106260723 0 -0.35344375069401829 0.26830850112922933 0 -0.36723308052532222 0.25309369692869038 0 -0.37230359566927929 0.26610576231553251 0 -0.35926376548055328 0.2486735779402334 0 -0.35344375069401829 0.26830850112922933 0 -0.36723308052532222 0.25309369692869038 0 -0.37552267705158737 0.2431978490864326 0 -0.37675611103540763 0.25409865512553548 0 -0.36723308052532222 0.25309369692869038 0 -0.37675611103540763 0.25409865512553548 0 -0.36723308052532222 0.25309369692869038 0 -0.37230359566927929 0.26610576231553251 0 -0.35344375069401829 0.26830850112922933 0 -0.37230359566927929 0.26610576231553251 0 -0.37124129201382 0.2841753332327091 0 -0.37124129201382 0.2841753332327091 0 -0.36990774782730562 0.30465198401604282 0 -0.35479842748912699 0.29354782535411539 0 -0.35344375069401829 0.26830850112922933 0 -0.37124129201382 0.2841753332327091 0 -0.35479842748912699 0.29354782535411539 0 -0.36990774782730562 0.30465198401604282 0 -0.35479842748912699 0.29354782535411539 0 -0.35615310428423591 0.31878714957900162 0 -0.35479842748912699 0.29354782535411539 0 -0.35615310428423591 0.31878714957900162 0 -0.35479842748912699 0.29354782535411539 0 -0.33790089425573833 0.30106400074382289 0 -0.35615310428423591 0.31878714957900162 0 -0.35479842748912699 0.29354782535411539 0 -0.32994760687178648 0.28429515218691809 0 -0.33783775680192157 0.27023153782616838 0 -0.35479842748912699 0.29354782535411539 0 -0.32994760687178648 0.28429515218691809 0 -0.33790089425573833 0.30106400074382289 0 -0.33790089425573833 0.30106400074382289 0 -0.31376474629655843 0.30225304786416751 0 -0.33257481532433891 0.31836647764434117 0 -0.32994760687178648 0.28429515218691809 0 -0.33790089425573833 0.30106400074382289 0 -0.31376474629655843 0.30225304786416751 0 -0.32994760687178648 0.28429515218691809 0 -0.31376474629655843 0.30225304786416751 0 -0.30745975664346697 0.28108303278283259 0 -0.32994760687178648 0.28429515218691809 0 -0.32025265357816562 0.27050697347699348 0 -0.30745975664346697 0.28108303278283259 0 -0.32994760687178648 0.28429515218691809 0 -0.32025265357816562 0.27050697347699348 0 -0.33783775680192157 0.27023153782616838 0 -0.33783775680192157 0.27023153782616838 0 -0.34142207509263922 0.25572960106260723 0 -0.32493898666941562 0.25370598596143412 0 -0.33787454055877381 0.24529314191448051 0 -0.34142207509263922 0.25572960106260723 0 -0.32493898666941562 0.25370598596143412 0 -0.32025265357816562 0.27050697347699348 0 -0.32493898666941562 0.25370598596143412 0 -0.3017176885818823 0.26220574059556451 0 -0.32025265357816562 0.27050697347699348 0 -0.33783775680192157 0.27023153782616838 0 -0.32493898666941562 0.25370598596143412 0 -0.28392805579818597 0.24584677119781029 0 -0.30659471691689572 0.242716670786389 0 -0.3017176885818823 0.26220574059556451 0 -0.30659471691689572 0.242716670786389 0 -0.32493898666941562 0.25370598596143412 0 -0.3017176885818823 0.26220574059556451 0 -0.32025265357816562 0.27050697347699348 0 -0.3017176885818823 0.26220574059556451 0 -0.30745975664346697 0.28108303278283259 0 -0.3017176885818823 0.26220574059556451 0 -0.30745975664346697 0.28108303278283259 0 -0.28581088023419748 0.27213864639403801 0 -0.28392805579818597 0.24584677119781029 0 -0.3017176885818823 0.26220574059556451 0 -0.28392805579818597 0.24584677119781029 0 -0.3017176885818823 0.26220574059556451 0 -0.28581088023419748 0.27213864639403801 0 -0.28392805579818597 0.24584677119781029 0 -0.28581088023419748 0.27213864639403801 0 -0.26655259030946182 0.26726307071448002 0 -0.28392805579818597 0.24584677119781029 0 -0.26514282027817931 0.24842266601513599 0 -0.26655259030946182 0.26726307071448002 0 -0.28581088023419748 0.27213864639403801 0 -0.26655259030946182 0.26726307071448002 0 -0.26709784128719349 0.28662765883125513 0 -0.26655259030946182 0.26726307071448002 0 -0.26709784128719349 0.28662765883125513 0 -0.24190471242523851 0.27972751922608308 0 -0.26655259030946182 0.26726307071448002 0 -0.24943129659764751 0.26000894523212309 0 -0.24190471242523851 0.27972751922608308 0 -0.26514282027817931 0.24842266601513599 0 -0.26655259030946182 0.26726307071448002 0 -0.24943129659764751 0.26000894523212309 0 -0.26514282027817931 0.24842266601513599 0 -0.24943129659764751 0.26000894523212309 0 -0.2468893326351202 0.24329134098969171 0 -0.25616918259472732 0.30236015827283808 0 -0.26709784128719349 0.28662765883125513 0 -0.24190471242523851 0.27972751922608308 0 -0.28581088023419748 0.27213864639403801 0 -0.26709784128719349 0.28662765883125513 0 -0.29016097772449478 0.2935014559625142 0 -0.26709784128719349 0.28662765883125513 0 -0.27491611994182802 0.30516871221215541 0 -0.29016097772449478 0.2935014559625142 0 -0.25616918259472732 0.30236015827283808 0 -0.27491611994182802 0.30516871221215541 0 -0.27043365276421599 0.32499279731959319 0 -0.25616918259472732 0.30236015827283808 0 -0.26709784128719349 0.28662765883125513 0 -0.27491611994182802 0.30516871221215541 0 -0.27491611994182802 0.30516871221215541 0 -0.29016097772449478 0.2935014559625142 0 -0.29169578744288521 0.31398791816734961 0 -0.30745975664346697 0.28108303278283259 0 -0.28581088023419748 0.27213864639403801 0 -0.29016097772449478 0.2935014559625142 0 -0.31376474629655843 0.30225304786416751 0 -0.30745975664346697 0.28108303278283259 0 -0.29016097772449478 0.2935014559625142 0 -0.31376474629655843 0.30225304786416751 0 -0.29016097772449478 0.2935014559625142 0 -0.29169578744288521 0.31398791816734961 0 -0.31376474629655843 0.30225304786416751 0 -0.31074538478735791 0.32738191455196902 0 -0.29169578744288521 0.31398791816734961 0 -0.31074538478735791 0.32738191455196902 0 -0.29170910681836448 0.3316805874579164 0 -0.29169578744288521 0.31398791816734961 0 -0.31074538478735791 0.32738191455196902 0 -0.30097258616365841 0.34441487088432199 0 -0.31556783578130437 0.34561409599239279 0 -0.31074538478735791 0.32738191455196902 0 -0.29170910681836448 0.3316805874579164 0 -0.30097258616365841 0.34441487088432199 0 -0.29170910681836448 0.3316805874579164 0 -0.28469812293370489 0.34762543636634829 0 -0.30097258616365841 0.34441487088432199 0 -0.29170910681836448 0.3316805874579164 0 -0.27043365276421599 0.32499279731959319 0 -0.28469812293370489 0.34762543636634829 0 -0.29170910681836448 0.3316805874579164 0 -0.29169578744288521 0.31398791816734961 0 -0.27043365276421599 0.32499279731959319 0 -0.27491611994182802 0.30516871221215541 0 -0.29169578744288521 0.31398791816734961 0 -0.27043365276421599 0.32499279731959319 0 -0.27043365276421599 0.32499279731959319 0 -0.26243222306204511 0.35090504016953772 0 -0.28469812293370489 0.34762543636634829 0 -0.27043365276421599 0.32499279731959319 0 -0.28469812293370489 0.34762543636634829 0 -0.27043365276421599 0.32499279731959319 0 -0.25002058798003007 0.3320526588471332 0 -0.26243222306204511 0.35090504016953772 0 -0.25616918259472732 0.30236015827283808 0 -0.27043365276421599 0.32499279731959319 0 -0.25616918259472732 0.30236015827283808 0 -0.27043365276421599 0.32499279731959319 0 -0.25002058798003007 0.3320526588471332 0 -0.25717133997193298 0.37426095615225607 0 -0.26243222306204511 0.35090504016953772 0 -0.27169383631612543 0.36953364855257259 0 -0.25717133997193298 0.37426095615225607 0 -0.26243222306204511 0.35090504016953772 0 -0.24481421723968019 0.36490975255658048 0 -0.27524778858216448 0.35766291394235578 0 -0.28324842690769031 0.36508823660180101 0 -0.28469812293370489 0.34762543636634829 0 -0.26243222306204511 0.35090504016953772 0 -0.27524778858216448 0.35766291394235578 0 -0.27169383631612543 0.36953364855257259 0 -0.26243222306204511 0.35090504016953772 0 -0.27524778858216448 0.35766291394235578 0 -0.28469812293370489 0.34762543636634829 0 -0.27524778858216448 0.35766291394235578 0 -0.27169383631612543 0.36953364855257259 0 -0.28324842690769031 0.36508823660180101 0 -0.27169383631612543 0.36953364855257259 0 -0.28324842690769031 0.36508823660180101 0 -0.28209338532393202 0.38222600668133688 0 -0.28324842690769031 0.36508823660180101 0 -0.28469812293370489 0.34762543636634829 0 -0.29896259310319367 0.37025807541310352 0 -0.28324842690769031 0.36508823660180101 0 -0.29896259310319367 0.37025807541310352 0 -0.28209338532393202 0.38222600668133688 0 -0.28469812293370489 0.34762543636634829 0 -0.29896259310319367 0.37025807541310352 0 -0.28469812293370489 0.34762543636634829 0 -0.30097258616365841 0.34441487088432199 0 -0.29896259310319367 0.37025807541310352 0 -0.30097258616365841 0.34441487088432199 0 -0.30971140611047582 0.35873879640362499 0 -0.29896259310319367 0.37025807541310352 0 -0.30097258616365841 0.34441487088432199 0 -0.29896259310319367 0.37025807541310352 0 -0.30097258616365841 0.34441487088432199 0 -0.30971140611047582 0.35873879640362499 0 -0.31556783578130437 0.34561409599239279 0 -0.30971140611047582 0.35873879640362499 0 -0.29896259310319367 0.37025807541310352 0 -0.31229554397435733 0.37005867265250031 0 -0.29896259310319367 0.37025807541310352 0 -0.31229554397435733 0.37005867265250031 0 -0.30732872976294823 0.38353215772995369 0 -0.31229554397435733 0.37005867265250031 0 -0.32118050234516199 0.36201264788746418 0 -0.32091897818789411 0.37757395005697603 0 -0.30971140611047582 0.35873879640362499 0 -0.31229554397435733 0.37005867265250031 0 -0.32118050234516199 0.36201264788746418 0 -0.32118050234516199 0.36201264788746418 0 -0.33508210951592582 0.36870163953731322 0 -0.32091897818789411 0.37757395005697603 0 -0.33508210951592582 0.36870163953731322 0 -0.35209549523865291 0.37190500391828912 0 -0.33393211710626841 0.38433234248782061 0 -0.32118050234516199 0.36201264788746418 0 -0.33508210951592582 0.36870163953731322 0 -0.33321476088078839 0.35466849371962073 0 -0.33508210951592582 0.36870163953731322 0 -0.33321476088078839 0.35466849371962073 0 -0.34577529297467657 0.36353966338233001 0 -0.33321476088078839 0.35466849371962073 0 -0.34577529297467657 0.36353966338233001 0 -0.34447532111727192 0.34884924989517158 0 -0.33321476088078839 0.35466849371962073 0 -0.33003563329740881 0.33925758124412497 0 -0.34447532111727192 0.34884924989517158 0 -0.32118050234516199 0.36201264788746418 0 -0.33321476088078839 0.35466849371962073 0 -0.31556783578130437 0.34561409599239279 0 -0.30971140611047582 0.35873879640362499 0 -0.32118050234516199 0.36201264788746418 0 -0.31556783578130437 0.34561409599239279 0 -0.33321476088078839 0.35466849371962073 0 -0.31556783578130437 0.34561409599239279 0 -0.33003563329740881 0.33925758124412497 0 -0.31074538478735791 0.32738191455196902 0 -0.33257481532433891 0.31836647764434117 0 -0.33003563329740881 0.33925758124412497 0 -0.31074538478735791 0.32738191455196902 0 -0.31556783578130437 0.34561409599239279 0 -0.33003563329740881 0.33925758124412497 0 -0.31376474629655843 0.30225304786416751 0 -0.31074538478735791 0.32738191455196902 0 -0.33257481532433891 0.31836647764434117 0 -0.33790089425573833 0.30106400074382289 0 -0.33257481532433891 0.31836647764434117 0 -0.35615310428423591 0.31878714957900162 0 -0.33257481532433891 0.31836647764434117 0 -0.33003563329740881 0.33925758124412497 0 -0.34490357793898208 0.33379293979876401 0 -0.33003563329740881 0.33925758124412497 0 -0.34490357793898208 0.33379293979876401 0 -0.34447532111727192 0.34884924989517158 0 -0.34490357793898208 0.33379293979876401 0 -0.34447532111727192 0.34884924989517158 0 -0.35750778107934472 0.34402647380388779 0 -0.35615310428423591 0.31878714957900162 0 -0.35750778107934472 0.34402647380388779 0 -0.34490357793898208 0.33379293979876401 0 -0.35615310428423591 0.31878714957900162 0 -0.35750778107934472 0.34402647380388779 0 -0.33257481532433891 0.31836647764434117 0 -0.34490357793898208 0.33379293979876401 0 -0.35615310428423591 0.31878714957900162 0 -0.3809584867257152 0.31995934924364311 0 -0.36990774782730562 0.30465198401604282 0 -0.35615310428423591 0.31878714957900162 0 -0.37563375498023588 0.33893957100260502 0 -0.3809584867257152 0.31995934924364311 0 -0.35615310428423591 0.31878714957900162 0 -0.37563375498023588 0.33893957100260502 0 -0.35615310428423591 0.31878714957900162 0 -0.35750778107934472 0.34402647380388779 0 -0.37563375498023588 0.33893957100260502 0 -0.37302608715873109 0.35758434449273291 0 -0.35750778107934472 0.34402647380388779 0 -0.37302608715873109 0.35758434449273291 0 -0.35750778107934472 0.34402647380388779 0 -0.35541488053243109 0.35781034742230239 0 -0.37302608715873109 0.35758434449273291 0 -0.35209549523865291 0.37190500391828912 0 -0.35541488053243109 0.35781034742230239 0 -0.37302608715873109 0.35758434449273291 0 -0.37126589511329411 0.37377724987418581 0 -0.35209549523865291 0.37190500391828912 0 -0.37302608715873109 0.35758434449273291 0 -0.35209549523865291 0.37190500391828912 0 -0.33508210951592582 0.36870163953731322 0 -0.35209549523865291 0.37190500391828912 0 -0.34577529297467657 0.36353966338233001 0 -0.35209549523865291 0.37190500391828912 0 -0.34577529297467657 0.36353966338233001 0 -0.35209549523865291 0.37190500391828912 0 -0.34577529297467657 0.36353966338233001 0 -0.35541488053243109 0.35781034742230239 0 -0.34577529297467657 0.36353966338233001 0 -0.34447532111727192 0.34884924989517158 0 -0.35541488053243109 0.35781034742230239 0 -0.34447532111727192 0.34884924989517158 0 -0.35750778107934472 0.34402647380388779 0 -0.35541488053243109 0.35781034742230239 0 -0.35026082972236822 0.40458613969335172 0 -0.34862050747833878 0.38874946299455448 0 -0.33552343261133938 0.40009846525415782 0 -0.35026082972236822 0.40458613969335172 0 -0.34862050747833878 0.38874946299455448 0 -0.36671596826568531 0.39125647884893172 0 -0.35209549523865291 0.37190500391828912 0 -0.34862050747833878 0.38874946299455448 0 -0.33393211710626841 0.38433234248782061 0 -0.35209549523865291 0.37190500391828912 0 -0.34862050747833878 0.38874946299455448 0 -0.36671596826568531 0.39125647884893172 0 -0.35209549523865291 0.37190500391828912 0 -0.36671596826568531 0.39125647884893172 0 -0.37126589511329411 0.37377724987418581 0 -0.35209549523865291 0.37190500391828912 0 -0.36671596826568531 0.39125647884893172 0 -0.38133644129271771 0.41060795377957438 0 -0.36671596826568531 0.39125647884893172 0 -0.35026082972236822 0.40458613969335172 0 -0.36671596826568531 0.39125647884893172 0 -0.36333227490387549 0.41594406858258898 0 -0.38133644129271771 0.41060795377957438 0 -0.36671596826568531 0.39125647884893172 0 -0.36333227490387549 0.41594406858258898 0 -0.38133644129271771 0.41060795377957438 0 -0.36333227490387549 0.41594406858258898 0 -0.37388199021079188 0.43349662060099697 0 -0.36333227490387549 0.41594406858258898 0 -0.37388199021079188 0.43349662060099697 0 -0.35906691460358248 0.43302642702751659 0 -0.36333227490387549 0.41594406858258898 0 -0.35906691460358248 0.43302642702751659 0 -0.35160825139420282 0.41805423523185442 0 -0.35906691460358248 0.43302642702751659 0 -0.34586475289765162 0.42738691828786168 0 -0.34964894770477822 0.45067928662270329 0 -0.35906691460358248 0.43302642702751659 0 -0.34586475289765162 0.42738691828786168 0 -0.35160825139420282 0.41805423523185442 0 -0.35026082972236822 0.40458613969335172 0 -0.36333227490387549 0.41594406858258898 0 -0.35160825139420282 0.41805423523185442 0 -0.34586475289765162 0.42738691828786168 0 -0.35160825139420282 0.41805423523185442 0 -0.33955069738530769 0.4144169953609998 0 -0.35026082972236822 0.40458613969335172 0 -0.35160825139420282 0.41805423523185442 0 -0.33955069738530769 0.4144169953609998 0 -0.35026082972236822 0.40458613969335172 0 -0.33955069738530769 0.4144169953609998 0 -0.33552343261133938 0.40009846525415782 0 -0.33446828868340289 0.42659298183602629 0 -0.325081577553051 0.41169961094141633 0 -0.33955069738530769 0.4144169953609998 0 -0.33446828868340289 0.42659298183602629 0 -0.325081577553051 0.41169961094141633 0 -0.33955069738530769 0.4144169953609998 0 -0.325081577553051 0.41169961094141633 0 -0.33552343261133938 0.40009846525415782 0 -0.33446828868340289 0.42659298183602629 0 -0.32353211865850812 0.43458959004027897 0 -0.33054677899099522 0.44587833955602901 0 -0.34586475289765162 0.42738691828786168 0 -0.33446828868340289 0.42659298183602629 0 -0.34964894770477822 0.45067928662270329 0 -0.34586475289765162 0.42738691828786168 0 -0.33446828868340289 0.42659298183602629 0 -0.34586475289765162 0.42738691828786168 0 -0.33955069738530769 0.4144169953609998 0 -0.33446828868340289 0.42659298183602629 0 -0.33446828868340289 0.42659298183602629 0 -0.31463215430362917 0.42521109444957261 0 -0.33446828868340289 0.42659298183602629 0 -0.31463215430362917 0.42521109444957261 0 -0.32353211865850812 0.43458959004027897 0 -0.31463215430362917 0.42521109444957261 0 -0.32353211865850812 0.43458959004027897 0 -0.30632691414132052 0.4383163993433048 0 -0.325081577553051 0.41169961094141633 0 -0.31576873897388319 0.39675968105735149 0 -0.30808160252936673 0.4121977433748496 0 -0.31463215430362917 0.42521109444957261 0 -0.325081577553051 0.41169961094141633 0 -0.30808160252936673 0.4121977433748496 0 -0.33446828868340289 0.42659298183602629 0 -0.31463215430362917 0.42521109444957261 0 -0.325081577553051 0.41169961094141633 0 -0.325081577553051 0.41169961094141633 0 -0.31576873897388319 0.39675968105735149 0 -0.33552343261133938 0.40009846525415782 0 -0.325081577553051 0.41169961094141633 0 -0.31576873897388319 0.39675968105735149 0 -0.34862050747833878 0.38874946299455448 0 -0.33552343261133938 0.40009846525415782 0 -0.33393211710626841 0.38433234248782061 0 -0.31576873897388319 0.39675968105735149 0 -0.33552343261133938 0.40009846525415782 0 -0.33393211710626841 0.38433234248782061 0 -0.35209549523865291 0.37190500391828912 0 -0.33393211710626841 0.38433234248782061 0 -0.33508210951592582 0.36870163953731322 0 -0.33393211710626841 0.38433234248782061 0 -0.32091897818789411 0.37757395005697603 0 -0.31576873897388319 0.39675968105735149 0 -0.32091897818789411 0.37757395005697603 0 -0.30732872976294823 0.38353215772995369 0 -0.31576873897388319 0.39675968105735149 0 -0.33393211710626841 0.38433234248782061 0 -0.31576873897388319 0.39675968105735149 0 -0.33393211710626841 0.38433234248782061 0 -0.32091897818789411 0.37757395005697603 0 -0.31229554397435733 0.37005867265250031 0 -0.32091897818789411 0.37757395005697603 0 -0.30732872976294823 0.38353215772995369 0 -0.29896259310319367 0.37025807541310352 0 -0.30732872976294823 0.38353215772995369 0 -0.29700674132229032 0.39540516601558717 0 -0.29896259310319367 0.37025807541310352 0 -0.29700674132229032 0.39540516601558717 0 -0.31576873897388319 0.39675968105735149 0 -0.30732872976294823 0.38353215772995369 0 -0.29896259310319367 0.37025807541310352 0 -0.30732872976294823 0.38353215772995369 0 -0.29700674132229032 0.39540516601558717 0 -0.30259284054109448 0.40478096048040529 0 -0.29641605771867308 0.41403951143914192 0 -0.31576873897388319 0.39675968105735149 0 -0.29700674132229032 0.39540516601558717 0 -0.30259284054109448 0.40478096048040529 0 -0.31576873897388319 0.39675968105735149 0 -0.30732872976294823 0.38353215772995369 0 -0.29700674132229032 0.39540516601558717 0 -0.31576873897388319 0.39675968105735149 0 -0.30259284054109448 0.40478096048040529 0 -0.30808160252936673 0.4121977433748496 0 -0.29700674132229032 0.39540516601558717 0 -0.28209338532393202 0.38222600668133688 0 -0.27839968129949771 0.4031848713431353 0 -0.29896259310319367 0.37025807541310352 0 -0.29700674132229032 0.39540516601558717 0 -0.28209338532393202 0.38222600668133688 0 -0.27169383631612543 0.36953364855257259 0 -0.28209338532393202 0.38222600668133688 0 -0.26324903299479457 0.38988604216182182 0 -0.27839968129949771 0.4031848713431353 0 -0.26324903299479457 0.38988604216182182 0 -0.26044543261494202 0.40722350202507612 0 -0.28209338532393202 0.38222600668133688 0 -0.27839968129949771 0.4031848713431353 0 -0.26324903299479457 0.38988604216182182 0 -0.26324903299479457 0.38988604216182182 0 -0.26044543261494202 0.40722350202507612 0 -0.24448809762487089 0.40050868906775772 0 -0.25717133997193298 0.37426095615225607 0 -0.26324903299479457 0.38988604216182182 0 -0.24074374520667241 0.38242687998337299 0 -0.25717133997193298 0.37426095615225607 0 -0.27169383631612543 0.36953364855257259 0 -0.26324903299479457 0.38988604216182182 0 -0.25382358621835049 0.43542260228310259 0 -0.27015352040741047 0.42211248350195679 0 -0.2459368307481366 0.42042542405070832 0 -0.27015352040741047 0.42211248350195679 0 -0.2459368307481366 0.42042542405070832 0 -0.26044543261494202 0.40722350202507612 0 -0.2459368307481366 0.42042542405070832 0 -0.24448809762487089 0.40050868906775772 0 -0.26044543261494202 0.40722350202507612 0 -0.27015352040741047 0.42211248350195679 0 -0.2459368307481366 0.42042542405070832 0 -0.27839968129949771 0.4031848713431353 0 -0.26044543261494202 0.40722350202507612 0 -0.27015352040741047 0.42211248350195679 0 -0.27839968129949771 0.4031848713431353 0 -0.27015352040741047 0.42211248350195679 0 -0.2950508895413867 0.42055225661807089 0 -0.25382358621835049 0.43542260228310259 0 -0.27015352040741047 0.42211248350195679 0 -0.27451598641054692 0.44016370142941202 0 -0.27015352040741047 0.42211248350195679 0 -0.28251112199335982 0.43211478794536817 0 -0.27451598641054692 0.44016370142941202 0 -0.28251112199335982 0.43211478794536817 0 -0.29479601992385501 0.42382920706312738 0 -0.29069111349206073 0.44135124015641658 0 -0.29479601992385501 0.42382920706312738 0 -0.29069111349206073 0.44135124015641658 0 -0.27015352040741047 0.42211248350195679 0 -0.28251112199335982 0.43211478794536817 0 -0.29479601992385501 0.42382920706312738 0 -0.27015352040741047 0.42211248350195679 0 -0.29479601992385501 0.42382920706312738 0 -0.27015352040741047 0.42211248350195679 0 -0.29479601992385501 0.42382920706312738 0 -0.2950508895413867 0.42055225661807089 0 -0.29479601992385501 0.42382920706312738 0 -0.2950508895413867 0.42055225661807089 0 -0.29700674132229032 0.39540516601558717 0 -0.2950508895413867 0.42055225661807089 0 -0.29641605771867308 0.41403951143914192 0 -0.29700674132229032 0.39540516601558717 0 -0.27839968129949771 0.4031848713431353 0 -0.2950508895413867 0.42055225661807089 0 -0.29700674132229032 0.39540516601558717 0 -0.2950508895413867 0.42055225661807089 0 -0.2950508895413867 0.42055225661807089 0 -0.29641605771867308 0.41403951143914192 0 -0.31463215430362917 0.42521109444957261 0 -0.2950508895413867 0.42055225661807089 0 -0.30808160252936673 0.4121977433748496 0 -0.30259284054109448 0.40478096048040529 0 -0.29641605771867308 0.41403951143914192 0 -0.30808160252936673 0.4121977433748496 0 -0.2950508895413867 0.42055225661807089 0 -0.29641605771867308 0.41403951143914192 0 -0.30808160252936673 0.4121977433748496 0 -0.31463215430362917 0.42521109444957261 0 -0.29479601992385501 0.42382920706312738 0 -0.2950508895413867 0.42055225661807089 0 -0.31463215430362917 0.42521109444957261 0 -0.29479601992385501 0.42382920706312738 0 -0.30632691414132052 0.4383163993433048 0 -0.29479601992385501 0.42382920706312738 0 -0.30632691414132052 0.4383163993433048 0 -0.29069111349206073 0.44135124015641658 0 -0.31463215430362917 0.42521109444957261 0 -0.29479601992385501 0.42382920706312738 0 -0.30632691414132052 0.4383163993433048 0 -0.3106014077299023 0.45452137664490028 0 -0.31918078655937843 0.44538174228416588 0 -0.30632691414132052 0.4383163993433048 0 -0.29796494780926752 0.45236230629258078 0 -0.3106014077299023 0.45452137664490028 0 -0.30632691414132052 0.4383163993433048 0 -0.29796494780926752 0.45236230629258078 0 -0.29069111349206073 0.44135124015641658 0 -0.3106014077299023 0.45452137664490028 0 -0.30192672627001949 0.46374394226332799 0 -0.31684143562260331 0.46858494716702748 0 -0.30192672627001949 0.46374394226332799 0 -0.31684143562260331 0.46858494716702748 0 -0.29796494780926752 0.45236230629258078 0 -0.3106014077299023 0.45452137664490028 0 -0.30192672627001949 0.46374394226332799 0 -0.28701201691743577 0.45890293735962839 0 -0.28352738281579593 0.4755269213664215 0 -0.30192672627001949 0.46374394226332799 0 -0.28701201691743577 0.45890293735962839 0 -0.30030559437380339 0.47420586516231239 0 -0.30192672627001949 0.46374394226332799 0 -0.28701201691743577 0.45890293735962839 0 -0.29796494780926752 0.45236230629258078 0 -0.30192672627001949 0.46374394226332799 0 -0.28701201691743577 0.45890293735962839 0 -0.28701201691743577 0.45890293735962839 0 -0.29069111349206073 0.44135124015641658 0 -0.28701201691743577 0.45890293735962839 0 -0.29069111349206073 0.44135124015641658 0 -0.27451598641054692 0.44016370142941202 0 -0.29796494780926752 0.45236230629258078 0 -0.28701201691743577 0.45890293735962839 0 -0.29069111349206073 0.44135124015641658 0 -0.28251112199335982 0.43211478794536817 0 -0.29069111349206073 0.44135124015641658 0 -0.27451598641054692 0.44016370142941202 0 -0.28701201691743577 0.45890293735962839 0 -0.27451598641054692 0.44016370142941202 0 -0.2629045594346644 0.45107815732999917 0 -0.28701201691743577 0.45890293735962839 0 -0.2629045594346644 0.45107815732999917 0 -0.28701201691743577 0.45890293735962839 0 -0.27023974482395158 0.46466667776273851 0 -0.28352738281579593 0.4755269213664215 0 -0.28701201691743577 0.45890293735962839 0 -0.27023974482395158 0.46466667776273851 0 -0.2629045594346644 0.45107815732999917 0 -0.27023974482395158 0.46466667776273851 0 -0.2629045594346644 0.45107815732999917 0 -0.2489120775907421 0.45611132706247232 0 -0.27023974482395158 0.46466667776273851 0 -0.24576275637927339 0.47027392540463459 0 -0.2489120775907421 0.45611132706247232 0 -0.25382358621835049 0.43542260228310259 0 -0.2629045594346644 0.45107815732999917 0 -0.2387971019518931 0.44325337730036979 0 -0.2629045594346644 0.45107815732999917 0 -0.2387971019518931 0.44325337730036979 0 -0.2629045594346644 0.45107815732999917 0 -0.2387971019518931 0.44325337730036979 0 -0.2489120775907421 0.45611132706247232 0 -0.25382358621835049 0.43542260228310259 0 -0.27451598641054692 0.44016370142941202 0 -0.2629045594346644 0.45107815732999917 0 -0.26267046183496029 0.5 0 -0.26550391405888962 0.48189416376756322 0 -0.24740973726578031 0.48747235416832729 0 -0.26550391405888962 0.48189416376756322 0 -0.24576275637927339 0.47027392540463459 0 -0.24740973726578031 0.48747235416832729 0 -0.27023974482395158 0.46466667776273851 0 -0.26550391405888962 0.48189416376756322 0 -0.24576275637927339 0.47027392540463459 0 -0.27023974482395158 0.46466667776273851 0 -0.26550391405888962 0.48189416376756322 0 -0.28352738281579593 0.4755269213664215 0 -0.26550391405888962 0.48189416376756322 0 -0.28004274871415491 0.49215090537321432 0 -0.28352738281579593 0.4755269213664215 0 -0.26267046183496029 0.5 0 -0.26550391405888962 0.48189416376756322 0 -0.28004274871415491 0.49215090537321432 0 -0.26267046183496029 0.5 0 -0.28004274871415491 0.49215090537321432 0 -0.28977137280097909 0.5 0 -0.28004274871415491 0.49215090537321432 0 -0.29422506909847679 0.48481709335143458 0 -0.28977137280097909 0.5 0 -0.29422506909847679 0.48481709335143458 0 -0.28977137280097909 0.5 0 -0.30059562840125281 0.49523014277448563 0 -0.29422506909847679 0.48481709335143458 0 -0.28352738281579593 0.4755269213664215 0 -0.30030559437380339 0.47420586516231239 0 -0.28004274871415491 0.49215090537321432 0 -0.29422506909847679 0.48481709335143458 0 -0.28352738281579593 0.4755269213664215 0 -0.28701201691743577 0.45890293735962839 0 -0.28352738281579593 0.4755269213664215 0 -0.30030559437380339 0.47420586516231239 0 -0.28004274871415491 0.49215090537321432 0 -0.28352738281579593 0.4755269213664215 0 -0.30192672627001949 0.46374394226332799 0 -0.30030559437380339 0.47420586516231239 0 -0.31684143562260331 0.46858494716702748 0 -0.30030559437380339 0.47420586516231239 0 -0.3087338265938282 0.48140676030859753 0 -0.31684143562260331 0.46858494716702748 0 -0.29422506909847679 0.48481709335143458 0 -0.30030559437380339 0.47420586516231239 0 -0.3087338265938282 0.48140676030859753 0 -0.28977137280097909 0.5 0 -0.30059562840125281 0.49523014277448563 0 -0.31687228376699761 0.5 0 -0.3087338265938282 0.48140676030859753 0 -0.30059562840125281 0.49523014277448563 0 -0.32200695450955369 0.48840862565278359 0 -0.30059562840125281 0.49523014277448563 0 -0.32200695450955369 0.48840862565278359 0 -0.29422506909847679 0.48481709335143458 0 -0.3087338265938282 0.48140676030859753 0 -0.30059562840125281 0.49523014277448563 0 -0.30059562840125281 0.49523014277448563 0 -0.31687228376699761 0.5 0 -0.32200695450955369 0.48840862565278359 0 -0.31687228376699761 0.5 0 -0.32200695450955369 0.48840862565278359 0 -0.33307541777069588 0.49179723018598798 0 -0.32200695450955369 0.48840862565278359 0 -0.34341828061785462 0.48158710853108161 0 -0.32200695450955369 0.48840862565278359 0 -0.33307541777069588 0.49179723018598798 0 -0.34341828061785462 0.48158710853108161 0 -0.33307541777069588 0.49179723018598798 0 -0.34341828061785462 0.48158710853108161 0 -0.34397319473301619 0.5 0 -0.31687228376699761 0.5 0 -0.33307541777069588 0.49179723018598798 0 -0.34397319473301619 0.5 0 -0.32200695450955369 0.48840862565278359 0 -0.34341828061785462 0.48158710853108161 0 -0.32987443399239552 0.47516769423785971 0 -0.34341828061785462 0.48158710853108161 0 -0.32987443399239552 0.47516769423785971 0 -0.34602126269748001 0.46829680282094799 0 -0.32987443399239552 0.47516769423785971 0 -0.31870391104731738 0.47862303310617538 0 -0.31684143562260331 0.46858494716702748 0 -0.32200695450955369 0.48840862565278359 0 -0.32987443399239552 0.47516769423785971 0 -0.31870391104731738 0.47862303310617538 0 -0.3087338265938282 0.48140676030859753 0 -0.32200695450955369 0.48840862565278359 0 -0.31870391104731738 0.47862303310617538 0 -0.3087338265938282 0.48140676030859753 0 -0.31870391104731738 0.47862303310617538 0 -0.31684143562260331 0.46858494716702748 0 -0.31684143562260331 0.46858494716702748 0 -0.32297313966047753 0.4563916054492167 0 -0.33347739267942988 0.46163483110378051 0 -0.32987443399239552 0.47516769423785971 0 -0.31684143562260331 0.46858494716702748 0 -0.33347739267942988 0.46163483110378051 0 -0.3106014077299023 0.45452137664490028 0 -0.31684143562260331 0.46858494716702748 0 -0.32297313966047753 0.4563916054492167 0 -0.32353211865850812 0.43458959004027897 0 -0.30632691414132052 0.4383163993433048 0 -0.31918078655937843 0.44538174228416588 0 -0.3106014077299023 0.45452137664490028 0 -0.32297313966047753 0.4563916054492167 0 -0.31918078655937843 0.44538174228416588 0 -0.32297313966047753 0.4563916054492167 0 -0.31918078655937843 0.44538174228416588 0 -0.33054677899099522 0.44587833955602901 0 -0.32353211865850812 0.43458959004027897 0 -0.31918078655937843 0.44538174228416588 0 -0.33054677899099522 0.44587833955602901 0 -0.33054677899099522 0.44587833955602901 0 -0.33347739267942988 0.46163483110378051 0 -0.34964894770477822 0.45067928662270329 0 -0.33446828868340289 0.42659298183602629 0 -0.34964894770477822 0.45067928662270329 0 -0.33446828868340289 0.42659298183602629 0 -0.33054677899099522 0.44587833955602901 0 -0.34964894770477822 0.45067928662270329 0 -0.32297313966047753 0.4563916054492167 0 -0.33054677899099522 0.44587833955602901 0 -0.33347739267942988 0.46163483110378051 0 -0.33347739267942988 0.46163483110378051 0 -0.34602126269748001 0.46829680282094799 0 -0.34964894770477822 0.45067928662270329 0 -0.32987443399239552 0.47516769423785971 0 -0.33347739267942988 0.46163483110378051 0 -0.34602126269748001 0.46829680282094799 0 -0.34964894770477822 0.45067928662270329 0 -0.36482960672615539 0.47476559140937902 0 -0.34602126269748001 0.46829680282094799 0 -0.34964894770477822 0.45067928662270329 0 -0.36482960672615539 0.47476559140937902 0 -0.37388199021079188 0.43349662060099697 0 -0.35906691460358248 0.43302642702751659 0 -0.37006527051019528 0.45259743283909409 0 -0.35906691460358248 0.43302642702751659 0 -0.34964894770477822 0.45067928662270329 0 -0.37006527051019528 0.45259743283909409 0 -0.34964894770477822 0.45067928662270329 0 -0.37006527051019528 0.45259743283909409 0 -0.36482960672615539 0.47476559140937902 0 -0.39197467039505129 0.46611734068214988 0 -0.36580706476392733 0.47631646954851292 0 -0.36482960672615539 0.47476559140937902 0 -0.38413367002432852 0.48466820949397371 0 -0.36580706476392733 0.47631646954851292 0 -0.36922226322768142 0.48798439540463678 0 -0.36580706476392733 0.47631646954851292 0 -0.36482960672615539 0.47476559140937902 0 -0.36580706476392733 0.47631646954851292 0 -0.36011621247549508 0.48220740160321018 0 -0.36922226322768142 0.48798439540463678 0 -0.36580706476392733 0.47631646954851292 0 -0.36482960672615539 0.47476559140937902 0 -0.36011621247549508 0.48220740160321018 0 -0.38413367002432852 0.48466820949397371 0 -0.36922226322768142 0.48798439540463678 0 -0.37107410569903487 0.5 0 -0.36922226322768142 0.48798439540463678 0 -0.37107410569903487 0.5 0 -0.35730384704185653 0.49038344312244059 0 -0.36011621247549508 0.48220740160321018 0 -0.36922226322768142 0.48798439540463678 0 -0.35730384704185653 0.49038344312244059 0 -0.34341828061785462 0.48158710853108161 0 -0.36011621247549508 0.48220740160321018 0 -0.35730384704185653 0.49038344312244059 0 -0.37107410569903487 0.5 0 -0.35730384704185653 0.49038344312244059 0 -0.34397319473301619 0.5 0 -0.34341828061785462 0.48158710853108161 0 -0.35730384704185653 0.49038344312244059 0 -0.34397319473301619 0.5 0 -0.34341828061785462 0.48158710853108161 0 -0.36482960672615539 0.47476559140937902 0 -0.36011621247549508 0.48220740160321018 0 -0.34341828061785462 0.48158710853108161 0 -0.34602126269748001 0.46829680282094799 0 -0.36482960672615539 0.47476559140937902 0 -0.34341828061785462 0.48158710853108161 0 -0.36482960672615539 0.47476559140937902 0 -0.14108182703901029 0.47856052106912539 0 -0.15218575011213231 0.48928026053456308 0 -0.15838645381207381 0.47784012782054008 0 -0.14108182703901029 0.47856052106912539 0 -0.15141758041572639 0.46790752156545012 0 -0.15838645381207381 0.47784012782054008 0 -0.14108182703901029 0.47856052106912539 0 -0.15218575011213231 0.48928026053456308 0 -0.14103512141071931 0.48261116844817892 0 -0.14108182703901029 0.47856052106912539 0 -0.15218575011213231 0.48928026053456308 0 -0.14103512141071931 0.48261116844817892 0 -0.14108182703901029 0.47856052106912539 0 -0.15218575011213231 0.48928026053456308 0 -0.14247376316698551 0.5 0 -0.1632896731852537 0.50000000000000155 0 -0.15218575011213231 0.48928026053456308 0 -0.14247376316698551 0.5 0 -0.14194011071192181 0.49099964735320722 0 -0.14103512141071931 0.48261116844817892 0 -0.15218575011213231 0.48928026053456308 0 -0.14194011071192181 0.49099964735320722 0 -0.14247376316698551 0.5 0 -0.13206580815784999 0.49210716043008701 0 -0.1216578531487173 0.50000000000000155 0 -0.13206580815784999 0.49210716043008701 0 -0.1215246548466888 0.48036061179670092 0 -0.1216578531487173 0.50000000000000155 0 -0.14103512141071931 0.48261116844817892 0 -0.13206580815784999 0.49210716043008701 0 -0.1215246548466888 0.48036061179670092 0 -0.14103512141071931 0.48261116844817892 0 -0.14194011071192181 0.49099964735320722 0 -0.13206580815784999 0.49210716043008701 0 -0.14247376316698551 0.5 0 -0.14194011071192181 0.49099964735320722 0 -0.13206580815784999 0.49210716043008701 0 -0.14103512141071931 0.48261116844817892 0 -0.14108182703901029 0.47856052106912539 0 -0.1215246548466888 0.48036061179670092 0 -0.14108182703901029 0.47856052106912539 0 -0.11987972175203609 0.45809198546251739 0 -0.1215246548466888 0.48036061179670092 0 -0.14108182703901029 0.47856052106912539 0 -0.14131813266979709 0.45806640035822538 0 -0.11987972175203609 0.45809198546251739 0 -0.14108182703901029 0.47856052106912539 0 -0.11987972175203609 0.45809198546251739 0 -0.12509104342100061 0.44188941827772182 0 -0.14131813266979709 0.45806640035822538 0 -0.11987972175203609 0.45809198546251739 0 -0.12509104342100061 0.44188941827772182 0 -0.14155443830058789 0.43757227964732542 0 -0.14131813266979709 0.45806640035822538 0 -0.14155443830058789 0.43757227964732542 0 -0.1590732886589914 0.44456462379371309 0 -0.14157918638415079 0.43542594817740249 0 -0.1590732886589914 0.44456462379371309 0 -0.1665175895587078 0.4467511244817659 0 -0.14157918638415079 0.43542594817740249 0 -0.1665175895587078 0.4467511244817659 0 -0.15486041744653839 0.43233395996053492 0 -0.14157918638415079 0.43542594817740249 0 -0.14155443830058789 0.43757227964732542 0 -0.14890115189103559 0.44846787442591368 0 -0.1590732886589914 0.44456462379371309 0 -0.1665175895587078 0.4467511244817659 0 -0.14157918638415079 0.43542594817740249 0 -0.14155443830058789 0.43757227964732542 0 -0.14890115189103559 0.44846787442591368 0 -0.14131813266979709 0.45806640035822538 0 -0.14155443830058789 0.43757227964732542 0 -0.1590732886589914 0.44456462379371309 0 -0.14155443830058789 0.43757227964732542 0 -0.14131813266979709 0.45806640035822538 0 -0.14890115189103559 0.44846787442591368 0 -0.15489186999573309 0.45643812449532861 0 -0.1590732886589914 0.44456462379371309 0 -0.14108182703901029 0.47856052106912539 0 -0.14131813266979709 0.45806640035822538 0 -0.14108182703901029 0.47856052106912539 0 -0.14131813266979709 0.45806640035822538 0 -0.15141758041572639 0.46790752156545012 0 -0.14890115189103559 0.44846787442591368 0 -0.14131813266979709 0.45806640035822538 0 -0.15489186999573309 0.45643812449532861 0 -0.14131813266979709 0.45806640035822538 0 -0.15489186999573309 0.45643812449532861 0 -0.15141758041572639 0.46790752156545012 0 -0.15489186999573309 0.45643812449532861 0 -0.15141758041572639 0.46790752156545012 0 -0.1637083375647361 0.46571847743475431 0 -0.15489186999573309 0.45643812449532861 0 -0.1637083375647361 0.46571847743475431 0 -0.16576602081972819 0.45650349861697093 0 -0.1637083375647361 0.46571847743475431 0 -0.1745644688617857 0.46423929942095737 0 -0.17520348646433229 0.47613194070040032 0 -0.1637083375647361 0.46571847743475431 0 -0.16576602081972819 0.45650349861697093 0 -0.1745644688617857 0.46423929942095737 0 -0.1590732886589914 0.44456462379371309 0 -0.17659213901739471 0.45155696794010108 0 -0.1590732886589914 0.44456462379371309 0 -0.1665175895587078 0.4467511244817659 0 -0.17659213901739471 0.45155696794010108 0 -0.16576602081972819 0.45650349861697093 0 -0.1590732886589914 0.44456462379371309 0 -0.17659213901739471 0.45155696794010108 0 -0.1665175895587078 0.4467511244817659 0 -0.1659354897241099 0.43449929542802312 0 -0.15486041744653839 0.43233395996053492 0 -0.15489186999573309 0.45643812449532861 0 -0.16576602081972819 0.45650349861697093 0 -0.1590732886589914 0.44456462379371309 0 -0.1665175895587078 0.4467511244817659 0 -0.1740586998674569 0.43899754936367941 0 -0.1659354897241099 0.43449929542802312 0 -0.1740586998674569 0.43899754936367941 0 -0.17659213901739471 0.45155696794010108 0 -0.1868590329817707 0.43357197228301869 0 -0.1665175895587078 0.4467511244817659 0 -0.1740586998674569 0.43899754936367941 0 -0.17659213901739471 0.45155696794010108 0 -0.1745644688617857 0.46423929942095737 0 -0.18738907724301901 0.4651958722260251 0 -0.17520348646433229 0.47613194070040032 0 -0.17659213901739471 0.45155696794010108 0 -0.1745644688617857 0.46423929942095737 0 -0.18738907724301901 0.4651958722260251 0 -0.16576602081972819 0.45650349861697093 0 -0.17659213901739471 0.45155696794010108 0 -0.1745644688617857 0.46423929942095737 0 -0.17520348646433229 0.47613194070040032 0 -0.17737148462513211 0.4885994124146576 0 -0.1949767913905355 0.48049775525153071 0 -0.18738907724301901 0.4651958722260251 0 -0.17520348646433229 0.47613194070040032 0 -0.1949767913905355 0.48049775525153071 0 -0.17520348646433229 0.47613194070040032 0 -0.1660045063390565 0.48636736612135473 0 -0.17737148462513211 0.4885994124146576 0 -0.17520348646433229 0.47613194070040032 0 -0.15838645381207381 0.47784012782054008 0 -0.1660045063390565 0.48636736612135473 0 -0.1637083375647361 0.46571847743475431 0 -0.17520348646433229 0.47613194070040032 0 -0.15838645381207381 0.47784012782054008 0 -0.15141758041572639 0.46790752156545012 0 -0.1637083375647361 0.46571847743475431 0 -0.15838645381207381 0.47784012782054008 0 -0.15218575011213231 0.48928026053456308 0 -0.1632896731852537 0.50000000000000155 0 -0.15218575011213231 0.48928026053456308 0 -0.15838645381207381 0.47784012782054008 0 -0.1660045063390565 0.48636736612135473 0 -0.15218575011213231 0.48928026053456308 0 -0.1632896731852537 0.50000000000000155 0 -0.1660045063390565 0.48636736612135473 0 -0.1632896731852537 0.50000000000000155 0 -0.1660045063390565 0.48636736612135473 0 -0.17737148462513211 0.4885994124146576 0 -0.1632896731852537 0.50000000000000155 0 -0.18738296574648311 0.5 0 -0.17737148462513211 0.4885994124146576 0 -0.18738296574648311 0.5 0 -0.17737148462513211 0.4885994124146576 0 -0.1949767913905355 0.48049775525153071 0 -0.18738296574648311 0.5 0 -0.1949767913905355 0.48049775525153071 0 -0.21147625830771241 0.5 0 -0.1949767913905355 0.48049775525153071 0 -0.2193327115732171 0.47785732409434201 0 -0.2030958722774939 0.45571464818868052 0 -0.1949767913905355 0.48049775525153071 0 -0.21147625830771241 0.5 0 -0.2193327115732171 0.47785732409434201 0 -0.21147625830771241 0.5 0 -0.2193327115732171 0.47785732409434201 0 -0.23556955086894171 0.50000000000000278 0 -0.2193327115732171 0.47785732409434201 0 -0.24740973726578031 0.48747235416832729 0 -0.23556955086894171 0.50000000000000278 0 -0.2193327115732171 0.47785732409434201 0 -0.23556955086894171 0.50000000000000278 0 -0.2193327115732171 0.47785732409434201 0 -0.24576275637927339 0.47027392540463459 0 -0.24740973726578031 0.48747235416832729 0 -0.26267046183496029 0.5 0 -0.24740973726578031 0.48747235416832729 0 -0.23556955086894171 0.50000000000000278 0 -0.2387971019518931 0.44325337730036979 0 -0.2489120775907421 0.45611132706247232 0 -0.22784244863720851 0.45419089524536999 0 -0.24576275637927339 0.47027392540463459 0 -0.2489120775907421 0.45611132706247232 0 -0.22784244863720851 0.45419089524536999 0 -0.2193327115732171 0.47785732409434201 0 -0.24576275637927339 0.47027392540463459 0 -0.22784244863720851 0.45419089524536999 0 -0.2387971019518931 0.44325337730036979 0 -0.22784244863720851 0.45419089524536999 0 -0.22695118484456259 0.43760496865691229 0 -0.22784244863720851 0.45419089524536999 0 -0.22695118484456259 0.43760496865691229 0 -0.21077827595677989 0.43843038173964088 0 -0.2387971019518931 0.44325337730036979 0 -0.22695118484456259 0.43760496865691229 0 -0.23717077667227929 0.4322920750106754 0 -0.22784244863720851 0.45419089524536999 0 -0.21077827595677989 0.43843038173964088 0 -0.2030958722774939 0.45571464818868052 0 -0.2193327115732171 0.47785732409434201 0 -0.22784244863720851 0.45419089524536999 0 -0.2030958722774939 0.45571464818868052 0 -0.2193327115732171 0.47785732409434201 0 -0.2030958722774939 0.45571464818868052 0 -0.18738907724301901 0.4651958722260251 0 -0.1949767913905355 0.48049775525153071 0 -0.2030958722774939 0.45571464818868052 0 -0.17659213901739471 0.45155696794010108 0 -0.18738907724301901 0.4651958722260251 0 -0.2030958722774939 0.45571464818868052 0 -0.17659213901739471 0.45155696794010108 0 -0.2030958722774939 0.45571464818868052 0 -0.1868590329817707 0.43357197228301869 0 -0.21077827595677989 0.43843038173964088 0 -0.2030958722774939 0.45571464818868052 0 -0.1868590329817707 0.43357197228301869 0 -0.2030958722774939 0.45571464818868052 0 -0.1868590329817707 0.43357197228301869 0 -0.21077827595677989 0.43843038173964088 0 -0.20038953475864499 0.42285930103310698 0 -0.1868590329817707 0.43357197228301869 0 -0.20038953475864499 0.42285930103310698 0 -0.18865851951403981 0.41114723081592358 0 -0.1868590329817707 0.43357197228301869 0 -0.20038953475864499 0.42285930103310698 0 -0.18865851951403981 0.41114723081592358 0 -0.20316386533702549 0.40742415296633488 0 -0.20038953475864499 0.42285930103310698 0 -0.20316386533702549 0.40742415296633488 0 -0.22016732100465239 0.41985811398850509 0 -0.20316386533702549 0.40742415296633488 0 -0.22016732100465239 0.41985811398850509 0 -0.21769018938602511 0.40540249138439582 0 -0.20316386533702549 0.40742415296633488 0 -0.22016732100465239 0.41985811398850509 0 -0.21077827595677989 0.43843038173964088 0 -0.20038953475864499 0.42285930103310698 0 -0.22016732100465239 0.41985811398850509 0 -0.22695118484456259 0.43760496865691229 0 -0.22016732100465239 0.41985811398850509 0 -0.23717077667227929 0.4322920750106754 0 -0.22695118484456259 0.43760496865691229 0 -0.21077827595677989 0.43843038173964088 0 -0.22016732100465239 0.41985811398850509 0 -0.22016732100465239 0.41985811398850509 0 -0.23358788463652869 0.41983625247023992 0 -0.23717077667227929 0.4322920750106754 0 -0.22016732100465239 0.41985811398850509 0 -0.23717077667227929 0.4322920750106754 0 -0.22016732100465239 0.41985811398850509 0 -0.23115288141678619 0.40759276862782062 0 -0.21769018938602511 0.40540249138439582 0 -0.22016732100465239 0.41985811398850509 0 -0.23115288141678619 0.40759276862782062 0 -0.23358788463652869 0.41983625247023992 0 -0.23115288141678619 0.40759276862782062 0 -0.2459368307481366 0.42042542405070832 0 -0.24448809762487089 0.40050868906775772 0 -0.23115288141678619 0.40759276862782062 0 -0.23358788463652869 0.41983625247023992 0 -0.2459368307481366 0.42042542405070832 0 -0.25382358621835049 0.43542260228310259 0 -0.2459368307481366 0.42042542405070832 0 -0.23717077667227929 0.4322920750106754 0 -0.25382358621835049 0.43542260228310259 0 -0.2387971019518931 0.44325337730036979 0 -0.23717077667227929 0.4322920750106754 0 -0.23358788463652869 0.41983625247023992 0 -0.2459368307481366 0.42042542405070832 0 -0.23717077667227929 0.4322920750106754 0 -0.26324903299479457 0.38988604216182182 0 -0.24074374520667241 0.38242687998337299 0 -0.24448809762487089 0.40050868906775772 0 -0.24074374520667241 0.38242687998337299 0 -0.24448809762487089 0.40050868906775772 0 -0.22634736018434309 0.39356380059118778 0 -0.23115288141678619 0.40759276862782062 0 -0.24448809762487089 0.40050868906775772 0 -0.22634736018434309 0.39356380059118778 0 -0.23115288141678619 0.40759276862782062 0 -0.22634736018434309 0.39356380059118778 0 -0.21769018938602511 0.40540249138439582 0 -0.24074374520667241 0.38242687998337299 0 -0.22634736018434309 0.39356380059118778 0 -0.21798062289891881 0.38062313327343511 0 -0.24074374520667241 0.38242687998337299 0 -0.21798062289891881 0.38062313327343511 0 -0.22441740966967141 0.36662202833489849 0 -0.21798062289891881 0.38062313327343511 0 -0.2053182195646632 0.38898911660535768 0 -0.20402060209966261 0.36833430411321649 0 -0.22634736018434309 0.39356380059118778 0 -0.21798062289891881 0.38062313327343511 0 -0.2053182195646632 0.38898911660535768 0 -0.22634736018434309 0.39356380059118778 0 -0.2053182195646632 0.38898911660535768 0 -0.21769018938602511 0.40540249138439582 0 -0.20316386533702549 0.40742415296633488 0 -0.2053182195646632 0.38898911660535768 0 -0.21769018938602511 0.40540249138439582 0 -0.20316386533702549 0.40742415296633488 0 -0.2053182195646632 0.38898911660535768 0 -0.18616040966939809 0.39499019194416529 0 -0.20316386533702549 0.40742415296633488 0 -0.18616040966939809 0.39499019194416529 0 -0.18865851951403981 0.41114723081592358 0 -0.20316386533702549 0.40742415296633488 0 -0.18616040966939809 0.39499019194416529 0 -0.2053182195646632 0.38898911660535768 0 -0.1927326532436788 0.38193994064591369 0 -0.18616040966939809 0.39499019194416529 0 -0.2053182195646632 0.38898911660535768 0 -0.1927326532436788 0.38193994064591369 0 -0.20402060209966261 0.36833430411321649 0 -0.1927326532436788 0.38193994064591369 0 -0.18374665136976759 0.37937871402705908 0 -0.18616040966939809 0.39499019194416529 0 -0.1744309637910503 0.37769149803556362 0 -0.1642142843906749 0.3789418502636645 0 -0.1838985270783616 0.39091510453828221 0 -0.1642142843906749 0.3789418502636645 0 -0.18616040966939809 0.39499019194416529 0 -0.1838985270783616 0.39091510453828221 0 -0.1927326532436788 0.38193994064591369 0 -0.18374665136976759 0.37937871402705908 0 -0.18362379452965399 0.37004657989153639 0 -0.18374665136976759 0.37937871402705908 0 -0.1744309637910503 0.37769149803556362 0 -0.1838985270783616 0.39091510453828221 0 -0.1642142843906749 0.3789418502636645 0 -0.18616040966939809 0.39499019194416529 0 -0.18374665136976759 0.37937871402705908 0 -0.1744309637910503 0.37769149803556362 0 -0.18362379452965399 0.37004657989153639 0 -0.18374665136976759 0.37937871402705908 0 -0.18616040966939809 0.39499019194416529 0 -0.18374665136976759 0.37937871402705908 0 -0.1838985270783616 0.39091510453828221 0 -0.18374665136976759 0.37937871402705908 0 -0.18616040966939809 0.39499019194416529 0 -0.1838985270783616 0.39091510453828221 0 -0.1642142843906749 0.3789418502636645 0 -0.1639919076143399 0.3974747808383628 0 -0.1489802686125267 0.38257497248127392 0 -0.1642142843906749 0.3789418502636645 0 -0.1639919076143399 0.3974747808383628 0 -0.18616040966939809 0.39499019194416529 0 -0.1744309637910503 0.37769149803556362 0 -0.1642142843906749 0.3789418502636645 0 -0.15874130784498061 0.37213542046662212 0 -0.1639919076143399 0.3974747808383628 0 -0.17750104491285451 0.40432040146684922 0 -0.17119334285363949 0.41366940226894577 0 -0.18865851951403981 0.41114723081592358 0 -0.18616040966939809 0.39499019194416529 0 -0.18865851951403981 0.41114723081592358 0 -0.17750104491285451 0.40432040146684922 0 -0.18616040966939809 0.39499019194416529 0 -0.1639919076143399 0.3974747808383628 0 -0.17750104491285451 0.40432040146684922 0 -0.18616040966939809 0.39499019194416529 0 -0.18865851951403981 0.41114723081592358 0 -0.17750104491285451 0.40432040146684922 0 -0.17119334285363949 0.41366940226894577 0 -0.18865851951403981 0.41114723081592358 0 -0.17459283461559361 0.42601523789076512 0 -0.17119334285363949 0.41366940226894577 0 -0.18865851951403981 0.41114723081592358 0 -0.1868590329817707 0.43357197228301869 0 -0.17459283461559361 0.42601523789076512 0 -0.1740586998674569 0.43899754936367941 0 -0.1868590329817707 0.43357197228301869 0 -0.17459283461559361 0.42601523789076512 0 -0.1740586998674569 0.43899754936367941 0 -0.17459283461559361 0.42601523789076512 0 -0.1659354897241099 0.43449929542802312 0 -0.17459283461559361 0.42601523789076512 0 -0.1659354897241099 0.43449929542802312 0 -0.16085192275254509 0.42420597718500008 0 -0.1659354897241099 0.43449929542802312 0 -0.16085192275254509 0.42420597718500008 0 -0.15486041744653839 0.43233395996053492 0 -0.1639919076143399 0.3974747808383628 0 -0.17119334285363949 0.41366940226894577 0 -0.1558060921739825 0.41026488178479492 0 -0.17459283461559361 0.42601523789076512 0 -0.16085192275254509 0.42420597718500008 0 -0.17119334285363949 0.41366940226894577 0 -0.16085192275254509 0.42420597718500008 0 -0.17119334285363949 0.41366940226894577 0 -0.1558060921739825 0.41026488178479492 0 -0.1558060921739825 0.41026488178479492 0 -0.1418117271851779 0.41525834053060801 0 -0.14204426798620681 0.39509073288381358 0 -0.16085192275254509 0.42420597718500008 0 -0.1558060921739825 0.41026488178479492 0 -0.1418117271851779 0.41525834053060801 0 -0.1418117271851779 0.41525834053060801 0 -0.14157918638415079 0.43542594817740249 0 -0.16085192275254509 0.42420597718500008 0 -0.1418117271851779 0.41525834053060801 0 -0.15486041744653839 0.43233395996053492 0 -0.1418117271851779 0.41525834053060801 0 -0.15486041744653839 0.43233395996053492 0 -0.14157918638415079 0.43542594817740249 0 -0.14155443830058789 0.43757227964732542 0 -0.14157918638415079 0.43542594817740249 0 -0.14155443830058789 0.43757227964732542 0 -0.14157918638415079 0.43542594817740249 0 -0.12025274126089 0.42574105579372712 0 -0.14155443830058789 0.43757227964732542 0 -0.1161249595423428 0.42742254588607831 0 -0.14157918638415079 0.43542594817740249 0 -0.12025274126089 0.42574105579372712 0 -0.1418117271851779 0.41525834053060801 0 -0.14157918638415079 0.43542594817740249 0 -0.12025274126089 0.42574105579372712 0 -0.14155443830058789 0.43757227964732542 0 -0.12025274126089 0.42574105579372712 0 -0.1161249595423428 0.42742254588607831 0 -0.12509104342100061 0.44188941827772182 0 -0.14155443830058789 0.43757227964732542 0 -0.1161249595423428 0.42742254588607831 0 -0.1418117271851779 0.41525834053060801 0 -0.1277268958593005 0.40709158096490278 0 -0.12025274126089 0.42574105579372712 0 -0.1418117271851779 0.41525834053060801 0 -0.1277268958593005 0.40709158096490278 0 -0.14204426798620681 0.39509073288381358 0 -0.1277268958593005 0.40709158096490278 0 -0.14204426798620681 0.39509073288381358 0 -0.1224972888069677 0.39405447109156733 0 -0.13238272395945991 0.37847398983736519 0 -0.1224972888069677 0.39405447109156733 0 -0.13238272395945991 0.37847398983736519 0 -0.14204426798620681 0.39509073288381358 0 -0.1224972888069677 0.39405447109156733 0 -0.13238272395945991 0.37847398983736519 0 -0.1489802686125267 0.38257497248127392 0 -0.14204426798620681 0.39509073288381358 0 -0.1639919076143399 0.3974747808383628 0 -0.1558060921739825 0.41026488178479492 0 -0.14204426798620681 0.39509073288381358 0 -0.1639919076143399 0.3974747808383628 0 -0.1489802686125267 0.38257497248127392 0 -0.14204426798620681 0.39509073288381358 0 -0.1418117271851779 0.41525834053060801 0 -0.14204426798620681 0.39509073288381358 0 -0.15552397359905151 0.35856797270850038 0 -0.1422681591119519 0.36289350858316322 0 -0.15574239997404821 0.34165669361972989 0 -0.1422681591119519 0.36289350858316322 0 -0.15574239997404821 0.34165669361972989 0 -0.13774544015442541 0.3595862213862932 0 -0.1344905665345571 0.34689990383467079 0 -0.15574239997404821 0.34165669361972989 0 -0.1422681591119519 0.36289350858316322 0 -0.13774544015442541 0.3595862213862932 0 -0.15574239997404821 0.34165669361972989 0 -0.1642142843906749 0.3789418502636645 0 -0.1422681591119519 0.36289350858316322 0 -0.13238272395945991 0.37847398983736519 0 -0.1489802686125267 0.38257497248127392 0 -0.1422681591119519 0.36289350858316322 0 -0.1642142843906749 0.3789418502636645 0 -0.1422681591119519 0.36289350858316322 0 -0.15874130784498061 0.37213542046662212 0 -0.1642142843906749 0.3789418502636645 0 -0.1489802686125267 0.38257497248127392 0 -0.1422681591119519 0.36289350858316322 0 -0.15552397359905151 0.35856797270850038 0 -0.1422681591119519 0.36289350858316322 0 -0.15874130784498061 0.37213542046662212 0 -0.1422681591119519 0.36289350858316322 0 -0.13774544015442541 0.3595862213862932 0 -0.12881796099468981 0.36725667352730101 0 -0.13238272395945991 0.37847398983736519 0 -0.12881796099468981 0.36725667352730101 0 -0.114951385737499 0.37611001703161828 0 -0.1422681591119519 0.36289350858316322 0 -0.13774544015442541 0.3595862213862932 0 -0.13238272395945991 0.37847398983736519 0 -0.1422681591119519 0.36289350858316322 0 -0.13238272395945991 0.37847398983736519 0 -0.1422681591119519 0.36289350858316322 0 -0.12881796099468981 0.36725667352730101 0 -0.13774544015442541 0.3595862213862932 0 -0.12881796099468981 0.36725667352730101 0 -0.13085154266849261 0.35745626259395852 0 -0.12881796099468981 0.36725667352730101 0 -0.13085154266849261 0.35745626259395852 0 -0.1223522029902982 0.35608225162756879 0 -0.13085154266849261 0.35745626259395852 0 -0.1344905665345571 0.34689990383467079 0 -0.1223522029902982 0.35608225162756879 0 -0.1344905665345571 0.34689990383467079 0 -0.1215793900664241 0.33965542352680428 0 -0.1223522029902982 0.35608225162756879 0 -0.13774544015442541 0.3595862213862932 0 -0.13085154266849261 0.35745626259395852 0 -0.1344905665345571 0.34689990383467079 0 -0.13871584827508379 0.32805163350527011 0 -0.1213981112161233 0.32606083512094008 0 -0.1215793900664241 0.33965542352680428 0 -0.1344905665345571 0.34689990383467079 0 -0.13871584827508379 0.32805163350527011 0 -0.1215793900664241 0.33965542352680428 0 -0.13871584827508379 0.32805163350527011 0 -0.122665507124936 0.30739316482981133 0 -0.1213981112161233 0.32606083512094008 0 -0.13871584827508379 0.32805163350527011 0 -0.1433184724342442 0.30536206331891741 0 -0.122665507124936 0.30739316482981133 0 -0.13871584827508379 0.32805163350527011 0 -0.1692166408361446 0.32041987865629651 0 -0.1433184724342442 0.30536206331891741 0 -0.1344905665345571 0.34689990383467079 0 -0.13871584827508379 0.32805163350527011 0 -0.15574239997404821 0.34165669361972989 0 -0.13871584827508379 0.32805163350527011 0 -0.15574239997404821 0.34165669361972989 0 -0.1692166408361446 0.32041987865629651 0 -0.15574239997404821 0.34165669361972989 0 -0.16882657531294051 0.33343050367394028 0 -0.16727942812343491 0.34541839291957183 0 -0.16882657531294051 0.33343050367394028 0 -0.1740652221397718 0.31676208059972089 0 -0.17253785706623809 0.33742704001517521 0 -0.15574239997404821 0.34165669361972989 0 -0.1692166408361446 0.32041987865629651 0 -0.15574239997404821 0.34165669361972989 0 -0.16882657531294051 0.33343050367394028 0 -0.1692166408361446 0.32041987865629651 0 -0.17253785706623809 0.33742704001517521 0 -0.17248005025835489 0.34536210115862542 0 -0.16727942812343491 0.34541839291957183 0 -0.16882657531294051 0.33343050367394028 0 -0.17253785706623809 0.33742704001517521 0 -0.16727942812343491 0.34541839291957183 0 -0.16882657531294051 0.33343050367394028 0 -0.1692166408361446 0.32041987865629651 0 -0.1740652221397718 0.31676208059972089 0 -0.18300185264204469 0.32280423575908729 0 -0.1740652221397718 0.31676208059972089 0 -0.17819295282042311 0.34345902717413063 0 -0.18300185264204469 0.32280423575908729 0 -0.1740652221397718 0.31676208059972089 0 -0.18269088169824049 0.29918306369286279 0 -0.18300185264204469 0.32280423575908729 0 -0.17819295282042311 0.34345902717413063 0 -0.18331282358584941 0.34642540782531189 0 -0.1740652221397718 0.31676208059972089 0 -0.17819295282042311 0.34345902717413063 0 -0.1740652221397718 0.31676208059972089 0 -0.17253785706623809 0.33742704001517521 0 -0.17819295282042311 0.34345902717413063 0 -0.18300185264204469 0.32280423575908729 0 -0.18331282358584941 0.34642540782531189 0 -0.17253785706623809 0.33742704001517521 0 -0.17819295282042311 0.34345902717413063 0 -0.17248005025835489 0.34536210115862542 0 -0.17819295282042311 0.34345902717413063 0 -0.17266476351591969 0.35237730914779941 0 -0.18362379452965399 0.37004657989153639 0 -0.17819295282042311 0.34345902717413063 0 -0.18331282358584941 0.34642540782531189 0 -0.18362379452965399 0.37004657989153639 0 -0.17819295282042311 0.34345902717413063 0 -0.18362379452965399 0.37004657989153639 0 -0.18331282358584941 0.34642540782531189 0 -0.18362379452965399 0.37004657989153639 0 -0.19396205315185269 0.35773027909378607 0 -0.18331282358584941 0.34642540782531189 0 -0.18362379452965399 0.37004657989153639 0 -0.17819295282042311 0.34345902717413063 0 -0.17266476351591969 0.35237730914779941 0 -0.17248005025835489 0.34536210115862542 0 -0.17266476351591969 0.35237730914779941 0 -0.16727942812343491 0.34541839291957183 0 -0.16404697378228 0.35342911006401911 0 -0.15552397359905151 0.35856797270850038 0 -0.15574239997404821 0.34165669361972989 0 -0.16404697378228 0.35342911006401911 0 -0.17266476351591969 0.35237730914779941 0 -0.17248005025835489 0.34536210115862542 0 -0.16727942812343491 0.34541839291957183 0 -0.17266476351591969 0.35237730914779941 0 -0.1697011683865553 0.35883091161224728 0 -0.16404697378228 0.35342911006401911 0 -0.1697011683865553 0.35883091161224728 0 -0.16404697378228 0.35342911006401911 0 -0.1633701090946704 0.36372338037626623 0 -0.15552397359905151 0.35856797270850038 0 -0.16404697378228 0.35342911006401911 0 -0.1633701090946704 0.36372338037626623 0 -0.15574239997404821 0.34165669361972989 0 -0.16727942812343491 0.34541839291957183 0 -0.16404697378228 0.35342911006401911 0 -0.15874130784498061 0.37213542046662212 0 -0.18362379452965399 0.37004657989153639 0 -0.15874130784498061 0.37213542046662212 0 -0.1633701090946704 0.36372338037626623 0 -0.18362379452965399 0.37004657989153639 0 -0.15552397359905151 0.35856797270850038 0 -0.15874130784498061 0.37213542046662212 0 -0.1633701090946704 0.36372338037626623 0 -0.17266476351591969 0.35237730914779941 0 -0.1697011683865553 0.35883091161224728 0 -0.18362379452965399 0.37004657989153639 0 -0.1697011683865553 0.35883091161224728 0 -0.1633701090946704 0.36372338037626623 0 -0.18362379452965399 0.37004657989153639 0 -0.1744309637910503 0.37769149803556362 0 -0.15874130784498061 0.37213542046662212 0 -0.18362379452965399 0.37004657989153639 0 -0.18374665136976759 0.37937871402705908 0 -0.18362379452965399 0.37004657989153639 0 -0.1927326532436788 0.38193994064591369 0 -0.18362379452965399 0.37004657989153639 0 -0.20402060209966261 0.36833430411321649 0 -0.18362379452965399 0.37004657989153639 0 -0.20402060209966261 0.36833430411321649 0 -0.18362379452965399 0.37004657989153639 0 -0.19396205315185269 0.35773027909378607 0 -0.20402060209966261 0.36833430411321649 0 -0.19396205315185269 0.35773027909378607 0 -0.208999317395312 0.3446492875548014 0 -0.20402060209966261 0.36833430411321649 0 -0.18331282358584941 0.34642540782531189 0 -0.19396205315185269 0.35773027909378607 0 -0.208999317395312 0.3446492875548014 0 -0.208999317395312 0.3446492875548014 0 -0.20402060209966261 0.36833430411321649 0 -0.22441740966967141 0.36662202833489849 0 -0.20402060209966261 0.36833430411321649 0 -0.22441740966967141 0.36662202833489849 0 -0.21798062289891881 0.38062313327343511 0 -0.20402060209966261 0.36833430411321649 0 -0.22441740966967141 0.36662202833489849 0 -0.208999317395312 0.3446492875548014 0 -0.23479591562654789 0.35148704487088239 0 -0.2313273246892763 0.33558392302215828 0 -0.208999317395312 0.3446492875548014 0 -0.22441740966967141 0.36662202833489849 0 -0.23479591562654789 0.35148704487088239 0 -0.25002058798003007 0.3320526588471332 0 -0.26243222306204511 0.35090504016953772 0 -0.23479591562654789 0.35148704487088239 0 -0.26243222306204511 0.35090504016953772 0 -0.23479591562654789 0.35148704487088239 0 -0.24481421723968019 0.36490975255658048 0 -0.22441740966967141 0.36662202833489849 0 -0.24481421723968019 0.36490975255658048 0 -0.24074374520667241 0.38242687998337299 0 -0.22441740966967141 0.36662202833489849 0 -0.24481421723968019 0.36490975255658048 0 -0.22441740966967141 0.36662202833489849 0 -0.23479591562654789 0.35148704487088239 0 -0.24481421723968019 0.36490975255658048 0 -0.25717133997193298 0.37426095615225607 0 -0.24074374520667241 0.38242687998337299 0 -0.24481421723968019 0.36490975255658048 0 -0.25616918259472732 0.30236015827283808 0 -0.25002058798003007 0.3320526588471332 0 -0.23403114015321011 0.31709209002172778 0 -0.25002058798003007 0.3320526588471332 0 -0.23479591562654789 0.35148704487088239 0 -0.2313273246892763 0.33558392302215828 0 -0.25002058798003007 0.3320526588471332 0 -0.2313273246892763 0.33558392302215828 0 -0.23403114015321011 0.31709209002172778 0 -0.208999317395312 0.3446492875548014 0 -0.2313273246892763 0.33558392302215828 0 -0.21850591254547599 0.32628872173457818 0 -0.23403114015321011 0.31709209002172778 0 -0.21850591254547599 0.32628872173457818 0 -0.21603293622121081 0.30879617143541382 0 -0.2313273246892763 0.33558392302215828 0 -0.23403114015321011 0.31709209002172778 0 -0.21850591254547599 0.32628872173457818 0 -0.21850591254547599 0.32628872173457818 0 -0.20213884426837089 0.32532213663878978 0 -0.21603293622121081 0.30879617143541382 0 -0.20213884426837089 0.32532213663878978 0 -0.19725183072938909 0.30509230858372249 0 -0.21603293622121081 0.30879617143541382 0 -0.208999317395312 0.3446492875548014 0 -0.21850591254547599 0.32628872173457818 0 -0.20213884426837089 0.32532213663878978 0 -0.18331282358584941 0.34642540782531189 0 -0.208999317395312 0.3446492875548014 0 -0.20213884426837089 0.32532213663878978 0 -0.18300185264204469 0.32280423575908729 0 -0.18331282358584941 0.34642540782531189 0 -0.20213884426837089 0.32532213663878978 0 -0.18300185264204469 0.32280423575908729 0 -0.20213884426837089 0.32532213663878978 0 -0.19725183072938909 0.30509230858372249 0 -0.19725183072938909 0.30509230858372249 0 -0.1906964717749009 0.28656541518329992 0 -0.18269088169824049 0.29918306369286279 0 -0.18300185264204469 0.32280423575908729 0 -0.19725183072938909 0.30509230858372249 0 -0.18269088169824049 0.29918306369286279 0 -0.19725183072938909 0.30509230858372249 0 -0.1906964717749009 0.28656541518329992 0 -0.20894999777156681 0.28788282879288141 0 -0.1906964717749009 0.28656541518329992 0 -0.20894999777156681 0.28788282879288141 0 -0.19560748054403571 0.27391850694798181 0 -0.19725183072938909 0.30509230858372249 0 -0.20894999777156681 0.28788282879288141 0 -0.21603293622121081 0.30879617143541382 0 -0.20894999777156681 0.28788282879288141 0 -0.21603293622121081 0.30879617143541382 0 -0.23010937568771669 0.29589673977315029 0 -0.23403114015321011 0.31709209002172778 0 -0.21603293622121081 0.30879617143541382 0 -0.23010937568771669 0.29589673977315029 0 -0.20894999777156681 0.28788282879288141 0 -0.23010937568771669 0.29589673977315029 0 -0.2234747025956966 0.27824585991597089 0 -0.23010937568771669 0.29589673977315029 0 -0.24190471242523851 0.27972751922608308 0 -0.2234747025956966 0.27824585991597089 0 -0.25616918259472732 0.30236015827283808 0 -0.24190471242523851 0.27972751922608308 0 -0.25616918259472732 0.30236015827283808 0 -0.23010937568771669 0.29589673977315029 0 -0.24190471242523851 0.27972751922608308 0 -0.25616918259472732 0.30236015827283808 0 -0.23403114015321011 0.31709209002172778 0 -0.23010937568771669 0.29589673977315029 0 -0.24943129659764751 0.26000894523212309 0 -0.24190471242523851 0.27972751922608308 0 -0.22764024225575111 0.25709488017932702 0 -0.22764024225575111 0.25709488017932702 0 -0.2468893326351202 0.24329134098969171 0 -0.24943129659764751 0.26000894523212309 0 -0.22764024225575111 0.25709488017932702 0 -0.2468893326351202 0.24329134098969171 0 -0.24190471242523851 0.27972751922608308 0 -0.22764024225575111 0.25709488017932702 0 -0.24190471242523851 0.27972751922608308 0 -0.2234747025956966 0.27824585991597089 0 -0.22764024225575111 0.25709488017932702 0 -0.2234747025956966 0.27824585991597089 0 -0.22764024225575111 0.25709488017932702 0 -0.20876918483820989 0.27062733160841262 0 -0.22764024225575111 0.25709488017932702 0 -0.21239874098331929 0.25437807278244762 0 -0.20876918483820989 0.27062733160841262 0 -0.22764024225575111 0.25709488017932702 0 -0.20876918483820989 0.27062733160841262 0 -0.21239874098331929 0.25437807278244762 0 -0.20876918483820989 0.27062733160841262 0 -0.2025020270240801 0.26019521754276942 0 -0.21239874098331929 0.25437807278244762 0 -0.2025020270240801 0.26019521754276942 0 -0.2046840695697589 0.2451395929661444 0 -0.20894999777156681 0.28788282879288141 0 -0.2234747025956966 0.27824585991597089 0 -0.20876918483820989 0.27062733160841262 0 -0.20894999777156681 0.28788282879288141 0 -0.20876918483820989 0.27062733160841262 0 -0.19560748054403571 0.27391850694798181 0 -0.19560748054403571 0.27391850694798181 0 -0.18940688912330481 0.25610334311205268 0 -0.18232207730982461 0.27116889680334472 0 -0.20876918483820989 0.27062733160841262 0 -0.19560748054403571 0.27391850694798181 0 -0.2025020270240801 0.26019521754276942 0 -0.1906964717749009 0.28656541518329992 0 -0.19560748054403571 0.27391850694798181 0 -0.18232207730982461 0.27116889680334472 0 -0.19560748054403571 0.27391850694798181 0 -0.2025020270240801 0.26019521754276942 0 -0.18940688912330481 0.25610334311205268 0 -0.2025020270240801 0.26019521754276942 0 -0.18940688912330481 0.25610334311205268 0 -0.2046840695697589 0.2451395929661444 0 -0.18940688912330481 0.25610334311205268 0 -0.17508206900779469 0.25918785244088571 0 -0.18195408303730121 0.23534357450296481 0 -0.18940688912330481 0.25610334311205268 0 -0.17508206900779469 0.25918785244088571 0 -0.18232207730982461 0.27116889680334472 0 -0.16225317791305921 0.25358582624422438 0 -0.1601147340924314 0.27132493958040771 0 -0.14746997276257359 0.25293699741112718 0 -0.17508206900779469 0.25918785244088571 0 -0.16225317791305921 0.25358582624422438 0 -0.1601147340924314 0.27132493958040771 0 -0.1601147340924314 0.27132493958040771 0 -0.18232207730982461 0.27116889680334472 0 -0.1715163911286523 0.28419500503467149 0 -0.17508206900779469 0.25918785244088571 0 -0.1601147340924314 0.27132493958040771 0 -0.18232207730982461 0.27116889680334472 0 -0.1906964717749009 0.28656541518329992 0 -0.18232207730982461 0.27116889680334472 0 -0.18269088169824049 0.29918306369286279 0 -0.18232207730982461 0.27116889680334472 0 -0.18269088169824049 0.29918306369286279 0 -0.1715163911286523 0.28419500503467149 0 -0.18232207730982461 0.27116889680334472 0 -0.18269088169824049 0.29918306369286279 0 -0.1906964717749009 0.28656541518329992 0 -0.18269088169824049 0.29918306369286279 0 -0.18300185264204469 0.32280423575908729 0 -0.18269088169824049 0.29918306369286279 0 -0.1692166408361446 0.32041987865629651 0 -0.18269088169824049 0.29918306369286279 0 -0.1692166408361446 0.32041987865629651 0 -0.1740652221397718 0.31676208059972089 0 -0.18269088169824049 0.29918306369286279 0 -0.1692166408361446 0.32041987865629651 0 -0.16093787141411231 0.2951031200620709 0 -0.1433184724342442 0.30536206331891741 0 -0.1692166408361446 0.32041987865629651 0 -0.18269088169824049 0.29918306369286279 0 -0.16093787141411231 0.2951031200620709 0 -0.18269088169824049 0.29918306369286279 0 -0.1715163911286523 0.28419500503467149 0 -0.16093787141411231 0.2951031200620709 0 -0.1601147340924314 0.27132493958040771 0 -0.1715163911286523 0.28419500503467149 0 -0.16093787141411231 0.2951031200620709 0 -0.1601147340924314 0.27132493958040771 0 -0.16093787141411231 0.2951031200620709 0 -0.140940242444347 0.28770890845956881 0 -0.16093787141411231 0.2951031200620709 0 -0.140940242444347 0.28770890845956881 0 -0.16093787141411231 0.2951031200620709 0 -0.140940242444347 0.28770890845956881 0 -0.1433184724342442 0.30536206331891741 0 -0.1433184724342442 0.30536206331891741 0 -0.12743472451084159 0.29349567440048657 0 -0.122665507124936 0.30739316482981133 0 -0.140940242444347 0.28770890845956881 0 -0.1433184724342442 0.30536206331891741 0 -0.12743472451084159 0.29349567440048657 0 -0.140940242444347 0.28770890845956881 0 -0.1209426134745812 0.28031469685706822 0 -0.140940242444347 0.28770890845956881 0 -0.12743472451084159 0.29349567440048657 0 -0.1209426134745812 0.28031469685706822 0 -0.140940242444347 0.28770890845956881 0 -0.12748957136376979 0.2697364722205553 0 -0.1209426134745812 0.28031469685706822 0 -0.140940242444347 0.28770890845956881 0 -0.1385418352730507 0.26582091200169278 0 -0.12748957136376979 0.2697364722205553 0 -0.1385418352730507 0.26582091200169278 0 -0.1252623291810667 0.25912953992318971 0 -0.13357218109292621 0.2499317644564327 0 -0.1385418352730507 0.26582091200169278 0 -0.14746997276257359 0.25293699741112718 0 -0.13357218109292621 0.2499317644564327 0 -0.1385418352730507 0.26582091200169278 0 -0.12748957136376979 0.2697364722205553 0 -0.1252623291810667 0.25912953992318971 0 -0.1252623291810667 0.25912953992318971 0 -0.13357218109292621 0.2499317644564327 0 -0.1213089330464012 0.24626659804535689 0 -0.1601147340924314 0.27132493958040771 0 -0.1385418352730507 0.26582091200169278 0 -0.14746997276257359 0.25293699741112718 0 -0.1601147340924314 0.27132493958040771 0 -0.140940242444347 0.28770890845956881 0 -0.1385418352730507 0.26582091200169278 0 -0.095230237001734636 0.27080743213428882 0 -0.101831548476812 0.26048951589785008 0 -0.1165241005361865 0.26558405137515151 0 -0.095230237001734636 0.27080743213428882 0 -0.1209426134745812 0.28031469685706822 0 -0.095230237001734636 0.27080743213428882 0 -0.101831548476812 0.26048951589785008 0 -0.101831548476812 0.26048951589785008 0 -0.112097455783086 0.24444379951602521 0 -0.096974545082976191 0.25880538532589209 0 -0.101831548476812 0.26048951589785008 0 -0.112097455783086 0.24444379951602521 0 -0.095230237001734636 0.27080743213428882 0 -0.096974545082976191 0.25880538532589209 0 -0.101831548476812 0.26048951589785008 0 -0.096974545082976191 0.25880538532589209 0 -0.101831548476812 0.26048951589785008 0 -0.101831548476812 0.26048951589785008 0 -0.1165241005361865 0.26558405137515151 0 -0.101831548476812 0.26048951589785008 0 -0.11521273165378559 0.25497892835963998 0 -0.112097455783086 0.24444379951602521 0 -0.101831548476812 0.26048951589785008 0 -0.1165241005361865 0.26558405137515151 0 -0.11521273165378559 0.25497892835963998 0 -0.1252623291810667 0.25912953992318971 0 -0.11521273165378559 0.25497892835963998 0 -0.1213089330464012 0.24626659804535689 0 -0.12748957136376979 0.2697364722205553 0 -0.1252623291810667 0.25912953992318971 0 -0.1165241005361865 0.26558405137515151 0 -0.1252623291810667 0.25912953992318971 0 -0.1165241005361865 0.26558405137515151 0 -0.11521273165378559 0.25497892835963998 0 -0.12748957136376979 0.2697364722205553 0 -0.1165241005361865 0.26558405137515151 0 -0.11826192468166601 0.27279143104315778 0 -0.095230237001734636 0.27080743213428882 0 -0.1165241005361865 0.26558405137515151 0 -0.11826192468166601 0.27279143104315778 0 -0.095230237001734636 0.27080743213428882 0 -0.11826192468166601 0.27279143104315778 0 -0.1209426134745812 0.28031469685706822 0 -0.12748957136376979 0.2697364722205553 0 -0.11826192468166601 0.27279143104315778 0 -0.1209426134745812 0.28031469685706822 0 -0.1209426134745812 0.28031469685706822 0 -0.099156256926613839 0.29556062278638268 0 -0.12743472451084159 0.29349567440048657 0 -0.1209426134745812 0.28031469685706822 0 -0.099156256926613839 0.29556062278638268 0 -0.12743472451084159 0.29349567440048657 0 -0.122665507124936 0.30739316482981133 0 -0.099156256926613839 0.29556062278638268 0 -0.1041414057358224 0.31201579539373148 0 -0.099156256926613839 0.29556062278638268 0 -0.091673901452025128 0.31746800270450398 0 -0.122665507124936 0.30739316482981133 0 -0.1041414057358224 0.31201579539373148 0 -0.099156256926613839 0.29556062278638268 0 -0.095230237001734636 0.27080743213428882 0 -0.1209426134745812 0.28031469685706822 0 -0.099156256926613839 0.29556062278638268 0 -0.081993310338176556 0.29149688165626692 0 -0.071574905525993715 0.28647654560898889 0 -0.088307373389434785 0.26824767274871397 0 -0.095230237001734636 0.27080743213428882 0 -0.099156256926613839 0.29556062278638268 0 -0.081993310338176556 0.29149688165626692 0 -0.099156256926613839 0.29556062278638268 0 -0.0773699003786468 0.31080654871569757 0 -0.091673901452025128 0.31746800270450398 0 -0.099156256926613839 0.29556062278638268 0 -0.0773699003786468 0.31080654871569757 0 -0.081993310338176556 0.29149688165626692 0 -0.0773699003786468 0.31080654871569757 0 -0.099156256926613839 0.29556062278638268 0 -0.081993310338176556 0.29149688165626692 0 -0.0773699003786468 0.31080654871569757 0 -0.081993310338176556 0.29149688165626692 0 -0.0773699003786468 0.31080654871569757 0 -0.07000108740115632 0.31024084673351238 0 -0.081993310338176556 0.29149688165626692 0 -0.07000108740115632 0.31024084673351238 0 -0.07082691849754412 0.29686868922251758 0 -0.081993310338176556 0.29149688165626692 0 -0.07000108740115632 0.31024084673351238 0 -0.06406362287003417 0.30105685935529619 0 -0.07000108740115632 0.31024084673351238 0 -0.07082691849754412 0.29686868922251758 0 -0.06406362287003417 0.30105685935529619 0 -0.07000108740115632 0.31024084673351238 0 -0.05903493703298672 0.30842013861035528 0 -0.081993310338176556 0.29149688165626692 0 -0.071574905525993715 0.28647654560898889 0 -0.07082691849754412 0.29686868922251758 0 -0.071574905525993715 0.28647654560898889 0 -0.07082691849754412 0.29686868922251758 0 -0.064150197611200194 0.29028153745804169 0 -0.06406362287003417 0.30105685935529619 0 -0.07082691849754412 0.29686868922251758 0 -0.064150197611200194 0.29028153745804169 0 -0.071574905525993715 0.28647654560898889 0 -0.064150197611200194 0.29028153745804169 0 -0.066272470786091969 0.27951596978905408 0 -0.066272470786091969 0.27951596978905408 0 -0.064867048676514966 0.26815492676469338 0 -0.075116873927680253 0.27479103085629453 0 -0.066272470786091969 0.27951596978905408 0 -0.064867048676514966 0.26815492676469338 0 -0.056753075498150757 0.28085207326825551 0 -0.064867048676514966 0.26815492676469338 0 -0.075116873927680253 0.27479103085629453 0 -0.074399806026204385 0.26466482186588819 0 -0.075116873927680253 0.27479103085629453 0 -0.079975847673146208 0.26885948770409202 0 -0.074399806026204385 0.26466482186588819 0 -0.071574905525993715 0.28647654560898889 0 -0.066272470786091969 0.27951596978905408 0 -0.075116873927680253 0.27479103085629453 0 -0.095230237001734636 0.27080743213428882 0 -0.081993310338176556 0.29149688165626692 0 -0.095230237001734636 0.27080743213428882 0 -0.081993310338176556 0.29149688165626692 0 -0.088307373389434785 0.26824767274871397 0 -0.071574905525993715 0.28647654560898889 0 -0.088307373389434785 0.26824767274871397 0 -0.071574905525993715 0.28647654560898889 0 -0.075116873927680253 0.27479103085629453 0 -0.088307373389434785 0.26824767274871397 0 -0.079975847673146208 0.26885948770409202 0 -0.084329260359261832 0.26677674789216088 0 -0.074399806026204385 0.26466482186588819 0 -0.075116873927680253 0.27479103085629453 0 -0.079975847673146208 0.26885948770409202 0 -0.088307373389434785 0.26824767274871397 0 -0.079975847673146208 0.26885948770409202 0 -0.084329260359261832 0.26677674789216088 0 -0.088307373389434785 0.26824767274871397 0 -0.095230237001734636 0.27080743213428882 0 -0.096974545082976191 0.25880538532589209 0 -0.088307373389434785 0.26824767274871397 0 -0.084329260359261832 0.26677674789216088 0 -0.088307373389434785 0.26824767274871397 0 -0.095230237001734636 0.27080743213428882 0 -0.088307373389434785 0.26824767274871397 0 -0.096974545082976191 0.25880538532589209 0 -0.073553522625709841 0.25068431627396631 0 -0.088715331182393942 0.2449718195011524 0 -0.096974545082976191 0.25880538532589209 0 -0.084329260359261832 0.26677674789216088 0 -0.073553522625709841 0.25068431627396631 0 -0.096974545082976191 0.25880538532589209 0 -0.073553522625709841 0.25068431627396631 0 -0.096974545082976191 0.25880538532589209 0 -0.088307373389434785 0.26824767274871397 0 -0.096974545082976191 0.25880538532589209 0 -0.084329260359261832 0.26677674789216088 0 -0.088307373389434785 0.26824767274871397 0 -0.084329260359261832 0.26677674789216088 0 -0.073553522625709841 0.25068431627396631 0 -0.074399806026204385 0.26466482186588819 0 -0.064867048676514966 0.26815492676469338 0 -0.073553522625709841 0.25068431627396631 0 -0.050450936449665702 0.26047062327699849 0 -0.064867048676514966 0.26815492676469338 0 -0.073553522625709841 0.25068431627396631 0 -0.074399806026204385 0.26466482186588819 0 -0.073553522625709841 0.25068431627396631 0 -0.050450936449665702 0.26047062327699849 0 -0.050132500168443887 0.2425632472220397 0 -0.064867048676514966 0.26815492676469338 0 -0.050450936449665702 0.26047062327699849 0 -0.056753075498150757 0.28085207326825551 0 -0.050450936449665702 0.26047062327699849 0 -0.056753075498150757 0.28085207326825551 0 -0.041567118232982071 0.28155035039042642 0 -0.050450936449665702 0.26047062327699849 0 -0.032664289439585513 0.26886008103247921 0 -0.041567118232982071 0.28155035039042642 0 -0.032664289439585513 0.26886008103247921 0 -0.025724023578003428 0.28484302527062832 0 -0.041567118232982071 0.28155035039042642 0 -0.050450936449665702 0.26047062327699849 0 -0.032664289439585513 0.26886008103247921 0 -0.029881977245259539 0.25372898958001938 0 -0.050450936449665702 0.26047062327699849 0 -0.029881977245259539 0.25372898958001938 0 -0.050132500168443887 0.2425632472220397 0 -0.029881977245259539 0.25372898958001938 0 -0.019473314891880141 0.26767922737850353 0 -0.0082457657602449386 0.25246627485226031 0 -0.032664289439585513 0.26886008103247921 0 -0.029881977245259539 0.25372898958001938 0 -0.019473314891880141 0.26767922737850353 0 -0.019473314891880141 0.26767922737850353 0 -0.0042610585373493576 0.2771562680236046 0 -0.025724023578003428 0.28484302527062832 0 -0.032664289439585513 0.26886008103247921 0 -0.019473314891880141 0.26767922737850353 0 -0.025724023578003428 0.28484302527062832 0 -0.019473314891880141 0.26767922737850353 0 -0.0042610585373493576 0.2771562680236046 0 -0.0082457657602449386 0.25246627485226031 0 -0.0042610585373493576 0.2771562680236046 0 -0.0082457657602449386 0.25246627485226031 0 0.0071094060709509964 0.26564087220093879 0 -0.0069555348311276686 0.31079851600377723 0 -0.00058836015198596755 0.32088344941533808 0 0.0054341821912287152 0.30403492879740468 0 -0.013098506886936411 0.29875518722530359 0 -0.0069555348311276686 0.31079851600377723 0 0.0054341821912287152 0.30403492879740468 0 -0.013098506886936411 0.29875518722530359 0 -0.0069555348311276686 0.31079851600377723 0 -0.020687787070248039 0.31403805852116051 0 -0.0042610585373493576 0.2771562680236046 0 -0.013098506886936411 0.29875518722530359 0 -0.025724023578003428 0.28484302527062832 0 -0.0042610585373493576 0.2771562680236046 0 -0.013098506886936411 0.29875518722530359 0 0.0054341821912287152 0.30403492879740468 0 -0.013098506886936411 0.29875518722530359 0 -0.025724023578003428 0.28484302527062832 0 -0.02904570801181227 0.30414560716861699 0 -0.013098506886936411 0.29875518722530359 0 -0.02904570801181227 0.30414560716861699 0 -0.020687787070248039 0.31403805852116051 0 -0.02904570801181227 0.30414560716861699 0 -0.034308890996313193 0.31619803717231232 0 -0.020687787070248039 0.31403805852116051 0 -0.02904570801181227 0.30414560716861699 0 -0.04581664775108537 0.30961879620062571 0 -0.039958169045478269 0.29575445567546388 0 -0.02904570801181227 0.30414560716861699 0 -0.04581664775108537 0.30961879620062571 0 -0.034308890996313193 0.31619803717231232 0 -0.025724023578003428 0.28484302527062832 0 -0.02904570801181227 0.30414560716861699 0 -0.039958169045478269 0.29575445567546388 0 -0.025724023578003428 0.28484302527062832 0 -0.039958169045478269 0.29575445567546388 0 -0.041567118232982071 0.28155035039042642 0 -0.039958169045478269 0.29575445567546388 0 -0.041567118232982071 0.28155035039042642 0 -0.055410192489386563 0.29691908750413831 0 -0.056753075498150757 0.28085207326825551 0 -0.041567118232982071 0.28155035039042642 0 -0.055410192489386563 0.29691908750413831 0 -0.064150197611200194 0.29028153745804169 0 -0.056753075498150757 0.28085207326825551 0 -0.055410192489386563 0.29691908750413831 0 -0.06406362287003417 0.30105685935529619 0 -0.064150197611200194 0.29028153745804169 0 -0.055410192489386563 0.29691908750413831 0 -0.064150197611200194 0.29028153745804169 0 -0.066272470786091969 0.27951596978905408 0 -0.056753075498150757 0.28085207326825551 0 -0.04581664775108537 0.30961879620062571 0 -0.055410192489386563 0.29691908750413831 0 -0.05903493703298672 0.30842013861035528 0 -0.04581664775108537 0.30961879620062571 0 -0.039958169045478269 0.29575445567546388 0 -0.055410192489386563 0.29691908750413831 0 -0.06406362287003417 0.30105685935529619 0 -0.055410192489386563 0.29691908750413831 0 -0.05903493703298672 0.30842013861035528 0 -0.04581664775108537 0.30961879620062571 0 -0.05999398685661865 0.32296608029812152 0 -0.042756171354298787 0.3224483405388896 0 -0.05999398685661865 0.32296608029812152 0 -0.04261807333459134 0.33512561188054663 0 -0.042756171354298787 0.3224483405388896 0 -0.04581664775108537 0.30961879620062571 0 -0.05903493703298672 0.30842013861035528 0 -0.05999398685661865 0.32296608029812152 0 -0.05999398685661865 0.32296608029812152 0 -0.056804034856699187 0.33429177223338907 0 -0.04261807333459134 0.33512561188054663 0 -0.056804034856699187 0.33429177223338907 0 -0.046192251460743447 0.34598703554363702 0 -0.071259793987160716 0.33632540193228971 0 -0.046192251460743447 0.34598703554363702 0 -0.071259793987160716 0.33632540193228971 0 -0.05999398685661865 0.32296608029812152 0 -0.04261807333459134 0.33512561188054663 0 -0.05999398685661865 0.32296608029812152 0 -0.056804034856699187 0.33429177223338907 0 -0.064831017760781137 0.32924814232959693 0 -0.056804034856699187 0.33429177223338907 0 -0.04261807333459134 0.33512561188054663 0 -0.046192251460743447 0.34598703554363702 0 -0.04261807333459134 0.33512561188054663 0 -0.034276320251641283 0.34282206612864702 0 -0.046192251460743447 0.34598703554363702 0 -0.04261807333459134 0.33512561188054663 0 -0.034276320251641283 0.34282206612864702 0 -0.031043257832885369 0.32833317714284199 0 -0.04261807333459134 0.33512561188054663 0 -0.042756171354298787 0.3224483405388896 0 -0.031043257832885369 0.32833317714284199 0 -0.04581664775108537 0.30961879620062571 0 -0.042756171354298787 0.3224483405388896 0 -0.034308890996313193 0.31619803717231232 0 -0.042756171354298787 0.3224483405388896 0 -0.034308890996313193 0.31619803717231232 0 -0.031043257832885369 0.32833317714284199 0 -0.020687787070248039 0.31403805852116051 0 -0.031043257832885369 0.32833317714284199 0 -0.01426308592107553 0.32709781564023149 0 -0.034308890996313193 0.31619803717231232 0 -0.020687787070248039 0.31403805852116051 0 -0.031043257832885369 0.32833317714284199 0 -0.025032962324117471 0.33875149869244531 0 -0.01426308592107553 0.32709781564023149 0 -0.014716180493599089 0.34442071988127893 0 -0.031043257832885369 0.32833317714284199 0 -0.025032962324117471 0.33875149869244531 0 -0.01426308592107553 0.32709781564023149 0 -0.034276320251641283 0.34282206612864702 0 -0.025032962324117471 0.33875149869244531 0 -0.023787543000920942 0.34541073846433867 0 -0.034276320251641283 0.34282206612864702 0 -0.031043257832885369 0.32833317714284199 0 -0.025032962324117471 0.33875149869244531 0 -0.025032962324117471 0.33875149869244531 0 -0.014716180493599089 0.34442071988127893 0 -0.023787543000920942 0.34541073846433867 0 -0.0025616559074486049 0.3329031852911295 0 -0.01426308592107553 0.32709781564023149 0 -0.014716180493599089 0.34442071988127893 0 -0.0025616559074486049 0.3329031852911295 0 -0.002583240235104544 0.34489224502179239 0 -0.014716180493599089 0.34442071988127893 0 -0.0069555348311276686 0.31079851600377723 0 -0.020687787070248039 0.31403805852116051 0 -0.01426308592107553 0.32709781564023149 0 -0.0025616559074486049 0.3329031852911295 0 -0.00058836015198596755 0.32088344941533808 0 -0.01426308592107553 0.32709781564023149 0 -0.0069555348311276686 0.31079851600377723 0 -0.00058836015198596755 0.32088344941533808 0 -0.01426308592107553 0.32709781564023149 0 -0.012102714267097759 0.36590539057294968 0 -0.001064505034491721 0.37161458349227261 0 0.0039428335920915006 0.36531030276633031 0 -0.021124708934325921 0.35564866915498361 0 0.0039428335920915006 0.36531030276633031 0 -0.001064505034491721 0.37161458349227261 0 -0.017677659244944521 0.37122807787390621 0 -0.017803283764421592 0.37921609746689411 0 -0.012102714267097759 0.36590539057294968 0 -0.001064505034491721 0.37161458349227261 0 -0.017677659244944521 0.37122807787390621 0 -0.012102714267097759 0.36590539057294968 0 -0.021124708934325921 0.35564866915498361 0 0.0039428335920915006 0.36531030276633031 0 -0.0064988099748367559 0.35299106404641623 0 -0.021124708934325921 0.35564866915498361 0 0.0039428335920915006 0.36531030276633031 0 -0.0064988099748367559 0.35299106404641623 0 -0.002583240235104544 0.34489224502179239 0 0.0032447233134405931 0.35422125060834359 0 -0.0064988099748367559 0.35299106404641623 0 -0.002583240235104544 0.34489224502179239 0 -0.014716180493599089 0.34442071988127893 0 -0.0064988099748367559 0.35299106404641623 0 -0.014716180493599089 0.34442071988127893 0 -0.021124708934325921 0.35564866915498361 0 -0.021124708934325921 0.35564866915498361 0 -0.03312405361854439 0.36059385714354403 0 -0.039104805720823227 0.35618275869992938 0 -0.014716180493599089 0.34442071988127893 0 -0.021124708934325921 0.35564866915498361 0 -0.023787543000920942 0.34541073846433867 0 -0.034276320251641283 0.34282206612864702 0 -0.021124708934325921 0.35564866915498361 0 -0.023787543000920942 0.34541073846433867 0 -0.021124708934325921 0.35564866915498361 0 -0.0246585823330631 0.36616539344166837 0 -0.03312405361854439 0.36059385714354403 0 -0.0246585823330631 0.36616539344166837 0 -0.033447590357386023 0.36570071259042941 0 -0.03312405361854439 0.36059385714354403 0 -0.012102714267097759 0.36590539057294968 0 -0.021124708934325921 0.35564866915498361 0 -0.0246585823330631 0.36616539344166837 0 -0.017677659244944521 0.37122807787390621 0 -0.032897312064139907 0.37411907212457252 0 -0.017803283764421592 0.37921609746689411 0 -0.012102714267097759 0.36590539057294968 0 -0.0246585823330631 0.36616539344166837 0 -0.017677659244944521 0.37122807787390621 0 -0.0246585823330631 0.36616539344166837 0 -0.017677659244944521 0.37122807787390621 0 -0.032897312064139907 0.37411907212457252 0 -0.0246585823330631 0.36616539344166837 0 -0.032897312064139907 0.37411907212457252 0 -0.0246585823330631 0.36616539344166837 0 -0.032897312064139907 0.37411907212457252 0 -0.033447590357386023 0.36570071259042941 0 -0.032897312064139907 0.37411907212457252 0 -0.059723517795068168 0.36506026769318489 0 -0.032897312064139907 0.37411907212457252 0 -0.033447590357386023 0.36570071259042941 0 -0.04311041341379776 0.36192452765193173 0 -0.032897312064139907 0.37411907212457252 0 -0.046925961112427347 0.36446589286881009 0 -0.059723517795068168 0.36506026769318489 0 -0.032897312064139907 0.37411907212457252 0 -0.049098878804771373 0.3725140996878949 0 -0.043775979817191349 0.37615739516056462 0 -0.03312405361854439 0.36059385714354403 0 -0.04311041341379776 0.36192452765193173 0 -0.039104805720823227 0.35618275869992938 0 -0.033447590357386023 0.36570071259042941 0 -0.03312405361854439 0.36059385714354403 0 -0.04311041341379776 0.36192452765193173 0 -0.032897312064139907 0.37411907212457252 0 -0.04311041341379776 0.36192452765193173 0 -0.046925961112427347 0.36446589286881009 0 -0.034276320251641283 0.34282206612864702 0 -0.021124708934325921 0.35564866915498361 0 -0.046192251460743447 0.34598703554363702 0 -0.021124708934325921 0.35564866915498361 0 -0.039104805720823227 0.35618275869992938 0 -0.046192251460743447 0.34598703554363702 0 -0.021124708934325921 0.35564866915498361 0 -0.046192251460743447 0.34598703554363702 0 -0.039104805720823227 0.35618275869992938 0 -0.046192251460743447 0.34598703554363702 0 -0.051972601176704672 0.35675970400555063 0 -0.04311041341379776 0.36192452765193173 0 -0.039104805720823227 0.35618275869992938 0 -0.051972601176704672 0.35675970400555063 0 -0.046192251460743447 0.34598703554363702 0 -0.066911938965716039 0.35448421406914471 0 -0.071259793987160716 0.33632540193228971 0 -0.046192251460743447 0.34598703554363702 0 -0.051972601176704672 0.35675970400555063 0 -0.066911938965716039 0.35448421406914471 0 -0.051972601176704672 0.35675970400555063 0 -0.059723517795068168 0.36506026769318489 0 -0.066911938965716039 0.35448421406914471 0 -0.032897312064139907 0.37411907212457252 0 -0.049098878804771373 0.3725140996878949 0 -0.059723517795068168 0.36506026769318489 0 -0.049098878804771373 0.3725140996878949 0 -0.056089193364373929 0.37273715424054699 0 -0.050724207312953518 0.37700173675436199 0 -0.051972601176704672 0.35675970400555063 0 -0.046925961112427347 0.36446589286881009 0 -0.059723517795068168 0.36506026769318489 0 -0.04311041341379776 0.36192452765193173 0 -0.051972601176704672 0.35675970400555063 0 -0.046925961112427347 0.36446589286881009 0 -0.049098878804771373 0.3725140996878949 0 -0.059723517795068168 0.36506026769318489 0 -0.056089193364373929 0.37273715424054699 0 -0.059723517795068168 0.36506026769318489 0 -0.056089193364373929 0.37273715424054699 0 -0.062564083944274151 0.37264302620600032 0 -0.062075486208271788 0.37468365416042188 0 -0.062564083944274151 0.37264302620600032 0 -0.062075486208271788 0.37468365416042188 0 -0.062564083944274151 0.37264302620600032 0 -0.064607287490063475 0.3752877934920828 0 -0.069626031180744216 0.37451783031500979 0 -0.079039419043354958 0.3748493973737258 0 -0.082597891671162132 0.35089307241393791 0 -0.062564083944274151 0.37264302620600032 0 -0.066911938965716039 0.35448421406914471 0 -0.062564083944274151 0.37264302620600032 0 -0.069626031180744216 0.37451783031500979 0 -0.064607287490063475 0.3752877934920828 0 -0.062564083944274151 0.37264302620600032 0 -0.069626031180744216 0.37451783031500979 0 -0.082597891671162132 0.35089307241393791 0 -0.062564083944274151 0.37264302620600032 0 -0.082597891671162132 0.35089307241393791 0 -0.059723517795068168 0.36506026769318489 0 -0.062564083944274151 0.37264302620600032 0 -0.066911938965716039 0.35448421406914471 0 -0.090941745129797052 0.36956363188929697 0 -0.082597891671162132 0.35089307241393791 0 -0.097939085056313616 0.35825468271447503 0 -0.079039419043354958 0.3748493973737258 0 -0.090941745129797052 0.36956363188929697 0 -0.082597891671162132 0.35089307241393791 0 -0.082597891671162132 0.35089307241393791 0 -0.097939085056313616 0.35825468271447503 0 -0.099795521962392192 0.34663223796478099 0 -0.066911938965716039 0.35448421406914471 0 -0.071259793987160716 0.33632540193228971 0 -0.082597891671162132 0.35089307241393791 0 -0.066911938965716039 0.35448421406914471 0 -0.079003984513522238 0.34200566120660753 0 -0.066911938965716039 0.35448421406914471 0 -0.071259793987160716 0.33632540193228971 0 -0.079003984513522238 0.34200566120660753 0 -0.062564083944274151 0.37264302620600032 0 -0.082597891671162132 0.35089307241393791 0 -0.066911938965716039 0.35448421406914471 0 -0.056804034856699187 0.33429177223338907 0 -0.064831017760781137 0.32924814232959693 0 -0.071259793987160716 0.33632540193228971 0 -0.071259793987160716 0.33632540193228971 0 -0.079659291821908368 0.33308803351003258 0 -0.071259793987160716 0.33632540193228971 0 -0.079003984513522238 0.34200566120660753 0 -0.079659291821908368 0.33308803351003258 0 -0.0773699003786468 0.31080654871569757 0 -0.07000108740115632 0.31024084673351238 0 -0.05999398685661865 0.32296608029812152 0 -0.0773699003786468 0.31080654871569757 0 -0.071259793987160716 0.33632540193228971 0 -0.0773699003786468 0.31080654871569757 0 -0.071259793987160716 0.33632540193228971 0 -0.079659291821908368 0.33308803351003258 0 -0.0773699003786468 0.31080654871569757 0 -0.05999398685661865 0.32296608029812152 0 -0.0773699003786468 0.31080654871569757 0 -0.064831017760781137 0.32924814232959693 0 -0.071259793987160716 0.33632540193228971 0 -0.0773699003786468 0.31080654871569757 0 -0.05999398685661865 0.32296608029812152 0 -0.064831017760781137 0.32924814232959693 0 -0.07000108740115632 0.31024084673351238 0 -0.05903493703298672 0.30842013861035528 0 -0.05999398685661865 0.32296608029812152 0 -0.091673901452025128 0.31746800270450398 0 -0.079659291821908368 0.33308803351003258 0 -0.1026316993980491 0.32914311862187462 0 -0.0773699003786468 0.31080654871569757 0 -0.091673901452025128 0.31746800270450398 0 -0.079659291821908368 0.33308803351003258 0 -0.082597891671162132 0.35089307241393791 0 -0.1026316993980491 0.32914311862187462 0 -0.082597891671162132 0.35089307241393791 0 -0.079003984513522238 0.34200566120660753 0 -0.1026316993980491 0.32914311862187462 0 -0.079003984513522238 0.34200566120660753 0 -0.079659291821908368 0.33308803351003258 0 -0.1026316993980491 0.32914311862187462 0 -0.082597891671162132 0.35089307241393791 0 -0.1026316993980491 0.32914311862187462 0 -0.099795521962392192 0.34663223796478099 0 -0.1026316993980491 0.32914311862187462 0 -0.11309959964963499 0.35023802862820708 0 -0.099795521962392192 0.34663223796478099 0 -0.1041414057358224 0.31201579539373148 0 -0.091673901452025128 0.31746800270450398 0 -0.1026316993980491 0.32914311862187462 0 -0.122665507124936 0.30739316482981133 0 -0.1041414057358224 0.31201579539373148 0 -0.1026316993980491 0.32914311862187462 0 -0.122665507124936 0.30739316482981133 0 -0.1026316993980491 0.32914311862187462 0 -0.1213981112161233 0.32606083512094008 0 -0.122665507124936 0.30739316482981133 0 -0.1026316993980491 0.32914311862187462 0 -0.1026316993980491 0.32914311862187462 0 -0.1215793900664241 0.33965542352680428 0 -0.11309959964963499 0.35023802862820708 0 -0.1026316993980491 0.32914311862187462 0 -0.1213981112161233 0.32606083512094008 0 -0.1215793900664241 0.33965542352680428 0 -0.1215793900664241 0.33965542352680428 0 -0.11309959964963499 0.35023802862820708 0 -0.1223522029902982 0.35608225162756879 0 -0.11309959964963499 0.35023802862820708 0 -0.1223522029902982 0.35608225162756879 0 -0.1091573093543224 0.361674516205302 0 -0.12881796099468981 0.36725667352730101 0 -0.1223522029902982 0.35608225162756879 0 -0.11881971476920231 0.36528086459794751 0 -0.12881796099468981 0.36725667352730101 0 -0.11881971476920231 0.36528086459794751 0 -0.114951385737499 0.37611001703161828 0 -0.11881971476920231 0.36528086459794751 0 -0.1091573093543224 0.361674516205302 0 -0.114951385737499 0.37611001703161828 0 -0.1223522029902982 0.35608225162756879 0 -0.11881971476920231 0.36528086459794751 0 -0.1091573093543224 0.361674516205302 0 -0.1091573093543224 0.361674516205302 0 -0.1012990589455684 0.36953412384373102 0 -0.097939085056313616 0.35825468271447503 0 -0.1091573093543224 0.361674516205302 0 -0.1012990589455684 0.36953412384373102 0 -0.114951385737499 0.37611001703161828 0 -0.090941745129797052 0.36956363188929697 0 -0.1012990589455684 0.36953412384373102 0 -0.098890550417286477 0.38099249480062602 0 -0.090941745129797052 0.36956363188929697 0 -0.1012990589455684 0.36953412384373102 0 -0.097939085056313616 0.35825468271447503 0 -0.11309959964963499 0.35023802862820708 0 -0.097939085056313616 0.35825468271447503 0 -0.099795521962392192 0.34663223796478099 0 -0.11309959964963499 0.35023802862820708 0 -0.1091573093543224 0.361674516205302 0 -0.097939085056313616 0.35825468271447503 0 -0.094424665366596924 0.39634464281418252 0 -0.11202845405726 0.40531330452479791 0 -0.098926296137628822 0.41605616341005208 0 -0.1085605322944487 0.39079571404043828 0 -0.094424665366596924 0.39634464281418252 0 -0.11202845405726 0.40531330452479791 0 -0.1085605322944487 0.39079571404043828 0 -0.098890550417286477 0.38099249480062602 0 -0.114951385737499 0.37611001703161828 0 -0.1085605322944487 0.39079571404043828 0 -0.094424665366596924 0.39634464281418252 0 -0.098890550417286477 0.38099249480062602 0 -0.1012990589455684 0.36953412384373102 0 -0.098890550417286477 0.38099249480062602 0 -0.114951385737499 0.37611001703161828 0 -0.1085605322944487 0.39079571404043828 0 -0.114951385737499 0.37611001703161828 0 -0.1224972888069677 0.39405447109156733 0 -0.13238272395945991 0.37847398983736519 0 -0.114951385737499 0.37611001703161828 0 -0.1224972888069677 0.39405447109156733 0 -0.1277268958593005 0.40709158096490278 0 -0.1224972888069677 0.39405447109156733 0 -0.11202845405726 0.40531330452479791 0 -0.1085605322944487 0.39079571404043828 0 -0.1224972888069677 0.39405447109156733 0 -0.11202845405726 0.40531330452479791 0 -0.11202845405726 0.40531330452479791 0 -0.12025274126089 0.42574105579372712 0 -0.098926296137628822 0.41605616341005208 0 -0.12025274126089 0.42574105579372712 0 -0.098926296137628822 0.41605616341005208 0 -0.1277268958593005 0.40709158096490278 0 -0.11202845405726 0.40531330452479791 0 -0.12025274126089 0.42574105579372712 0 -0.12025274126089 0.42574105579372712 0 -0.1161249595423428 0.42742254588607831 0 -0.098926296137628822 0.41605616341005208 0 -0.12509104342100061 0.44188941827772182 0 -0.1161249595423428 0.42742254588607831 0 -0.098677616465060528 0.43762344985591101 0 -0.1161249595423428 0.42742254588607831 0 -0.090695480784097504 0.41727281212483158 0 -0.1161249595423428 0.42742254588607831 0 -0.090695480784097504 0.41727281212483158 0 -0.098677616465060528 0.43762344985591101 0 -0.1161249595423428 0.42742254588607831 0 -0.098926296137628822 0.41605616341005208 0 -0.090695480784097504 0.41727281212483158 0 -0.098926296137628822 0.41605616341005208 0 -0.077599851014367602 0.40637127102637732 0 -0.094424665366596924 0.39634464281418252 0 -0.098926296137628822 0.41605616341005208 0 -0.077599851014367602 0.40637127102637732 0 -0.098926296137628822 0.41605616341005208 0 -0.090695480784097504 0.41727281212483158 0 -0.077599851014367602 0.40637127102637732 0 -0.090695480784097504 0.41727281212483158 0 -0.077599851014367602 0.40637127102637732 0 -0.077475511178084946 0.4171549142493044 0 -0.077475511178084946 0.4171549142493044 0 -0.098677616465060528 0.43762344985591101 0 -0.090695480784097504 0.41727281212483158 0 -0.077475511178084946 0.4171549142493044 0 -0.098677616465060528 0.43762344985591101 0 -0.077475511178084946 0.4171549142493044 0 -0.078698858269308614 0.44343419105434712 0 -0.098677616465060528 0.43762344985591101 0 -0.077475511178084946 0.4171549142493044 0 -0.059178928229814701 0.4365201208845606 0 -0.055106871557328428 0.42305161159228227 0 -0.077475511178084946 0.4171549142493044 0 -0.059178928229814701 0.4365201208845606 0 -0.078698858269308614 0.44343419105434712 0 -0.077475511178084946 0.4171549142493044 0 -0.056273405891107527 0.39668637864269979 0 -0.077599851014367602 0.40637127102637732 0 -0.077475511178084946 0.4171549142493044 0 -0.056273405891107527 0.39668637864269979 0 -0.077599851014367602 0.40637127102637732 0 -0.056273405891107527 0.39668637864269979 0 -0.077599851014367602 0.40637127102637732 0 -0.078331801269405671 0.3911923311589619 0 -0.056273405891107527 0.39668637864269979 0 -0.094424665366596924 0.39634464281418252 0 -0.077599851014367602 0.40637127102637732 0 -0.078331801269405671 0.3911923311589619 0 -0.094424665366596924 0.39634464281418252 0 -0.078331801269405671 0.3911923311589619 0 -0.087166581823546807 0.38268142547449258 0 -0.079039419043354958 0.3748493973737258 0 -0.078331801269405671 0.3911923311589619 0 -0.087166581823546807 0.38268142547449258 0 -0.090941745129797052 0.36956363188929697 0 -0.098890550417286477 0.38099249480062602 0 -0.087166581823546807 0.38268142547449258 0 -0.094424665366596924 0.39634464281418252 0 -0.098890550417286477 0.38099249480062602 0 -0.087166581823546807 0.38268142547449258 0 -0.079039419043354958 0.3748493973737258 0 -0.090941745129797052 0.36956363188929697 0 -0.087166581823546807 0.38268142547449258 0 -0.078331801269405671 0.3911923311589619 0 -0.070241768304658683 0.38125320512289401 0 -0.062400115896225239 0.38328565763688038 0 -0.078331801269405671 0.3911923311589619 0 -0.047880784994249512 0.38858413326022379 0 -0.069626031180744216 0.37451783031500979 0 -0.079039419043354958 0.3748493973737258 0 -0.070241768304658683 0.38125320512289401 0 -0.078331801269405671 0.3911923311589619 0 -0.062400115896225239 0.38328565763688038 0 -0.047880784994249512 0.38858413326022379 0 -0.079039419043354958 0.3748493973737258 0 -0.078331801269405671 0.3911923311589619 0 -0.070241768304658683 0.38125320512289401 0 -0.070241768304658683 0.38125320512289401 0 -0.064210651178174066 0.37904237845721811 0 -0.062400115896225239 0.38328565763688038 0 -0.069626031180744216 0.37451783031500979 0 -0.070241768304658683 0.38125320512289401 0 -0.064210651178174066 0.37904237845721811 0 -0.069626031180744216 0.37451783031500979 0 -0.064210651178174066 0.37904237845721811 0 -0.064607287490063475 0.3752877934920828 0 -0.062075486208271788 0.37468365416042188 0 -0.064210651178174066 0.37904237845721811 0 -0.064607287490063475 0.3752877934920828 0 -0.062075486208271788 0.37468365416042188 0 -0.064210651178174066 0.37904237845721811 0 -0.059083848751135488 0.37840884602566088 0 -0.059083848751135488 0.37840884602566088 0 -0.062400115896225239 0.38328565763688038 0 -0.054293362626053041 0.38162223819359442 0 -0.062075486208271788 0.37468365416042188 0 -0.062564083944274151 0.37264302620600032 0 -0.059083848751135488 0.37840884602566088 0 -0.062564083944274151 0.37264302620600032 0 -0.054293362626053041 0.38162223819359442 0 -0.062564083944274151 0.37264302620600032 0 -0.059083848751135488 0.37840884602566088 0 -0.054293362626053041 0.38162223819359442 0 -0.056089193364373929 0.37273715424054699 0 -0.062564083944274151 0.37264302620600032 0 -0.054293362626053041 0.38162223819359442 0 -0.059083848751135488 0.37840884602566088 0 -0.054293362626053041 0.38162223819359442 0 -0.064210651178174066 0.37904237845721811 0 -0.059083848751135488 0.37840884602566088 0 -0.062400115896225239 0.38328565763688038 0 -0.062400115896225239 0.38328565763688038 0 -0.047880784994249512 0.38858413326022379 0 -0.054293362626053041 0.38162223819359442 0 -0.047880784994249512 0.38858413326022379 0 -0.054293362626053041 0.38162223819359442 0 -0.047880784994249512 0.38858413326022379 0 -0.054293362626053041 0.38162223819359442 0 -0.046254793771615982 0.3870143995575549 0 -0.047836657145122599 0.38128015361824008 0 -0.054293362626053041 0.38162223819359442 0 -0.046254793771615982 0.3870143995575549 0 -0.054293362626053041 0.38162223819359442 0 -0.046254793771615982 0.3870143995575549 0 -0.047880784994249512 0.38858413326022379 0 -0.046254793771615982 0.3870143995575549 0 -0.056089193364373929 0.37273715424054699 0 -0.050724207312953518 0.37700173675436199 0 -0.054293362626053041 0.38162223819359442 0 -0.049098878804771373 0.3725140996878949 0 -0.050724207312953518 0.37700173675436199 0 -0.043775979817191349 0.37615739516056462 0 -0.047836657145122599 0.38128015361824008 0 -0.050724207312953518 0.37700173675436199 0 -0.043775979817191349 0.37615739516056462 0 -0.047836657145122599 0.38128015361824008 0 -0.050724207312953518 0.37700173675436199 0 -0.054293362626053041 0.38162223819359442 0 -0.078331801269405671 0.3911923311589619 0 -0.047880784994249512 0.38858413326022379 0 -0.056273405891107527 0.39668637864269979 0 -0.047880784994249512 0.38858413326022379 0 -0.056273405891107527 0.39668637864269979 0 -0.045094078598563243 0.39160955589403151 0 -0.056273405891107527 0.39668637864269979 0 -0.048342871606355781 0.40097934792702961 0 -0.045094078598563243 0.39160955589403151 0 -0.047880784994249512 0.38858413326022379 0 -0.056273405891107527 0.39668637864269979 0 -0.056273405891107527 0.39668637864269979 0 -0.045094078598563243 0.39160955589403151 0 -0.056273405891107527 0.39668637864269979 0 -0.048342871606355781 0.40097934792702961 0 -0.051161828253680347 0.40954535298997258 0 -0.04342775431262437 0.39341862168501102 0 -0.028839939204686131 0.40925606551247828 0 -0.042973684961738069 0.41592643291826231 0 -0.048342871606355781 0.40097934792702961 0 -0.04342775431262437 0.39341862168501102 0 -0.042973684961738069 0.41592643291826231 0 -0.041701311968281377 0.39006881248802111 0 -0.02243782954129785 0.40299049140363558 0 -0.041701311968281377 0.39006881248802111 0 -0.03457878247319518 0.38683428693719679 0 -0.02243782954129785 0.40299049140363558 0 -0.04342775431262437 0.39341862168501102 0 -0.041701311968281377 0.39006881248802111 0 -0.02243782954129785 0.40299049140363558 0 -0.04342775431262437 0.39341862168501102 0 -0.028839939204686131 0.40925606551247828 0 -0.04342775431262437 0.39341862168501102 0 -0.042973684961738069 0.41592643291826231 0 -0.04342775431262437 0.39341862168501102 0 -0.02243782954129785 0.40299049140363558 0 -0.028839939204686131 0.40925606551247828 0 -0.048342871606355781 0.40097934792702961 0 -0.04342775431262437 0.39341862168501102 0 -0.045094078598563243 0.39160955589403151 0 -0.04342775431262437 0.39341862168501102 0 -0.045094078598563243 0.39160955589403151 0 -0.043479046219812342 0.39087612776318198 0 -0.04342775431262437 0.39341862168501102 0 -0.043479046219812342 0.39087612776318198 0 -0.045094078598563243 0.39160955589403151 0 -0.043479046219812342 0.39087612776318198 0 -0.045094078598563243 0.39160955589403151 0 -0.043479046219812342 0.39087612776318198 0 -0.045172553619539632 0.38973569244798251 0 -0.04342775431262437 0.39341862168501102 0 -0.045094078598563243 0.39160955589403151 0 -0.04342775431262437 0.39341862168501102 0 -0.043479046219812342 0.39087612776318198 0 -0.041701311968281377 0.39006881248802111 0 -0.047836657145122599 0.38128015361824008 0 -0.043775979817191349 0.37615739516056462 0 -0.043608491196287617 0.38445965616034072 0 -0.043775979817191349 0.37615739516056462 0 -0.043608491196287617 0.38445965616034072 0 -0.032897312064139907 0.37411907212457252 0 -0.043775979817191349 0.37615739516056462 0 -0.043608491196287617 0.38445965616034072 0 -0.047836657145122599 0.38128015361824008 0 -0.043608491196287617 0.38445965616034072 0 -0.046254793771615982 0.3870143995575549 0 -0.043542573639619581 0.38772713043400647 0 -0.041701311968281377 0.39006881248802111 0 -0.03457878247319518 0.38683428693719679 0 -0.043608491196287617 0.38445965616034072 0 -0.043542573639619581 0.38772713043400647 0 -0.03457878247319518 0.38683428693719679 0 -0.043608491196287617 0.38445965616034072 0 -0.046254793771615982 0.3870143995575549 0 -0.043608491196287617 0.38445965616034072 0 -0.046254793771615982 0.3870143995575549 0 -0.043542573639619581 0.38772713043400647 0 -0.043608491196287617 0.38445965616034072 0 -0.043542573639619581 0.38772713043400647 0 -0.047880784994249512 0.38858413326022379 0 -0.045094078598563243 0.39160955589403151 0 -0.047880784994249512 0.38858413326022379 0 -0.045094078598563243 0.39160955589403151 0 -0.045172553619539632 0.38973569244798251 0 -0.047880784994249512 0.38858413326022379 0 -0.045172553619539632 0.38973569244798251 0 -0.046254793771615982 0.3870143995575549 0 -0.045172553619539632 0.38973569244798251 0 -0.046254793771615982 0.3870143995575549 0 -0.043542573639619581 0.38772713043400647 0 -0.046254793771615982 0.3870143995575549 0 -0.043542573639619581 0.38772713043400647 0 -0.043479046219812342 0.39087612776318198 0 -0.045172553619539632 0.38973569244798251 0 -0.043542573639619581 0.38772713043400647 0 -0.043479046219812342 0.39087612776318198 0 -0.043542573639619581 0.38772713043400647 0 -0.043542573639619581 0.38772713043400647 0 -0.041701311968281377 0.39006881248802111 0 -0.043479046219812342 0.39087612776318198 0 -0.043542573639619581 0.38772713043400647 0 -0.041701311968281377 0.39006881248802111 0 -0.043479046219812342 0.39087612776318198 0 -0.041701311968281377 0.39006881248802111 0 -0.043542573639619581 0.38772713043400647 0 -0.03457878247319518 0.38683428693719679 0 -0.041701311968281377 0.39006881248802111 0 -0.03457878247319518 0.38683428693719679 0 -0.032897312064139907 0.37411907212457252 0 -0.043608491196287617 0.38445965616034072 0 -0.032897312064139907 0.37411907212457252 0 -0.043608491196287617 0.38445965616034072 0 -0.03457878247319518 0.38683428693719679 0 -0.03457878247319518 0.38683428693719679 0 -0.017803283764421592 0.37921609746689411 0 -0.03457878247319518 0.38683428693719679 0 -0.017803283764421592 0.37921609746689411 0 -0.019390911734903489 0.38532149046890818 0 -0.032897312064139907 0.37411907212457252 0 -0.017803283764421592 0.37921609746689411 0 -0.032897312064139907 0.37411907212457252 0 -0.03457878247319518 0.38683428693719679 0 -0.017803283764421592 0.37921609746689411 0 -0.03457878247319518 0.38683428693719679 0 -0.019390911734903489 0.38532149046890818 0 -0.019390911734903489 0.38532149046890818 0 -0.02243782954129785 0.40299049140363558 0 -0.0064316016559190746 0.3999483233353413 0 -0.03457878247319518 0.38683428693719679 0 -0.019390911734903489 0.38532149046890818 0 -0.02243782954129785 0.40299049140363558 0 -0.0064316016559190746 0.3999483233353413 0 -0.0042030409966118051 0.38380869400061962 0 0.010437450069317761 0.40463061763750507 0 -0.001064505034491721 0.37161458349227261 0 -0.017803283764421592 0.37921609746689411 0 -0.001064505034491721 0.37161458349227261 0 -0.017803283764421592 0.37921609746689411 0 -0.0042030409966118051 0.38380869400061962 0 -0.019390911734903489 0.38532149046890818 0 -0.0064316016559190746 0.3999483233353413 0 -0.0042030409966118051 0.38380869400061962 0 -0.017803283764421592 0.37921609746689411 0 -0.0042030409966118051 0.38380869400061962 0 -0.017803283764421592 0.37921609746689411 0 -0.019390911734903489 0.38532149046890818 0 -0.0042030409966118051 0.38380869400061962 0 -0.019390911734903489 0.38532149046890818 0 -0.0042030409966118051 0.38380869400061962 0 -0.014252124096747171 0.42509350933994478 0 0.0048617880261327502 0.44584476697033082 0 -0.014252124096747171 0.42509350933994478 0 -0.010454900682288101 0.44126855924159908 0 0.0048617880261327502 0.44584476697033082 0 -0.014252124096747171 0.42509350933994478 0 -0.0026301228576318379 0.42717885202372191 0 0.0048617880261327502 0.44584476697033082 0 -0.014252124096747171 0.42509350933994478 0 -0.0026301228576318379 0.42717885202372191 0 -0.003174347114314008 0.41591217031924949 0 -0.02243782954129785 0.40299049140363558 0 -0.0064316016559190746 0.3999483233353413 0 -0.003174347114314008 0.41591217031924949 0 -0.02243782954129785 0.40299049140363558 0 -0.003174347114314008 0.41591217031924949 0 -0.02243782954129785 0.40299049140363558 0 -0.014252124096747171 0.42509350933994478 0 -0.003174347114314008 0.41591217031924949 0 -0.014252124096747171 0.42509350933994478 0 -0.003174347114314008 0.41591217031924949 0 -0.014252124096747171 0.42509350933994478 0 -0.028839939204686131 0.40925606551247828 0 -0.02243782954129785 0.40299049140363558 0 -0.014252124096747171 0.42509350933994478 0 -0.028839939204686131 0.40925606551247828 0 -0.014252124096747171 0.42509350933994478 0 -0.028839939204686131 0.40925606551247828 0 -0.022470349574322469 0.43190483207895858 0 -0.014252124096747171 0.42509350933994478 0 -0.022470349574322469 0.43190483207895858 0 -0.010454900682288101 0.44126855924159908 0 -0.014252124096747171 0.42509350933994478 0 -0.022470349574322469 0.43190483207895858 0 -0.022470349574322469 0.43190483207895858 0 -0.010454900682288101 0.44126855924159908 0 -0.022470349574322469 0.43190483207895858 0 -0.042646571141636773 0.43214117214318359 0 -0.04231945732153318 0.44835591136810488 0 -0.022470349574322469 0.43190483207895858 0 -0.042646571141636773 0.43214117214318359 0 -0.042973684961738069 0.41592643291826231 0 -0.042646571141636773 0.43214117214318359 0 -0.042973684961738069 0.41592643291826231 0 -0.022470349574322469 0.43190483207895858 0 -0.042973684961738069 0.41592643291826231 0 -0.028839939204686131 0.40925606551247828 0 -0.022470349574322469 0.43190483207895858 0 -0.042973684961738069 0.41592643291826231 0 -0.077475511178084946 0.4171549142493044 0 -0.051161828253680347 0.40954535298997258 0 -0.055106871557328428 0.42305161159228227 0 -0.077475511178084946 0.4171549142493044 0 -0.056273405891107527 0.39668637864269979 0 -0.051161828253680347 0.40954535298997258 0 -0.048342871606355781 0.40097934792702961 0 -0.042973684961738069 0.41592643291826231 0 -0.051161828253680347 0.40954535298997258 0 -0.042973684961738069 0.41592643291826231 0 -0.051161828253680347 0.40954535298997258 0 -0.042973684961738069 0.41592643291826231 0 -0.051161828253680347 0.40954535298997258 0 -0.055106871557328428 0.42305161159228227 0 -0.042646571141636773 0.43214117214318359 0 -0.059178928229814701 0.4365201208845606 0 -0.055106871557328428 0.42305161159228227 0 -0.042646571141636773 0.43214117214318359 0 -0.042973684961738069 0.41592643291826231 0 -0.055106871557328428 0.42305161159228227 0 -0.042646571141636773 0.43214117214318359 0 -0.059178928229814701 0.4365201208845606 0 -0.049245987713513212 0.44319563894678482 0 -0.059178928229814701 0.4365201208845606 0 -0.050742244958162368 0.46439359559444437 0 -0.049245987713513212 0.44319563894678482 0 -0.050742244958162368 0.46439359559444437 0 -0.044608833217136261 0.45025336211807931 0 -0.059178928229814701 0.4365201208845606 0 -0.050742244958162368 0.46439359559444437 0 -0.065484051744298263 0.4513847118260722 0 -0.059178928229814701 0.4365201208845606 0 -0.049245987713513212 0.44319563894678482 0 -0.050742244958162368 0.46439359559444437 0 -0.050742244958162368 0.46439359559444437 0 -0.061707257777874093 0.47273252787991399 0 -0.073231504917427276 0.46237159316971249 0 -0.050742244958162368 0.46439359559444437 0 -0.073231504917427276 0.46237159316971249 0 -0.0419800222431604 0.46518140433549732 0 -0.04231945732153318 0.44835591136810488 0 -0.025697431038521311 0.45487791879973932 0 -0.0419800222431604 0.46518140433549732 0 -0.04231945732153318 0.44835591136810488 0 -0.0419800222431604 0.46518140433549732 0 -0.044608833217136261 0.45025336211807931 0 -0.04231945732153318 0.44835591136810488 0 -0.050742244958162368 0.46439359559444437 0 -0.0419800222431604 0.46518140433549732 0 -0.050742244958162368 0.46439359559444437 0 -0.0419800222431604 0.46518140433549732 0 -0.044608833217136261 0.45025336211807931 0 -0.022470349574322469 0.43190483207895858 0 -0.04231945732153318 0.44835591136810488 0 -0.042646571141636773 0.43214117214318359 0 -0.049245987713513212 0.44319563894678482 0 -0.04231945732153318 0.44835591136810488 0 -0.042646571141636773 0.43214117214318359 0 -0.04231945732153318 0.44835591136810488 0 -0.049245987713513212 0.44319563894678482 0 -0.044608833217136261 0.45025336211807931 0 -0.04231945732153318 0.44835591136810488 0 -0.044608833217136261 0.45025336211807931 0 -0.04231945732153318 0.44835591136810488 0 -0.022470349574322469 0.43190483207895858 0 -0.04231945732153318 0.44835591136810488 0 -0.022362297003099281 0.44511471557515531 0 -0.04231945732153318 0.44835591136810488 0 -0.022362297003099281 0.44511471557515531 0 -0.025697431038521311 0.45487791879973932 0 -0.022470349574322469 0.43190483207895858 0 -0.022362297003099281 0.44511471557515531 0 -0.010454900682288101 0.44126855924159908 0 -0.022362297003099281 0.44511471557515531 0 -0.025697431038521311 0.45487791879973932 0 -0.01311544116488466 0.453963754661173 0 -0.0419800222431604 0.46518140433549732 0 -0.025697431038521311 0.45487791879973932 0 -0.01345201465746383 0.46774634869629322 0 -0.0419800222431604 0.46518140433549732 0 -0.01345201465746383 0.46774634869629322 0 -0.025697431038521311 0.45487791879973932 0 -0.01311544116488466 0.453963754661173 0 -0.01345201465746383 0.46774634869629322 0 -0.0094095992007081283 0.46654139838691122 0 -0.010427957625441169 0.46801824073108461 0 0.0053167838454733218 0.46943384557929257 0 -0.0094095992007081283 0.46654139838691122 0 0.0015605482097463411 0.45063228640423969 0 -0.010427957625441169 0.46801824073108461 0 0.0053167838454733218 0.46943384557929257 0 -0.0094095992007081283 0.46654139838691122 0 0.0080738590363113663 0.46132998490476868 0 -0.01311544116488466 0.453963754661173 0 -0.0094095992007081283 0.46654139838691122 0 0.0015605482097463411 0.45063228640423969 0 -0.01311544116488466 0.453963754661173 0 -0.01345201465746383 0.46774634869629322 0 -0.0094095992007081283 0.46654139838691122 0 -0.01345201465746383 0.46774634869629322 0 -0.010427957625441169 0.46801824073108461 0 -0.01345201465746383 0.46774634869629322 0 -0.0094095992007081283 0.46654139838691122 0 -0.01345201465746383 0.46774634869629322 0 -0.0094095992007081283 0.46654139838691122 0 -0.010427957625441169 0.46801824073108461 0 -0.0094095992007081283 0.46654139838691122 0 -0.010427957625441169 0.46801824073108461 0 -0.01311544116488466 0.453963754661173 0 -0.010454900682288101 0.44126855924159908 0 0.0015605482097463411 0.45063228640423969 0 -0.010454900682288101 0.44126855924159908 0 0.0048617880261327502 0.44584476697033082 0 0.0015605482097463411 0.45063228640423969 0 -0.010454900682288101 0.44126855924159908 0 0.0015605482097463411 0.45063228640423969 0 -0.022362297003099281 0.44511471557515531 0 -0.01311544116488466 0.453963754661173 0 -0.010454900682288101 0.44126855924159908 0 -0.0067005321321746969 0.5 0 -0.003880604538310756 0.48346324919380129 0 -0.021454488019086362 0.48400912036554289 0 -0.01345201465746383 0.46774634869629322 0 -0.010427957625441169 0.46801824073108461 0 -0.021454488019086362 0.48400912036554289 0 -0.010427957625441169 0.46801824073108461 0 -0.003880604538310756 0.48346324919380129 0 -0.021454488019086362 0.48400912036554289 0 -0.010427957625441169 0.46801824073108461 0 -0.001026908195020756 0.47486914558720472 0 0.0053167838454733218 0.46943384557929257 0 -0.010427957625441169 0.46801824073108461 0 -0.003880604538310756 0.48346324919380129 0 -0.001026908195020756 0.47486914558720472 0 -0.010427957625441169 0.46801824073108461 0 -0.021454488019086362 0.48400912036554289 0 -0.01345201465746383 0.46774634869629322 0 -0.021454488019086362 0.48400912036554289 0 -0.032447842195153342 0.48378293317924542 0 -0.01345201465746383 0.46774634869629322 0 -0.032447842195153342 0.48378293317924542 0 -0.041758062999807367 0.47618372532725728 0 -0.01345201465746383 0.46774634869629322 0 -0.041758062999807367 0.47618372532725728 0 -0.021454488019086362 0.48400912036554289 0 -0.032481018412731863 0.50000000000000089 0 -0.033555046977316587 0.49207813668870121 0 -0.021454488019086362 0.48400912036554289 0 -0.032481018412731863 0.50000000000000089 0 -0.021454488019086362 0.48400912036554289 0 -0.033555046977316587 0.49207813668870121 0 -0.032447842195153342 0.48378293317924542 0 -0.0067005321321746969 0.5 0 -0.021454488019086362 0.48400912036554289 0 -0.032481018412731863 0.50000000000000089 0 -0.033555046977316587 0.49207813668870121 0 -0.039964975186860582 0.49999999999999872 0 -0.042139887415076342 0.49281443204190178 0 -0.032481018412731863 0.50000000000000089 0 -0.033555046977316587 0.49207813668870121 0 -0.039964975186860582 0.49999999999999872 0 -0.042139887415076342 0.49281443204190178 0 -0.041758062999807367 0.47618372532725728 0 -0.033555046977316587 0.49207813668870121 0 -0.042139887415076342 0.49281443204190178 0 -0.032447842195153342 0.48378293317924542 0 -0.042139887415076342 0.49281443204190178 0 -0.046725468384182907 0.47766439368476649 0 -0.039964975186860582 0.49999999999999872 0 -0.042139887415076342 0.49281443204190178 0 -0.053580454847170257 0.49193017513362319 0 -0.039964975186860582 0.49999999999999872 0 -0.042139887415076342 0.49281443204190178 0 -0.042139887415076342 0.49281443204190178 0 -0.046725468384182907 0.47766439368476649 0 -0.041758062999807367 0.47618372532725728 0 -0.0419800222431604 0.46518140433549732 0 -0.01345201465746383 0.46774634869629322 0 -0.041758062999807367 0.47618372532725728 0 -0.042139887415076342 0.49281443204190178 0 -0.032447842195153342 0.48378293317924542 0 -0.041758062999807367 0.47618372532725728 0 -0.046725468384182907 0.47766439368476649 0 -0.041758062999807367 0.47618372532725728 0 -0.0419800222431604 0.46518140433549732 0 -0.046725468384182907 0.47766439368476649 0 -0.041758062999807367 0.47618372532725728 0 -0.050742244958162368 0.46439359559444437 0 -0.0419800222431604 0.46518140433549732 0 -0.046725468384182907 0.47766439368476649 0 -0.0419800222431604 0.46518140433549732 0 -0.041758062999807367 0.47618372532725728 0 -0.046725468384182907 0.47766439368476649 0 -0.061707257777874093 0.47273252787991399 0 -0.071702929972361051 0.48510959578984503 0 -0.046725468384182907 0.47766439368476649 0 -0.071702929972361051 0.48510959578984503 0 -0.050742244958162368 0.46439359559444437 0 -0.046725468384182907 0.47766439368476649 0 -0.061707257777874093 0.47273252787991399 0 -0.050742244958162368 0.46439359559444437 0 -0.046725468384182907 0.47766439368476649 0 -0.046725468384182907 0.47766439368476649 0 -0.053580454847170257 0.49193017513362319 0 -0.071702929972361051 0.48510959578984503 0 -0.039964975186860582 0.49999999999999872 0 -0.053580454847170257 0.49193017513362319 0 -0.067195934507479516 0.5 0 -0.042139887415076342 0.49281443204190178 0 -0.046725468384182907 0.47766439368476649 0 -0.053580454847170257 0.49193017513362319 0 -0.053580454847170257 0.49193017513362319 0 -0.067195934507479516 0.5 0 -0.071702929972361051 0.48510959578984503 0 -0.067195934507479516 0.5 0 -0.071702929972361051 0.48510959578984503 0 -0.094426893828098324 0.5 0 -0.071702929972361051 0.48510959578984503 0 -0.096680391560538939 0.49255479789492401 0 -0.071702929972361051 0.48510959578984503 0 -0.094426893828098324 0.5 0 -0.096680391560538939 0.49255479789492401 0 -0.071702929972361051 0.48510959578984503 0 -0.094342239683345888 0.46564946071770819 0 -0.096680391560538939 0.49255479789492401 0 -0.071702929972361051 0.48510959578984503 0 -0.073231504917427276 0.46237159316971249 0 -0.094342239683345888 0.46564946071770819 0 -0.061707257777874093 0.47273252787991399 0 -0.071702929972361051 0.48510959578984503 0 -0.073231504917427276 0.46237159316971249 0 -0.050742244958162368 0.46439359559444437 0 -0.073231504917427276 0.46237159316971249 0 -0.065484051744298263 0.4513847118260722 0 -0.059178928229814701 0.4365201208845606 0 -0.065484051744298263 0.4513847118260722 0 -0.078698858269308614 0.44343419105434712 0 -0.073231504917427276 0.46237159316971249 0 -0.065484051744298263 0.4513847118260722 0 -0.078698858269308614 0.44343419105434712 0 -0.078698858269308614 0.44343419105434712 0 -0.094342239683345888 0.46564946071770819 0 -0.098677616465060528 0.43762344985591101 0 -0.073231504917427276 0.46237159316971249 0 -0.078698858269308614 0.44343419105434712 0 -0.094342239683345888 0.46564946071770819 0 -0.094342239683345888 0.46564946071770819 0 -0.098677616465060528 0.43762344985591101 0 -0.11987972175203609 0.45809198546251739 0 -0.098677616465060528 0.43762344985591101 0 -0.11987972175203609 0.45809198546251739 0 -0.12509104342100061 0.44188941827772182 0 -0.098677616465060528 0.43762344985591101 0 -0.11987972175203609 0.45809198546251739 0 -0.094342239683345888 0.46564946071770819 0 -0.11987972175203609 0.45809198546251739 0 -0.1215246548466888 0.48036061179670092 0 -0.1215246548466888 0.48036061179670092 0 -0.1216578531487173 0.50000000000000155 0 -0.096680391560538939 0.49255479789492401 0 -0.1216578531487173 0.50000000000000155 0 -0.094426893828098324 0.5 0 -0.096680391560538939 0.49255479789492401 0 -0.1216578531487173 0.50000000000000155 0 -0.096680391560538939 0.49255479789492401 0 -0.094342239683345888 0.46564946071770819 0 -0.1215246548466888 0.48036061179670092 0 -0.096680391560538939 0.49255479789492401 0 -0.16310986573530631 0.084156321085019567 0 -0.17544541039362899 0.09436804860009354 0 -0.15783765240444911 0.096274401630791262 0 -0.16310986573530631 0.084156321085019567 0 -0.15783765240444911 0.096274401630791262 0 -0.16310986573530631 0.084156321085019567 0 -0.1657815390990264 0.070802932860687437 0 -0.15463431661472629 0.07014553381523804 0 -0.16310986573530631 0.084156321085019567 0 -0.1657815390990264 0.070802932860687437 0 -0.17966236107341149 0.074300518116336353 0 -0.1657815390990264 0.070802932860687437 0 -0.17966236107341149 0.074300518116336353 0 -0.1657196129726615 0.054609358426155781 0 -0.1657815390990264 0.070802932860687437 0 -0.15463431661472629 0.07014553381523804 0 -0.1657196129726615 0.054609358426155781 0 -0.17966236107341149 0.074300518116336353 0 -0.1657196129726615 0.054609358426155781 0 -0.19326118210642521 0.060262893486061127 0 -0.17966236107341149 0.074300518116336353 0 -0.1657196129726615 0.054609358426155781 0 -0.16310986573530631 0.084156321085019567 0 -0.17966236107341149 0.074300518116336353 0 -0.17544541039362899 0.09436804860009354 0 -0.17966236107341149 0.074300518116336353 0 -0.17544541039362899 0.09436804860009354 0 -0.19360510917416149 0.093991677806516877 0 -0.17966236107341149 0.074300518116336353 0 -0.19360510917416149 0.093991677806516877 0 -0.17544541039362899 0.09436804860009354 0 -0.18934336527218601 0.1087413065502997 0 -0.19360510917416149 0.093991677806516877 0 -0.17544541039362899 0.09436804860009354 0 -0.16911410870225951 0.1087440664115976 0 -0.18934336527218601 0.1087413065502997 0 -0.18039056500006781 0.12121373119240569 0 -0.16911410870225951 0.1087440664115976 0 -0.18934336527218601 0.1087413065502997 0 -0.18039056500006781 0.12121373119240569 0 -0.16911410870225951 0.1087440664115976 0 -0.18039056500006781 0.12121373119240569 0 -0.16911410870225951 0.1087440664115976 0 -0.15507510040999009 0.1056512286087255 0 -0.18039056500006781 0.12121373119240569 0 -0.15507510040999009 0.1056512286087255 0 -0.1628447509754036 0.1248738178506951 0 -0.15507510040999009 0.1056512286087255 0 -0.15358711882774939 0.11801712706942639 0 -0.18039056500006781 0.12121373119240569 0 -0.1628447509754036 0.1248738178506951 0 -0.15507510040999009 0.1056512286087255 0 -0.17544541039362899 0.09436804860009354 0 -0.16911410870225951 0.1087440664115976 0 -0.15783765240444911 0.096274401630791262 0 -0.16911410870225951 0.1087440664115976 0 -0.15783765240444911 0.096274401630791262 0 -0.16911410870225951 0.1087440664115976 0 -0.15783765240444911 0.096274401630791262 0 -0.15507510040999009 0.1056512286087255 0 -0.15783765240444911 0.096274401630791262 0 -0.14455303356647331 0.096744639073681929 0 -0.15139402388202119 0.11108495737684999 0 -0.14455303356647331 0.096744639073681929 0 -0.15139402388202119 0.11108495737684999 0 -0.12991930243541749 0.1020465165188278 0 -0.15783765240444911 0.096274401630791262 0 -0.15507510040999009 0.1056512286087255 0 -0.15139402388202119 0.11108495737684999 0 -0.15783765240444911 0.096274401630791262 0 -0.15139402388202119 0.11108495737684999 0 -0.15139402388202119 0.11108495737684999 0 -0.12991930243541749 0.1020465165188278 0 -0.14495039535959489 0.12589551312290931 0 -0.1628447509754036 0.1248738178506951 0 -0.15358711882774939 0.11801712706942639 0 -0.14495039535959489 0.12589551312290931 0 -0.15358711882774939 0.11801712706942639 0 -0.15139402388202119 0.11108495737684999 0 -0.14495039535959489 0.12589551312290931 0 -0.15507510040999009 0.1056512286087255 0 -0.15358711882774939 0.11801712706942639 0 -0.15139402388202119 0.11108495737684999 0 -0.15139402388202119 0.11108495737684999 0 -0.14495039535959489 0.12589551312290931 0 -0.12991930243541749 0.1020465165188278 0 -0.14495039535959489 0.12589551312290931 0 -0.12991930243541749 0.1020465165188278 0 -0.14495039535959489 0.12589551312290931 0 -0.13028426483969929 0.13221647237215789 0 -0.14455303356647331 0.096744639073681929 0 -0.12991930243541749 0.1020465165188278 0 -0.13683438329036771 0.088098653177494879 0 -0.12991930243541749 0.1020465165188278 0 -0.13683438329036771 0.088098653177494879 0 -0.1248370695698198 0.083226530136874921 0 -0.13683438329036771 0.088098653177494879 0 -0.13729578978526799 0.073558919561796721 0 -0.1248370695698198 0.083226530136874921 0 -0.13683438329036771 0.088098653177494879 0 -0.14756672109485969 0.08491666059629295 0 -0.13729578978526799 0.073558919561796721 0 -0.14455303356647331 0.096744639073681929 0 -0.13683438329036771 0.088098653177494879 0 -0.14756672109485969 0.08491666059629295 0 -0.14756672109485969 0.08491666059629295 0 -0.13729578978526799 0.073558919561796721 0 -0.16310986573530631 0.084156321085019567 0 -0.14756672109485969 0.08491666059629295 0 -0.15463431661472629 0.07014553381523804 0 -0.16310986573530631 0.084156321085019567 0 -0.15783765240444911 0.096274401630791262 0 -0.14756672109485969 0.08491666059629295 0 -0.15783765240444911 0.096274401630791262 0 -0.14756672109485969 0.08491666059629295 0 -0.15783765240444911 0.096274401630791262 0 -0.14455303356647331 0.096744639073681929 0 -0.14756672109485969 0.08491666059629295 0 -0.14756672109485969 0.08491666059629295 0 -0.15463431661472629 0.07014553381523804 0 -0.13729578978526799 0.073558919561796721 0 -0.15463431661472629 0.07014553381523804 0 -0.13729578978526799 0.073558919561796721 0 -0.14428807100988511 0.057223156242914672 0 -0.13729578978526799 0.073558919561796721 0 -0.1311901693420546 0.060374133793646992 0 -0.14428807100988511 0.057223156242914672 0 -0.13729578978526799 0.073558919561796721 0 -0.12498233095038511 0.069533312171706482 0 -0.1248370695698198 0.083226530136874921 0 -0.13729578978526799 0.073558919561796721 0 -0.1311901693420546 0.060374133793646992 0 -0.12498233095038511 0.069533312171706482 0 -0.1311901693420546 0.060374133793646992 0 -0.1304591025064194 0.044551821316570157 0 -0.1169815729820268 0.057446916627697332 0 -0.1311901693420546 0.060374133793646992 0 -0.1304591025064194 0.044551821316570157 0 -0.14428807100988511 0.057223156242914672 0 -0.1304591025064194 0.044551821316570157 0 -0.1338093633065561 0.031702984145267947 0 -0.14718764802187309 0.041237794311798179 0 -0.1304591025064194 0.044551821316570157 0 -0.1338093633065561 0.031702984145267947 0 -0.120950474974805 0.030974477430810402 0 -0.14718764802187309 0.041237794311798179 0 -0.14507935476777459 0.024735833563247479 0 -0.16332082262574071 0.033969476032413119 0 -0.1338093633065561 0.031702984145267947 0 -0.14718764802187309 0.041237794311798179 0 -0.14507935476777459 0.024735833563247479 0 -0.1304591025064194 0.044551821316570157 0 -0.14718764802187309 0.041237794311798179 0 -0.14428807100988511 0.057223156242914672 0 -0.15463431661472629 0.07014553381523804 0 -0.14428807100988511 0.057223156242914672 0 -0.1657196129726615 0.054609358426155781 0 -0.14718764802187309 0.041237794311798179 0 -0.14428807100988511 0.057223156242914672 0 -0.1657196129726615 0.054609358426155781 0 -0.1273771369441013 0.0023450629401116992 0 -0.12537023626190849 0.01701499410391356 0 -0.14358534871595791 0.0085390787577918573 0 -0.14275634286812811 -0.006203461430080404 0 -0.1273771369441013 0.0023450629401116992 0 -0.14358534871595791 0.0085390787577918573 0 -0.1338093633065561 0.031702984145267947 0 -0.12537023626190849 0.01701499410391356 0 -0.14507935476777459 0.024735833563247479 0 -0.12537023626190849 0.01701499410391356 0 -0.14507935476777459 0.024735833563247479 0 -0.14358534871595791 0.0085390787577918573 0 -0.1338093633065561 0.031702984145267947 0 -0.12537023626190849 0.01701499410391356 0 -0.120950474974805 0.030974477430810402 0 -0.14507935476777459 0.024735833563247479 0 -0.14358534871595791 0.0085390787577918573 0 -0.1631610812614456 0.0141265482177085 0 -0.15796117991031841 -0.00029962151665172479 0 -0.14358534871595791 0.0085390787577918573 0 -0.1631610812614456 0.0141265482177085 0 -0.14275634286812811 -0.006203461430080404 0 -0.15796117991031841 -0.00029962151665172479 0 -0.14358534871595791 0.0085390787577918573 0 -0.15796117991031841 -0.00029962151665172479 0 -0.17967452986780849 -0.0030086181600807401 0 -0.1631610812614456 0.0141265482177085 0 -0.1631610812614456 0.0141265482177085 0 -0.18063081477410151 0.02444866588981499 0 -0.16332082262574071 0.033969476032413119 0 -0.14507935476777459 0.024735833563247479 0 -0.1631610812614456 0.0141265482177085 0 -0.16332082262574071 0.033969476032413119 0 -0.17967452986780849 -0.0030086181600807401 0 -0.1631610812614456 0.0141265482177085 0 -0.18063081477410151 0.02444866588981499 0 -0.17967452986780849 -0.0030086181600807401 0 -0.18063081477410151 0.02444866588981499 0 -0.19591489879339791 0.012499298725408061 0 -0.1657196129726615 0.054609358426155781 0 -0.16332082262574071 0.033969476032413119 0 -0.1853408533429271 0.041769259974547668 0 -0.14718764802187309 0.041237794311798179 0 -0.1657196129726615 0.054609358426155781 0 -0.16332082262574071 0.033969476032413119 0 -0.18063081477410151 0.02444866588981499 0 -0.16332082262574071 0.033969476032413119 0 -0.1853408533429271 0.041769259974547668 0 -0.1657196129726615 0.054609358426155781 0 -0.1853408533429271 0.041769259974547668 0 -0.19326118210642521 0.060262893486061127 0 -0.1853408533429271 0.041769259974547668 0 -0.19326118210642521 0.060262893486061127 0 -0.20638984228336041 0.047204147208118788 0 -0.18063081477410151 0.02444866588981499 0 -0.1853408533429271 0.041769259974547668 0 -0.2003712226561333 0.029120430419108619 0 -0.1853408533429271 0.041769259974547668 0 -0.20638984228336041 0.047204147208118788 0 -0.2003712226561333 0.029120430419108619 0 -0.20638984228336041 0.047204147208118788 0 -0.2003712226561333 0.029120430419108619 0 -0.21890969838457369 0.03387481538926377 0 -0.20638984228336041 0.047204147208118788 0 -0.2248274879423891 0.050626958701997932 0 -0.21890969838457369 0.03387481538926377 0 -0.20638984228336041 0.047204147208118788 0 -0.2248274879423891 0.050626958701997932 0 -0.21240822864659401 0.064474545157398255 0 -0.19326118210642521 0.060262893486061127 0 -0.20638984228336041 0.047204147208118788 0 -0.21240822864659401 0.064474545157398255 0 -0.17967452986780849 -0.0030086181600807401 0 -0.20680301002479959 -0.0020434230711429339 0 -0.19591489879339791 0.012499298725408061 0 -0.18063081477410151 0.02444866588981499 0 -0.19591489879339791 0.012499298725408061 0 -0.2003712226561333 0.029120430419108619 0 -0.2003712226561333 0.029120430419108619 0 -0.2150412283584397 0.01492639532749848 0 -0.21890969838457369 0.03387481538926377 0 -0.19591489879339791 0.012499298725408061 0 -0.2003712226561333 0.029120430419108619 0 -0.2150412283584397 0.01492639532749848 0 -0.20680301002479959 -0.0020434230711429339 0 -0.19591489879339791 0.012499298725408061 0 -0.2150412283584397 0.01492639532749848 0 -0.20680301002479959 -0.0020434230711429339 0 -0.2150412283584397 0.01492639532749848 0 -0.22850437187820721 0.00061554774341724197 0 -0.2150412283584397 0.01492639532749848 0 -0.22850437187820721 0.00061554774341724197 0 -0.23416676111704099 0.01917273774715204 0 -0.23416676111704099 0.01917273774715204 0 -0.21890969838457369 0.03387481538926377 0 -0.23451298379830759 0.036058925104307242 0 -0.2150412283584397 0.01492639532749848 0 -0.23416676111704099 0.01917273774715204 0 -0.21890969838457369 0.03387481538926377 0 -0.25132042997239518 0.0027134119798401068 0 -0.25642639863326749 0.02710060176493858 0 -0.23416676111704099 0.01917273774715204 0 -0.25642639863326749 0.02710060176493858 0 -0.23416676111704099 0.01917273774715204 0 -0.23451298379830759 0.036058925104307242 0 -0.25132042997239518 0.0027134119798401068 0 -0.22850437187820721 0.00061554774341724197 0 -0.23416676111704099 0.01917273774715204 0 -0.2248274879423891 0.050626958701997932 0 -0.234130504556473 0.067172247096954504 0 -0.21240822864659401 0.064474545157398255 0 -0.2248274879423891 0.050626958701997932 0 -0.21890969838457369 0.03387481538926377 0 -0.23451298379830759 0.036058925104307242 0 -0.25642639863326749 0.02710060176493858 0 -0.23451298379830759 0.036058925104307242 0 -0.24534917185526489 0.049526218608574313 0 -0.2248274879423891 0.050626958701997932 0 -0.23451298379830759 0.036058925104307242 0 -0.24534917185526489 0.049526218608574313 0 -0.26195798501385009 0.070226375813507561 0 -0.24534917185526489 0.049526218608574313 0 -0.234130504556473 0.067172247096954504 0 -0.2248274879423891 0.050626958701997932 0 -0.24534917185526489 0.049526218608574313 0 -0.234130504556473 0.067172247096954504 0 -0.26195798501385009 0.070226375813507561 0 -0.24382127576753621 0.084711863041238192 0 -0.234130504556473 0.067172247096954504 0 -0.24382127576753621 0.084711863041238192 0 -0.22568456652122221 0.099197350268968809 0 -0.24382127576753621 0.084711863041238192 0 -0.221160002309051 0.081738136999685213 0 -0.22568456652122221 0.099197350268968809 0 -0.221160002309051 0.081738136999685213 0 -0.20949418686790969 0.097522886253834359 0 -0.22568456652122221 0.099197350268968809 0 -0.24382127576753621 0.084711863041238192 0 -0.221160002309051 0.081738136999685213 0 -0.234130504556473 0.067172247096954504 0 -0.221160002309051 0.081738136999685213 0 -0.234130504556473 0.067172247096954504 0 -0.21240822864659401 0.064474545157398255 0 -0.221160002309051 0.081738136999685213 0 -0.21240822864659401 0.064474545157398255 0 -0.19789508720454749 0.077516785054754192 0 -0.221160002309051 0.081738136999685213 0 -0.19789508720454749 0.077516785054754192 0 -0.20949418686790969 0.097522886253834359 0 -0.17966236107341149 0.074300518116336353 0 -0.19789508720454749 0.077516785054754192 0 -0.19360510917416149 0.093991677806516877 0 -0.19789508720454749 0.077516785054754192 0 -0.19360510917416149 0.093991677806516877 0 -0.20949418686790969 0.097522886253834359 0 -0.19326118210642521 0.060262893486061127 0 -0.21240822864659401 0.064474545157398255 0 -0.19789508720454749 0.077516785054754192 0 -0.17966236107341149 0.074300518116336353 0 -0.19326118210642521 0.060262893486061127 0 -0.19789508720454749 0.077516785054754192 0 -0.20040659369392541 0.1193864456313013 0 -0.18934336527218601 0.1087413065502997 0 -0.2075478572749084 0.11368283749669961 0 -0.18039056500006781 0.12121373119240569 0 -0.20040659369392541 0.1193864456313013 0 -0.18934336527218601 0.1087413065502997 0 -0.19360510917416149 0.093991677806516877 0 -0.2075478572749084 0.11368283749669961 0 -0.18934336527218601 0.1087413065502997 0 -0.19360510917416149 0.093991677806516877 0 -0.2075478572749084 0.11368283749669961 0 -0.19360510917416149 0.093991677806516877 0 -0.20949418686790969 0.097522886253834359 0 -0.2075478572749084 0.11368283749669961 0 -0.2075478572749084 0.11368283749669961 0 -0.22568456652122221 0.099197350268968809 0 -0.20949418686790969 0.097522886253834359 0 -0.2075478572749084 0.11368283749669961 0 -0.22568456652122221 0.099197350268968809 0 -0.2075478572749084 0.11368283749669961 0 -0.22488407219564061 0.1186598638475915 0 -0.22370276663374011 0.1364982034250237 0 -0.20040659369392541 0.1193864456313013 0 -0.2075478572749084 0.11368283749669961 0 -0.20214902218410111 0.13458958866239301 0 -0.20040659369392541 0.1193864456313013 0 -0.2075478572749084 0.11368283749669961 0 -0.2075478572749084 0.11368283749669961 0 -0.22488407219564061 0.1186598638475915 0 -0.22568456652122221 0.099197350268968809 0 -0.22488407219564061 0.1186598638475915 0 -0.23975573915859391 0.1186480270080747 0 -0.23562440086935879 0.12869665656040569 0 -0.22488407219564061 0.1186598638475915 0 -0.22568456652122221 0.099197350268968809 0 -0.23888908650362611 0.1045060591559635 0 -0.24382127576753621 0.084711863041238192 0 -0.22568456652122221 0.099197350268968809 0 -0.23888908650362611 0.1045060591559635 0 -0.25364395357421121 0.10678394025260531 0 -0.24382127576753621 0.084711863041238192 0 -0.23888908650362611 0.1045060591559635 0 -0.25033803458298193 0.12914144363467839 0 -0.25364395357421121 0.10678394025260531 0 -0.23975573915859391 0.1186480270080747 0 -0.22488407219564061 0.1186598638475915 0 -0.23888908650362611 0.1045060591559635 0 -0.23975573915859391 0.1186480270080747 0 -0.25364395357421121 0.10678394025260531 0 -0.23888908650362611 0.1045060591559635 0 -0.23975573915859391 0.1186480270080747 0 -0.25033803458298193 0.12914144363467839 0 -0.23975573915859391 0.1186480270080747 0 -0.23562440086935879 0.12869665656040569 0 -0.25033803458298193 0.12914144363467839 0 -0.2394413917758374 0.14053574488666021 0 -0.23562440086935879 0.12869665656040569 0 -0.2394413917758374 0.14053574488666021 0 -0.23562440086935879 0.12869665656040569 0 -0.22370276663374011 0.1364982034250237 0 -0.22488407219564061 0.1186598638475915 0 -0.23562440086935879 0.12869665656040569 0 -0.22370276663374011 0.1364982034250237 0 -0.2394413917758374 0.14053574488666021 0 -0.22370276663374011 0.1364982034250237 0 -0.22390747936813421 0.14796544613238069 0 -0.22390747936813421 0.14796544613238069 0 -0.22774584105848089 0.15976823357977049 0 -0.2168312664826515 0.15850745189495519 0 -0.2394413917758374 0.14053574488666021 0 -0.22390747936813421 0.14796544613238069 0 -0.24566593655216731 0.1613413036023684 0 -0.22390747936813421 0.14796544613238069 0 -0.24566593655216731 0.1613413036023684 0 -0.26077588748637798 0.14053443996503889 0 -0.2394413917758374 0.14053574488666021 0 -0.24566593655216731 0.1613413036023684 0 -0.24566593655216731 0.1613413036023684 0 -0.2425545525554833 0.18325607046718431 0 -0.22457868183097049 0.171258732689378 0 -0.2425545525554833 0.18325607046718431 0 -0.2235130486054053 0.18492553164669809 0 -0.22457868183097049 0.171258732689378 0 -0.2425545525554833 0.18325607046718431 0 -0.2235130486054053 0.18492553164669809 0 -0.2315679775879351 0.19375458513227489 0 -0.2235130486054053 0.18492553164669809 0 -0.22457868183097049 0.171258732689378 0 -0.209750232499154 0.17791844316711489 0 -0.24566593655216731 0.1613413036023684 0 -0.22774584105848089 0.15976823357977049 0 -0.22457868183097049 0.171258732689378 0 -0.22390747936813421 0.14796544613238069 0 -0.24566593655216731 0.1613413036023684 0 -0.22774584105848089 0.15976823357977049 0 -0.22774584105848089 0.15976823357977049 0 -0.22457868183097049 0.171258732689378 0 -0.2168312664826515 0.15850745189495519 0 -0.2168312664826515 0.15850745189495519 0 -0.21186753860838101 0.16733255095299371 0 -0.20758447520558959 0.15683863127083711 0 -0.22457868183097049 0.171258732689378 0 -0.2168312664826515 0.15850745189495519 0 -0.21186753860838101 0.16733255095299371 0 -0.21186753860838101 0.16733255095299371 0 -0.209750232499154 0.17791844316711489 0 -0.20173639765426299 0.1643971743801825 0 -0.21186753860838101 0.16733255095299371 0 -0.20758447520558959 0.15683863127083711 0 -0.20173639765426299 0.1643971743801825 0 -0.20758447520558959 0.15683863127083711 0 -0.20173639765426299 0.1643971743801825 0 -0.20024290349544879 0.15519061181074151 0 -0.22457868183097049 0.171258732689378 0 -0.21186753860838101 0.16733255095299371 0 -0.209750232499154 0.17791844316711489 0 -0.19610042498268601 0.17522502183351021 0 -0.19038698318195549 0.16711234260031069 0 -0.17752183765376101 0.1775748035498933 0 -0.19610042498268601 0.17522502183351021 0 -0.19785886193094021 0.18900131099286041 0 -0.17752183765376101 0.1775748035498933 0 -0.19785886193094021 0.18900131099286041 0 -0.17752183765376101 0.1775748035498933 0 -0.209750232499154 0.17791844316711489 0 -0.19610042498268601 0.17522502183351021 0 -0.19785886193094021 0.18900131099286041 0 -0.209750232499154 0.17791844316711489 0 -0.19610042498268601 0.17522502183351021 0 -0.20173639765426299 0.1643971743801825 0 -0.20173639765426299 0.1643971743801825 0 -0.1927705130470404 0.15866088515044 0 -0.20024290349544879 0.15519061181074151 0 -0.19610042498268601 0.17522502183351021 0 -0.20173639765426299 0.1643971743801825 0 -0.19038698318195549 0.16711234260031069 0 -0.20173639765426299 0.1643971743801825 0 -0.19038698318195549 0.16711234260031069 0 -0.1927705130470404 0.15866088515044 0 -0.19038698318195549 0.16711234260031069 0 -0.1927705130470404 0.15866088515044 0 -0.18413510522225521 0.16259499244525211 0 -0.1927705130470404 0.15866088515044 0 -0.19507878308752141 0.1486405391940768 0 -0.1852646507768699 0.1545619776798173 0 -0.19507878308752141 0.1486405391940768 0 -0.18706065072040501 0.14468661846275019 0 -0.1852646507768699 0.1545619776798173 0 -0.19507878308752141 0.1486405391940768 0 -0.20024290349544879 0.15519061181074151 0 -0.20390252305447459 0.15036513687703029 0 -0.1927705130470404 0.15866088515044 0 -0.19507878308752141 0.1486405391940768 0 -0.20024290349544879 0.15519061181074151 0 -0.19507878308752141 0.1486405391940768 0 -0.202312374299252 0.1441640524023215 0 -0.19563802519160789 0.13807458821396759 0 -0.19507878308752141 0.1486405391940768 0 -0.202312374299252 0.1441640524023215 0 -0.20390252305447459 0.15036513687703029 0 -0.19507878308752141 0.1486405391940768 0 -0.19563802519160789 0.13807458821396759 0 -0.18706065072040501 0.14468661846275019 0 -0.18039056500006781 0.12121373119240569 0 -0.20214902218410111 0.13458958866239301 0 -0.18039056500006781 0.12121373119240569 0 -0.20040659369392541 0.1193864456313013 0 -0.20214902218410111 0.13458958866239301 0 -0.18039056500006781 0.12121373119240569 0 -0.19563802519160789 0.13807458821396759 0 -0.20214902218410111 0.13458958866239301 0 -0.18039056500006781 0.12121373119240569 0 -0.19563802519160789 0.13807458821396759 0 -0.202312374299252 0.1441640524023215 0 -0.19563802519160789 0.13807458821396759 0 -0.20214902218410111 0.13458958866239301 0 -0.2075478572749084 0.11368283749669961 0 -0.22370276663374011 0.1364982034250237 0 -0.20214902218410111 0.13458958866239301 0 -0.2075478572749084 0.11368283749669961 0 -0.22370276663374011 0.1364982034250237 0 -0.22370276663374011 0.1364982034250237 0 -0.22390747936813421 0.14796544613238069 0 -0.20214902218410111 0.13458958866239301 0 -0.22390747936813421 0.14796544613238069 0 -0.20214902218410111 0.13458958866239301 0 -0.22390747936813421 0.14796544613238069 0 -0.20214902218410111 0.13458958866239301 0 -0.20948943058945241 0.14863997276184041 0 -0.22390747936813421 0.14796544613238069 0 -0.2168312664826515 0.15850745189495519 0 -0.20948943058945241 0.14863997276184041 0 -0.2168312664826515 0.15850745189495519 0 -0.20758447520558959 0.15683863127083711 0 -0.20948943058945241 0.14863997276184041 0 -0.20758447520558959 0.15683863127083711 0 -0.20948943058945241 0.14863997276184041 0 -0.20390252305447459 0.15036513687703029 0 -0.20758447520558959 0.15683863127083711 0 -0.20024290349544879 0.15519061181074151 0 -0.20390252305447459 0.15036513687703029 0 -0.202312374299252 0.1441640524023215 0 -0.20214902218410111 0.13458958866239301 0 -0.20948943058945241 0.14863997276184041 0 -0.202312374299252 0.1441640524023215 0 -0.20948943058945241 0.14863997276184041 0 -0.20390252305447459 0.15036513687703029 0 -0.22764024225575111 0.25709488017932702 0 -0.2151106411052526 0.2372148610219694 0 -0.22764024225575111 0.25709488017932702 0 -0.2283272457552897 0.2411225242229286 0 -0.2468893326351202 0.24329134098969171 0 -0.22764024225575111 0.25709488017932702 0 -0.2283272457552897 0.2411225242229286 0 -0.2151106411052526 0.2372148610219694 0 -0.2283272457552897 0.2411225242229286 0 -0.22236430254422471 0.22707510271615991 0 -0.2151106411052526 0.2372148610219694 0 -0.2283272457552897 0.2411225242229286 0 -0.2468893326351202 0.24329134098969171 0 -0.2329273297721271 0.2301735095518313 0 -0.25250373055295899 0.22903132158689779 0 -0.2468893326351202 0.24329134098969171 0 -0.24260825180894061 0.22311859240920151 0 -0.2468893326351202 0.24329134098969171 0 -0.24260825180894061 0.22311859240920151 0 -0.2329273297721271 0.2301735095518313 0 -0.25326648915379463 0.21765104414027969 0 -0.25250373055295899 0.22903132158689779 0 -0.24260825180894061 0.22311859240920151 0 -0.24260825180894061 0.22311859240920151 0 -0.23239639752576971 0.22100751879425451 0 -0.2329273297721271 0.2301735095518313 0 -0.23239639752576971 0.22100751879425451 0 -0.2329273297721271 0.2301735095518313 0 -0.22236430254422471 0.22707510271615991 0 -0.2283272457552897 0.2411225242229286 0 -0.2329273297721271 0.2301735095518313 0 -0.22236430254422471 0.22707510271615991 0 -0.23239639752576971 0.22100751879425451 0 -0.22236430254422471 0.22707510271615991 0 -0.2228431611521535 0.2155973608413651 0 -0.2228431611521535 0.2155973608413651 0 -0.2385329104852989 0.2118543258787943 0 -0.21819588620811961 0.20042781843582741 0 -0.2385329104852989 0.2118543258787943 0 -0.21819588620811961 0.20042781843582741 0 -0.23239639752576971 0.22100751879425451 0 -0.2228431611521535 0.2155973608413651 0 -0.2385329104852989 0.2118543258787943 0 -0.2385329104852989 0.2118543258787943 0 -0.24039455529309961 0.2058142864805034 0 -0.21819588620811961 0.20042781843582741 0 -0.24260825180894061 0.22311859240920151 0 -0.23239639752576971 0.22100751879425451 0 -0.2385329104852989 0.2118543258787943 0 -0.25326648915379463 0.21765104414027969 0 -0.24039455529309961 0.2058142864805034 0 -0.25326648915379463 0.21765104414027969 0 -0.2385329104852989 0.2118543258787943 0 -0.24039455529309961 0.2058142864805034 0 -0.25326648915379463 0.21765104414027969 0 -0.24260825180894061 0.22311859240920151 0 -0.2385329104852989 0.2118543258787943 0 -0.25264776582176801 0.2054066783297176 0 -0.25326648915379463 0.21765104414027969 0 -0.24039455529309961 0.2058142864805034 0 -0.25846339158769432 0.19477026040294029 0 -0.2425545525554833 0.18325607046718431 0 -0.24512564856919611 0.1966003761625241 0 -0.24039455529309961 0.2058142864805034 0 -0.24512564856919611 0.1966003761625241 0 -0.2315679775879351 0.19375458513227489 0 -0.25264776582176801 0.2054066783297176 0 -0.24039455529309961 0.2058142864805034 0 -0.24512564856919611 0.1966003761625241 0 -0.2425545525554833 0.18325607046718431 0 -0.24512564856919611 0.1966003761625241 0 -0.2315679775879351 0.19375458513227489 0 -0.24039455529309961 0.2058142864805034 0 -0.2315679775879351 0.19375458513227489 0 -0.21819588620811961 0.20042781843582741 0 -0.2235130486054053 0.18492553164669809 0 -0.2315679775879351 0.19375458513227489 0 -0.21819588620811961 0.20042781843582741 0 -0.21819588620811961 0.20042781843582741 0 -0.19785886193094021 0.18900131099286041 0 -0.2235130486054053 0.18492553164669809 0 -0.209750232499154 0.17791844316711489 0 -0.21819588620811961 0.20042781843582741 0 -0.209750232499154 0.17791844316711489 0 -0.21819588620811961 0.20042781843582741 0 -0.19785886193094021 0.18900131099286041 0 -0.21819588620811961 0.20042781843582741 0 -0.20376966825666501 0.2022924765927995 0 -0.19785886193094021 0.18900131099286041 0 -0.19785886193094021 0.18900131099286041 0 -0.19005143880425829 0.1974548227072519 0 -0.17752183765376101 0.1775748035498933 0 -0.20376966825666501 0.2022924765927995 0 -0.19785886193094021 0.18900131099286041 0 -0.19005143880425829 0.1974548227072519 0 -0.19005143880425829 0.1974548227072519 0 -0.187650486280975 0.21451757224245291 0 -0.20258103995475549 0.21733484186461069 0 -0.19005143880425829 0.1974548227072519 0 -0.20258103995475549 0.21733484186461069 0 -0.20376966825666501 0.2022924765927995 0 -0.19005143880425829 0.1974548227072519 0 -0.20258103995475549 0.21733484186461069 0 -0.2228431611521535 0.2155973608413651 0 -0.21819588620811961 0.20042781843582741 0 -0.20258103995475549 0.21733484186461069 0 -0.21819588620811961 0.20042781843582741 0 -0.20376966825666501 0.2022924765927995 0 -0.20258103995475549 0.21733484186461069 0 -0.20258103995475549 0.21733484186461069 0 -0.19839606398960871 0.22991008851962841 0 -0.2151106411052526 0.2372148610219694 0 -0.22236430254422471 0.22707510271615991 0 -0.2228431611521535 0.2155973608413651 0 -0.20258103995475549 0.21733484186461069 0 -0.22236430254422471 0.22707510271615991 0 -0.20258103995475549 0.21733484186461069 0 -0.2151106411052526 0.2372148610219694 0 -0.20258103995475549 0.21733484186461069 0 -0.2151106411052526 0.2372148610219694 0 -0.187650486280975 0.21451757224245291 0 -0.20258103995475549 0.21733484186461069 0 -0.19839606398960871 0.22991008851962841 0 -0.187650486280975 0.21451757224245291 0 -0.19839606398960871 0.22991008851962841 0 -0.18195408303730121 0.23534357450296481 0 -0.18940688912330481 0.25610334311205268 0 -0.2046840695697589 0.2451395929661444 0 -0.18195408303730121 0.23534357450296481 0 -0.2046840695697589 0.2451395929661444 0 -0.18195408303730121 0.23534357450296481 0 -0.19839606398960871 0.22991008851962841 0 -0.2046840695697589 0.2451395929661444 0 -0.18195408303730121 0.23534357450296481 0 -0.21239874098331929 0.25437807278244762 0 -0.2046840695697589 0.2451395929661444 0 -0.2151106411052526 0.2372148610219694 0 -0.19839606398960871 0.22991008851962841 0 -0.2046840695697589 0.2451395929661444 0 -0.2151106411052526 0.2372148610219694 0 -0.22764024225575111 0.25709488017932702 0 -0.21239874098331929 0.25437807278244762 0 -0.2151106411052526 0.2372148610219694 0 -0.16225317791305921 0.25358582624422438 0 -0.18195408303730121 0.23534357450296481 0 -0.155242522585569 0.24016045739440639 0 -0.17508206900779469 0.25918785244088571 0 -0.16225317791305921 0.25358582624422438 0 -0.18195408303730121 0.23534357450296481 0 -0.187650486280975 0.21451757224245291 0 -0.18195408303730121 0.23534357450296481 0 -0.17144823439391829 0.2141895330645725 0 -0.18195408303730121 0.23534357450296481 0 -0.15922409650484359 0.2255475560397853 0 -0.18195408303730121 0.23534357450296481 0 -0.15922409650484359 0.2255475560397853 0 -0.155242522585569 0.24016045739440639 0 -0.18195408303730121 0.23534357450296481 0 -0.15922409650484359 0.2255475560397853 0 -0.17144823439391829 0.2141895330645725 0 -0.15922409650484359 0.2255475560397853 0 -0.15900733689739069 0.21062159977010589 0 -0.17144823439391829 0.2141895330645725 0 -0.15900733689739069 0.21062159977010589 0 -0.1653418357915476 0.2018213455952054 0 -0.15361129879784891 0.20139719057542019 0 -0.17144823439391829 0.2141895330645725 0 -0.17723797391968729 0.20390802022475071 0 -0.1653418357915476 0.2018213455952054 0 -0.15900733689739069 0.21062159977010589 0 -0.17144823439391829 0.2141895330645725 0 -0.1653418357915476 0.2018213455952054 0 -0.187650486280975 0.21451757224245291 0 -0.17144823439391829 0.2141895330645725 0 -0.17723797391968729 0.20390802022475071 0 -0.19005143880425829 0.1974548227072519 0 -0.187650486280975 0.21451757224245291 0 -0.17723797391968729 0.20390802022475071 0 -0.19005143880425829 0.1974548227072519 0 -0.17169787432773731 0.19155682751427069 0 -0.17752183765376101 0.1775748035498933 0 -0.19005143880425829 0.1974548227072519 0 -0.17723797391968729 0.20390802022475071 0 -0.17169787432773731 0.19155682751427069 0 -0.19005143880425829 0.1974548227072519 0 -0.17752183765376101 0.1775748035498933 0 -0.17169787432773731 0.19155682751427069 0 -0.1653418357915476 0.2018213455952054 0 -0.15791164184663151 0.19274793286901881 0 -0.17723797391968729 0.20390802022475071 0 -0.17169787432773731 0.19155682751427069 0 -0.1653418357915476 0.2018213455952054 0 -0.1653418357915476 0.2018213455952054 0 -0.15791164184663151 0.19274793286901881 0 -0.15361129879784891 0.20139719057542019 0 -0.17169787432773731 0.19155682751427069 0 -0.15791164184663151 0.19274793286901881 0 -0.16134243263699979 0.18146195783717889 0 -0.15791164184663151 0.19274793286901881 0 -0.15361129879784891 0.20139719057542019 0 -0.14754997702249989 0.19123102061556399 0 -0.15791164184663151 0.19274793286901881 0 -0.14754997702249989 0.19123102061556399 0 -0.15378055215212841 0.1853342336718547 0 -0.15361129879784891 0.20139719057542019 0 -0.144337775963609 0.20069921068637719 0 -0.14754997702249989 0.19123102061556399 0 -0.14754997702249989 0.19123102061556399 0 -0.13411435042981179 0.19106266128805069 0 -0.1463292802833521 0.18023770330257241 0 -0.144337775963609 0.20069921068637719 0 -0.14754997702249989 0.19123102061556399 0 -0.13411435042981179 0.19106266128805069 0 -0.13411435042981179 0.19106266128805069 0 -0.12967955466007261 0.2074258594294596 0 -0.1235431789710726 0.1969801993001162 0 -0.13411435042981179 0.19106266128805069 0 -0.13770187294137159 0.2043383794177894 0 -0.12967955466007261 0.2074258594294596 0 -0.144337775963609 0.20069921068637719 0 -0.13411435042981179 0.19106266128805069 0 -0.13770187294137159 0.2043383794177894 0 -0.13770187294137159 0.2043383794177894 0 -0.13855706597983281 0.21350408889879899 0 -0.14247480998137141 0.20718589651263181 0 -0.1364941099723872 0.21575153757660309 0 -0.120958802369795 0.22183359367242919 0 -0.11894773722242739 0.20818951851535461 0 -0.12967955466007261 0.2074258594294596 0 -0.1364941099723872 0.21575153757660309 0 -0.11894773722242739 0.20818951851535461 0 -0.13770187294137159 0.2043383794177894 0 -0.12967955466007261 0.2074258594294596 0 -0.13855706597983281 0.21350408889879899 0 -0.1364941099723872 0.21575153757660309 0 -0.11894773722242739 0.20818951851535461 0 -0.12967955466007261 0.2074258594294596 0 -0.1364941099723872 0.21575153757660309 0 -0.13855706597983281 0.21350408889879899 0 -0.1364941099723872 0.21575153757660309 0 -0.13855706597983281 0.21350408889879899 0 -0.15922409650484359 0.2255475560397853 0 -0.1364941099723872 0.21575153757660309 0 -0.13855706597983281 0.21350408889879899 0 -0.15922409650484359 0.2255475560397853 0 -0.13855706597983281 0.21350408889879899 0 -0.14930252504067221 0.21020190704756139 0 -0.13855706597983281 0.21350408889879899 0 -0.14247480998137141 0.20718589651263181 0 -0.14930252504067221 0.21020190704756139 0 -0.144337775963609 0.20069921068637719 0 -0.14247480998137141 0.20718589651263181 0 -0.14930252504067221 0.21020190704756139 0 -0.144337775963609 0.20069921068637719 0 -0.13770187294137159 0.2043383794177894 0 -0.14247480998137141 0.20718589651263181 0 -0.15900733689739069 0.21062159977010589 0 -0.15361129879784891 0.20139719057542019 0 -0.14930252504067221 0.21020190704756139 0 -0.15361129879784891 0.20139719057542019 0 -0.144337775963609 0.20069921068637719 0 -0.14930252504067221 0.21020190704756139 0 -0.15922409650484359 0.2255475560397853 0 -0.15900733689739069 0.21062159977010589 0 -0.14930252504067221 0.21020190704756139 0 -0.15922409650484359 0.2255475560397853 0 -0.13635804662702189 0.23039018670563211 0 -0.14207867318260539 0.23889574066385899 0 -0.15922409650484359 0.2255475560397853 0 -0.1364941099723872 0.21575153757660309 0 -0.13635804662702189 0.23039018670563211 0 -0.15922409650484359 0.2255475560397853 0 -0.1364941099723872 0.21575153757660309 0 -0.1364941099723872 0.21575153757660309 0 -0.13635804662702189 0.23039018670563211 0 -0.11673432752768111 0.2372784614512472 0 -0.1364941099723872 0.21575153757660309 0 -0.11673432752768111 0.2372784614512472 0 -0.13635804662702189 0.23039018670563211 0 -0.12961957513534 0.23973743310435161 0 -0.11673432752768111 0.2372784614512472 0 -0.13635804662702189 0.23039018670563211 0 -0.12961957513534 0.23973743310435161 0 -0.14207867318260539 0.23889574066385899 0 -0.12961957513534 0.23973743310435161 0 -0.13357218109292621 0.2499317644564327 0 -0.1213089330464012 0.24626659804535689 0 -0.12961957513534 0.23973743310435161 0 -0.13357218109292621 0.2499317644564327 0 -0.14207867318260539 0.23889574066385899 0 -0.14746997276257359 0.25293699741112718 0 -0.13357218109292621 0.2499317644564327 0 -0.14207867318260539 0.23889574066385899 0 -0.15922409650484359 0.2255475560397853 0 -0.14207867318260539 0.23889574066385899 0 -0.155242522585569 0.24016045739440639 0 -0.14746997276257359 0.25293699741112718 0 -0.14207867318260539 0.23889574066385899 0 -0.155242522585569 0.24016045739440639 0 -0.16225317791305921 0.25358582624422438 0 -0.14746997276257359 0.25293699741112718 0 -0.155242522585569 0.24016045739440639 0 -0.166988808872575 0.14091924592242799 0 -0.1736883691443292 0.1501381655411517 0 -0.1666646902223726 0.16034837340756511 0 -0.166988808872575 0.14091924592242799 0 -0.1666646902223726 0.16034837340756511 0 -0.15580754279098399 0.143121943265237 0 -0.1666646902223726 0.16034837340756511 0 -0.1549726550285947 0.15674585516748279 0 -0.15580754279098399 0.143121943265237 0 -0.1666646902223726 0.16034837340756511 0 -0.15580754279098399 0.143121943265237 0 -0.1628447509754036 0.1248738178506951 0 -0.166988808872575 0.14091924592242799 0 -0.17824709647023271 0.1379937977022469 0 -0.1628447509754036 0.1248738178506951 0 -0.166988808872575 0.14091924592242799 0 -0.15580754279098399 0.143121943265237 0 -0.18039056500006781 0.12121373119240569 0 -0.1628447509754036 0.1248738178506951 0 -0.17824709647023271 0.1379937977022469 0 -0.19563802519160789 0.13807458821396759 0 -0.17824709647023271 0.1379937977022469 0 -0.18706065072040501 0.14468661846275019 0 -0.18039056500006781 0.12121373119240569 0 -0.19563802519160789 0.13807458821396759 0 -0.17824709647023271 0.1379937977022469 0 -0.17824709647023271 0.1379937977022469 0 -0.18706065072040501 0.14468661846275019 0 -0.1811623126986891 0.14793864394101769 0 -0.166988808872575 0.14091924592242799 0 -0.17824709647023271 0.1379937977022469 0 -0.1736883691443292 0.1501381655411517 0 -0.17824709647023271 0.1379937977022469 0 -0.1811623126986891 0.14793864394101769 0 -0.1736883691443292 0.1501381655411517 0 -0.1811623126986891 0.14793864394101769 0 -0.1736883691443292 0.1501381655411517 0 -0.17666515903818969 0.15970684649729899 0 -0.1811623126986891 0.14793864394101769 0 -0.1852646507768699 0.1545619776798173 0 -0.17666515903818969 0.15970684649729899 0 -0.18706065072040501 0.14468661846275019 0 -0.1811623126986891 0.14793864394101769 0 -0.1852646507768699 0.1545619776798173 0 -0.17752183765376101 0.1775748035498933 0 -0.1666646902223726 0.16034837340756511 0 -0.1927705130470404 0.15866088515044 0 -0.1852646507768699 0.1545619776798173 0 -0.18413510522225521 0.16259499244525211 0 -0.17666515903818969 0.15970684649729899 0 -0.17752183765376101 0.1775748035498933 0 -0.1666646902223726 0.16034837340756511 0 -0.1852646507768699 0.1545619776798173 0 -0.18413510522225521 0.16259499244525211 0 -0.17666515903818969 0.15970684649729899 0 -0.18413510522225521 0.16259499244525211 0 -0.17666515903818969 0.15970684649729899 0 -0.17752183765376101 0.1775748035498933 0 -0.19038698318195549 0.16711234260031069 0 -0.18413510522225521 0.16259499244525211 0 -0.17752183765376101 0.1775748035498933 0 -0.1736883691443292 0.1501381655411517 0 -0.17666515903818969 0.15970684649729899 0 -0.1666646902223726 0.16034837340756511 0 -0.17169787432773731 0.19155682751427069 0 -0.17752183765376101 0.1775748035498933 0 -0.16134243263699979 0.18146195783717889 0 -0.17752183765376101 0.1775748035498933 0 -0.160166055014445 0.16782332876165751 0 -0.17752183765376101 0.1775748035498933 0 -0.16134243263699979 0.18146195783717889 0 -0.160166055014445 0.16782332876165751 0 -0.16134243263699979 0.18146195783717889 0 -0.160166055014445 0.16782332876165751 0 -0.1543363168372556 0.17604552304072019 0 -0.16134243263699979 0.18146195783717889 0 -0.15378055215212841 0.1853342336718547 0 -0.1543363168372556 0.17604552304072019 0 -0.15791164184663151 0.19274793286901881 0 -0.16134243263699979 0.18146195783717889 0 -0.15378055215212841 0.1853342336718547 0 -0.17752183765376101 0.1775748035498933 0 -0.1666646902223726 0.16034837340756511 0 -0.160166055014445 0.16782332876165751 0 -0.1666646902223726 0.16034837340756511 0 -0.160166055014445 0.16782332876165751 0 -0.1549726550285947 0.15674585516748279 0 -0.160166055014445 0.16782332876165751 0 -0.1549726550285947 0.15674585516748279 0 -0.14281027237512919 0.15807185397342149 0 -0.160166055014445 0.16782332876165751 0 -0.14281027237512919 0.15807185397342149 0 -0.160166055014445 0.16782332876165751 0 -0.1483000089644074 0.1706867490983929 0 -0.14281027237512919 0.15807185397342149 0 -0.160166055014445 0.16782332876165751 0 -0.1483000089644074 0.1706867490983929 0 -0.1543363168372556 0.17604552304072019 0 -0.1483000089644074 0.1706867490983929 0 -0.14281027237512919 0.15807185397342149 0 -0.13856119746919621 0.1732320213376258 0 -0.14754997702249989 0.19123102061556399 0 -0.15378055215212841 0.1853342336718547 0 -0.1463292802833521 0.18023770330257241 0 -0.15378055215212841 0.1853342336718547 0 -0.1543363168372556 0.17604552304072019 0 -0.1463292802833521 0.18023770330257241 0 -0.1483000089644074 0.1706867490983929 0 -0.1543363168372556 0.17604552304072019 0 -0.1463292802833521 0.18023770330257241 0 -0.1483000089644074 0.1706867490983929 0 -0.1463292802833521 0.18023770330257241 0 -0.13856119746919621 0.1732320213376258 0 -0.13411435042981179 0.19106266128805069 0 -0.13856119746919621 0.1732320213376258 0 -0.12609153575556739 0.16924223779836581 0 -0.13411435042981179 0.19106266128805069 0 -0.12609153575556739 0.16924223779836581 0 -0.1152399272795421 0.1851742901109647 0 -0.13411435042981179 0.19106266128805069 0 -0.1463292802833521 0.18023770330257241 0 -0.13856119746919621 0.1732320213376258 0 -0.14281027237512919 0.15807185397342149 0 -0.12609153575556739 0.16924223779836581 0 -0.135520965557581 0.14756887546063741 0 -0.12609153575556739 0.16924223779836581 0 -0.135520965557581 0.14756887546063741 0 -0.14281027237512919 0.15807185397342149 0 -0.13856119746919621 0.1732320213376258 0 -0.12609153575556739 0.16924223779836581 0 -0.135520965557581 0.14756887546063741 0 -0.13028426483969929 0.13221647237215789 0 -0.1192914655824909 0.15059360814623801 0 -0.12609153575556739 0.16924223779836581 0 -0.135520965557581 0.14756887546063741 0 -0.1192914655824909 0.15059360814623801 0 -0.1549726550285947 0.15674585516748279 0 -0.14281027237512919 0.15807185397342149 0 -0.14652630769324659 0.14708303210739521 0 -0.14281027237512919 0.15807185397342149 0 -0.135520965557581 0.14756887546063741 0 -0.14652630769324659 0.14708303210739521 0 -0.1549726550285947 0.15674585516748279 0 -0.14652630769324659 0.14708303210739521 0 -0.15580754279098399 0.143121943265237 0 -0.1628447509754036 0.1248738178506951 0 -0.15580754279098399 0.143121943265237 0 -0.14495039535959489 0.12589551312290931 0 -0.135520965557581 0.14756887546063741 0 -0.14652630769324659 0.14708303210739521 0 -0.14495039535959489 0.12589551312290931 0 -0.15580754279098399 0.143121943265237 0 -0.14495039535959489 0.12589551312290931 0 -0.14652630769324659 0.14708303210739521 0 -0.15580754279098399 0.143121943265237 0 -0.14495039535959489 0.12589551312290931 0 -0.135520965557581 0.14756887546063741 0 -0.14495039535959489 0.12589551312290931 0 -0.135520965557581 0.14756887546063741 0 -0.14495039535959489 0.12589551312290931 0 -0.13028426483969929 0.13221647237215789 0 -0.13028426483969929 0.13221647237215789 0 -0.1131006250587715 0.12959615498317961 0 -0.1192914655824909 0.15059360814623801 0 -0.1131006250587715 0.12959615498317961 0 -0.10078539792307099 0.15464240809582361 0 -0.092802426943272898 0.12960292979422991 0 -0.1131006250587715 0.12959615498317961 0 -0.10078539792307099 0.15464240809582361 0 -0.1192914655824909 0.15059360814623801 0 -0.10078539792307099 0.15464240809582361 0 -0.1192914655824909 0.15059360814623801 0 -0.10897534263953949 0.16967833346669081 0 -0.12609153575556739 0.16924223779836581 0 -0.1192914655824909 0.15059360814623801 0 -0.10897534263953949 0.16967833346669081 0 -0.12609153575556739 0.16924223779836581 0 -0.1152399272795421 0.1851742901109647 0 -0.10897534263953949 0.16967833346669081 0 -0.1152399272795421 0.1851742901109647 0 -0.098409264142157865 0.1851788001203086 0 -0.10897534263953949 0.16967833346669081 0 -0.098409264142157865 0.1851788001203086 0 -0.10897534263953949 0.16967833346669081 0 -0.082277471490505807 0.17420718144711089 0 -0.10078539792307099 0.15464240809582361 0 -0.10897534263953949 0.16967833346669081 0 -0.082277471490505807 0.17420718144711089 0 -0.10078539792307099 0.15464240809582361 0 -0.082277471490505807 0.17420718144711089 0 -0.082277471490505807 0.17420718144711089 0 -0.065615427061545384 0.16058384892905991 0 -0.074642854581774637 0.14147916649728479 0 -0.10078539792307099 0.15464240809582361 0 -0.082277471490505807 0.17420718144711089 0 -0.074642854581774637 0.14147916649728479 0 -0.098409264142157865 0.1851788001203086 0 -0.082277471490505807 0.17420718144711089 0 -0.084152214828733252 0.19620669612267311 0 -0.082277471490505807 0.17420718144711089 0 -0.063769545057940663 0.19377195479839809 0 -0.082277471490505807 0.17420718144711089 0 -0.063769545057940663 0.19377195479839809 0 -0.051824687549248197 0.17345858692208871 0 -0.082277471490505807 0.17420718144711089 0 -0.065615427061545384 0.16058384892905991 0 -0.051824687549248197 0.17345858692208871 0 -0.074642854581774637 0.14147916649728479 0 -0.055186524828957063 0.1281687789626855 0 -0.07438317581125764 0.1124407737129243 0 -0.074642854581774637 0.14147916649728479 0 -0.092802426943272898 0.12960292979422991 0 -0.07438317581125764 0.1124407737129243 0 -0.10078539792307099 0.15464240809582361 0 -0.074642854581774637 0.14147916649728479 0 -0.092802426943272898 0.12960292979422991 0 -0.10058650277722481 0.24229521027045481 0 -0.11673432752768111 0.2372784614512472 0 -0.1053270170515283 0.2324499666522013 0 -0.096974545082976191 0.25880538532589209 0 -0.10058650277722481 0.24229521027045481 0 -0.088715331182393942 0.2449718195011524 0 -0.096974545082976191 0.25880538532589209 0 -0.10058650277722481 0.24229521027045481 0 -0.11673432752768111 0.2372784614512472 0 -0.096974545082976191 0.25880538532589209 0 -0.112097455783086 0.24444379951602521 0 -0.11673432752768111 0.2372784614512472 0 -0.096974545082976191 0.25880538532589209 0 -0.11673432752768111 0.2372784614512472 0 -0.10058650277722481 0.24229521027045481 0 -0.091983872440322634 0.23323291704093771 0 -0.088715331182393942 0.2449718195011524 0 -0.10058650277722481 0.24229521027045481 0 -0.1053270170515283 0.2324499666522013 0 -0.091983872440322634 0.23323291704093771 0 -0.11521273165378559 0.25497892835963998 0 -0.112097455783086 0.24444379951602521 0 -0.1213089330464012 0.24626659804535689 0 -0.112097455783086 0.24444379951602521 0 -0.1213089330464012 0.24626659804535689 0 -0.11673432752768111 0.2372784614512472 0 -0.12961957513534 0.23973743310435161 0 -0.1213089330464012 0.24626659804535689 0 -0.11673432752768111 0.2372784614512472 0 -0.11673432752768111 0.2372784614512472 0 -0.111977792011399 0.2261119040305537 0 -0.1053270170515283 0.2324499666522013 0 -0.1364941099723872 0.21575153757660309 0 -0.11673432752768111 0.2372784614512472 0 -0.120958802369795 0.22183359367242919 0 -0.11673432752768111 0.2372784614512472 0 -0.120958802369795 0.22183359367242919 0 -0.111977792011399 0.2261119040305537 0 -0.120958802369795 0.22183359367242919 0 -0.111977792011399 0.2261119040305537 0 -0.11263418842693861 0.21654350143059611 0 -0.111977792011399 0.2261119040305537 0 -0.1027476190553803 0.22153268259517769 0 -0.11263418842693861 0.21654350143059611 0 -0.1027476190553803 0.22153268259517769 0 -0.088008266818085573 0.21525264443096179 0 -0.091983872440322634 0.23323291704093771 0 -0.111977792011399 0.2261119040305537 0 -0.1027476190553803 0.22153268259517769 0 -0.1053270170515283 0.2324499666522013 0 -0.1027476190553803 0.22153268259517769 0 -0.1053270170515283 0.2324499666522013 0 -0.091983872440322634 0.23323291704093771 0 -0.1027476190553803 0.22153268259517769 0 -0.1014013644724687 0.20062749945410349 0 -0.088008266818085573 0.21525264443096179 0 -0.1027476190553803 0.22153268259517769 0 -0.11263418842693861 0.21654350143059611 0 -0.1014013644724687 0.20062749945410349 0 -0.11263418842693861 0.21654350143059611 0 -0.11894773722242739 0.20818951851535461 0 -0.1014013644724687 0.20062749945410349 0 -0.11894773722242739 0.20818951851535461 0 -0.1014013644724687 0.20062749945410349 0 -0.120958802369795 0.22183359367242919 0 -0.11263418842693861 0.21654350143059611 0 -0.11894773722242739 0.20818951851535461 0 -0.12967955466007261 0.2074258594294596 0 -0.11894773722242739 0.20818951851535461 0 -0.1235431789710726 0.1969801993001162 0 -0.11894773722242739 0.20818951851535461 0 -0.1235431789710726 0.1969801993001162 0 -0.1014013644724687 0.20062749945410349 0 -0.13411435042981179 0.19106266128805069 0 -0.1152399272795421 0.1851742901109647 0 -0.1235431789710726 0.1969801993001162 0 -0.1152399272795421 0.1851742901109647 0 -0.1235431789710726 0.1969801993001162 0 -0.1014013644724687 0.20062749945410349 0 -0.1152399272795421 0.1851742901109647 0 -0.098409264142157865 0.1851788001203086 0 -0.1014013644724687 0.20062749945410349 0 -0.098409264142157865 0.1851788001203086 0 -0.1014013644724687 0.20062749945410349 0 -0.084152214828733252 0.19620669612267311 0 -0.084152214828733252 0.19620669612267311 0 -0.063769545057940663 0.19377195479839809 0 -0.072142849724606259 0.2099260872470029 0 -0.082277471490505807 0.17420718144711089 0 -0.084152214828733252 0.19620669612267311 0 -0.063769545057940663 0.19377195479839809 0 -0.072142849724606259 0.2099260872470029 0 -0.088008266818085573 0.21525264443096179 0 -0.068407602306599244 0.22780678473085289 0 -0.084152214828733252 0.19620669612267311 0 -0.072142849724606259 0.2099260872470029 0 -0.088008266818085573 0.21525264443096179 0 -0.1014013644724687 0.20062749945410349 0 -0.084152214828733252 0.19620669612267311 0 -0.088008266818085573 0.21525264443096179 0 -0.091983872440322634 0.23323291704093771 0 -0.068407602306599244 0.22780678473085289 0 -0.080478212985736569 0.23984126859451149 0 -0.088008266818085573 0.21525264443096179 0 -0.091983872440322634 0.23323291704093771 0 -0.068407602306599244 0.22780678473085289 0 -0.073553522625709841 0.25068431627396631 0 -0.068407602306599244 0.22780678473085289 0 -0.080478212985736569 0.23984126859451149 0 -0.073553522625709841 0.25068431627396631 0 -0.068407602306599244 0.22780678473085289 0 -0.050132500168443887 0.2425632472220397 0 -0.073553522625709841 0.25068431627396631 0 -0.080478212985736569 0.23984126859451149 0 -0.088715331182393942 0.2449718195011524 0 -0.091983872440322634 0.23323291704093771 0 -0.080478212985736569 0.23984126859451149 0 -0.088715331182393942 0.2449718195011524 0 -0.050132500168443887 0.2425632472220397 0 -0.026711477711177899 0.23444217817011309 0 -0.029881977245259539 0.25372898958001938 0 -0.050132500168443887 0.2425632472220397 0 -0.026711477711177899 0.23444217817011309 0 -0.050132500168443887 0.2425632472220397 0 -0.042100384295285467 0.22888272761933071 0 -0.026711477711177899 0.23444217817011309 0 -0.073553522625709841 0.25068431627396631 0 -0.050132500168443887 0.2425632472220397 0 -0.068407602306599244 0.22780678473085289 0 -0.050132500168443887 0.2425632472220397 0 -0.042100384295285467 0.22888272761933071 0 -0.068407602306599244 0.22780678473085289 0 -0.042100384295285467 0.22888272761933071 0 -0.045261618625375449 0.21333672814968549 0 -0.045261618625375449 0.21333672814968549 0 -0.02675369219281019 0.23290150150097291 0 -0.045261618625375449 0.21333672814968549 0 -0.02772339752401377 0.22169904798743939 0 -0.02675369219281019 0.23290150150097291 0 -0.042100384295285467 0.22888272761933071 0 -0.045261618625375449 0.21333672814968549 0 -0.02675369219281019 0.23290150150097291 0 -0.042100384295285467 0.22888272761933071 0 -0.02675369219281019 0.23290150150097291 0 -0.026711477711177899 0.23444217817011309 0 -0.045261618625375449 0.21333672814968549 0 -0.025983012380334781 0.2115930184476672 0 -0.02772339752401377 0.22169904798743939 0 -0.045261618625375449 0.21333672814968549 0 -0.029252980350323681 0.1977376245802884 0 -0.025983012380334781 0.2115930184476672 0 -0.063769545057940663 0.19377195479839809 0 -0.045261618625375449 0.21333672814968549 0 -0.063769545057940663 0.19377195479839809 0 -0.072142849724606259 0.2099260872470029 0 -0.045261618625375449 0.21333672814968549 0 -0.072142849724606259 0.2099260872470029 0 -0.068407602306599244 0.22780678473085289 0 -0.045261618625375449 0.21333672814968549 0 -0.063769545057940663 0.19377195479839809 0 -0.045261618625375449 0.21333672814968549 0 -0.041349789320347038 0.18749549167170951 0 -0.029252980350323681 0.1977376245802884 0 -0.041349789320347038 0.18749549167170951 0 -0.02440704960050057 0.1813667693045137 0 -0.045261618625375449 0.21333672814968549 0 -0.029252980350323681 0.1977376245802884 0 -0.041349789320347038 0.18749549167170951 0 -0.029252980350323681 0.1977376245802884 0 -0.01949536222664228 0.1923427933584827 0 -0.02440704960050057 0.1813667693045137 0 -0.029252980350323681 0.1977376245802884 0 -0.019383630886315679 0.20246845033521829 0 -0.01949536222664228 0.1923427933584827 0 -0.019383630886315679 0.20246845033521829 0 -0.01949536222664228 0.1923427933584827 0 -0.011799668219416901 0.19617813045667529 0 -0.01949536222664228 0.1923427933584827 0 -0.011799668219416901 0.19617813045667529 0 -0.0099503170468955675 0.185467411183286 0 -0.0047591026019954026 0.19332022418589959 0 -0.011799668219416901 0.19617813045667529 0 -0.0099503170468955675 0.185467411183286 0 -0.0047591026019954026 0.19332022418589959 0 -0.003081975793268537 0.18782002811878001 0 -0.0099503170468955675 0.185467411183286 0 -0.0047591026019954026 0.19332022418589959 0 -2.3422743153838069e-05 0.1988005567515452 0 0.0015327128313205251 0.1915709431207247 0 -0.0047591026019954026 0.19332022418589959 0 -0.003081975793268537 0.18782002811878001 0 0.0015327128313205251 0.1915709431207247 0 -2.3422743153838069e-05 0.1988005567515452 0 -0.0064134676939889088 0.1997865992100484 0 -0.0042090490499692894 0.20625736901624969 0 -0.0047591026019954026 0.19332022418589959 0 -2.3422743153838069e-05 0.1988005567515452 0 -0.0064134676939889088 0.1997865992100484 0 -0.0047591026019954026 0.19332022418589959 0 -0.0064134676939889088 0.1997865992100484 0 -0.011799668219416901 0.19617813045667529 0 -0.019383630886315679 0.20246845033521829 0 -0.011799668219416901 0.19617813045667529 0 -0.01127609585540912 0.20437671563987239 0 -0.0064134676939889088 0.1997865992100484 0 -0.011799668219416901 0.19617813045667529 0 -0.01127609585540912 0.20437671563987239 0 -0.019383630886315679 0.20246845033521829 0 -0.01127609585540912 0.20437671563987239 0 -0.015975625416527989 0.21106072298800291 0 -0.0098363755348389904 0.2097806401996784 0 -0.01127609585540912 0.20437671563987239 0 -0.015975625416527989 0.21106072298800291 0 -0.0098363755348389904 0.2097806401996784 0 -0.01127609585540912 0.20437671563987239 0 -0.0042090490499692894 0.20625736901624969 0 -0.0042090490499692894 0.20625736901624969 0 0.00083142932333707279 0.21381627434491049 0 0.0029581381265264858 0.20519393183106241 0 -0.0064134676939889088 0.1997865992100484 0 -0.01127609585540912 0.20437671563987239 0 -0.0042090490499692894 0.20625736901624969 0 -0.0098363755348389904 0.2097806401996784 0 -0.0042090490499692894 0.20625736901624969 0 -0.0060196598873338584 0.21321125444391051 0 -2.3422743153838069e-05 0.1988005567515452 0 -0.0042090490499692894 0.20625736901624969 0 0.0029581381265264858 0.20519393183106241 0 -0.0055559642639475869 0.21913689448513271 0 0.0001093474821353509 0.22215689039817851 0 0.00083142932333707279 0.21381627434491049 0 -0.0060196598873338584 0.21321125444391051 0 -0.0055559642639475869 0.21913689448513271 0 0.00083142932333707279 0.21381627434491049 0 -0.0042090490499692894 0.20625736901624969 0 -0.0060196598873338584 0.21321125444391051 0 0.00083142932333707279 0.21381627434491049 0 -0.0060196598873338584 0.21321125444391051 0 -0.01091493828254137 0.21625783395607551 0 -0.0055559642639475869 0.21913689448513271 0 -0.01091493828254137 0.21625783395607551 0 -0.015975625416527989 0.21106072298800291 0 -0.017588491814277241 0.22188462813269769 0 -0.0098363755348389904 0.2097806401996784 0 -0.0060196598873338584 0.21321125444391051 0 -0.01091493828254137 0.21625783395607551 0 -0.0098363755348389904 0.2097806401996784 0 -0.01091493828254137 0.21625783395607551 0 -0.015975625416527989 0.21106072298800291 0 -0.015975625416527989 0.21106072298800291 0 -0.025983012380334781 0.2115930184476672 0 -0.017588491814277241 0.22188462813269769 0 -0.019383630886315679 0.20246845033521829 0 -0.015975625416527989 0.21106072298800291 0 -0.025983012380334781 0.2115930184476672 0 -0.029252980350323681 0.1977376245802884 0 -0.019383630886315679 0.20246845033521829 0 -0.025983012380334781 0.2115930184476672 0 -0.025983012380334781 0.2115930184476672 0 -0.02772339752401377 0.22169904798743939 0 -0.017588491814277241 0.22188462813269769 0 -0.02772339752401377 0.22169904798743939 0 -0.02675369219281019 0.23290150150097291 0 -0.022352419066048221 0.22652947853539249 0 -0.02675369219281019 0.23290150150097291 0 -0.017344094733091689 0.22963273652046001 0 -0.01246950101347712 0.23792538229425519 0 -0.02675369219281019 0.23290150150097291 0 -0.017344094733091689 0.22963273652046001 0 -0.022352419066048221 0.22652947853539249 0 -0.017344094733091689 0.22963273652046001 0 -0.017588491814277241 0.22188462813269769 0 -0.01350500053265637 0.2263729039251991 0 -0.017344094733091689 0.22963273652046001 0 -0.022352419066048221 0.22652947853539249 0 -0.017588491814277241 0.22188462813269769 0 -0.02772339752401377 0.22169904798743939 0 -0.022352419066048221 0.22652947853539249 0 -0.017588491814277241 0.22188462813269769 0 -0.01091493828254137 0.21625783395607551 0 -0.017588491814277241 0.22188462813269769 0 -0.01009356448405245 0.2229710377255022 0 -0.017588491814277241 0.22188462813269769 0 -0.01350500053265637 0.2263729039251991 0 -0.01009356448405245 0.2229710377255022 0 -0.01091493828254137 0.21625783395607551 0 -0.01009356448405245 0.2229710377255022 0 -0.0055559642639475869 0.21913689448513271 0 -0.01009356448405245 0.2229710377255022 0 -0.0055559642639475869 0.21913689448513271 0 -0.0046023563546483629 0.22639127835839259 0 -0.0055559642639475869 0.21913689448513271 0 -0.0046023563546483629 0.22639127835839259 0 0.0001093474821353509 0.22215689039817851 0 -0.0046023563546483629 0.22639127835839259 0 0.0010433620948100131 0.23240638127880581 0 0.0001093474821353509 0.22215689039817851 0 -0.0046023563546483629 0.22639127835839259 0 -0.0089938510992040935 0.23100321332213661 0 0.0010433620948100131 0.23240638127880581 0 -0.017344094733091689 0.22963273652046001 0 -0.0089938510992040935 0.23100321332213661 0 -0.01246950101347712 0.23792538229425519 0 -0.01009356448405245 0.2229710377255022 0 -0.0046023563546483629 0.22639127835839259 0 -0.0089938510992040935 0.23100321332213661 0 -0.017344094733091689 0.22963273652046001 0 -0.01350500053265637 0.2263729039251991 0 -0.0089938510992040935 0.23100321332213661 0 -0.01350500053265637 0.2263729039251991 0 -0.01009356448405245 0.2229710377255022 0 -0.0089938510992040935 0.23100321332213661 0 -0.0089938510992040935 0.23100321332213661 0 -0.001965278602122185 0.24182690426762959 0 0.0010433620948100131 0.23240638127880581 0 -0.0089938510992040935 0.23100321332213661 0 -0.01246950101347712 0.23792538229425519 0 -0.001965278602122185 0.24182690426762959 0 -0.0082457657602449386 0.25246627485226031 0 -0.01246950101347712 0.23792538229425519 0 -0.001965278602122185 0.24182690426762959 0 -0.0082457657602449386 0.25246627485226031 0 -0.02675369219281019 0.23290150150097291 0 -0.01246950101347712 0.23792538229425519 0 -0.029881977245259539 0.25372898958001938 0 -0.0082457657602449386 0.25246627485226031 0 -0.026711477711177899 0.23444217817011309 0 -0.0082457657602449386 0.25246627485226031 0 -0.02675369219281019 0.23290150150097291 0 -0.026711477711177899 0.23444217817011309 0 -0.0082457657602449386 0.25246627485226031 0 -0.02675369219281019 0.23290150150097291 0 -0.046893106203257602 0.1507880314475378 0 -0.033582854738693747 0.16530128627528251 0 -0.03096555907766051 0.14775731769023701 0 -0.035508455794597132 0.13046501110523001 0 -0.046893106203257602 0.1507880314475378 0 -0.03096555907766051 0.14775731769023701 0 -0.035508455794597132 0.13046501110523001 0 -0.046893106203257602 0.1507880314475378 0 -0.035508455794597132 0.13046501110523001 0 -0.055186524828957063 0.1281687789626855 0 -0.046893106203257602 0.1507880314475378 0 -0.035508455794597132 0.13046501110523001 0 -0.055186524828957063 0.1281687789626855 0 -0.04045215309894238 0.1165912735558266 0 -0.074642854581774637 0.14147916649728479 0 -0.055186524828957063 0.1281687789626855 0 -0.046893106203257602 0.1507880314475378 0 -0.065615427061545384 0.16058384892905991 0 -0.074642854581774637 0.14147916649728479 0 -0.046893106203257602 0.1507880314475378 0 -0.065615427061545384 0.16058384892905991 0 -0.046893106203257602 0.1507880314475378 0 -0.051824687549248197 0.17345858692208871 0 -0.063769545057940663 0.19377195479839809 0 -0.051824687549248197 0.17345858692208871 0 -0.041349789320347038 0.18749549167170951 0 -0.041349789320347038 0.18749549167170951 0 -0.033582854738693747 0.16530128627528251 0 -0.02440704960050057 0.1813667693045137 0 -0.051824687549248197 0.17345858692208871 0 -0.041349789320347038 0.18749549167170951 0 -0.033582854738693747 0.16530128627528251 0 -0.046893106203257602 0.1507880314475378 0 -0.051824687549248197 0.17345858692208871 0 -0.033582854738693747 0.16530128627528251 0 -0.033582854738693747 0.16530128627528251 0 -0.022139091883514501 0.16815071126606429 0 -0.02440704960050057 0.1813667693045137 0 -0.033582854738693747 0.16530128627528251 0 -0.022139091883514501 0.16815071126606429 0 -0.016648491277264341 0.15771365056650341 0 -0.033582854738693747 0.16530128627528251 0 -0.016648491277264341 0.15771365056650341 0 -0.03096555907766051 0.14775731769023701 0 -0.022139091883514501 0.16815071126606429 0 -0.02440704960050057 0.1813667693045137 0 -0.01283771780100665 0.17547196173435681 0 -0.01949536222664228 0.1923427933584827 0 -0.02440704960050057 0.1813667693045137 0 -0.0099503170468955675 0.185467411183286 0 -0.02440704960050057 0.1813667693045137 0 -0.0099503170468955675 0.185467411183286 0 -0.01283771780100665 0.17547196173435681 0 -0.0099503170468955675 0.185467411183286 0 -0.01283771780100665 0.17547196173435681 0 -0.00450206117857799 0.17688747855202069 0 -0.01283771780100665 0.17547196173435681 0 -0.00450206117857799 0.17688747855202069 0 -0.0026654791677323511 0.16604552865166611 0 -0.00450206117857799 0.17688747855202069 0 -0.0026654791677323511 0.16604552865166611 0 0.0024081860720475369 0.17557227428335351 0 -0.00450206117857799 0.17688747855202069 0 0.00053502205069707774 0.18188021690744111 0 0.0024081860720475369 0.17557227428335351 0 -0.0099503170468955675 0.185467411183286 0 -0.00450206117857799 0.17688747855202069 0 0.00053502205069707774 0.18188021690744111 0 -0.003081975793268537 0.18782002811878001 0 -0.0099503170468955675 0.185467411183286 0 0.00053502205069707774 0.18188021690744111 0 -0.022139091883514501 0.16815071126606429 0 -0.016648491277264341 0.15771365056650341 0 -0.0026654791677323511 0.16604552865166611 0 -0.022139091883514501 0.16815071126606429 0 -0.01283771780100665 0.17547196173435681 0 -0.0026654791677323511 0.16604552865166611 0 -0.016648491277264341 0.15771365056650341 0 -0.0026654791677323511 0.16604552865166611 0 0.00151890392611572 0.15456094484017679 0 -0.016648491277264341 0.15771365056650341 0 -0.0026654791677323511 0.16604552865166611 0 -0.0082797250895681185 0.13474448294352481 0 0.00151890392611572 0.15456094484017679 0 -0.016648491277264341 0.15771365056650341 0 -0.0082797250895681185 0.13474448294352481 0 0.00151890392611572 0.15456094484017679 0 -0.016648491277264341 0.15771365056650341 0 -0.03096555907766051 0.14775731769023701 0 -0.022194887374489752 0.13451860905663129 0 -0.016648491277264341 0.15771365056650341 0 -0.022194887374489752 0.13451860905663129 0 -0.0082797250895681185 0.13474448294352481 0 -0.035508455794597132 0.13046501110523001 0 -0.03096555907766051 0.14775731769023701 0 -0.022194887374489752 0.13451860905663129 0 -0.035508455794597132 0.13046501110523001 0 -0.022194887374489752 0.13451860905663129 0 -0.02222625157844095 0.1227088344756834 0 -0.022194887374489752 0.13451860905663129 0 -0.012678773622269129 0.1213748672570316 0 -0.02222625157844095 0.1227088344756834 0 -0.022194887374489752 0.13451860905663129 0 -0.0082797250895681185 0.13474448294352481 0 -0.012678773622269129 0.1213748672570316 0 -0.0082797250895681185 0.13474448294352481 0 -0.012678773622269129 0.1213748672570316 0 0.0010393500416724941 0.12595831854165979 0 -0.012678773622269129 0.1213748672570316 0 -0.0069683050282923539 0.11495619240176071 0 0.0010393500416724941 0.12595831854165979 0 -0.0069683050282923539 0.11495619240176071 0 0.00039794405216867472 0.112072386291362 0 0.0010393500416724941 0.12595831854165979 0 -0.012678773622269129 0.1213748672570316 0 -0.012248850971573841 0.1125208075020822 0 -0.01744198128355802 0.11503771634109559 0 -0.012678773622269129 0.1213748672570316 0 -0.012248850971573841 0.1125208075020822 0 -0.0069683050282923539 0.11495619240176071 0 -0.012248850971573841 0.1125208075020822 0 -0.0069683050282923539 0.11495619240176071 0 -0.0083997351711877014 0.10895079227570641 0 -0.0069683050282923539 0.11495619240176071 0 -0.0083997351711877014 0.10895079227570641 0 0.00039794405216867472 0.112072386291362 0 -0.011506603279544361 0.087618711973773578 0 0.0058206420146291954 0.1114089238878985 0 0.00039794405216867472 0.112072386291362 0 -0.015837719346710199 0.095350294128549784 0 -0.011506603279544361 0.087618711973773578 0 0.00039794405216867472 0.112072386291362 0 -0.011506603279544361 0.087618711973773578 0 0.0058206420146291954 0.1114089238878985 0 -0.015837719346710199 0.095350294128549784 0 0.00039794405216867472 0.112072386291362 0 -0.0083997351711877014 0.10895079227570641 0 -0.015837719346710199 0.095350294128549784 0 0.00039794405216867472 0.112072386291362 0 -0.011506603279544361 0.087618711973773578 0 0.0017142141577850001 0.096485027642689541 0 0.0058206420146291954 0.1114089238878985 0 -0.0083997351711877014 0.10895079227570641 0 -0.013221823848225379 0.1065091018144344 0 -0.015837719346710199 0.095350294128549784 0 -0.012248850971573841 0.1125208075020822 0 -0.0083997351711877014 0.10895079227570641 0 -0.013221823848225379 0.1065091018144344 0 -0.012248850971573841 0.1125208075020822 0 -0.013221823848225379 0.1065091018144344 0 -0.017997844109414411 0.1087655018954708 0 -0.017997844109414411 0.1087655018954708 0 -0.015837719346710199 0.095350294128549784 0 -0.024123805385937312 0.11014199076292169 0 -0.013221823848225379 0.1065091018144344 0 -0.017997844109414411 0.1087655018954708 0 -0.015837719346710199 0.095350294128549784 0 -0.024123805385937312 0.11014199076292169 0 -0.032300333499350402 0.090057470672271281 0 -0.015837719346710199 0.095350294128549784 0 -0.024123805385937312 0.11014199076292169 0 -0.032300333499350402 0.090057470672271281 0 -0.015837719346710199 0.095350294128549784 0 -0.024123805385937312 0.11014199076292169 0 -0.035508455794597132 0.13046501110523001 0 -0.024123805385937312 0.11014199076292169 0 -0.023307159817290739 0.1121479686184283 0 -0.035508455794597132 0.13046501110523001 0 -0.02222625157844095 0.1227088344756834 0 -0.023307159817290739 0.1121479686184283 0 -0.035508455794597132 0.13046501110523001 0 -0.024123805385937312 0.11014199076292169 0 -0.024123805385937312 0.11014199076292169 0 -0.023307159817290739 0.1121479686184283 0 -0.012678773622269129 0.1213748672570316 0 -0.02222625157844095 0.1227088344756834 0 -0.01744198128355802 0.11503771634109559 0 -0.02222625157844095 0.1227088344756834 0 -0.01744198128355802 0.11503771634109559 0 -0.023307159817290739 0.1121479686184283 0 -0.012248850971573841 0.1125208075020822 0 -0.017997844109414411 0.1087655018954708 0 -0.01744198128355802 0.11503771634109559 0 -0.017997844109414411 0.1087655018954708 0 -0.024123805385937312 0.11014199076292169 0 -0.023307159817290739 0.1121479686184283 0 -0.017997844109414411 0.1087655018954708 0 -0.01744198128355802 0.11503771634109559 0 -0.023307159817290739 0.1121479686184283 0 -0.0046988296279310846 0.075465987257500103 0 -0.004471055932428975 0.061346262570306953 0 0.0079626054049135586 0.052863747179962457 0 -0.0093767874180366029 0.073051079923104223 0 -0.014915188529848109 0.07157527628023079 0 -0.011506603279544361 0.087618711973773578 0 -0.0096267601800840239 0.066065855624376196 0 -0.01690032334888349 0.065021557104339434 0 -0.015766095144715799 0.059221925757037469 0 -0.0096267601800840239 0.066065855624376196 0 -0.014915188529848109 0.07157527628023079 0 -0.01690032334888349 0.065021557104339434 0 -0.0096267601800840239 0.066065855624376196 0 -0.0093767874180366029 0.073051079923104223 0 -0.014915188529848109 0.07157527628023079 0 -0.0096267601800840239 0.066065855624376196 0 -0.0046988296279310846 0.075465987257500103 0 -0.004471055932428975 0.061346262570306953 0 -0.0046988296279310846 0.075465987257500103 0 -0.0093767874180366029 0.073051079923104223 0 -0.0096267601800840239 0.066065855624376196 0 -0.0046988296279310846 0.075465987257500103 0 -0.0093767874180366029 0.073051079923104223 0 -0.0046988296279310846 0.075465987257500103 0 -0.011506603279544361 0.087618711973773578 0 -0.0046988296279310846 0.075465987257500103 0 -0.0093767874180366029 0.073051079923104223 0 -0.011506603279544361 0.087618711973773578 0 -0.0046988296279310846 0.075465987257500103 0 -0.011506603279544361 0.087618711973773578 0 0.00056903788424511365 0.086682396089073327 0 -0.011506603279544361 0.087618711973773578 0 0.00056903788424511365 0.086682396089073327 0 0.0017142141577850001 0.096485027642689541 0 -0.015837719346710199 0.095350294128549784 0 -0.011506603279544361 0.087618711973773578 0 -0.011506603279544361 0.087618711973773578 0 -0.028157290479737571 0.082661622355085798 0 -0.027165468422692102 0.066119176775560506 0 -0.015837719346710199 0.095350294128549784 0 -0.011506603279544361 0.087618711973773578 0 -0.028157290479737571 0.082661622355085798 0 -0.015837719346710199 0.095350294128549784 0 -0.028157290479737571 0.082661622355085798 0 -0.032300333499350402 0.090057470672271281 0 -0.015837719346710199 0.095350294128549784 0 -0.028157290479737571 0.082661622355085798 0 -0.014915188529848109 0.07157527628023079 0 -0.011506603279544361 0.087618711973773578 0 -0.027165468422692102 0.066119176775560506 0 -0.011506603279544361 0.087618711973773578 0 -0.027165468422692102 0.066119176775560506 0 -0.027165468422692102 0.066119176775560506 0 -0.01690032334888349 0.065021557104339434 0 -0.021155304748881689 0.062203044053262727 0 -0.014915188529848109 0.07157527628023079 0 -0.027165468422692102 0.066119176775560506 0 -0.01690032334888349 0.065021557104339434 0 -0.027165468422692102 0.066119176775560506 0 -0.040476861612764189 0.069972950581621118 0 -0.047888547298180387 0.051767161035057033 0 -0.028157290479737571 0.082661622355085798 0 -0.027165468422692102 0.066119176775560506 0 -0.040476861612764189 0.069972950581621118 0 -0.040476861612764189 0.069972950581621118 0 -0.049934811086014087 0.07186746235717667 0 -0.047859912164240369 0.063897566148078455 0 -0.028157290479737571 0.082661622355085798 0 -0.040476861612764189 0.069972950581621118 0 -0.040476861612764189 0.069972950581621118 0 -0.032300333499350402 0.090057470672271281 0 -0.028157290479737571 0.082661622355085798 0 -0.040476861612764189 0.069972950581621118 0 -0.032300333499350402 0.090057470672271281 0 -0.032300333499350402 0.090057470672271281 0 -0.052294403454901703 0.081174947256086191 0 -0.05578440732887191 0.096170589739797752 0 -0.040476861612764189 0.069972950581621118 0 -0.032300333499350402 0.090057470672271281 0 -0.052294403454901703 0.081174947256086191 0 -0.052294403454901703 0.081174947256086191 0 -0.05578440732887191 0.096170589739797752 0 -0.071620526940906107 0.087533684005701329 0 -0.052294403454901703 0.081174947256086191 0 -0.071620526940906107 0.087533684005701329 0 -0.062515526400001881 0.068377579792855414 0 -0.040476861612764189 0.069972950581621118 0 -0.052294403454901703 0.081174947256086191 0 -0.049934811086014087 0.07186746235717667 0 -0.052294403454901703 0.081174947256086191 0 -0.049934811086014087 0.07186746235717667 0 -0.062515526400001881 0.068377579792855414 0 -0.049934811086014087 0.07186746235717667 0 -0.052204780428632629 0.062945341387988421 0 -0.062515526400001881 0.068377579792855414 0 -0.052204780428632629 0.062945341387988421 0 -0.062515526400001881 0.068377579792855414 0 -0.055379183454653792 0.058514889464143828 0 -0.049934811086014087 0.07186746235717667 0 -0.052204780428632629 0.062945341387988421 0 -0.047859912164240369 0.063897566148078455 0 -0.024123805385937312 0.11014199076292169 0 -0.04045215309894238 0.1165912735558266 0 -0.041170092212669533 0.1046411265361262 0 -0.035508455794597132 0.13046501110523001 0 -0.024123805385937312 0.11014199076292169 0 -0.04045215309894238 0.1165912735558266 0 -0.04045215309894238 0.1165912735558266 0 -0.041170092212669533 0.1046411265361262 0 -0.052159737415513489 0.1112025467171566 0 -0.032300333499350402 0.090057470672271281 0 -0.041170092212669533 0.1046411265361262 0 -0.05578440732887191 0.096170589739797752 0 -0.024123805385937312 0.11014199076292169 0 -0.032300333499350402 0.090057470672271281 0 -0.041170092212669533 0.1046411265361262 0 -0.05578440732887191 0.096170589739797752 0 -0.052159737415513489 0.1112025467171566 0 -0.07438317581125764 0.1124407737129243 0 -0.041170092212669533 0.1046411265361262 0 -0.05578440732887191 0.096170589739797752 0 -0.052159737415513489 0.1112025467171566 0 -0.055186524828957063 0.1281687789626855 0 -0.04045215309894238 0.1165912735558266 0 -0.052159737415513489 0.1112025467171566 0 -0.055186524828957063 0.1281687789626855 0 -0.052159737415513489 0.1112025467171566 0 -0.07438317581125764 0.1124407737129243 0 -0.092802426943272898 0.12960292979422991 0 -0.07438317581125764 0.1124407737129243 0 -0.10110008134148971 0.1098561456819369 0 -0.07438317581125764 0.1124407737129243 0 -0.086834659998143784 0.098004038152668241 0 -0.10110008134148971 0.1098561456819369 0 -0.07438317581125764 0.1124407737129243 0 -0.086834659998143784 0.098004038152668241 0 -0.071620526940906107 0.087533684005701329 0 -0.05578440732887191 0.096170589739797752 0 -0.07438317581125764 0.1124407737129243 0 -0.071620526940906107 0.087533684005701329 0 -0.071620526940906107 0.087533684005701329 0 -0.062515526400001881 0.068377579792855414 0 -0.077633089280774809 0.070659037798975324 0 -0.062515526400001881 0.068377579792855414 0 -0.077633089280774809 0.070659037798975324 0 -0.069862538744371955 0.057777113150521288 0 -0.077633089280774809 0.070659037798975324 0 -0.081860045586377939 0.060182951188062161 0 -0.069862538744371955 0.057777113150521288 0 -0.077633089280774809 0.070659037798975324 0 -0.09054666164713164 0.067286880848174316 0 -0.081860045586377939 0.060182951188062161 0 -0.077633089280774809 0.070659037798975324 0 -0.09054666164713164 0.067286880848174316 0 -0.091096470542610469 0.082323341280698709 0 -0.071620526940906107 0.087533684005701329 0 -0.077633089280774809 0.070659037798975324 0 -0.091096470542610469 0.082323341280698709 0 -0.086834659998143784 0.098004038152668241 0 -0.071620526940906107 0.087533684005701329 0 -0.091096470542610469 0.082323341280698709 0 -0.086834659998143784 0.098004038152668241 0 -0.091096470542610469 0.082323341280698709 0 -0.1074822184466613 0.088136729408796272 0 -0.091096470542610469 0.082323341280698709 0 -0.1074822184466613 0.088136729408796272 0 -0.10104646070399111 0.074349611526457776 0 -0.1074822184466613 0.088136729408796272 0 -0.10104646070399111 0.074349611526457776 0 -0.1134486320906168 0.071653759806922179 0 -0.09054666164713164 0.067286880848174316 0 -0.10104646070399111 0.074349611526457776 0 -0.1026583207929353 0.062347346287697412 0 -0.09054666164713164 0.067286880848174316 0 -0.091096470542610469 0.082323341280698709 0 -0.10104646070399111 0.074349611526457776 0 -0.10104646070399111 0.074349611526457776 0 -0.1134486320906168 0.071653759806922179 0 -0.1026583207929353 0.062347346287697412 0 -0.1134486320906168 0.071653759806922179 0 -0.1169815729820268 0.057446916627697332 0 -0.1026583207929353 0.062347346287697412 0 -0.1134486320906168 0.071653759806922179 0 -0.12498233095038511 0.069533312171706482 0 -0.1248370695698198 0.083226530136874921 0 -0.1134486320906168 0.071653759806922179 0 -0.12498233095038511 0.069533312171706482 0 -0.1169815729820268 0.057446916627697332 0 -0.1074822184466613 0.088136729408796272 0 -0.1134486320906168 0.071653759806922179 0 -0.1248370695698198 0.083226530136874921 0 -0.12991930243541749 0.1020465165188278 0 -0.1074822184466613 0.088136729408796272 0 -0.1248370695698198 0.083226530136874921 0 -0.12991930243541749 0.1020465165188278 0 -0.1074822184466613 0.088136729408796272 0 -0.10110008134148971 0.1098561456819369 0 -0.12991930243541749 0.1020465165188278 0 -0.1131006250587715 0.12959615498317961 0 -0.10110008134148971 0.1098561456819369 0 -0.12991930243541749 0.1020465165188278 0 -0.13028426483969929 0.13221647237215789 0 -0.1131006250587715 0.12959615498317961 0 -0.1131006250587715 0.12959615498317961 0 -0.092802426943272898 0.12960292979422991 0 -0.10110008134148971 0.1098561456819369 0 -0.086834659998143784 0.098004038152668241 0 -0.1074822184466613 0.088136729408796272 0 -0.10110008134148971 0.1098561456819369 0 -0.1061587232064081 0.029080734372794698 0 -0.094449021505079139 0.018227913303066591 0 -0.1094215753963574 0.0115277712725063 0 -0.1061587232064081 0.029080734372794698 0 -0.094924595462104619 0.030399760044886301 0 -0.094449021505079139 0.018227913303066591 0 -0.094449021505079139 0.018227913303066591 0 -0.097507665945787692 0.0040820149966005574 0 -0.1094215753963574 0.0115277712725063 0 -0.097507665945787692 0.0040820149966005574 0 -0.1058521268010089 0.00073384547527136773 0 -0.1094215753963574 0.0115277712725063 0 -0.1152652699767374 -0.0044733142422073097 0 -0.1273771369441013 0.0023450629401116992 0 -0.1094215753963574 0.0115277712725063 0 -0.1152652699767374 -0.0044733142422073097 0 -0.1058521268010089 0.00073384547527136773 0 -0.1094215753963574 0.0115277712725063 0 -0.1273771369441013 0.0023450629401116992 0 -0.12537023626190849 0.01701499410391356 0 -0.1094215753963574 0.0115277712725063 0 -0.12537023626190849 0.01701499410391356 0 -0.1094215753963574 0.0115277712725063 0 -0.1154752524598698 0.02214949429500624 0 -0.12537023626190849 0.01701499410391356 0 -0.1154752524598698 0.02214949429500624 0 -0.120950474974805 0.030974477430810402 0 -0.1061587232064081 0.029080734372794698 0 -0.1094215753963574 0.0115277712725063 0 -0.1154752524598698 0.02214949429500624 0 -0.1061587232064081 0.029080734372794698 0 -0.1154752524598698 0.02214949429500624 0 -0.120950474974805 0.030974477430810402 0 -0.1304591025064194 0.044551821316570157 0 -0.120950474974805 0.030974477430810402 0 -0.112428546201817 0.041955624634692393 0 -0.1061587232064081 0.029080734372794698 0 -0.120950474974805 0.030974477430810402 0 -0.112428546201817 0.041955624634692393 0 -0.1304591025064194 0.044551821316570157 0 -0.112428546201817 0.041955624634692393 0 -0.1169815729820268 0.057446916627697332 0 -0.1311901693420546 0.060374133793646992 0 -0.12498233095038511 0.069533312171706482 0 -0.1169815729820268 0.057446916627697332 0 -0.112428546201817 0.041955624634692393 0 -0.1169815729820268 0.057446916627697332 0 -0.10210071185166431 0.050014029354961582 0 -0.1169815729820268 0.057446916627697332 0 -0.1026583207929353 0.062347346287697412 0 -0.10210071185166431 0.050014029354961582 0 -0.10210071185166431 0.050014029354961582 0 -0.091201579857211959 0.041080799774458047 0 -0.091131717688311603 0.055225201160547438 0 -0.1026583207929353 0.062347346287697412 0 -0.10210071185166431 0.050014029354961582 0 -0.091131717688311603 0.055225201160547438 0 -0.09054666164713164 0.067286880848174316 0 -0.1026583207929353 0.062347346287697412 0 -0.091131717688311603 0.055225201160547438 0 -0.1061587232064081 0.029080734372794698 0 -0.112428546201817 0.041955624634692393 0 -0.1016080011228369 0.039407166226836883 0 -0.112428546201817 0.041955624634692393 0 -0.10210071185166431 0.050014029354961582 0 -0.1016080011228369 0.039407166226836883 0 -0.10210071185166431 0.050014029354961582 0 -0.1016080011228369 0.039407166226836883 0 -0.091201579857211959 0.041080799774458047 0 -0.1061587232064081 0.029080734372794698 0 -0.094924595462104619 0.030399760044886301 0 -0.1016080011228369 0.039407166226836883 0 -0.094924595462104619 0.030399760044886301 0 -0.1016080011228369 0.039407166226836883 0 -0.091201579857211959 0.041080799774458047 0 -0.094924595462104619 0.030399760044886301 0 -0.091201579857211959 0.041080799774458047 0 -0.083613433652756419 0.02825823648094046 0 -0.091201579857211959 0.041080799774458047 0 -0.080163505572120847 0.038728335950810322 0 -0.0801262205712997 0.049966522982092462 0 -0.091201579857211959 0.041080799774458047 0 -0.080163505572120847 0.038728335950810322 0 -0.083613433652756419 0.02825823648094046 0 -0.080163505572120847 0.038728335950810322 0 -0.075199828102842814 0.032505994045140242 0 -0.083613433652756419 0.02825823648094046 0 -0.09054666164713164 0.067286880848174316 0 -0.091131717688311603 0.055225201160547438 0 -0.081860045586377939 0.060182951188062161 0 -0.091201579857211959 0.041080799774458047 0 -0.091131717688311603 0.055225201160547438 0 -0.0801262205712997 0.049966522982092462 0 -0.091131717688311603 0.055225201160547438 0 -0.0801262205712997 0.049966522982092462 0 -0.081860045586377939 0.060182951188062161 0 -0.0801262205712997 0.049966522982092462 0 -0.069862538744371955 0.057777113150521288 0 -0.06901267431079619 0.039797487593251017 0 -0.069862538744371955 0.057777113150521288 0 -0.06901267431079619 0.039797487593251017 0 -0.058907879691800273 0.050969475640674493 0 -0.062515526400001881 0.068377579792855414 0 -0.069862538744371955 0.057777113150521288 0 -0.058907879691800273 0.050969475640674493 0 -0.0801262205712997 0.049966522982092462 0 -0.081860045586377939 0.060182951188062161 0 -0.069862538744371955 0.057777113150521288 0 -0.06901267431079619 0.039797487593251017 0 -0.068009698875697827 0.023239916155559141 0 -0.055300232983598208 0.033561371488493641 0 -0.075199828102842814 0.032505994045140242 0 -0.06901267431079619 0.039797487593251017 0 -0.068009698875697827 0.023239916155559141 0 -0.080163505572120847 0.038728335950810322 0 -0.075199828102842814 0.032505994045140242 0 -0.06901267431079619 0.039797487593251017 0 -0.080163505572120847 0.038728335950810322 0 -0.0801262205712997 0.049966522982092462 0 -0.06901267431079619 0.039797487593251017 0 -0.068009698875697827 0.023239916155559141 0 -0.066123158358303874 0.0069763394170788487 0 -0.055300232983598208 0.033561371488493641 0 -0.068009698875697827 0.023239916155559141 0 -0.083613433652756419 0.02825823648094046 0 -0.080050012301679602 0.015705407900093959 0 -0.068009698875697827 0.023239916155559141 0 -0.080050012301679602 0.015705407900093959 0 -0.07274845615251338 0.0135364418571977 0 -0.075199828102842814 0.032505994045140242 0 -0.068009698875697827 0.023239916155559141 0 -0.083613433652756419 0.02825823648094046 0 -0.094449021505079139 0.018227913303066591 0 -0.083613433652756419 0.02825823648094046 0 -0.080050012301679602 0.015705407900093959 0 -0.094924595462104619 0.030399760044886301 0 -0.094449021505079139 0.018227913303066591 0 -0.083613433652756419 0.02825823648094046 0 -0.089124004628701792 -0.0040277377021705899 0 -0.097507665945787692 0.0040820149966005574 0 -0.086098134196158846 0.0059583430860626887 0 -0.094449021505079139 0.018227913303066591 0 -0.080050012301679602 0.015705407900093959 0 -0.086098134196158846 0.0059583430860626887 0 -0.094449021505079139 0.018227913303066591 0 -0.097507665945787692 0.0040820149966005574 0 -0.086098134196158846 0.0059583430860626887 0 -0.080050012301679602 0.015705407900093959 0 -0.086098134196158846 0.0059583430860626887 0 -0.076810955074372203 0.0082241039560588727 0 -0.079764572027605563 -0.001208843295517239 0 -0.086098134196158846 0.0059583430860626887 0 -0.076810955074372203 0.0082241039560588727 0 -0.079764572027605563 -0.001208843295517239 0 -0.089124004628701792 -0.0040277377021705899 0 -0.086098134196158846 0.0059583430860626887 0 -0.079764572027605563 -0.001208843295517239 0 -0.076810955074372203 0.0082241039560588727 0 -0.066123158358303874 0.0069763394170788487 0 -0.068009698875697827 0.023239916155559141 0 -0.07274845615251338 0.0135364418571977 0 -0.066123158358303874 0.0069763394170788487 0 -0.076810955074372203 0.0082241039560588727 0 -0.07274845615251338 0.0135364418571977 0 -0.066123158358303874 0.0069763394170788487 0 -0.080050012301679602 0.015705407900093959 0 -0.076810955074372203 0.0082241039560588727 0 -0.07274845615251338 0.0135364418571977 0 -0.047617207273071643 -0.0035118018543059538 0 -0.059664616745900671 -0.0040500510012267867 0 -0.050798470683601923 0.01183886002179501 0 -0.059664616745900671 -0.0040500510012267867 0 -0.066123158358303874 0.0069763394170788487 0 -0.050798470683601923 0.01183886002179501 0 -0.059664616745900671 -0.0040500510012267867 0 -0.050798470683601923 0.01183886002179501 0 -0.047617207273071643 -0.0035118018543059538 0 -0.050798470683601923 0.01183886002179501 0 -0.050798470683601923 0.01183886002179501 0 -0.055300232983598208 0.033561371488493641 0 -0.04692109718252771 0.035386244484329407 0 -0.066123158358303874 0.0069763394170788487 0 -0.055300232983598208 0.033561371488493641 0 -0.066123158358303874 0.0069763394170788487 0 -0.050798470683601923 0.01183886002179501 0 -0.055300232983598208 0.033561371488493641 0 -0.050798470683601923 0.01183886002179501 0 -0.055300232983598208 0.033561371488493641 0 -0.050798470683601923 0.01183886002179501 0 -0.034391162446891957 0.018187238464497092 0 -0.037793901381418679 0.035144188298954319 0 -0.034391162446891957 0.018187238464497092 0 -0.037793901381418679 0.035144188298954319 0 -0.022455882408961961 0.026825405924253771 0 -0.050798470683601923 0.01183886002179501 0 -0.037793901381418679 0.035144188298954319 0 -0.050798470683601923 0.01183886002179501 0 -0.04692109718252771 0.035386244484329407 0 -0.037793901381418679 0.035144188298954319 0 -0.050798470683601923 0.01183886002179501 0 -0.034391162446891957 0.018187238464497092 0 -0.03671052455766443 0.0037031618858211421 0 -0.034391162446891957 0.018187238464497092 0 -0.03671052455766443 0.0037031618858211421 0 -0.022890364083827771 0.01081673007749915 0 -0.047617207273071643 -0.0035118018543059538 0 -0.050798470683601923 0.01183886002179501 0 -0.03671052455766443 0.0037031618858211421 0 -0.062515526400001881 0.068377579792855414 0 -0.058907879691800273 0.050969475640674493 0 -0.062515526400001881 0.068377579792855414 0 -0.055379183454653792 0.058514889464143828 0 -0.058907879691800273 0.050969475640674493 0 -0.052204780428632629 0.062945341387988421 0 -0.047859912164240369 0.063897566148078455 0 -0.047888547298180387 0.051767161035057033 0 -0.052204780428632629 0.062945341387988421 0 -0.055379183454653792 0.058514889464143828 0 -0.047888547298180387 0.051767161035057033 0 -0.055379183454653792 0.058514889464143828 0 -0.058907879691800273 0.050969475640674493 0 -0.047888547298180387 0.051767161035057033 0 -0.06901267431079619 0.039797487593251017 0 -0.058907879691800273 0.050969475640674493 0 -0.055300232983598208 0.033561371488493641 0 -0.047888547298180387 0.051767161035057033 0 -0.055300232983598208 0.033561371488493641 0 -0.04692109718252771 0.035386244484329407 0 -0.058907879691800273 0.050969475640674493 0 -0.047888547298180387 0.051767161035057033 0 -0.055300232983598208 0.033561371488493641 0 -0.047888547298180387 0.051767161035057033 0 -0.055300232983598208 0.033561371488493641 0 -0.058907879691800273 0.050969475640674493 0 -0.055300232983598208 0.033561371488493641 0 -0.037793901381418679 0.035144188298954319 0 -0.024789332079235359 0.058449516576113518 0 -0.047888547298180387 0.051767161035057033 0 -0.04692109718252771 0.035386244484329407 0 -0.042824333565839388 0.044619641577347061 0 -0.037793901381418679 0.035144188298954319 0 -0.042824333565839388 0.044619641577347061 0 -0.024789332079235359 0.058449516576113518 0 -0.04692109718252771 0.035386244484329407 0 -0.037793901381418679 0.035144188298954319 0 -0.042824333565839388 0.044619641577347061 0 -0.027165468422692102 0.066119176775560506 0 -0.047888547298180387 0.051767161035057033 0 -0.042824333565839388 0.044619641577347061 0 -0.040476861612764189 0.069972950581621118 0 -0.047859912164240369 0.063897566148078455 0 -0.047888547298180387 0.051767161035057033 0 -0.040476861612764189 0.069972950581621118 0 -0.047888547298180387 0.051767161035057033 0 -0.027165468422692102 0.066119176775560506 0 -0.042824333565839388 0.044619641577347061 0 -0.027165468422692102 0.066119176775560506 0 -0.042824333565839388 0.044619641577347061 0 -0.024789332079235359 0.058449516576113518 0 -0.015766095144715799 0.059221925757037469 0 -0.024789332079235359 0.058449516576113518 0 -0.0190365636870411 0.05257699221554326 0 -0.015766095144715799 0.059221925757037469 0 -0.021155304748881689 0.062203044053262727 0 -0.024789332079235359 0.058449516576113518 0 -0.01690032334888349 0.065021557104339434 0 -0.015766095144715799 0.059221925757037469 0 -0.021155304748881689 0.062203044053262727 0 -0.027165468422692102 0.066119176775560506 0 -0.021155304748881689 0.062203044053262727 0 -0.024789332079235359 0.058449516576113518 0 -0.024789332079235359 0.058449516576113518 0 -0.0190365636870411 0.05257699221554326 0 -0.02501616098884394 0.043295095323351421 0 -0.0190365636870411 0.05257699221554326 0 -0.02501616098884394 0.043295095323351421 0 -0.010574666535369299 0.049341431205670631 0 -0.037793901381418679 0.035144188298954319 0 -0.024789332079235359 0.058449516576113518 0 -0.02501616098884394 0.043295095323351421 0 -0.037793901381418679 0.035144188298954319 0 -0.02501616098884394 0.043295095323351421 0 -0.022455882408961961 0.026825405924253771 0 -0.02501616098884394 0.043295095323351421 0 -0.01174883101074616 0.035626247072063598 0 -0.022455882408961961 0.026825405924253771 0 -0.02501616098884394 0.043295095323351421 0 -0.01174883101074616 0.035626247072063598 0 -0.010574666535369299 0.049341431205670631 0 -0.01174883101074616 0.035626247072063598 0 -0.010574666535369299 0.049341431205670631 0 0.0050554059078342702 0.036817447586302399 0 -0.010574666535369299 0.049341431205670631 0 -0.004471055932428975 0.061346262570306953 0 0.0079626054049135586 0.052863747179962457 0 -0.015766095144715799 0.059221925757037469 0 -0.0190365636870411 0.05257699221554326 0 -0.010574666535369299 0.049341431205670631 0 -0.015766095144715799 0.059221925757037469 0 -0.010574666535369299 0.049341431205670631 0 -0.004471055932428975 0.061346262570306953 0 -0.0096267601800840239 0.066065855624376196 0 -0.015766095144715799 0.059221925757037469 0 -0.004471055932428975 0.061346262570306953 0 -0.025670282478897081 -0.0054027298625421993 0 -0.03671052455766443 0.0037031618858211421 0 -0.022890364083827771 0.01081673007749915 0 -0.025670282478897081 -0.0054027298625421993 0 -0.022890364083827771 0.01081673007749915 0 -0.010105069976996849 0.0023765649732562961 0 -0.022890364083827771 0.01081673007749915 0 -0.022455882408961961 0.026825405924253771 0 -0.0028948745420432241 0.01788293630915707 0 -0.034391162446891957 0.018187238464497092 0 -0.022890364083827771 0.01081673007749915 0 -0.022455882408961961 0.026825405924253771 0 -0.01174883101074616 0.035626247072063598 0 -0.022455882408961961 0.026825405924253771 0 -0.0028948745420432241 0.01788293630915707 0 -0.01174883101074616 0.035626247072063598 0 -0.0028948745420432241 0.01788293630915707 0 0.0050554059078342702 0.036817447586302399 0 -0.022890364083827771 0.01081673007749915 0 -0.0028948745420432241 0.01788293630915707 0 -0.010105069976996849 0.0023765649732562961 0 -0.0028948745420432241 0.01788293630915707 0 -0.010105069976996849 0.0023765649732562961 0 0.0047038114401232534 -0.001040937293712483 0 -0.0028948745420432241 0.01788293630915707 0 0.020415517075116841 0.0076517724901667356 0 0.0047038114401232534 -0.001040937293712483 0 -0.0028948745420432241 0.01788293630915707 0 0.020342672512877309 0.02491627604112644 0 0.020415517075116841 0.0076517724901667356 0 -0.0028948745420432241 0.01788293630915707 0 0.020342672512877309 0.02491627604112644 0 0.0050554059078342702 0.036817447586302399 0 0.020342672512877309 0.02491627604112644 0 0.020415517075116841 0.0076517724901667356 0 0.04034715667016759 0.018897687307637179 0 0.020342672512877309 0.02491627604112644 0 0.02507841675544124 0.048354097280414877 0 0.04034715667016759 0.018897687307637179 0 0.0079626054049135586 0.052863747179962457 0 0.02507841675544124 0.048354097280414877 0 0.010722424996073881 0.068121568230846891 0 -0.010574666535369299 0.049341431205670631 0 0.0079626054049135586 0.052863747179962457 0 0.0050554059078342702 0.036817447586302399 0 0.0079626054049135586 0.052863747179962457 0 0.0050554059078342702 0.036817447586302399 0 0.02507841675544124 0.048354097280414877 0 0.020342672512877309 0.02491627604112644 0 0.0050554059078342702 0.036817447586302399 0 0.02507841675544124 0.048354097280414877 0 0.02507841675544124 0.048354097280414877 0 0.050251726499931808 0.044842678424317363 0 0.039807943620716157 0.068946520475498749 0 0.050251726499931808 0.044842678424317363 0 0.039807943620716157 0.068946520475498749 0 0.02507841675544124 0.048354097280414877 0 0.050251726499931808 0.044842678424317363 0 0.04034715667016759 0.018897687307637179 0 0.050251726499931808 0.044842678424317363 0 0.060695509379147472 0.02073883637313596 0 0.066628286533047365 0.040173783681243101 0 0.050251726499931808 0.044842678424317363 0 0.060695509379147472 0.02073883637313596 0 0.050251726499931808 0.044842678424317363 0 0.066628286533047365 0.040173783681243101 0 0.063756980967503582 0.059761195325569103 0 0.050251726499931808 0.044842678424317363 0 0.063756980967503582 0.059761195325569103 0 0.039807943620716157 0.068946520475498749 0 0.020415517075116841 0.0076517724901667356 0 0.04034715667016759 0.018897687307637179 0 0.039787151186370009 -0.0039594854922263374 0 0.04034715667016759 0.018897687307637179 0 0.053306813386582982 0.0056008818424343951 0 0.039787151186370009 -0.0039594854922263374 0 0.050251726499931808 0.044842678424317363 0 0.04034715667016759 0.018897687307637179 0 0.060695509379147472 0.02073883637313596 0 0.04034715667016759 0.018897687307637179 0 0.060695509379147472 0.02073883637313596 0 0.053306813386582982 0.0056008818424343951 0 0.060695509379147472 0.02073883637313596 0 0.053306813386582982 0.0056008818424343951 0 0.065940651683257009 0.0024831850618150888 0 0.060695509379147472 0.02073883637313596 0 0.065940651683257009 0.0024831850618150888 0 0.07992851590561921 0.0082161523869754144 0 0.065940651683257009 0.0024831850618150888 0 0.07992851590561921 0.0082161523869754144 0 0.074177093133044117 -0.010507922444979889 0 0.07992851590561921 0.0082161523869754144 0 0.1009244284881298 0.0078078577834924806 0 0.09649789417263642 -0.0037639840011086311 0 0.07992851590561921 0.0082161523869754144 0 0.1009244284881298 0.0078078577834924806 0 0.09893654195113713 0.02570505514797651 0 0.07992851590561921 0.0082161523869754144 0 0.08516149451907469 0.032589503251719387 0 0.07992851590561921 0.0082161523869754144 0 0.08516149451907469 0.032589503251719387 0 0.09893654195113713 0.02570505514797651 0 0.060695509379147472 0.02073883637313596 0 0.07992851590561921 0.0082161523869754144 0 0.08516149451907469 0.032589503251719387 0 0.060695509379147472 0.02073883637313596 0 0.066628286533047365 0.040173783681243101 0 0.08516149451907469 0.032589503251719387 0 0.066628286533047365 0.040173783681243101 0 0.076734924211177571 0.049535316522237388 0 0.08516149451907469 0.032589503251719387 0 0.066628286533047365 0.040173783681243101 0 0.063756980967503582 0.059761195325569103 0 0.076734924211177571 0.049535316522237388 0 0.063756980967503582 0.059761195325569103 0 0.076734924211177571 0.049535316522237388 0 0.078896317813284711 0.063130005487330554 0 0.076734924211177571 0.049535316522237388 0 0.090394473132530156 0.056962854116463339 0 0.078896317813284711 0.063130005487330554 0 0.090394473132530156 0.056962854116463339 0 0.08516149451907469 0.032589503251719387 0 0.076734924211177571 0.049535316522237388 0 0.090394473132530156 0.056962854116463339 0 0.08516149451907469 0.032589503251719387 0 0.090394473132530156 0.056962854116463339 0 0.08516149451907469 0.032589503251719387 0 0.096764564946639139 0.043178279343160431 0 0.08516149451907469 0.032589503251719387 0 0.096764564946639139 0.043178279343160431 0 0.09893654195113713 0.02570505514797651 0 0.096764564946639139 0.043178279343160431 0 0.10666951487556919 0.040720151324231749 0 0.09893654195113713 0.02570505514797651 0 0.096764564946639139 0.043178279343160431 0 0.10666951487556919 0.040720151324231749 0 0.10388747543703999 0.053358399551525167 0 0.10666951487556919 0.040720151324231749 0 0.1142736493139349 0.03087626799389703 0 0.09893654195113713 0.02570505514797651 0 0.10388747543703999 0.053358399551525167 0 0.11892469151436 0.060175562481194378 0 0.096340815718618328 0.066677421107029802 0 0.090394473132530156 0.056962854116463339 0 0.10388747543703999 0.053358399551525167 0 0.096340815718618328 0.066677421107029802 0 0.090394473132530156 0.056962854116463339 0 0.096764564946639139 0.043178279343160431 0 0.10388747543703999 0.053358399551525167 0 0.10666951487556919 0.040720151324231749 0 0.10388747543703999 0.053358399551525167 0 0.1137328545953389 0.049471119462924477 0 0.1137328545953389 0.049471119462924477 0 0.11892469151436 0.060175562481194378 0 0.12367169586596689 0.04413069599522032 0 0.10388747543703999 0.053358399551525167 0 0.1137328545953389 0.049471119462924477 0 0.11892469151436 0.060175562481194378 0 0.10666951487556919 0.040720151324231749 0 0.12367169586596689 0.04413069599522032 0 0.1142736493139349 0.03087626799389703 0 0.12367169586596689 0.04413069599522032 0 0.1142736493139349 0.03087626799389703 0 0.13034027439662041 0.028127834929059549 0 0.10666951487556919 0.040720151324231749 0 0.1137328545953389 0.049471119462924477 0 0.12367169586596689 0.04413069599522032 0 0.1142736493139349 0.03087626799389703 0 0.111750219480381 0.015697602572997061 0 0.13034027439662041 0.028127834929059549 0 0.11917198148314 0.002581966002757949 0 0.13034027439662041 0.028127834929059549 0 0.111750219480381 0.015697602572997061 0 0.11917198148314 0.002581966002757949 0 0.13034027439662041 0.028127834929059549 0 0.11917198148314 0.002581966002757949 0 0.1309849453148588 0.01811654968683717 0 0.1228376310831711 -0.00076623140119310329 0 0.11917198148314 0.002581966002757949 0 0.1228376310831711 -0.00076623140119310329 0 0.11917198148314 0.002581966002757949 0 0.1133629416093747 0.002418872237081233 0 0.1105415625726717 -0.0014271332550589229 0 0.11917198148314 0.002581966002757949 0 0.1133629416093747 0.002418872237081233 0 0.11092652002007269 0.0067640166461111727 0 0.1133629416093747 0.002418872237081233 0 0.1078625722471533 0.0022823866337398822 0 0.1105415625726717 -0.0014271332550589229 0 0.1133629416093747 0.002418872237081233 0 0.11092652002007269 0.0067640166461111727 0 0.1078625722471533 0.0022823866337398822 0 0.111750219480381 0.015697602572997061 0 0.11917198148314 0.002581966002757949 0 0.11092652002007269 0.0067640166461111727 0 0.111750219480381 0.015697602572997061 0 0.11092652002007269 0.0067640166461111727 0 0.1009244284881298 0.0078078577834924806 0 0.1078625722471533 0.0022823866337398822 0 0.1009244284881298 0.0078078577834924806 0 0.1039166904039584 -0.0028966343462391718 0 0.11092652002007269 0.0067640166461111727 0 0.1078625722471533 0.0022823866337398822 0 0.1009244284881298 0.0078078577834924806 0 0.1009244284881298 0.0078078577834924806 0 0.1039166904039584 -0.0028966343462391718 0 0.09649789417263642 -0.0037639840011086311 0 0.111750219480381 0.015697602572997061 0 0.1009244284881298 0.0078078577834924806 0 0.09893654195113713 0.02570505514797651 0 0.1142736493139349 0.03087626799389703 0 0.111750219480381 0.015697602572997061 0 0.09893654195113713 0.02570505514797651 0 0.10086043035944101 0.1057095558459509 0 0.088353675930770217 0.1090445403681379 0 0.098136173783193614 0.12855261503670501 0 0.10086043035944101 0.1057095558459509 0 0.11707998843366239 0.12090166170324231 0 0.098136173783193614 0.12855261503670501 0 0.10086043035944101 0.1057095558459509 0 0.11707998843366239 0.12090166170324231 0 0.12018819637303869 0.10164151191590461 0 0.11707998843366239 0.12090166170324231 0 0.12018819637303869 0.10164151191590461 0 0.1368974078767736 0.107501873099266 0 0.10086043035944101 0.1057095558459509 0 0.12018819637303869 0.10164151191590461 0 0.11039993896964689 0.089589601033300492 0 0.12018819637303869 0.10164151191590461 0 0.1225478872688979 0.090713611373926736 0 0.11039993896964689 0.089589601033300492 0 0.1225478872688979 0.090713611373926736 0 0.1210037722340596 0.082520495593825793 0 0.11039993896964689 0.089589601033300492 0 0.1210037722340596 0.082520495593825793 0 0.11039993896964689 0.089589601033300492 0 0.1079674466630436 0.07575227550831827 0 0.1243405792371938 0.066503547411893488 0 0.1152310018430296 0.068591719667449438 0 0.13121537104960351 0.072689189806444385 0 0.1152310018430296 0.068591719667449438 0 0.1079674466630436 0.07575227550831827 0 0.13121537104960351 0.072689189806444385 0 0.11892469151436 0.060175562481194378 0 0.1152310018430296 0.068591719667449438 0 0.096340815718618328 0.066677421107029802 0 0.1210037722340596 0.082520495593825793 0 0.1079674466630436 0.07575227550831827 0 0.13121537104960351 0.072689189806444385 0 0.1079674466630436 0.07575227550831827 0 0.13121537104960351 0.072689189806444385 0 0.11892469151436 0.060175562481194378 0 0.1243405792371938 0.066503547411893488 0 0.1152310018430296 0.068591719667449438 0 0.090394473132530156 0.056962854116463339 0 0.096340815718618328 0.066677421107029802 0 0.095627451745985609 0.081336204981207194 0 0.11892469151436 0.060175562481194378 0 0.096340815718618328 0.066677421107029802 0 0.1152310018430296 0.068591719667449438 0 0.1079674466630436 0.07575227550831827 0 0.096340815718618328 0.066677421107029802 0 0.1079674466630436 0.07575227550831827 0 0.096340815718618328 0.066677421107029802 0 0.095627451745985609 0.081336204981207194 0 0.10086043035944101 0.1057095558459509 0 0.095627451745985609 0.081336204981207194 0 0.10086043035944101 0.1057095558459509 0 0.095627451745985609 0.081336204981207194 0 0.085469831166676849 0.087436677031336632 0 0.10086043035944101 0.1057095558459509 0 0.11039993896964689 0.089589601033300492 0 0.095627451745985609 0.081336204981207194 0 0.11039993896964689 0.089589601033300492 0 0.1079674466630436 0.07575227550831827 0 0.095627451745985609 0.081336204981207194 0 0.095627451745985609 0.081336204981207194 0 0.085469831166676849 0.087436677031336632 0 0.085588317529406169 0.073238424790440806 0 0.085469831166676849 0.087436677031336632 0 0.085588317529406169 0.073238424790440806 0 0.076873554133312927 0.079435143693455501 0 0.085469831166676849 0.087436677031336632 0 0.070098818600398835 0.095008337279511162 0 0.081838863589211913 0.097859807548057495 0 0.085588317529406169 0.073238424790440806 0 0.078896317813284711 0.063130005487330554 0 0.076873554133312927 0.079435143693455501 0 0.090394473132530156 0.056962854116463339 0 0.095627451745985609 0.081336204981207194 0 0.090394473132530156 0.056962854116463339 0 0.095627451745985609 0.081336204981207194 0 0.085588317529406169 0.073238424790440806 0 0.090394473132530156 0.056962854116463339 0 0.085588317529406169 0.073238424790440806 0 0.078896317813284711 0.063130005487330554 0 0.063756980967503582 0.059761195325569103 0 0.076873554133312927 0.079435143693455501 0 0.058428932400687923 0.080576723114904505 0 0.063756980967503582 0.059761195325569103 0 0.078896317813284711 0.063130005487330554 0 0.076873554133312927 0.079435143693455501 0 0.076873554133312927 0.079435143693455501 0 0.070098818600398835 0.095008337279511162 0 0.058428932400687923 0.080576723114904505 0 0.085469831166676849 0.087436677031336632 0 0.076873554133312927 0.079435143693455501 0 0.070098818600398835 0.095008337279511162 0 0.076873554133312927 0.079435143693455501 0 0.070098818600398835 0.095008337279511162 0 0.070098818600398835 0.095008337279511162 0 0.063324083067484813 0.1105815308655668 0 0.056772327777908818 0.093355456469435216 0 0.070098818600398835 0.095008337279511162 0 0.073686861685182473 0.1058294153104071 0 0.063324083067484813 0.1105815308655668 0 0.070098818600398835 0.095008337279511162 0 0.063324083067484813 0.1105815308655668 0 0.070098818600398835 0.095008337279511162 0 0.073686861685182473 0.1058294153104071 0 0.081838863589211913 0.097859807548057495 0 0.10086043035944101 0.1057095558459509 0 0.088353675930770217 0.1090445403681379 0 0.081838863589211913 0.097859807548057495 0 0.10086043035944101 0.1057095558459509 0 0.085469831166676849 0.087436677031336632 0 0.081838863589211913 0.097859807548057495 0 0.073686861685182473 0.1058294153104071 0 0.081838863589211913 0.097859807548057495 0 0.081058066011519173 0.11973636453468819 0 0.081838863589211913 0.097859807548057495 0 0.081058066011519173 0.11973636453468819 0 0.088353675930770217 0.1090445403681379 0 0.081838863589211913 0.097859807548057495 0 0.081058066011519173 0.11973636453468819 0 0.081058066011519173 0.11973636453468819 0 0.098136173783193614 0.12855261503670501 0 0.088353675930770217 0.1090445403681379 0 0.081058066011519173 0.11973636453468819 0 0.098136173783193614 0.12855261503670501 0 0.081058066011519173 0.11973636453468819 0 0.063324083067484813 0.1105815308655668 0 0.068402942841081005 0.12865021266463919 0 0.081058066011519173 0.11973636453468819 0 0.063324083067484813 0.1105815308655668 0 0.073686861685182473 0.1058294153104071 0 0.081058066011519173 0.11973636453468819 0 0.063324083067484813 0.1105815308655668 0 0.063324083067484813 0.1105815308655668 0 0.047212646671147621 0.11637508280246631 0 0.046344121904492837 0.10181594669612309 0 0.063324083067484813 0.1105815308655668 0 0.047212646671147621 0.11637508280246631 0 0.054704645729867107 0.1303951701743557 0 0.063324083067484813 0.1105815308655668 0 0.054704645729867107 0.1303951701743557 0 0.068402942841081005 0.12865021266463919 0 0.063324083067484813 0.1105815308655668 0 0.054704645729867107 0.1303951701743557 0 0.063324083067484813 0.1105815308655668 0 0.046344121904492837 0.10181594669612309 0 0.056772327777908818 0.093355456469435216 0 0.063324083067484813 0.1105815308655668 0 0.046344121904492837 0.10181594669612309 0 0.046344121904492837 0.10181594669612309 0 0.056772327777908818 0.093355456469435216 0 0.045320775007697253 0.087378911453508054 0 0.046344121904492837 0.10181594669612309 0 0.0293641607415005 0.093050362526680058 0 0.027539824430943272 0.097260859315675907 0 0.046344121904492837 0.10181594669612309 0 0.0293641607415005 0.093050362526680058 0 0.046344121904492837 0.10181594669612309 0 0.045320775007697253 0.087378911453508054 0 0.0293641607415005 0.093050362526680058 0 0.046344121904492837 0.10181594669612309 0 0.034802580128522533 0.108370238657299 0 0.027539824430943272 0.097260859315675907 0 0.047212646671147621 0.11637508280246631 0 0.046344121904492837 0.10181594669612309 0 0.034802580128522533 0.108370238657299 0 0.034802580128522533 0.108370238657299 0 0.02295827912300942 0.1143792008990337 0 0.036209801575650402 0.12755429465012871 0 0.047212646671147621 0.11637508280246631 0 0.054704645729867107 0.1303951701743557 0 0.036209801575650402 0.12755429465012871 0 0.047212646671147621 0.11637508280246631 0 0.034802580128522533 0.108370238657299 0 0.036209801575650402 0.12755429465012871 0 0.063756980967503582 0.059761195325569103 0 0.058428932400687923 0.080576723114904505 0 0.039807943620716157 0.068946520475498749 0 0.058428932400687923 0.080576723114904505 0 0.045320775007697253 0.087378911453508054 0 0.039807943620716157 0.068946520475498749 0 0.070098818600398835 0.095008337279511162 0 0.058428932400687923 0.080576723114904505 0 0.056772327777908818 0.093355456469435216 0 0.058428932400687923 0.080576723114904505 0 0.056772327777908818 0.093355456469435216 0 0.045320775007697253 0.087378911453508054 0 0.039807943620716157 0.068946520475498749 0 0.02523443473854358 0.074793540318702806 0 0.0293641607415005 0.093050362526680058 0 0.045320775007697253 0.087378911453508054 0 0.039807943620716157 0.068946520475498749 0 0.0293641607415005 0.093050362526680058 0 0.039807943620716157 0.068946520475498749 0 0.0293641607415005 0.093050362526680058 0 0.02507841675544124 0.048354097280414877 0 0.039807943620716157 0.068946520475498749 0 0.02523443473854358 0.074793540318702806 0 0.02523443473854358 0.074793540318702806 0 0.01233266555678463 0.084258174892090337 0 0.010722424996073881 0.068121568230846891 0 0.02507841675544124 0.048354097280414877 0 0.02523443473854358 0.074793540318702806 0 0.010722424996073881 0.068121568230846891 0 0.0293641607415005 0.093050362526680058 0 0.01233266555678463 0.084258174892090337 0 0.0293641607415005 0.093050362526680058 0 0.01233266555678463 0.084258174892090337 0 0.019584721545335231 0.095933386042030777 0 0.02523443473854358 0.074793540318702806 0 0.0293641607415005 0.093050362526680058 0 0.01233266555678463 0.084258174892090337 0 -0.0046988296279310846 0.075465987257500103 0 0.01233266555678463 0.084258174892090337 0 -0.0046988296279310846 0.075465987257500103 0 0.00056903788424511365 0.086682396089073327 0 0.01233266555678463 0.084258174892090337 0 0.01233266555678463 0.084258174892090337 0 0.019584721545335231 0.095933386042030777 0 0.0096773837387348072 0.094713106344260181 0 0.00056903788424511365 0.086682396089073327 0 0.0096773837387348072 0.094713106344260181 0 0.0017142141577850001 0.096485027642689541 0 0.00056903788424511365 0.086682396089073327 0 0.01233266555678463 0.084258174892090337 0 0.0096773837387348072 0.094713106344260181 0 -0.0046988296279310846 0.075465987257500103 0 0.0079626054049135586 0.052863747179962457 0 -0.0046988296279310846 0.075465987257500103 0 0.01233266555678463 0.084258174892090337 0 0.010722424996073881 0.068121568230846891 0 -0.0046988296279310846 0.075465987257500103 0 0.0079626054049135586 0.052863747179962457 0 0.010722424996073881 0.068121568230846891 0 0.02295827912300942 0.1143792008990337 0 0.016633607451047409 0.12879447845417449 0 0.036209801575650402 0.12755429465012871 0 0.02295827912300942 0.1143792008990337 0 0.02320798257890765 0.1047443639128517 0 0.017264926825327171 0.1093249123190818 0 0.02295827912300942 0.1143792008990337 0 0.017264926825327171 0.1093249123190818 0 0.01360187540002143 0.11722717171449371 0 0.02295827912300942 0.1143792008990337 0 0.01360187540002143 0.11722717171449371 0 0.016633607451047409 0.12879447845417449 0 0.034802580128522533 0.108370238657299 0 0.027539824430943272 0.097260859315675907 0 0.02320798257890765 0.1047443639128517 0 0.034802580128522533 0.108370238657299 0 0.02295827912300942 0.1143792008990337 0 0.02320798257890765 0.1047443639128517 0 0.0293641607415005 0.093050362526680058 0 0.027539824430943272 0.097260859315675907 0 0.019584721545335231 0.095933386042030777 0 0.027539824430943272 0.097260859315675907 0 0.019584721545335231 0.095933386042030777 0 0.02320798257890765 0.1047443639128517 0 0.0293641607415005 0.093050362526680058 0 0.027539824430943272 0.097260859315675907 0 0.019584721545335231 0.095933386042030777 0 0.02320798257890765 0.1047443639128517 0 0.01504081682007688 0.10253598369847031 0 0.02320798257890765 0.1047443639128517 0 0.017264926825327171 0.1093249123190818 0 0.01504081682007688 0.10253598369847031 0 0.0088228464681819972 0.10238366970120689 0 0.01151568020462046 0.1077378413705596 0 0.0058206420146291954 0.1114089238878985 0 0.017264926825327171 0.1093249123190818 0 0.01504081682007688 0.10253598369847031 0 0.01151568020462046 0.1077378413705596 0 0.01504081682007688 0.10253598369847031 0 0.0088228464681819972 0.10238366970120689 0 0.01151568020462046 0.1077378413705596 0 0.019584721545335231 0.095933386042030777 0 0.01504081682007688 0.10253598369847031 0 0.0096773837387348072 0.094713106344260181 0 0.01504081682007688 0.10253598369847031 0 0.0088228464681819972 0.10238366970120689 0 0.0096773837387348072 0.094713106344260181 0 0.0088228464681819972 0.10238366970120689 0 0.0096773837387348072 0.094713106344260181 0 0.0017142141577850001 0.096485027642689541 0 0.0088228464681819972 0.10238366970120689 0 0.0017142141577850001 0.096485027642689541 0 0.0058206420146291954 0.1114089238878985 0 0.0058206420146291954 0.1114089238878985 0 0.00039794405216867472 0.112072386291362 0 0.01360187540002143 0.11722717171449371 0 0.00039794405216867472 0.112072386291362 0 0.016633607451047409 0.12879447845417449 0 0.00039794405216867472 0.112072386291362 0 0.01360187540002143 0.11722717171449371 0 0.016633607451047409 0.12879447845417449 0 0.00039794405216867472 0.112072386291362 0 0.0010393500416724941 0.12595831854165979 0 0.016633607451047409 0.12879447845417449 0 0.01151568020462046 0.1077378413705596 0 0.0058206420146291954 0.1114089238878985 0 0.01360187540002143 0.11722717171449371 0 0.017264926825327171 0.1093249123190818 0 0.01151568020462046 0.1077378413705596 0 0.01360187540002143 0.11722717171449371 0 -0.0082797250895681185 0.13474448294352481 0 0.0010393500416724941 0.12595831854165979 0 0.01291562537333717 0.14373886088149129 0 0.0010393500416724941 0.12595831854165979 0 0.016633607451047409 0.12879447845417449 0 0.01291562537333717 0.14373886088149129 0 0.016633607451047409 0.12879447845417449 0 0.030096440749716711 0.14309687622970299 0 0.036209801575650402 0.12755429465012871 0 0.016633607451047409 0.12879447845417449 0 0.030096440749716711 0.14309687622970299 0 0.01291562537333717 0.14373886088149129 0 0.030096440749716711 0.14309687622970299 0 0.01291562537333717 0.14373886088149129 0 0.026789162612504271 0.15663130254031199 0 0.01291562537333717 0.14373886088149129 0 0.015650655317666261 0.15865613344587939 0 0.026789162612504271 0.15663130254031199 0 0.01291562537333717 0.14373886088149129 0 0.00151890392611572 0.15456094484017679 0 0.015650655317666261 0.15865613344587939 0 -0.0082797250895681185 0.13474448294352481 0 0.01291562537333717 0.14373886088149129 0 0.00151890392611572 0.15456094484017679 0 0.00151890392611572 0.15456094484017679 0 0.01131753294179963 0.17437740673682869 0 0.00151890392611572 0.15456094484017679 0 0.012386788017382491 0.1641388541230504 0 0.01131753294179963 0.17437740673682869 0 -0.0026654791677323511 0.16604552865166611 0 0.00151890392611572 0.15456094484017679 0 0.01131753294179963 0.17437740673682869 0 -0.0026654791677323511 0.16604552865166611 0 0.01131753294179963 0.17437740673682869 0 0.012386788017382491 0.1641388541230504 0 0.01131753294179963 0.17437740673682869 0 0.021060059883948341 0.16896093146931659 0 0.00151890392611572 0.15456094484017679 0 0.012386788017382491 0.1641388541230504 0 0.015650655317666261 0.15865613344587939 0 0.0072367552089822543 0.1840346549744645 0 0.003085550936940849 0.18695469644268639 0 0.007927604969267173 0.18944813828794729 0 0.0072367552089822543 0.1840346549744645 0 0.003085550936940849 0.18695469644268639 0 0.00053502205069707774 0.18188021690744111 0 -0.003081975793268537 0.18782002811878001 0 0.003085550936940849 0.18695469644268639 0 0.00053502205069707774 0.18188021690744111 0 0.0072367552089822543 0.1840346549744645 0 0.00053502205069707774 0.18188021690744111 0 0.0082701590199136289 0.17900500476799119 0 -0.0026654791677323511 0.16604552865166611 0 0.0024081860720475369 0.17557227428335351 0 0.01131753294179963 0.17437740673682869 0 0.0024081860720475369 0.17557227428335351 0 0.01131753294179963 0.17437740673682869 0 0.0082701590199136289 0.17900500476799119 0 0.00053502205069707774 0.18188021690744111 0 0.0024081860720475369 0.17557227428335351 0 0.0082701590199136289 0.17900500476799119 0 0.01131753294179963 0.17437740673682869 0 0.013543000689093809 0.1790660034635034 0 0.021389494149062459 0.18037885708243739 0 0.01131753294179963 0.17437740673682869 0 0.013543000689093809 0.1790660034635034 0 0.01131753294179963 0.17437740673682869 0 0.013543000689093809 0.1790660034635034 0 0.0082701590199136289 0.17900500476799119 0 0.013543000689093809 0.1790660034635034 0 0.0115175493401282 0.18523262863701309 0 0.016985704636488509 0.19275209946522329 0 0.0072367552089822543 0.1840346549744645 0 0.0082701590199136289 0.17900500476799119 0 0.0115175493401282 0.18523262863701309 0 0.013543000689093809 0.1790660034635034 0 0.0082701590199136289 0.17900500476799119 0 0.0115175493401282 0.18523262863701309 0 0.0072367552089822543 0.1840346549744645 0 0.0115175493401282 0.18523262863701309 0 0.007927604969267173 0.18944813828794729 0 0.021389494149062459 0.18037885708243739 0 0.039453436217199322 0.18340126598870379 0 0.013543000689093809 0.1790660034635034 0 0.021389494149062459 0.18037885708243739 0 0.02230428843080948 0.19662630733770359 0 0.013543000689093809 0.1790660034635034 0 0.021389494149062459 0.18037885708243739 0 0.01131753294179963 0.17437740673682869 0 0.021389494149062459 0.18037885708243739 0 0.01131753294179963 0.17437740673682869 0 0.021389494149062459 0.18037885708243739 0 0.021060059883948341 0.16896093146931659 0 0.021389494149062459 0.18037885708243739 0 0.021060059883948341 0.16896093146931659 0 0.034487576316221548 0.17006964541133651 0 0.021389494149062459 0.18037885708243739 0 0.036772518206031037 0.18954494233072339 0 0.012386788017382491 0.1641388541230504 0 0.015650655317666261 0.15865613344587939 0 0.021060059883948341 0.16896093146931659 0 0.015650655317666261 0.15865613344587939 0 0.021060059883948341 0.16896093146931659 0 0.026789162612504271 0.15663130254031199 0 0.021060059883948341 0.16896093146931659 0 0.026789162612504271 0.15663130254031199 0 0.034487576316221548 0.17006964541133651 0 0.026789162612504271 0.15663130254031199 0 0.034487576316221548 0.17006964541133651 0 0.046085208392249437 0.15020880948314461 0 0.034487576316221548 0.17006964541133651 0 0.049790080527993393 0.16878629006039211 0 0.046085208392249437 0.15020880948314461 0 0.021389494149062459 0.18037885708243739 0 0.039453436217199322 0.18340126598870379 0 0.036772518206031037 0.18954494233072339 0 0.021389494149062459 0.18037885708243739 0 0.034487576316221548 0.17006964541133651 0 0.039453436217199322 0.18340126598870379 0 0.034487576316221548 0.17006964541133651 0 0.039453436217199322 0.18340126598870379 0 0.049790080527993393 0.16878629006039211 0 0.039453436217199322 0.18340126598870379 0 0.057517378285335978 0.18642367489497111 0 0.049790080527993393 0.16878629006039211 0 0.057517378285335978 0.18642367489497111 0 0.06670876632053821 0.16536039993208129 0 0.039453436217199322 0.18340126598870379 0 0.057517378285335978 0.18642367489497111 0 0.039453436217199322 0.18340126598870379 0 0.057517378285335978 0.18642367489497111 0 0.046621016020550923 0.1898787739154234 0 0.057517378285335978 0.18642367489497111 0 0.049790080527993393 0.16878629006039211 0 0.06670876632053821 0.16536039993208129 0 0.056759789081437029 0.15816783404816359 0 0.049790080527993393 0.16878629006039211 0 0.06670876632053821 0.16536039993208129 0 0.056759789081437029 0.15816783404816359 0 0.049790080527993393 0.16878629006039211 0 0.046085208392249437 0.15020880948314461 0 0.056759789081437029 0.15816783404816359 0 0.046085208392249437 0.15020880948314461 0 0.06445510108496709 0.14831583671703669 0 0.054704645729867107 0.1303951701743557 0 0.046085208392249437 0.15020880948314461 0 0.06445510108496709 0.14831583671703669 0 0.054704645729867107 0.1303951701743557 0 0.046085208392249437 0.15020880948314461 0 0.054704645729867107 0.1303951701743557 0 0.036209801575650402 0.12755429465012871 0 0.046085208392249437 0.15020880948314461 0 0.030096440749716711 0.14309687622970299 0 0.036209801575650402 0.12755429465012871 0 0.046085208392249437 0.15020880948314461 0 0.030096440749716711 0.14309687622970299 0 0.026789162612504271 0.15663130254031199 0 0.046085208392249437 0.15020880948314461 0 0.02117589590128718 0.2395927914801684 0 0.012156823249103331 0.25259817100369902 0 0.030652172791378579 0.25229956247347313 0 0.02117589590128718 0.2395927914801684 0 0.034188277432347557 0.23988537883147459 0 0.030652172791378579 0.25229956247347313 0 0.02117589590128718 0.2395927914801684 0 0.030323397599499081 0.22959965211839081 0 0.034188277432347557 0.23988537883147459 0 -0.0082457657602449386 0.25246627485226031 0 -0.001965278602122185 0.24182690426762959 0 0.012156823249103331 0.25259817100369902 0 0.02117589590128718 0.2395927914801684 0 0.008579196815527634 0.23953031834541311 0 0.012156823249103331 0.25259817100369902 0 -0.001965278602122185 0.24182690426762959 0 0.008579196815527634 0.23953031834541311 0 0.012156823249103331 0.25259817100369902 0 -0.001965278602122185 0.24182690426762959 0 0.008579196815527634 0.23953031834541311 0 0.0010433620948100131 0.23240638127880581 0 0.02117589590128718 0.2395927914801684 0 0.008579196815527634 0.23953031834541311 0 0.01115565641706814 0.2303537873583584 0 0.008579196815527634 0.23953031834541311 0 0.01115565641706814 0.2303537873583584 0 0.0010433620948100131 0.23240638127880581 0 0.01115565641706814 0.2303537873583584 0 0.0010433620948100131 0.23240638127880581 0 0.0091084557899102862 0.2202403998025296 0 0.0010433620948100131 0.23240638127880581 0 0.0001093474821353509 0.22215689039817851 0 0.0091084557899102862 0.2202403998025296 0 0.01115565641706814 0.2303537873583584 0 0.0091084557899102862 0.2202403998025296 0 0.016496999093422449 0.223541986747673 0 0.0091084557899102862 0.2202403998025296 0 0.016496999093422449 0.223541986747673 0 0.01612020317490017 0.2152275371535412 0 0.016496999093422449 0.223541986747673 0 0.02147394042148347 0.23028557103733549 0 0.024626739663750161 0.22160263838659999 0 0.016496999093422449 0.223541986747673 0 0.024626739663750161 0.22160263838659999 0 0.01612020317490017 0.2152275371535412 0 0.01115565641706814 0.2303537873583584 0 0.016496999093422449 0.223541986747673 0 0.02147394042148347 0.23028557103733549 0 0.02117589590128718 0.2395927914801684 0 0.01115565641706814 0.2303537873583584 0 0.02147394042148347 0.23028557103733549 0 0.02147394042148347 0.23028557103733549 0 0.030323397599499081 0.22959965211839081 0 0.024626739663750161 0.22160263838659999 0 0.02117589590128718 0.2395927914801684 0 0.02147394042148347 0.23028557103733549 0 0.030323397599499081 0.22959965211839081 0 0.024626739663750161 0.22160263838659999 0 0.027508903383077599 0.21474836631904051 0 0.034268755792753257 0.2207932912834846 0 0.030323397599499081 0.22959965211839081 0 0.024626739663750161 0.22160263838659999 0 0.034268755792753257 0.2207932912834846 0 0.027508903383077599 0.21474836631904051 0 0.023943201944243639 0.1999111919537408 0 0.034268755792753257 0.2207932912834846 0 0.023943201944243639 0.1999111919537408 0 0.034268755792753257 0.2207932912834846 0 0.027508903383077599 0.21474836631904051 0 0.023922045305692211 0.20684028787671799 0 0.022699459496289199 0.2141990688659105 0 0.024626739663750161 0.22160263838659999 0 0.027508903383077599 0.21474836631904051 0 0.022699459496289199 0.2141990688659105 0 0.027508903383077599 0.21474836631904051 0 0.023922045305692211 0.20684028787671799 0 0.023943201944243639 0.1999111919537408 0 0.01896544066016782 0.20973745132843891 0 0.01612020317490017 0.2152275371535412 0 0.013247665380499421 0.20734461508933349 0 0.023922045305692211 0.20684028787671799 0 0.01896544066016782 0.20973745132843891 0 0.022699459496289199 0.2141990688659105 0 0.023922045305692211 0.20684028787671799 0 0.021734838082019509 0.20302577286306159 0 0.023943201944243639 0.1999111919537408 0 0.023922045305692211 0.20684028787671799 0 0.018650848458870179 0.20436341187488569 0 0.021734838082019509 0.20302577286306159 0 0.023922045305692211 0.20684028787671799 0 0.018650848458870179 0.20436341187488569 0 0.01896544066016782 0.20973745132843891 0 0.018650848458870179 0.20436341187488569 0 0.01896544066016782 0.20973745132843891 0 0.013247665380499421 0.20734461508933349 0 0.024626739663750161 0.22160263838659999 0 0.022699459496289199 0.2141990688659105 0 0.01612020317490017 0.2152275371535412 0 0.01896544066016782 0.20973745132843891 0 0.022699459496289199 0.2141990688659105 0 0.01612020317490017 0.2152275371535412 0 0.01612020317490017 0.2152275371535412 0 0.0085100262700745465 0.21094865931476009 0 0.013247665380499421 0.20734461508933349 0 0.0091084557899102862 0.2202403998025296 0 0.01612020317490017 0.2152275371535412 0 0.0085100262700745465 0.21094865931476009 0 0.0001093474821353509 0.22215689039817851 0 0.0091084557899102862 0.2202403998025296 0 0.00083142932333707279 0.21381627434491049 0 0.0091084557899102862 0.2202403998025296 0 0.0085100262700745465 0.21094865931476009 0 0.00083142932333707279 0.21381627434491049 0 0.0085100262700745465 0.21094865931476009 0 0.00083142932333707279 0.21381627434491049 0 0.0029581381265264858 0.20519393183106241 0 0.0085100262700745465 0.21094865931476009 0 0.0029581381265264858 0.20519393183106241 0 0.0087942658252738396 0.20386919766718339 0 0.0029581381265264858 0.20519393183106241 0 0.0087942658252738396 0.20386919766718339 0 0.0056326315351633537 0.2004899601979887 0 0.0085100262700745465 0.21094865931476009 0 0.0087942658252738396 0.20386919766718339 0 0.013247665380499421 0.20734461508933349 0 0.0087942658252738396 0.20386919766718339 0 0.013247665380499421 0.20734461508933349 0 0.013927284278231049 0.2027684573698135 0 0.018650848458870179 0.20436341187488569 0 0.013247665380499421 0.20734461508933349 0 0.013927284278231049 0.2027684573698135 0 0.013927284278231049 0.2027684573698135 0 0.010260103200158849 0.1991700010832006 0 0.016231602148303749 0.1987520895161983 0 0.010260103200158849 0.1991700010832006 0 0.01183675088797494 0.19419665586736051 0 0.016231602148303749 0.1987520895161983 0 0.010260103200158849 0.1991700010832006 0 0.0061740732670114221 0.19541611365695169 0 0.01183675088797494 0.19419665586736051 0 0.0087942658252738396 0.20386919766718339 0 0.010260103200158849 0.1991700010832006 0 0.0056326315351633537 0.2004899601979887 0 0.0087942658252738396 0.20386919766718339 0 0.013927284278231049 0.2027684573698135 0 0.010260103200158849 0.1991700010832006 0 0.010260103200158849 0.1991700010832006 0 0.0056326315351633537 0.2004899601979887 0 0.0061740732670114221 0.19541611365695169 0 -2.3422743153838069e-05 0.1988005567515452 0 0.0056326315351633537 0.2004899601979887 0 0.0061740732670114221 0.19541611365695169 0 -2.3422743153838069e-05 0.1988005567515452 0 0.0029581381265264858 0.20519393183106241 0 0.0056326315351633537 0.2004899601979887 0 -0.003081975793268537 0.18782002811878001 0 0.003085550936940849 0.18695469644268639 0 0.0015327128313205251 0.1915709431207247 0 -2.3422743153838069e-05 0.1988005567515452 0 0.0061740732670114221 0.19541611365695169 0 0.0015327128313205251 0.1915709431207247 0 0.0061740732670114221 0.19541611365695169 0 0.0015327128313205251 0.1915709431207247 0 0.007927604969267173 0.18944813828794729 0 0.003085550936940849 0.18695469644268639 0 0.0015327128313205251 0.1915709431207247 0 0.007927604969267173 0.18944813828794729 0 0.007927604969267173 0.18944813828794729 0 0.01183675088797494 0.19419665586736051 0 0.012456110925155389 0.1902446129755902 0 0.0115175493401282 0.18523262863701309 0 0.007927604969267173 0.18944813828794729 0 0.012456110925155389 0.1902446129755902 0 0.0061740732670114221 0.19541611365695169 0 0.007927604969267173 0.18944813828794729 0 0.01183675088797494 0.19419665586736051 0 0.01183675088797494 0.19419665586736051 0 0.012456110925155389 0.1902446129755902 0 0.016985704636488509 0.19275209946522329 0 0.01183675088797494 0.19419665586736051 0 0.016985704636488509 0.19275209946522329 0 0.016231602148303749 0.1987520895161983 0 0.0115175493401282 0.18523262863701309 0 0.012456110925155389 0.1902446129755902 0 0.016985704636488509 0.19275209946522329 0 0.021389494149062459 0.18037885708243739 0 0.02230428843080948 0.19662630733770359 0 0.036772518206031037 0.18954494233072339 0 0.013543000689093809 0.1790660034635034 0 0.02230428843080948 0.19662630733770359 0 0.013543000689093809 0.1790660034635034 0 0.016985704636488509 0.19275209946522329 0 0.02230428843080948 0.19662630733770359 0 0.016985704636488509 0.19275209946522329 0 0.019428477636303031 0.19812266709439569 0 0.016231602148303749 0.1987520895161983 0 0.019428477636303031 0.19812266709439569 0 0.016231602148303749 0.1987520895161983 0 0.020423256619271999 0.20098819974690199 0 0.018650848458870179 0.20436341187488569 0 0.016231602148303749 0.1987520895161983 0 0.020423256619271999 0.20098819974690199 0 0.018650848458870179 0.20436341187488569 0 0.013927284278231049 0.2027684573698135 0 0.016231602148303749 0.1987520895161983 0 0.019428477636303031 0.19812266709439569 0 0.020423256619271999 0.20098819974690199 0 0.023943201944243639 0.1999111919537408 0 0.018650848458870179 0.20436341187488569 0 0.020423256619271999 0.20098819974690199 0 0.021734838082019509 0.20302577286306159 0 0.020423256619271999 0.20098819974690199 0 0.021734838082019509 0.20302577286306159 0 0.023943201944243639 0.1999111919537408 0 0.016985704636488509 0.19275209946522329 0 0.02230428843080948 0.19662630733770359 0 0.023943201944243639 0.1999111919537408 0 0.016985704636488509 0.19275209946522329 0 0.019428477636303031 0.19812266709439569 0 0.023943201944243639 0.1999111919537408 0 0.02230428843080948 0.19662630733770359 0 0.023943201944243639 0.1999111919537408 0 0.02230428843080948 0.19662630733770359 0 0.023943201944243639 0.1999111919537408 0 0.035957366435008513 0.20647473970990701 0 0.02230428843080948 0.19662630733770359 0 0.050897121833006063 0.20159486356051531 0 0.035957366435008513 0.20647473970990701 0 0.02230428843080948 0.19662630733770359 0 0.036772518206031037 0.18954494233072339 0 0.050897121833006063 0.20159486356051531 0 0.02230428843080948 0.19662630733770359 0 0.050897121833006063 0.20159486356051531 0 0.036772518206031037 0.18954494233072339 0 0.050897121833006063 0.20159486356051531 0 0.052155542262999663 0.1987110275790093 0 0.036772518206031037 0.18954494233072339 0 0.052155542262999663 0.1987110275790093 0 0.036772518206031037 0.18954494233072339 0 0.046621016020550923 0.1898787739154234 0 0.052155542262999663 0.1987110275790093 0 0.039453436217199322 0.18340126598870379 0 0.036772518206031037 0.18954494233072339 0 0.046621016020550923 0.1898787739154234 0 0.057517378285335978 0.18642367489497111 0 0.046621016020550923 0.1898787739154234 0 0.052155542262999663 0.1987110275790093 0 0.057517378285335978 0.18642367489497111 0 0.052155542262999663 0.1987110275790093 0 0.057517378285335978 0.18642367489497111 0 0.057090951257530269 0.197109929087698 0 0.052155542262999663 0.1987110275790093 0 0.057517378285335978 0.18642367489497111 0 0.060667890749981898 0.1933513013873914 0 0.057090951257530269 0.197109929087698 0 0.060667890749981898 0.1933513013873914 0 0.057090951257530269 0.197109929087698 0 0.058031923789004708 0.2022125116707813 0 0.060667890749981898 0.1933513013873914 0 0.058031923789004708 0.2022125116707813 0 0.060667890749981898 0.1933513013873914 0 0.058031923789004708 0.2022125116707813 0 0.059673977213942478 0.20319094098477611 0 0.058031923789004708 0.2022125116707813 0 0.059673977213942478 0.20319094098477611 0 0.057090951257530269 0.197109929087698 0 0.058031923789004708 0.2022125116707813 0 0.052155542262999663 0.1987110275790093 0 0.058031923789004708 0.2022125116707813 0 0.052155542262999663 0.1987110275790093 0 0.058031923789004708 0.2022125116707813 0 0.050897121833006063 0.20159486356051531 0 0.052155542262999663 0.1987110275790093 0 0.058031923789004708 0.2022125116707813 0 0.050897121833006063 0.20159486356051531 0 0.050897121833006063 0.20159486356051531 0 0.052155542262999663 0.1987110275790093 0 0.050897121833006063 0.20159486356051531 0 0.042542699632676838 0.22074012119599501 0 0.053005439111290922 0.21910981667301421 0 0.058031923789004708 0.2022125116707813 0 0.050897121833006063 0.20159486356051531 0 0.053005439111290922 0.21910981667301421 0 0.058031923789004708 0.2022125116707813 0 0.053005439111290922 0.21910981667301421 0 0.058031923789004708 0.2022125116707813 0 0.061718375040706958 0.21244198365854619 0 0.053005439111290922 0.21910981667301421 0 0.058031923789004708 0.2022125116707813 0 0.059673977213942478 0.20319094098477611 0 0.061718375040706958 0.21244198365854619 0 0.061718375040706958 0.21244198365854619 0 0.053005439111290922 0.21910981667301421 0 0.062081063031912492 0.22413796841031719 0 0.050897121833006063 0.20159486356051531 0 0.042542699632676838 0.22074012119599501 0 0.023943201944243639 0.1999111919537408 0 0.035957366435008513 0.20647473970990701 0 0.034268755792753257 0.2207932912834846 0 0.050897121833006063 0.20159486356051531 0 0.038363073609551428 0.21412918370060571 0 0.042542699632676838 0.22074012119599501 0 0.050897121833006063 0.20159486356051531 0 0.035957366435008513 0.20647473970990701 0 0.038363073609551428 0.21412918370060571 0 0.038363073609551428 0.21412918370060571 0 0.034268755792753257 0.2207932912834846 0 0.042542699632676838 0.22074012119599501 0 0.035957366435008513 0.20647473970990701 0 0.038363073609551428 0.21412918370060571 0 0.034268755792753257 0.2207932912834846 0 0.042542699632676838 0.22074012119599501 0 0.034188277432347557 0.23988537883147459 0 0.042542699632676838 0.22074012119599501 0 0.04817080422001134 0.23536218897101929 0 0.044937254539659167 0.2379713478153713 0 0.030323397599499081 0.22959965211839081 0 0.042542699632676838 0.22074012119599501 0 0.034188277432347557 0.23988537883147459 0 0.042542699632676838 0.22074012119599501 0 0.044937254539659167 0.2379713478153713 0 0.034188277432347557 0.23988537883147459 0 0.030323397599499081 0.22959965211839081 0 0.034268755792753257 0.2207932912834846 0 0.042542699632676838 0.22074012119599501 0 0.053005439111290922 0.21910981667301421 0 0.04817080422001134 0.23536218897101929 0 0.053005439111290922 0.21910981667301421 0 0.062081063031912492 0.22413796841031719 0 0.04817080422001134 0.23536218897101929 0 0.062081063031912492 0.22413796841031719 0 0.04817080422001134 0.23536218897101929 0 0.059531729096570118 0.24099028160929839 0 0.042542699632676838 0.22074012119599501 0 0.053005439111290922 0.21910981667301421 0 0.04817080422001134 0.23536218897101929 0 0.062081063031912492 0.22413796841031719 0 0.04817080422001134 0.23536218897101929 0 0.04817080422001134 0.23536218897101929 0 0.052294646587479003 0.2493466198794505 0 0.04073495957405681 0.26035892983227987 0 0.04817080422001134 0.23536218897101929 0 0.059531729096570118 0.24099028160929839 0 0.052294646587479003 0.2493466198794505 0 0.059531729096570118 0.24099028160929839 0 0.067445722382230539 0.24771064348785149 0 0.06034442261467237 0.25120339486286308 0 0.059531729096570118 0.24099028160929839 0 0.052294646587479003 0.2493466198794505 0 0.06034442261467237 0.25120339486286308 0 0.04817080422001134 0.23536218897101929 0 0.04073495957405681 0.26035892983227987 0 0.04817080422001134 0.23536218897101929 0 0.044937254539659167 0.2379713478153713 0 0.04073495957405681 0.26035892983227987 0 0.04817080422001134 0.23536218897101929 0 0.044937254539659167 0.2379713478153713 0 0.044937254539659167 0.2379713478153713 0 0.034188277432347557 0.23988537883147459 0 0.030652172791378579 0.25229956247347313 0 0.085975255819246227 0.24304742420893821 0 0.091760355399887042 0.24149966876957779 0 0.085886262968569133 0.25948379364412733 0 0.091760355399887042 0.24149966876957779 0 0.10166443252893551 0.23659000017624271 0 0.085886262968569133 0.25948379364412733 0 0.085975255819246227 0.24304742420893821 0 0.091760355399887042 0.24149966876957779 0 0.090327239942362525 0.2312920649275291 0 0.085975255819246227 0.24304742420893821 0 0.075396639696560977 0.24390878816167419 0 0.077103558767455421 0.230534611802553 0 0.085975255819246227 0.24304742420893821 0 0.077103558767455421 0.230534611802553 0 0.090327239942362525 0.2312920649275291 0 0.085975255819246227 0.24304742420893821 0 0.075396639696560977 0.24390878816167419 0 0.080478695998155714 0.25165019938018113 0 0.075396639696560977 0.24390878816167419 0 0.074707437689247702 0.25389633834412328 0 0.080478695998155714 0.25165019938018113 0 0.075396639696560977 0.24390878816167419 0 0.067445722382230539 0.24771064348785149 0 0.068934414955804643 0.23628801399858909 0 0.075396639696560977 0.24390878816167419 0 0.067445722382230539 0.24771064348785149 0 0.074707437689247702 0.25389633834412328 0 0.059531729096570118 0.24099028160929839 0 0.067445722382230539 0.24771064348785149 0 0.068934414955804643 0.23628801399858909 0 0.075396639696560977 0.24390878816167419 0 0.068934414955804643 0.23628801399858909 0 0.077103558767455421 0.230534611802553 0 0.062081063031912492 0.22413796841031719 0 0.059531729096570118 0.24099028160929839 0 0.068934414955804643 0.23628801399858909 0 0.062081063031912492 0.22413796841031719 0 0.077103558767455421 0.230534611802553 0 0.077696208689423979 0.21392961690810641 0 0.077103558767455421 0.230534611802553 0 0.077696208689423979 0.21392961690810641 0 0.062081063031912492 0.22413796841031719 0 0.068934414955804643 0.23628801399858909 0 0.077103558767455421 0.230534611802553 0 0.077103558767455421 0.230534611802553 0 0.086723057100410644 0.21930832929599969 0 0.077696208689423979 0.21392961690810641 0 0.077103558767455421 0.230534611802553 0 0.090327239942362525 0.2312920649275291 0 0.086723057100410644 0.21930832929599969 0 0.090327239942362525 0.2312920649275291 0 0.086723057100410644 0.21930832929599969 0 0.099258091607832458 0.22228701345730209 0 0.08282365066700062 0.20740072564839451 0 0.1001331263781514 0.21054846617837791 0 0.08282365066700062 0.20740072564839451 0 0.0830920941513177 0.21288940176841251 0 0.1001331263781514 0.21054846617837791 0 0.086723057100410644 0.21930832929599969 0 0.0830920941513177 0.21288940176841251 0 0.1001331263781514 0.21054846617837791 0 0.08282365066700062 0.20740072564839451 0 0.077960793866212394 0.2065164116634538 0 0.08282365066700062 0.20740072564839451 0 0.07778409662064556 0.21146715366449201 0 0.077960793866212394 0.2065164116634538 0 0.08282365066700062 0.20740072564839451 0 0.0830920941513177 0.21288940176841251 0 0.07778409662064556 0.21146715366449201 0 0.08282365066700062 0.20740072564839451 0 0.07778409662064556 0.21146715366449201 0 0.086723057100410644 0.21930832929599969 0 0.077696208689423979 0.21392961690810641 0 0.086723057100410644 0.21930832929599969 0 0.0830920941513177 0.21288940176841251 0 0.077696208689423979 0.21392961690810641 0 0.0830920941513177 0.21288940176841251 0 0.07778409662064556 0.21146715366449201 0 0.077696208689423979 0.21392961690810641 0 0.059673977213942478 0.20319094098477611 0 0.077960793866212394 0.2065164116634538 0 0.062081063031912492 0.22413796841031719 0 0.077696208689423979 0.21392961690810641 0 0.075991321843812007 0.21291374784961289 0 0.059673977213942478 0.20319094098477611 0 0.075991321843812007 0.21291374784961289 0 0.059673977213942478 0.20319094098477611 0 0.061718375040706958 0.21244198365854619 0 0.075991321843812007 0.21291374784961289 0 0.059673977213942478 0.20319094098477611 0 0.075991321843812007 0.21291374784961289 0 0.077960793866212394 0.2065164116634538 0 0.07778409662064556 0.21146715366449201 0 0.077696208689423979 0.21392961690810641 0 0.075991321843812007 0.21291374784961289 0 0.07778409662064556 0.21146715366449201 0 0.077696208689423979 0.21392961690810641 0 0.07778409662064556 0.21146715366449201 0 0.075991321843812007 0.21291374784961289 0 0.077696208689423979 0.21392961690810641 0 0.075991321843812007 0.21291374784961289 0 0.062081063031912492 0.22413796841031719 0 0.075991321843812007 0.21291374784961289 0 0.061718375040706958 0.21244198365854619 0 0.062081063031912492 0.22413796841031719 0 0.075991321843812007 0.21291374784961289 0 0.07778409662064556 0.21146715366449201 0 0.075991321843812007 0.21291374784961289 0 0.077960793866212394 0.2065164116634538 0 0.07778409662064556 0.21146715366449201 0 0.077960793866212394 0.2065164116634538 0 0.060667890749981898 0.1933513013873914 0 0.069391780603767286 0.1985353247034998 0 0.078552310067739675 0.1899431815963343 0 0.059673977213942478 0.20319094098477611 0 0.077960793866212394 0.2065164116634538 0 0.069391780603767286 0.1985353247034998 0 0.057517378285335978 0.18642367489497111 0 0.060667890749981898 0.1933513013873914 0 0.078552310067739675 0.1899431815963343 0 0.077960793866212394 0.2065164116634538 0 0.069391780603767286 0.1985353247034998 0 0.078552310067739675 0.1899431815963343 0 0.057517378285335978 0.18642367489497111 0 0.078552310067739675 0.1899431815963343 0 0.060667890749981898 0.1933513013873914 0 0.059673977213942478 0.20319094098477611 0 0.069391780603767286 0.1985353247034998 0 0.077960793866212394 0.2065164116634538 0 0.078552310067739675 0.1899431815963343 0 0.08282365066700062 0.20740072564839451 0 0.078552310067739675 0.1899431815963343 0 0.1000095862482286 0.19353335379614581 0 0.08282365066700062 0.20740072564839451 0 0.077960793866212394 0.2065164116634538 0 0.078552310067739675 0.1899431815963343 0 0.08282365066700062 0.20740072564839451 0 0.1000095862482286 0.19353335379614581 0 0.078552310067739675 0.1899431815963343 0 0.1000095862482286 0.19353335379614581 0 0.1000095862482286 0.19353335379614581 0 0.1119621855324581 0.18388877331391679 0 0.1119621855324581 0.18388877331391679 0 0.12809949413598259 0.1982332796183166 0 0.12623709760602039 0.18867627876683751 0 0.1000095862482286 0.19353335379614581 0 0.12809949413598259 0.1982332796183166 0 0.1000095862482286 0.19353335379614581 0 0.1174426020893027 0.21369620670835879 0 0.12809949413598259 0.1982332796183166 0 0.1000095862482286 0.19353335379614581 0 0.1119621855324581 0.18388877331391679 0 0.12809949413598259 0.1982332796183166 0 0.1174426020893027 0.21369620670835879 0 0.12809949413598259 0.1982332796183166 0 0.1174426020893027 0.21369620670835879 0 0.13079881134157489 0.21612504290720769 0 0.1174426020893027 0.21369620670835879 0 0.1001331263781514 0.21054846617837791 0 0.1000095862482286 0.19353335379614581 0 0.1174426020893027 0.21369620670835879 0 0.1001331263781514 0.21054846617837791 0 0.08282365066700062 0.20740072564839451 0 0.1000095862482286 0.19353335379614581 0 0.1001331263781514 0.21054846617837791 0 0.1174426020893027 0.21369620670835879 0 0.1001331263781514 0.21054846617837791 0 0.099258091607832458 0.22228701345730209 0 0.086723057100410644 0.21930832929599969 0 0.1001331263781514 0.21054846617837791 0 0.099258091607832458 0.22228701345730209 0 0.1174426020893027 0.21369620670835879 0 0.099258091607832458 0.22228701345730209 0 0.10166443252893551 0.23659000017624271 0 0.090327239942362525 0.2312920649275291 0 0.099258091607832458 0.22228701345730209 0 0.10166443252893551 0.23659000017624271 0 0.11193009187841341 0.23778907333103991 0 0.1233060832280653 0.2372070654073864 0 0.13079881134157489 0.21612504290720769 0 0.1174426020893027 0.21369620670835879 0 0.11193009187841341 0.23778907333103991 0 0.10166443252893551 0.23659000017624271 0 0.1174426020893027 0.21369620670835879 0 0.11193009187841341 0.23778907333103991 0 0.13079881134157489 0.21612504290720769 0 0.11193009187841341 0.23778907333103991 0 0.13079881134157489 0.21612504290720769 0 0.1174426020893027 0.21369620670835879 0 0.10166443252893551 0.23659000017624271 0 0.11193009187841341 0.23778907333103991 0 0.1233060832280653 0.2372070654073864 0 0.1152979079485152 0.2467056018988516 0 0.1233060832280653 0.2372070654073864 0 0.1152979079485152 0.2467056018988516 0 0.1250676346401875 0.24796443701554319 0 0.11193009187841341 0.23778907333103991 0 0.1152979079485152 0.2467056018988516 0 0.10650461767427161 0.25132517155921902 0 0.11193009187841341 0.23778907333103991 0 0.10166443252893551 0.23659000017624271 0 0.093061372415253377 0.25945310375487363 0 0.10166443252893551 0.23659000017624271 0 0.085886262968569133 0.25948379364412733 0 0.11193009187841341 0.23778907333103991 0 0.093061372415253377 0.25945310375487363 0 0.11193009187841341 0.23778907333103991 0 0.093061372415253377 0.25945310375487363 0 0.10650461767427161 0.25132517155921902 0 0.091760355399887042 0.24149966876957779 0 0.090327239942362525 0.2312920649275291 0 0.10166443252893551 0.23659000017624271 0 0.08022281403025916 0.14313863688857029 0 0.093167312330706492 0.16073073013935579 0 0.097579150219516186 0.1459852772673329 0 0.08022281403025916 0.14313863688857029 0 0.079387562048995053 0.16654090924245221 0 0.08022281403025916 0.14313863688857029 0 0.097579150219516186 0.1459852772673329 0 0.098136173783193614 0.12855261503670501 0 0.081058066011519173 0.11973636453468819 0 0.08022281403025916 0.14313863688857029 0 0.081058066011519173 0.11973636453468819 0 0.08022281403025916 0.14313863688857029 0 0.098136173783193614 0.12855261503670501 0 0.054704645729867107 0.1303951701743557 0 0.068402942841081005 0.12865021266463919 0 0.06445510108496709 0.14831583671703669 0 0.081058066011519173 0.11973636453468819 0 0.08022281403025916 0.14313863688857029 0 0.068402942841081005 0.12865021266463919 0 0.08022281403025916 0.14313863688857029 0 0.068402942841081005 0.12865021266463919 0 0.06445510108496709 0.14831583671703669 0 0.08022281403025916 0.14313863688857029 0 0.06445510108496709 0.14831583671703669 0 0.079387562048995053 0.16654090924245221 0 0.06445510108496709 0.14831583671703669 0 0.06670876632053821 0.16536039993208129 0 0.079387562048995053 0.16654090924245221 0 0.056759789081437029 0.15816783404816359 0 0.06445510108496709 0.14831583671703669 0 0.06670876632053821 0.16536039993208129 0 0.06670876632053821 0.16536039993208129 0 0.071220178094475839 0.177519435916074 0 0.079387562048995053 0.16654090924245221 0 0.078552310067739675 0.1899431815963343 0 0.071220178094475839 0.177519435916074 0 0.079387562048995053 0.16654090924245221 0 0.057517378285335978 0.18642367489497111 0 0.078552310067739675 0.1899431815963343 0 0.071220178094475839 0.177519435916074 0 0.057517378285335978 0.18642367489497111 0 0.06670876632053821 0.16536039993208129 0 0.071220178094475839 0.177519435916074 0 0.078552310067739675 0.1899431815963343 0 0.079387562048995053 0.16654090924245221 0 0.078552310067739675 0.1899431815963343 0 0.079387562048995053 0.16654090924245221 0 0.094656188726405799 0.1772984468475671 0 0.078552310067739675 0.1899431815963343 0 0.1000095862482286 0.19353335379614581 0 0.094656188726405799 0.1772984468475671 0 0.079387562048995053 0.16654090924245221 0 0.093167312330706492 0.16073073013935579 0 0.094656188726405799 0.1772984468475671 0 0.08022281403025916 0.14313863688857029 0 0.079387562048995053 0.16654090924245221 0 0.093167312330706492 0.16073073013935579 0 0.093167312330706492 0.16073073013935579 0 0.1051682117550992 0.16863341283049499 0 0.094656188726405799 0.1772984468475671 0 0.093167312330706492 0.16073073013935579 0 0.1051682117550992 0.16863341283049499 0 0.10738037989590581 0.15691718048007991 0 0.1051682117550992 0.16863341283049499 0 0.094656188726405799 0.1772984468475671 0 0.1119621855324581 0.18388877331391679 0 0.1000095862482286 0.19353335379614581 0 0.094656188726405799 0.1772984468475671 0 0.1119621855324581 0.18388877331391679 0 0.1051682117550992 0.16863341283049499 0 0.1119621855324581 0.18388877331391679 0 0.1176573055604207 0.16965843036111 0 0.1119621855324581 0.18388877331391679 0 0.1176573055604207 0.16965843036111 0 0.12502668500631101 0.18003223183350331 0 0.1119621855324581 0.18388877331391679 0 0.12502668500631101 0.18003223183350331 0 0.12623709760602039 0.18867627876683751 0 0.10738037989590581 0.15691718048007991 0 0.1176573055604207 0.16965843036111 0 0.1263510041100718 0.15412713222648239 0 0.1051682117550992 0.16863341283049499 0 0.10738037989590581 0.15691718048007991 0 0.1176573055604207 0.16965843036111 0 0.10738037989590581 0.15691718048007991 0 0.1089890710575158 0.14058722379195329 0 0.1263510041100718 0.15412713222648239 0 0.1089890710575158 0.14058722379195329 0 0.1243116374868449 0.136850619307404 0 0.1263510041100718 0.15412713222648239 0 0.10738037989590581 0.15691718048007991 0 0.097579150219516186 0.1459852772673329 0 0.1089890710575158 0.14058722379195329 0 0.093167312330706492 0.16073073013935579 0 0.10738037989590581 0.15691718048007991 0 0.097579150219516186 0.1459852772673329 0 0.097579150219516186 0.1459852772673329 0 0.1089890710575158 0.14058722379195329 0 0.098136173783193614 0.12855261503670501 0 0.11707998843366239 0.12090166170324231 0 0.1089890710575158 0.14058722379195329 0 0.098136173783193614 0.12855261503670501 0 0.11707998843366239 0.12090166170324231 0 0.1089890710575158 0.14058722379195329 0 0.1243116374868449 0.136850619307404 0 0.11707998843366239 0.12090166170324231 0 0.1243116374868449 0.136850619307404 0 0.14061487869327599 0.12738787364596069 0 0.1243116374868449 0.136850619307404 0 0.14061487869327599 0.12738787364596069 0 0.1450893294801871 0.15084825440961219 0 0.14061487869327599 0.12738787364596069 0 0.1450893294801871 0.15084825440961219 0 0.16208469833826319 0.13464304631642149 0 0.1450893294801871 0.15084825440961219 0 0.16208469833826319 0.13464304631642149 0 0.1243116374868449 0.136850619307404 0 0.1450893294801871 0.15084825440961219 0 0.1263510041100718 0.15412713222648239 0 0.1450893294801871 0.15084825440961219 0 0.1263510041100718 0.15412713222648239 0 0.13434892063135129 0.1709012650253654 0 0.1176573055604207 0.16965843036111 0 0.1263510041100718 0.15412713222648239 0 0.13434892063135129 0.1709012650253654 0 0.1176573055604207 0.16965843036111 0 0.13434892063135129 0.1709012650253654 0 0.12502668500631101 0.18003223183350331 0 0.12502668500631101 0.18003223183350331 0 0.13317066441191511 0.18549658195139779 0 0.12623709760602039 0.18867627876683751 0 0.13434892063135129 0.1709012650253654 0 0.12502668500631101 0.18003223183350331 0 0.13317066441191511 0.18549658195139779 0 0.13434892063135129 0.1709012650253654 0 0.13317066441191511 0.18549658195139779 0 0.14289571148574401 0.18421669799074539 0 0.13434892063135129 0.1709012650253654 0 0.14289571148574401 0.18421669799074539 0 0.15014598838012391 0.16812378435884931 0 0.14289571148574401 0.18421669799074539 0 0.15014598838012391 0.16812378435884931 0 0.16340295837154781 0.17869074671240681 0 0.1450893294801871 0.15084825440961219 0 0.15014598838012391 0.16812378435884931 0 0.17025484901730581 0.156442106610301 0 0.1450893294801871 0.15084825440961219 0 0.13434892063135129 0.1709012650253654 0 0.15014598838012391 0.16812378435884931 0 0.15014598838012391 0.16812378435884931 0 0.17025484901730581 0.156442106610301 0 0.16340295837154781 0.17869074671240681 0 0.17025484901730581 0.156442106610301 0 0.16340295837154781 0.17869074671240681 0 0.18344157371591241 0.18406997535271 0 0.17025484901730581 0.156442106610301 0 0.18344157371591241 0.18406997535271 0 0.1981233639171355 0.16578679509823521 0 0.17025484901730581 0.156442106610301 0 0.1886017155567373 0.14211231666073301 0 0.1981233639171355 0.16578679509823521 0 0.17025484901730581 0.156442106610301 0 0.16208469833826319 0.13464304631642149 0 0.1886017155567373 0.14211231666073301 0 0.1886017155567373 0.14211231666073301 0 0.1790800671963392 0.1184378382232308 0 0.16208469833826319 0.13464304631642149 0 0.1886017155567373 0.14211231666073301 0 0.1790800671963392 0.1184378382232308 0 0.19325819231563421 0.12959887947710741 0 0.1886017155567373 0.14211231666073301 0 0.1790800671963392 0.1184378382232308 0 0.16208469833826319 0.13464304631642149 0 0.1790800671963392 0.1184378382232308 0 0.1450893294801871 0.15084825440961219 0 0.17025484901730581 0.156442106610301 0 0.16208469833826319 0.13464304631642149 0 0.1514273965657848 0.24085309905483679 0 0.13478444466321229 0.23767678351231611 0 0.14386495534927929 0.22895205141331151 0 0.1514273965657848 0.24085309905483679 0 0.13478444466321229 0.23767678351231611 0 0.1384713120865835 0.25773302092121009 0 0.1250676346401875 0.24796443701554319 0 0.13478444466321229 0.23767678351231611 0 0.1384713120865835 0.25773302092121009 0 0.1233060832280653 0.2372070654073864 0 0.1250676346401875 0.24796443701554319 0 0.13478444466321229 0.23767678351231611 0 0.1233060832280653 0.2372070654073864 0 0.13478444466321229 0.23767678351231611 0 0.13079881134157489 0.21612504290720769 0 0.13478444466321229 0.23767678351231611 0 0.14386495534927929 0.22895205141331151 0 0.13079881134157489 0.21612504290720769 0 0.14386495534927929 0.22895205141331151 0 0.13079881134157489 0.21612504290720769 0 0.15844916882654519 0.22115328017888419 0 0.1514273965657848 0.24085309905483679 0 0.14386495534927929 0.22895205141331151 0 0.15844916882654519 0.22115328017888419 0 0.13079881134157489 0.21612504290720769 0 0.15844916882654519 0.22115328017888419 0 0.13079881134157489 0.21612504290720769 0 0.14405659807402271 0.2009031781863346 0 0.15844916882654519 0.22115328017888419 0 0.13079881134157489 0.21612504290720769 0 0.12809949413598259 0.1982332796183166 0 0.14405659807402271 0.2009031781863346 0 0.1174426020893027 0.21369620670835879 0 0.13079881134157489 0.21612504290720769 0 0.12809949413598259 0.1982332796183166 0 0.13079881134157489 0.21612504290720769 0 0.14405659807402271 0.2009031781863346 0 0.12809949413598259 0.1982332796183166 0 0.14405659807402271 0.2009031781863346 0 0.12809949413598259 0.1982332796183166 0 0.1377541084679488 0.19338203871321119 0 0.14405659807402271 0.2009031781863346 0 0.12809949413598259 0.1982332796183166 0 0.13022991801334199 0.19514207920620891 0 0.1377541084679488 0.19338203871321119 0 0.12809949413598259 0.1982332796183166 0 0.13022991801334199 0.19514207920620891 0 0.12809949413598259 0.1982332796183166 0 0.12623709760602039 0.18867627876683751 0 0.13022991801334199 0.19514207920620891 0 0.13317066441191511 0.18549658195139779 0 0.12623709760602039 0.18867627876683751 0 0.13022991801334199 0.19514207920620891 0 0.13317066441191511 0.18549658195139779 0 0.14289571148574401 0.18421669799074539 0 0.1377541084679488 0.19338203871321119 0 0.13317066441191511 0.18549658195139779 0 0.13022991801334199 0.19514207920620891 0 0.1377541084679488 0.19338203871321119 0 0.14289571148574401 0.18421669799074539 0 0.1377541084679488 0.19338203871321119 0 0.14405659807402271 0.2009031781863346 0 0.14405659807402271 0.2009031781863346 0 0.1684266189286579 0.20498070278197239 0 0.14289571148574401 0.18421669799074539 0 0.16340295837154781 0.17869074671240681 0 0.14405659807402271 0.2009031781863346 0 0.16340295837154781 0.17869074671240681 0 0.14405659807402271 0.2009031781863346 0 0.16340295837154781 0.17869074671240681 0 0.18344157371591241 0.18406997535271 0 0.1684266189286579 0.20498070278197239 0 0.16340295837154781 0.17869074671240681 0 0.14405659807402271 0.2009031781863346 0 0.1684266189286579 0.20498070278197239 0 0.18344157371591241 0.18406997535271 0 0.1684266189286579 0.20498070278197239 0 0.19279663978329381 0.20905822737760699 0 0.1684266189286579 0.20498070278197239 0 0.19279663978329381 0.20905822737760699 0 0.17869659642439559 0.21414630976549021 0 0.1684266189286579 0.20498070278197239 0 0.19279663978329381 0.20905822737760699 0 0.17869659642439559 0.21414630976549021 0 0.18609952631151591 0.22618151745055959 0 0.19279663978329381 0.20905822737760699 0 0.14405659807402271 0.2009031781863346 0 0.1684266189286579 0.20498070278197239 0 0.15844916882654519 0.22115328017888419 0 0.17869659642439559 0.21414630976549021 0 0.1684266189286579 0.20498070278197239 0 0.15844916882654519 0.22115328017888419 0 0.1514273965657848 0.24085309905483679 0 0.15844916882654519 0.22115328017888419 0 0.1691493644934341 0.23606856512045299 0 0.15844916882654519 0.22115328017888419 0 0.18609952631151591 0.22618151745055959 0 0.1691493644934341 0.23606856512045299 0 0.17869659642439559 0.21414630976549021 0 0.15844916882654519 0.22115328017888419 0 0.18609952631151591 0.22618151745055959 0 0.15844916882654519 0.22115328017888419 0 0.18609952631151591 0.22618151745055959 0 0.18609952631151591 0.22618151745055959 0 0.1971008006350988 0.24422433182354611 0 0.17660728565697029 0.25284173787090108 0 0.18609952631151591 0.22618151745055959 0 0.1691493644934341 0.23606856512045299 0 0.17660728565697029 0.25284173787090108 0 0.1514273965657848 0.24085309905483679 0 0.17660728565697029 0.25284173787090108 0 0.1514273965657848 0.24085309905483679 0 0.1691493644934341 0.23606856512045299 0 0.17660728565697029 0.25284173787090108 0 0.1971008006350988 0.24422433182354611 0 0.21374988379648621 0.2312097547222359 0 0.2257125065402284 0.25431107802280528 0 0.18609952631151591 0.22618151745055959 0 0.19919001424274069 0.21902366269476331 0 0.2102140220753515 0.22438156273492879 0 0.18609952631151591 0.22618151745055959 0 0.1971008006350988 0.24422433182354611 0 0.21374988379648621 0.2312097547222359 0 0.18609952631151591 0.22618151745055959 0 0.21374988379648621 0.2312097547222359 0 0.18609952631151591 0.22618151745055959 0 0.2102140220753515 0.22438156273492879 0 0.21374988379648621 0.2312097547222359 0 0.19919001424274069 0.21902366269476331 0 0.2102140220753515 0.22438156273492879 0 0.22326984787173351 0.22831062181695069 0 0.19919001424274069 0.21902366269476331 0 0.21716666063792969 0.21313575197324039 0 0.22326984787173351 0.22831062181695069 0 0.19919001424274069 0.21902366269476331 0 0.22326984787173351 0.22831062181695069 0 0.2102140220753515 0.22438156273492879 0 0.21374988379648621 0.2312097547222359 0 0.2102140220753515 0.22438156273492879 0 0.21374988379648621 0.2312097547222359 0 0.22326984787173351 0.22831062181695069 0 0.21716666063792969 0.21313575197324039 0 0.19279663978329381 0.20905822737760699 0 0.20764501227753371 0.18946127353573741 0 0.21716666063792969 0.21313575197324039 0 0.19279663978329381 0.20905822737760699 0 0.19919001424274069 0.21902366269476331 0 0.21716666063792969 0.21313575197324039 0 0.19279663978329381 0.20905822737760699 0 0.18609952631151591 0.22618151745055959 0 0.19919001424274069 0.21902366269476331 0 0.19279663978329381 0.20905822737760699 0 0.18344157371591241 0.18406997535271 0 0.19279663978329381 0.20905822737760699 0 0.20764501227753371 0.18946127353573741 0 0.21716666063792969 0.21313575197324039 0 0.20764501227753371 0.18946127353573741 0 0.21716666063792969 0.21313575197324039 0 0.20764501227753371 0.18946127353573741 0 0.22349524510262589 0.1882929917077163 0 0.21716666063792969 0.21313575197324039 0 0.22349524510262589 0.1882929917077163 0 0.23482300448504159 0.1984970970255906 0 0.22349524510262589 0.1882929917077163 0 0.23482300448504159 0.1984970970255906 0 0.23800281531175979 0.18073324988006281 0 0.23482300448504159 0.1984970970255906 0 0.24828008483854189 0.20295934428596721 0 0.25113643024109478 0.19094495075723769 0 0.23482300448504159 0.1984970970255906 0 0.23800281531175979 0.18073324988006281 0 0.25113643024109478 0.19094495075723769 0 0.23482300448504159 0.1984970970255906 0 0.24828008483854189 0.20295934428596721 0 0.24332195560292991 0.2175119837032847 0 0.21716666063792969 0.21313575197324039 0 0.23482300448504159 0.1984970970255906 0 0.24332195560292991 0.2175119837032847 0 0.21716666063792969 0.21313575197324039 0 0.24332195560292991 0.2175119837032847 0 0.22527908084694109 0.23330634744632109 0 0.22326984787173351 0.22831062181695069 0 0.2459873280094696 0.23707215699401071 0 0.21716666063792969 0.21313575197324039 0 0.24332195560292991 0.2175119837032847 0 0.22326984787173351 0.22831062181695069 0 0.21716666063792969 0.21313575197324039 0 0.22326984787173351 0.22831062181695069 0 0.21374988379648621 0.2312097547222359 0 0.22527908084694109 0.23330634744632109 0 0.22326984787173351 0.22831062181695069 0 0.21374988379648621 0.2312097547222359 0 0.22527908084694109 0.23330634744632109 0 0.22527908084694109 0.23330634744632109 0 0.22326984787173351 0.22831062181695069 0 0.22326984787173351 0.22831062181695069 0 0.2459873280094696 0.23707215699401071 0 0.24332195560292991 0.2175119837032847 0 0.22326984787173351 0.22831062181695069 0 0.2459873280094696 0.23707215699401071 0 0.22527908084694109 0.23330634744632109 0 0.2459873280094696 0.23707215699401071 0 0.22527908084694109 0.23330634744632109 0 0.2459873280094696 0.23707215699401071 0 0.23435940432808119 0.2558835225658645 0 0.22527908084694109 0.23330634744632109 0 0.23435940432808119 0.2558835225658645 0 0.21374988379648621 0.2312097547222359 0 0.2257125065402284 0.25431107802280528 0 0.21374988379648621 0.2312097547222359 0 0.22527908084694109 0.23330634744632109 0 0.2257125065402284 0.25431107802280528 0 0.22527908084694109 0.23330634744632109 0 0.2257125065402284 0.25431107802280528 0 0.23435940432808119 0.2558835225658645 0 0.207677409848747 0.15265436726913009 0 0.20799191400454739 0.1375227668896451 0 0.22134903716669199 0.14708536363501609 0 0.20799191400454739 0.1375227668896451 0 0.22703691245497479 0.13189098412415109 0 0.21251029914637609 0.1192952894197942 0 0.20799191400454739 0.1375227668896451 0 0.19325819231563421 0.12959887947710741 0 0.21251029914637609 0.1192952894197942 0 0.20799191400454739 0.1375227668896451 0 0.19325819231563421 0.12959887947710741 0 0.1886017155567373 0.14211231666073301 0 0.1886017155567373 0.14211231666073301 0 0.1981233639171355 0.16578679509823521 0 0.207677409848747 0.15265436726913009 0 0.20799191400454739 0.1375227668896451 0 0.1886017155567373 0.14211231666073301 0 0.207677409848747 0.15265436726913009 0 0.1886017155567373 0.14211231666073301 0 0.1981233639171355 0.16578679509823521 0 0.20764501227753371 0.18946127353573741 0 0.1981233639171355 0.16578679509823521 0 0.18344157371591241 0.18406997535271 0 0.20764501227753371 0.18946127353573741 0 0.1981233639171355 0.16578679509823521 0 0.20764501227753371 0.18946127353573741 0 0.1981233639171355 0.16578679509823521 0 0.22193333897365611 0.16940236618161161 0 0.20764501227753371 0.18946127353573741 0 0.22349524510262589 0.1882929917077163 0 0.22193333897365611 0.16940236618161161 0 0.207677409848747 0.15265436726913009 0 0.1981233639171355 0.16578679509823521 0 0.22193333897365611 0.16940236618161161 0 0.207677409848747 0.15265436726913009 0 0.22193333897365611 0.16940236618161161 0 0.22134903716669199 0.14708536363501609 0 0.22349524510262589 0.1882929917077163 0 0.22193333897365611 0.16940236618161161 0 0.23800281531175979 0.18073324988006281 0 0.23800281531175979 0.18073324988006281 0 0.24342118736862761 0.16410875332904781 0 0.25421457754785548 0.17528354573505059 0 0.23800281531175979 0.18073324988006281 0 0.25421457754785548 0.17528354573505059 0 0.25113643024109478 0.19094495075723769 0 0.22193333897365611 0.16940236618161161 0 0.23800281531175979 0.18073324988006281 0 0.24342118736862761 0.16410875332904781 0 0.22193333897365611 0.16940236618161161 0 0.24342118736862761 0.16410875332904781 0 0.2381959797174126 0.14809141417820801 0 0.2381959797174126 0.14809141417820801 0 0.2471064899150823 0.133463067737116 0 0.25227113898158787 0.14916335431643429 0 0.24342118736862761 0.16410875332904781 0 0.2381959797174126 0.14809141417820801 0 0.25227113898158787 0.14916335431643429 0 0.2381959797174126 0.14809141417820801 0 0.22134903716669199 0.14708536363501609 0 0.22703691245497479 0.13189098412415109 0 0.22193333897365611 0.16940236618161161 0 0.2381959797174126 0.14809141417820801 0 0.22134903716669199 0.14708536363501609 0 0.20799191400454739 0.1375227668896451 0 0.22134903716669199 0.14708536363501609 0 0.22703691245497479 0.13189098412415109 0 0.22703691245497479 0.13189098412415109 0 0.2471064899150823 0.133463067737116 0 0.2348532799323845 0.1126728752525727 0 0.2381959797174126 0.14809141417820801 0 0.22703691245497479 0.13189098412415109 0 0.2471064899150823 0.133463067737116 0 0.2471064899150823 0.133463067737116 0 0.2496952397761337 0.1160329650041991 0 0.2348532799323845 0.1126728752525727 0 0.2348532799323845 0.1126728752525727 0 0.23238347446995899 0.09878858498409393 0 0.25089272908716931 0.092982859712809007 0 0.2496952397761337 0.1160329650041991 0 0.2348532799323845 0.1126728752525727 0 0.25089272908716931 0.092982859712809007 0 0.23238347446995899 0.09878858498409393 0 0.21965336389696419 0.1029970115124081 0 0.22413452496331809 0.086501593458585962 0 0.2348532799323845 0.1126728752525727 0 0.23238347446995899 0.09878858498409393 0 0.21965336389696419 0.1029970115124081 0 0.2348532799323845 0.1126728752525727 0 0.21965336389696419 0.1029970115124081 0 0.21251029914637609 0.1192952894197942 0 0.22703691245497479 0.13189098412415109 0 0.2348532799323845 0.1126728752525727 0 0.21251029914637609 0.1192952894197942 0 0.21965336389696419 0.1029970115124081 0 0.21251029914637609 0.1192952894197942 0 0.20714728240524249 0.10617251279081751 0 0.21251029914637609 0.1192952894197942 0 0.20714728240524249 0.10617251279081751 0 0.2007454095485067 0.1153730887768626 0 0.21965336389696419 0.1029970115124081 0 0.21155544327336909 0.093494818701204518 0 0.22413452496331809 0.086501593458585962 0 0.21965336389696419 0.1029970115124081 0 0.20714728240524249 0.10617251279081751 0 0.21155544327336909 0.093494818701204518 0 0.20029711589946361 0.098207227624031723 0 0.20055037116402991 0.091606906531847498 0 0.21155544327336909 0.093494818701204518 0 0.20714728240524249 0.10617251279081751 0 0.20029711589946361 0.098207227624031723 0 0.21155544327336909 0.093494818701204518 0 0.19812206266677551 0.107667640710604 0 0.20029711589946361 0.098207227624031723 0 0.1885688884481975 0.1093901779912298 0 0.20714728240524249 0.10617251279081751 0 0.19812206266677551 0.107667640710604 0 0.20029711589946361 0.098207227624031723 0 0.20029711589946361 0.098207227624031723 0 0.1929726046438287 0.094705252597794665 0 0.20055037116402991 0.091606906531847498 0 0.1929726046438287 0.094705252597794665 0 0.1885688884481975 0.1093901779912298 0 0.1832996600419958 0.1003897382564244 0 0.20029711589946361 0.098207227624031723 0 0.1929726046438287 0.094705252597794665 0 0.1885688884481975 0.1093901779912298 0 0.20029711589946361 0.098207227624031723 0 0.1885688884481975 0.1093901779912298 0 0.1929726046438287 0.094705252597794665 0 0.1885688884481975 0.1093901779912298 0 0.19812206266677551 0.107667640710604 0 0.19247123508700151 0.1156451737142033 0 0.1885688884481975 0.1093901779912298 0 0.19247123508700151 0.1156451737142033 0 0.1885688884481975 0.1093901779912298 0 0.1858372065203453 0.1184994265274882 0 0.19325819231563421 0.12959887947710741 0 0.21251029914637609 0.1192952894197942 0 0.2007454095485067 0.1153730887768626 0 0.19325819231563421 0.12959887947710741 0 0.19247123508700151 0.1156451737142033 0 0.1858372065203453 0.1184994265274882 0 0.19325819231563421 0.12959887947710741 0 0.19247123508700151 0.1156451737142033 0 0.2007454095485067 0.1153730887768626 0 0.20714728240524249 0.10617251279081751 0 0.19812206266677551 0.107667640710604 0 0.2007454095485067 0.1153730887768626 0 0.19812206266677551 0.107667640710604 0 0.19247123508700151 0.1156451737142033 0 0.2007454095485067 0.1153730887768626 0 0.20238686903042469 0.063311819413239129 0 0.1973763208394673 0.08002032720436178 0 0.18079222374313991 0.066157073385880324 0 0.20238686903042469 0.063311819413239129 0 0.18079222374313991 0.066157073385880324 0 0.1973763208394673 0.08002032720436178 0 0.17868141559437861 0.075492121278057239 0 0.20238686903042469 0.063311819413239129 0 0.1973763208394673 0.08002032720436178 0 0.1929726046438287 0.094705252597794665 0 0.1973763208394673 0.08002032720436178 0 0.1929726046438287 0.094705252597794665 0 0.1973763208394673 0.08002032720436178 0 0.18493574174144031 0.087819629641268118 0 0.1929726046438287 0.094705252597794665 0 0.20055037116402991 0.091606906531847498 0 0.1973763208394673 0.08002032720436178 0 0.1973763208394673 0.08002032720436178 0 0.22413452496331809 0.086501593458585962 0 0.1973763208394673 0.08002032720436178 0 0.21155544327336909 0.093494818701204518 0 0.22413452496331809 0.086501593458585962 0 0.1973763208394673 0.08002032720436178 0 0.21581045027983861 0.072515516379325212 0 0.22413452496331809 0.086501593458585962 0 0.20055037116402991 0.091606906531847498 0 0.1973763208394673 0.08002032720436178 0 0.21155544327336909 0.093494818701204518 0 0.20238686903042469 0.063311819413239129 0 0.21581045027983861 0.072515516379325212 0 0.22639199231908241 0.060148967164815811 0 0.20238686903042469 0.063311819413239129 0 0.1973763208394673 0.08002032720436178 0 0.21581045027983861 0.072515516379325212 0 0.21581045027983861 0.072515516379325212 0 0.22413452496331809 0.086501593458585962 0 0.23571274181676019 0.070187616308315881 0 0.21581045027983861 0.072515516379325212 0 0.23571274181676019 0.070187616308315881 0 0.22639199231908241 0.060148967164815811 0 0.23571274181676019 0.070187616308315881 0 0.23935269316475091 0.05797056278501677 0 0.22639199231908241 0.060148967164815811 0 0.22413452496331809 0.086501593458585962 0 0.25089272908716931 0.092982859712809007 0 0.22413452496331809 0.086501593458585962 0 0.23571274181676019 0.070187616308315881 0 0.25089272908716931 0.092982859712809007 0 0.23238347446995899 0.09878858498409393 0 0.22413452496331809 0.086501593458585962 0 0.25089272908716931 0.092982859712809007 0 0.23571274181676019 0.070187616308315881 0 0.25089272908716931 0.092982859712809007 0 0.23571274181676019 0.070187616308315881 0 0.25282536794073712 0.073272794188635415 0 0.25089272908716931 0.092982859712809007 0 0.23935269316475091 0.05797056278501677 0 0.25425538404847059 0.057624927133231481 0 0.25282536794073712 0.073272794188635415 0 0.23571274181676019 0.070187616308315881 0 0.23935269316475091 0.05797056278501677 0 0.25282536794073712 0.073272794188635415 0 0.2368345322212535 0.044434942105003657 0 0.25425538404847059 0.057624927133231481 0 0.23935269316475091 0.05797056278501677 0 0.2368345322212535 0.044434942105003657 0 0.25425538404847059 0.057624927133231481 0 0.23935269316475091 0.05797056278501677 0 0.2368345322212535 0.044434942105003657 0 0.23127016951469481 0.052559852354376588 0 0.2368345322212535 0.044434942105003657 0 0.25291178968964928 0.037547667281027097 0 0.25425538404847059 0.057624927133231481 0 0.2368345322212535 0.044434942105003657 0 0.24190969492169709 0.024768393557462999 0 0.25291178968964928 0.037547667281027097 0 0.2368345322212535 0.044434942105003657 0 0.21941368039403211 0.031244957076781411 0 0.2368345322212535 0.044434942105003657 0 0.22121604545690071 0.040326540279582428 0 0.22250146035369231 0.047684937362670127 0 0.2368345322212535 0.044434942105003657 0 0.22121604545690071 0.040326540279582428 0 0.21941368039403211 0.031244957076781411 0 0.2368345322212535 0.044434942105003657 0 0.24190969492169709 0.024768393557462999 0 0.21941368039403211 0.031244957076781411 0 0.22121604545690071 0.040326540279582428 0 0.22250146035369231 0.047684937362670127 0 0.2151241054634794 0.043140718643033253 0 0.22250146035369231 0.047684937362670127 0 0.22639199231908241 0.060148967164815811 0 0.21464985550632831 0.05254647609126252 0 0.23935269316475091 0.05797056278501677 0 0.22639199231908241 0.060148967164815811 0 0.23127016951469481 0.052559852354376588 0 0.2368345322212535 0.044434942105003657 0 0.22250146035369231 0.047684937362670127 0 0.23127016951469481 0.052559852354376588 0 0.22250146035369231 0.047684937362670127 0 0.22639199231908241 0.060148967164815811 0 0.23127016951469481 0.052559852354376588 0 0.23517440673197429 0.0051848507458196356 0 0.24190969492169709 0.024768393557462999 0 0.22860778246280219 0.01441509204728152 0 0.23517440673197429 0.0051848507458196356 0 0.2485551203034157 0.0102848256948572 0 0.24190969492169709 0.024768393557462999 0 0.23517440673197429 0.0051848507458196356 0 0.2429424487767215 0.0026164120279975069 0 0.24005113852307369 -0.0027355710512556022 0 0.23517440673197429 0.0051848507458196356 0 0.2429424487767215 0.0026164120279975069 0 0.2485551203034157 0.0102848256948572 0 0.2429424487767215 0.0026164120279975069 0 0.2485551203034157 0.0102848256948572 0 0.2479891295484222 -0.0022684572774312019 0 0.2237082671027216 0.020648212041472009 0 0.22100796739575951 0.001216664300799794 0 0.21337432104441539 0.026672329963493752 0 0.24190969492169709 0.024768393557462999 0 0.21941368039403211 0.031244957076781411 0 0.24190969492169709 0.024768393557462999 0 0.21941368039403211 0.031244957076781411 0 0.2237082671027216 0.020648212041472009 0 0.24190969492169709 0.024768393557462999 0 0.2237082671027216 0.020648212041472009 0 0.22860778246280219 0.01441509204728152 0 0.21941368039403211 0.031244957076781411 0 0.2237082671027216 0.020648212041472009 0 0.21337432104441539 0.026672329963493752 0 0.2237082671027216 0.020648212041472009 0 0.22860778246280219 0.01441509204728152 0 0.22100796739575951 0.001216664300799794 0 0.23517440673197429 0.0051848507458196356 0 0.22860778246280219 0.01441509204728152 0 0.22100796739575951 0.001216664300799794 0 0.22100796739575951 0.001216664300799794 0 0.21337432104441539 0.026672329963493752 0 0.22100796739575951 0.001216664300799794 0 0.21213365429295861 0.01041237886839381 0 0.21337432104441539 0.026672329963493752 0 0.20938161325362409 0.0025060029461209908 0 0.21213365429295861 0.01041237886839381 0 0.19981118715584381 0.0070254328827108366 0 0.20938161325362409 0.0025060029461209908 0 0.19981118715584381 0.0070254328827108366 0 0.20239897911060981 -0.0049616950454924097 0 0.22100796739575951 0.001216664300799794 0 0.21476518088515931 0.0026345493870347861 0 0.21213365429295861 0.01041237886839381 0 0.20938161325362409 0.0025060029461209908 0 0.21476518088515931 0.0026345493870347861 0 0.21653748859829491 -0.0035968485671754561 0 0.20938161325362409 0.0025060029461209908 0 0.21476518088515931 0.0026345493870347861 0 0.21213365429295861 0.01041237886839381 0 0.22100796739575951 0.001216664300799794 0 0.21476518088515931 0.0026345493870347861 0 0.21653748859829491 -0.0035968485671754561 0 0.21213365429295861 0.01041237886839381 0 0.20775643638324501 0.022418817258943329 0 0.19981118715584381 0.0070254328827108366 0 0.20775643638324501 0.022418817258943329 0 0.19981118715584381 0.0070254328827108366 0 0.21213365429295861 0.01041237886839381 0 0.20775643638324501 0.022418817258943329 0 0.21337432104441539 0.026672329963493752 0 0.20775643638324501 0.022418817258943329 0 0.21337432104441539 0.026672329963493752 0 0.21211661331991941 0.030866365927793071 0 0.21941368039403211 0.031244957076781411 0 0.21337432104441539 0.026672329963493752 0 0.21211661331991941 0.030866365927793071 0 0.21941368039403211 0.031244957076781411 0 0.21337432104441539 0.026672329963493752 0 0.21337432104441539 0.026672329963493752 0 0.21211661331991941 0.030866365927793071 0 0.20775643638324501 0.022418817258943329 0 0.21211661331991941 0.030866365927793071 0 0.2008624239423544 0.027751844864101351 0 0.21211661331991941 0.030866365927793071 0 0.2008624239423544 0.027751844864101351 0 0.21130283169949521 0.033580056331867662 0 0.20775643638324501 0.022418817258943329 0 0.21211661331991941 0.030866365927793071 0 0.20775643638324501 0.022418817258943329 0 0.21337432104441539 0.026672329963493752 0 0.2008624239423544 0.027751844864101351 0 0.1914807756371078 0.039286791852227318 0 0.1874867753674215 0.0231110496262097 0 0.2008624239423544 0.027751844864101351 0 0.19503111124693581 0.017247988187571551 0 0.1874867753674215 0.0231110496262097 0 0.19503111124693581 0.017247988187571551 0 0.18734518720319909 0.015281891910368059 0 0.1874867753674215 0.0231110496262097 0 0.20775643638324501 0.022418817258943329 0 0.2008624239423544 0.027751844864101351 0 0.19503111124693581 0.017247988187571551 0 0.20775643638324501 0.022418817258943329 0 0.19503111124693581 0.017247988187571551 0 0.18660242445042999 0.0064023156866817926 0 0.20775643638324501 0.022418817258943329 0 0.18660242445042999 0.0064023156866817926 0 0.20775643638324501 0.022418817258943329 0 0.1894192936343001 0.0060385698470956234 0 0.19981118715584381 0.0070254328827108366 0 0.20775643638324501 0.022418817258943329 0 0.1894192936343001 0.0060385698470956234 0 0.18660242445042999 0.0064023156866817926 0 0.19503111124693581 0.017247988187571551 0 0.18832376542685261 0.012450231659139751 0 0.18660242445042999 0.0064023156866817926 0 0.19503111124693581 0.017247988187571551 0 0.18832376542685261 0.012450231659139751 0 0.18734518720319909 0.015281891910368059 0 0.1894192936343001 0.0060385698470956234 0 0.19981118715584381 0.0070254328827108366 0 0.1918659379284415 -0.0083679514935210662 0 0.20238686903042469 0.063311819413239129 0 0.22639199231908241 0.060148967164815811 0 0.21464985550632831 0.05254647609126252 0 0.20238686903042469 0.063311819413239129 0 0.22639199231908241 0.060148967164815811 0 0.20238686903042469 0.063311819413239129 0 0.20684485036496281 0.04844593787255428 0 0.21464985550632831 0.05254647609126252 0 0.20238686903042469 0.063311819413239129 0 0.20684485036496281 0.04844593787255428 0 0.20684485036496281 0.04844593787255428 0 0.21464985550632831 0.05254647609126252 0 0.2151241054634794 0.043140718643033253 0 0.22250146035369231 0.047684937362670127 0 0.21464985550632831 0.05254647609126252 0 0.2151241054634794 0.043140718643033253 0 0.20684485036496281 0.04844593787255428 0 0.2151241054634794 0.043140718643033253 0 0.21130283169949521 0.033580056331867662 0 0.20684485036496281 0.04844593787255428 0 0.21130283169949521 0.033580056331867662 0 0.1914807756371078 0.039286791852227318 0 0.2151241054634794 0.043140718643033253 0 0.21130283169949521 0.033580056331867662 0 0.21323078658658201 0.03302500146766809 0 0.22121604545690071 0.040326540279582428 0 0.2151241054634794 0.043140718643033253 0 0.21323078658658201 0.03302500146766809 0 0.22121604545690071 0.040326540279582428 0 0.21941368039403211 0.031244957076781411 0 0.21323078658658201 0.03302500146766809 0 0.21941368039403211 0.031244957076781411 0 0.21211661331991941 0.030866365927793071 0 0.21323078658658201 0.03302500146766809 0 0.21941368039403211 0.031244957076781411 0 0.21323078658658201 0.03302500146766809 0 0.21130283169949521 0.033580056331867662 0 0.21323078658658201 0.03302500146766809 0 0.21211661331991941 0.030866365927793071 0 0.21130283169949521 0.033580056331867662 0 0.21323078658658201 0.03302500146766809 0 0.21211661331991941 0.030866365927793071 0 0.21130283169949521 0.033580056331867662 0 0.21211661331991941 0.030866365927793071 0 0.21323078658658201 0.03302500146766809 0 0.20684485036496281 0.04844593787255428 0 0.21130283169949521 0.033580056331867662 0 0.20684485036496281 0.04844593787255428 0 0.1914807756371078 0.039286791852227318 0 0.1906326876700713 0.052439029979298252 0 0.21130283169949521 0.033580056331867662 0 0.1914807756371078 0.039286791852227318 0 0.2008624239423544 0.027751844864101351 0 0.21130283169949521 0.033580056331867662 0 0.1914807756371078 0.039286791852227318 0 0.20238686903042469 0.063311819413239129 0 0.20684485036496281 0.04844593787255428 0 0.1906326876700713 0.052439029979298252 0 0.20238686903042469 0.063311819413239129 0 0.1906326876700713 0.052439029979298252 0 0.18079222374313991 0.066157073385880324 0 0.1906326876700713 0.052439029979298252 0 0.1716587195747214 0.044993527372590117 0 0.18079222374313991 0.066157073385880324 0 0.1914807756371078 0.039286791852227318 0 0.17895959729017549 0.03270519686463521 0 0.1874867753674215 0.0231110496262097 0 0.1914807756371078 0.039286791852227318 0 0.1906326876700713 0.052439029979298252 0 0.1716587195747214 0.044993527372590117 0 0.1914807756371078 0.039286791852227318 0 0.1716587195747214 0.044993527372590117 0 0.1914807756371078 0.039286791852227318 0 0.17895959729017549 0.03270519686463521 0 0.1716587195747214 0.044993527372590117 0 0.17895959729017549 0.03270519686463521 0 0.1716587195747214 0.044993527372590117 0 0.1692336025848987 0.033942773786365128 0 0.1716587195747214 0.044993527372590117 0 0.1692336025848987 0.033942773786365128 0 0.1566962317421734 0.039838803654011962 0 0.1716587195747214 0.044993527372590117 0 0.1566962317421734 0.039838803654011962 0 0.15183666351233449 0.050700262892952028 0 0.1692336025848987 0.033942773786365128 0 0.1566962317421734 0.039838803654011962 0 0.158601754226253 0.030081739901262169 0 0.1716587195747214 0.044993527372590117 0 0.15183666351233449 0.050700262892952028 0 0.15919757845585511 0.069002327358520896 0 0.1716587195747214 0.044993527372590117 0 0.18079222374313991 0.066157073385880324 0 0.15919757845585511 0.069002327358520896 0 0.1716587195747214 0.044993527372590117 0 0.15183666351233449 0.050700262892952028 0 0.17227434920368959 0.00081991249798677823 0 0.17658810010716819 0.0040568459827444014 0 0.17786282304025339 -0.001583287003114023 0 0.17227434920368959 0.00081991249798677823 0 0.17658810010716819 0.0040568459827444014 0 0.17233771352019589 0.0083561011481188656 0 0.17658810010716819 0.0040568459827444014 0 0.18177514670000741 0.0039010391453388991 0 0.17943453638861959 0.0091511058078182841 0 0.17658810010716819 0.0040568459827444014 0 0.17943453638861959 0.0091511058078182841 0 0.17233771352019589 0.0083561011481188656 0 0.17658810010716819 0.0040568459827444014 0 0.18177514670000741 0.0039010391453388991 0 0.17786282304025339 -0.001583287003114023 0 0.18177514670000741 0.0039010391453388991 0 0.18580903226614379 -0.0011502469314075439 0 0.17786282304025339 -0.001583287003114023 0 0.1894192936343001 0.0060385698470956234 0 0.18660242445042999 0.0064023156866817926 0 0.18580903226614379 -0.0011502469314075439 0 0.18177514670000741 0.0039010391453388991 0 0.18660242445042999 0.0064023156866817926 0 0.18580903226614379 -0.0011502469314075439 0 0.18177514670000741 0.0039010391453388991 0 0.18660242445042999 0.0064023156866817926 0 0.18303211158647559 0.0075807978729441382 0 0.18177514670000741 0.0039010391453388991 0 0.18303211158647559 0.0075807978729441382 0 0.17943453638861959 0.0091511058078182841 0 0.18303211158647559 0.0075807978729441382 0 0.18431633880684531 0.01086873085193758 0 0.17943453638861959 0.0091511058078182841 0 0.18660242445042999 0.0064023156866817926 0 0.18303211158647559 0.0075807978729441382 0 0.18431633880684531 0.01086873085193758 0 0.18832376542685261 0.012450231659139751 0 0.18660242445042999 0.0064023156866817926 0 0.18431633880684531 0.01086873085193758 0 0.18431633880684531 0.01086873085193758 0 0.18734518720319909 0.015281891910368059 0 0.18195036267736389 0.015275800378046231 0 0.18832376542685261 0.012450231659139751 0 0.18431633880684531 0.01086873085193758 0 0.18734518720319909 0.015281891910368059 0 0.18431633880684531 0.01086873085193758 0 0.18195036267736389 0.015275800378046231 0 0.17943453638861959 0.0091511058078182841 0 0.18195036267736389 0.015275800378046231 0 0.1761571917665653 0.013806221612761949 0 0.17943453638861959 0.0091511058078182841 0 0.1761571917665653 0.013806221612761949 0 0.17943453638861959 0.0091511058078182841 0 0.17233771352019589 0.0083561011481188656 0 0.1761571917665653 0.013806221612761949 0 0.17233771352019589 0.0083561011481188656 0 0.1709247624247007 0.01466984692398882 0 0.1761571917665653 0.013806221612761949 0 0.17493811328672779 0.022191841685783802 0 0.1709247624247007 0.01466984692398882 0 0.18195036267736389 0.015275800378046231 0 0.1761571917665653 0.013806221612761949 0 0.17493811328672779 0.022191841685783802 0 0.18734518720319909 0.015281891910368059 0 0.18195036267736389 0.015275800378046231 0 0.1874867753674215 0.0231110496262097 0 0.18195036267736389 0.015275800378046231 0 0.17493811328672779 0.022191841685783802 0 0.1874867753674215 0.0231110496262097 0 0.17895959729017549 0.03270519686463521 0 0.17493811328672779 0.022191841685783802 0 0.1874867753674215 0.0231110496262097 0 0.17895959729017549 0.03270519686463521 0 0.1692336025848987 0.033942773786365128 0 0.17493811328672779 0.022191841685783802 0 0.1692336025848987 0.033942773786365128 0 0.1660519956958274 0.025200646889517071 0 0.158601754226253 0.030081739901262169 0 0.1692336025848987 0.033942773786365128 0 0.17493811328672779 0.022191841685783802 0 0.1660519956958274 0.025200646889517071 0 0.1660519956958274 0.025200646889517071 0 0.158601754226253 0.030081739901262169 0 0.15656323758401319 0.020842958383828041 0 0.15656323758401319 0.020842958383828041 0 0.1655425680131333 0.017645951334422452 0 0.15799820797772829 0.01069464001977203 0 0.1660519956958274 0.025200646889517071 0 0.15656323758401319 0.020842958383828041 0 0.1655425680131333 0.017645951334422452 0 0.17493811328672779 0.022191841685783802 0 0.1660519956958274 0.025200646889517071 0 0.1655425680131333 0.017645951334422452 0 0.17493811328672779 0.022191841685783802 0 0.1655425680131333 0.017645951334422452 0 0.1709247624247007 0.01466984692398882 0 0.17233771352019589 0.0083561011481188656 0 0.1709247624247007 0.01466984692398882 0 0.16528784937855559 0.0099045707114697821 0 0.1655425680131333 0.017645951334422452 0 0.1709247624247007 0.01466984692398882 0 0.16528784937855559 0.0099045707114697821 0 0.1655425680131333 0.017645951334422452 0 0.16528784937855559 0.0099045707114697821 0 0.15799820797772829 0.01069464001977203 0 0.16528784937855559 0.0099045707114697821 0 0.15830422717032419 0.0026668804518291322 0 0.16550177429739321 0.001625335581948511 0 0.16528784937855559 0.0099045707114697821 0 0.15799820797772829 0.01069464001977203 0 0.15830422717032419 0.0026668804518291322 0 0.17233771352019589 0.0083561011481188656 0 0.16528784937855559 0.0099045707114697821 0 0.16550177429739321 0.001625335581948511 0 0.17227434920368959 0.00081991249798677823 0 0.17233771352019589 0.0083561011481188656 0 0.16550177429739321 0.001625335581948511 0 0.14127976741107601 0.00215554095495248 0 0.15230472087545879 0.0045339035350271751 0 0.14873370341600839 0.01190124285016711 0 0.15799820797772829 0.01069464001977203 0 0.15830422717032419 0.0026668804518291322 0 0.15230472087545879 0.0045339035350271751 0 0.14127976741107601 0.00215554095495248 0 0.15230472087545879 0.0045339035350271751 0 0.1552076984021574 -0.0047487866015848753 0 0.15830422717032419 0.0026668804518291322 0 0.15230472087545879 0.0045339035350271751 0 0.1552076984021574 -0.0047487866015848753 0 0.15656323758401319 0.020842958383828041 0 0.15799820797772829 0.01069464001977203 0 0.14873370341600839 0.01190124285016711 0 0.15799820797772829 0.01069464001977203 0 0.15230472087545879 0.0045339035350271751 0 0.14873370341600839 0.01190124285016711 0 0.14873370341600839 0.01190124285016711 0 0.1458857290053831 0.021389540043380069 0 0.13967636330765321 0.013174792475989121 0 0.14127976741107601 0.00215554095495248 0 0.14873370341600839 0.01190124285016711 0 0.13967636330765321 0.013174792475989121 0 0.1458857290053831 0.021389540043380069 0 0.13916191736165201 0.019633136795163032 0 0.13967636330765321 0.013174792475989121 0 0.1458857290053831 0.021389540043380069 0 0.14010063181871271 0.02585166497444577 0 0.13916191736165201 0.019633136795163032 0 0.15656323758401319 0.020842958383828041 0 0.1458857290053831 0.021389540043380069 0 0.15175299049851881 0.02729842449465077 0 0.15656323758401319 0.020842958383828041 0 0.14873370341600839 0.01190124285016711 0 0.1458857290053831 0.021389540043380069 0 0.158601754226253 0.030081739901262169 0 0.15656323758401319 0.020842958383828041 0 0.15175299049851881 0.02729842449465077 0 0.158601754226253 0.030081739901262169 0 0.15175299049851881 0.02729842449465077 0 0.15159127196488009 0.032471007951428398 0 0.15175299049851881 0.02729842449465077 0 0.14523576613563741 0.02976945682372012 0 0.15159127196488009 0.032471007951428398 0 0.1458857290053831 0.021389540043380069 0 0.14523576613563741 0.02976945682372012 0 0.14010063181871271 0.02585166497444577 0 0.14523576613563741 0.02976945682372012 0 0.14010063181871271 0.02585166497444577 0 0.1391322595465444 0.03699933077486834 0 0.1458857290053831 0.021389540043380069 0 0.15175299049851881 0.02729842449465077 0 0.14523576613563741 0.02976945682372012 0 0.1309849453148588 0.01811654968683717 0 0.1391322595465444 0.03699933077486834 0 0.14010063181871271 0.02585166497444577 0 0.1309849453148588 0.01811654968683717 0 0.1391322595465444 0.03699933077486834 0 0.11917198148314 0.002581966002757949 0 0.13034027439662041 0.028127834929059549 0 0.1309849453148588 0.01811654968683717 0 0.13034027439662041 0.028127834929059549 0 0.1309849453148588 0.01811654968683717 0 0.1391322595465444 0.03699933077486834 0 0.1309849453148588 0.01811654968683717 0 0.13916191736165201 0.019633136795163032 0 0.13967636330765321 0.013174792475989121 0 0.14010063181871271 0.02585166497444577 0 0.1309849453148588 0.01811654968683717 0 0.13916191736165201 0.019633136795163032 0 0.14127976741107601 0.00215554095495248 0 0.13362755423293271 0.0080562160832345926 0 0.1228376310831711 -0.00076623140119310329 0 0.1309849453148588 0.01811654968683717 0 0.13362755423293271 0.0080562160832345926 0 0.1228376310831711 -0.00076623140119310329 0 0.1309849453148588 0.01811654968683717 0 0.1228376310831711 -0.00076623140119310329 0 0.1309849453148588 0.01811654968683717 0 0.13362755423293271 0.0080562160832345926 0 0.13967636330765321 0.013174792475989121 0 0.14127976741107601 0.00215554095495248 0 0.13362755423293271 0.0080562160832345926 0 0.13967636330765321 0.013174792475989121 0 0.15183666351233449 0.050700262892952028 0 0.15919757845585511 0.069002327358520896 0 0.15048711395973299 0.060532750562707877 0 0.15183666351233449 0.050700262892952028 0 0.15919757845585511 0.069002327358520896 0 0.14215194880052681 0.055145346777992182 0 0.15048711395973299 0.060532750562707877 0 0.13253998066004699 0.064315925604492674 0 0.1415085673101022 0.053673703855360522 0 0.14215194880052681 0.055145346777992182 0 0.15183666351233449 0.050700262892952028 0 0.1415085673101022 0.053673703855360522 0 0.15183666351233449 0.050700262892952028 0 0.1415085673101022 0.053673703855360522 0 0.15183666351233449 0.050700262892952028 0 0.14453550543306221 0.044729731242042367 0 0.1415085673101022 0.053673703855360522 0 0.14215194880052681 0.055145346777992182 0 0.14215194880052681 0.055145346777992182 0 0.15048711395973299 0.060532750562707877 0 0.15183666351233449 0.050700262892952028 0 0.1415085673101022 0.053673703855360522 0 0.14453550543306221 0.044729731242042367 0 0.1391322595465444 0.03699933077486834 0 0.15183666351233449 0.050700262892952028 0 0.14566961722181801 0.035366614883496988 0 0.1566962317421734 0.039838803654011962 0 0.15183666351233449 0.050700262892952028 0 0.14566961722181801 0.035366614883496988 0 0.1566962317421734 0.039838803654011962 0 0.15159127196488009 0.032471007951428398 0 0.14566961722181801 0.035366614883496988 0 0.1566962317421734 0.039838803654011962 0 0.158601754226253 0.030081739901262169 0 0.15159127196488009 0.032471007951428398 0 0.14566961722181801 0.035366614883496988 0 0.14453550543306221 0.044729731242042367 0 0.1391322595465444 0.03699933077486834 0 0.14523576613563741 0.02976945682372012 0 0.15159127196488009 0.032471007951428398 0 0.14566961722181801 0.035366614883496988 0 0.14523576613563741 0.02976945682372012 0 0.14566961722181801 0.035366614883496988 0 0.1391322595465444 0.03699933077486834 0 0.15183666351233449 0.050700262892952028 0 0.14566961722181801 0.035366614883496988 0 0.14453550543306221 0.044729731242042367 0 0.13034027439662041 0.028127834929059549 0 0.1415085673101022 0.053673703855360522 0 0.13034027439662041 0.028127834929059549 0 0.1415085673101022 0.053673703855360522 0 0.1391322595465444 0.03699933077486834 0 0.12367169586596689 0.04413069599522032 0 0.13034027439662041 0.028127834929059549 0 0.1415085673101022 0.053673703855360522 0 0.11892469151436 0.060175562481194378 0 0.12367169586596689 0.04413069599522032 0 0.1415085673101022 0.053673703855360522 0 0.11892469151436 0.060175562481194378 0 0.1415085673101022 0.053673703855360522 0 0.11892469151436 0.060175562481194378 0 0.1415085673101022 0.053673703855360522 0 0.13253998066004699 0.064315925604492674 0 0.1415085673101022 0.053673703855360522 0 0.14215194880052681 0.055145346777992182 0 0.13253998066004699 0.064315925604492674 0 0.13253998066004699 0.064315925604492674 0 0.13121537104960351 0.072689189806444385 0 0.15446329543616341 0.069626104104570485 0 0.1243405792371938 0.066503547411893488 0 0.13253998066004699 0.064315925604492674 0 0.13121537104960351 0.072689189806444385 0 0.11892469151436 0.060175562481194378 0 0.1243405792371938 0.066503547411893488 0 0.13253998066004699 0.064315925604492674 0 0.13121537104960351 0.072689189806444385 0 0.14336397744542301 0.076431171561807093 0 0.13288821721910599 0.083857800247139097 0 0.15048711395973299 0.060532750562707877 0 0.13253998066004699 0.064315925604492674 0 0.15446329543616341 0.069626104104570485 0 0.13121537104960351 0.072689189806444385 0 0.15446329543616341 0.069626104104570485 0 0.13121537104960351 0.072689189806444385 0 0.14336397744542301 0.076431171561807093 0 0.15446329543616341 0.069626104104570485 0 0.13253998066004699 0.064315925604492674 0 0.15446329543616341 0.069626104104570485 0 0.14336397744542301 0.076431171561807093 0 0.15145508435945571 0.07730097997971673 0 0.15446329543616341 0.069626104104570485 0 0.15145508435945571 0.07730097997971673 0 0.15998651034928929 0.070963915351755544 0 0.15635019231632599 0.084708360937410687 0 0.15145508435945571 0.07730097997971673 0 0.15446329543616341 0.069626104104570485 0 0.15998651034928929 0.070963915351755544 0 0.15048711395973299 0.060532750562707877 0 0.15446329543616341 0.069626104104570485 0 0.15919757845585511 0.069002327358520896 0 0.1449478564828334 0.088262465871273704 0 0.15304430801011831 0.09759233646353245 0 0.15635019231632599 0.084708360937410687 0 0.15145508435945571 0.07730097997971673 0 0.1449478564828334 0.088262465871273704 0 0.15635019231632599 0.084708360937410687 0 0.14336397744542301 0.076431171561807093 0 0.15145508435945571 0.07730097997971673 0 0.1449478564828334 0.088262465871273704 0 0.1449478564828334 0.088262465871273704 0 0.13288821721910599 0.083857800247139097 0 0.1333435253298102 0.095432768439741328 0 0.14336397744542301 0.076431171561807093 0 0.1449478564828334 0.088262465871273704 0 0.13288821721910599 0.083857800247139097 0 0.1225478872688979 0.090713611373926736 0 0.1210037722340596 0.082520495593825793 0 0.13288821721910599 0.083857800247139097 0 0.1210037722340596 0.082520495593825793 0 0.13121537104960351 0.072689189806444385 0 0.13288821721910599 0.083857800247139097 0 0.1225478872688979 0.090713611373926736 0 0.13288821721910599 0.083857800247139097 0 0.1333435253298102 0.095432768439741328 0 0.1449478564828334 0.088262465871273704 0 0.1368974078767736 0.107501873099266 0 0.1333435253298102 0.095432768439741328 0 0.12018819637303869 0.10164151191590461 0 0.1368974078767736 0.107501873099266 0 0.1333435253298102 0.095432768439741328 0 0.12018819637303869 0.10164151191590461 0 0.1225478872688979 0.090713611373926736 0 0.1333435253298102 0.095432768439741328 0 0.11707998843366239 0.12090166170324231 0 0.14061487869327599 0.12738787364596069 0 0.1368974078767736 0.107501873099266 0 0.14061487869327599 0.12738787364596069 0 0.1368974078767736 0.107501873099266 0 0.1574927946018469 0.1127881056222175 0 0.14061487869327599 0.12738787364596069 0 0.16208469833826319 0.13464304631642149 0 0.1574927946018469 0.1127881056222175 0 0.1368974078767736 0.107501873099266 0 0.15304430801011831 0.09759233646353245 0 0.1574927946018469 0.1127881056222175 0 0.1449478564828334 0.088262465871273704 0 0.1368974078767736 0.107501873099266 0 0.15304430801011831 0.09759233646353245 0 0.15304430801011831 0.09759233646353245 0 0.1695332887728116 0.094700876787494351 0 0.1574927946018469 0.1127881056222175 0 0.1695332887728116 0.094700876787494351 0 0.1574927946018469 0.1127881056222175 0 0.1790800671963392 0.1184378382232308 0 0.16208469833826319 0.13464304631642149 0 0.1574927946018469 0.1127881056222175 0 0.1790800671963392 0.1184378382232308 0 0.1885688884481975 0.1093901779912298 0 0.1790800671963392 0.1184378382232308 0 0.1832996600419958 0.1003897382564244 0 0.1885688884481975 0.1093901779912298 0 0.1790800671963392 0.1184378382232308 0 0.1858372065203453 0.1184994265274882 0 0.1885688884481975 0.1093901779912298 0 0.1858372065203453 0.1184994265274882 0 0.1885688884481975 0.1093901779912298 0 0.1790800671963392 0.1184378382232308 0 0.19325819231563421 0.12959887947710741 0 0.1790800671963392 0.1184378382232308 0 0.1858372065203453 0.1184994265274882 0 0.1695332887728116 0.094700876787494351 0 0.1790800671963392 0.1184378382232308 0 0.1695332887728116 0.094700876787494351 0 0.1790800671963392 0.1184378382232308 0 0.1832996600419958 0.1003897382564244 0 0.1695332887728116 0.094700876787494351 0 0.1832996600419958 0.1003897382564244 0 0.18493574174144031 0.087819629641268118 0 0.1929726046438287 0.094705252597794665 0 0.1832996600419958 0.1003897382564244 0 0.18493574174144031 0.087819629641268118 0 0.1973763208394673 0.08002032720436178 0 0.18493574174144031 0.087819629641268118 0 0.17868141559437861 0.075492121278057239 0 0.1695332887728116 0.094700876787494351 0 0.18493574174144031 0.087819629641268118 0 0.17868141559437861 0.075492121278057239 0 0.1973763208394673 0.08002032720436178 0 0.17868141559437861 0.075492121278057239 0 0.18079222374313991 0.066157073385880324 0 0.17868141559437861 0.075492121278057239 0 0.18079222374313991 0.066157073385880324 0 0.15998651034928929 0.070963915351755544 0 0.18079222374313991 0.066157073385880324 0 0.15919757845585511 0.069002327358520896 0 0.18079222374313991 0.066157073385880324 0 0.15919757845585511 0.069002327358520896 0 0.15998651034928929 0.070963915351755544 0 0.17868141559437861 0.075492121278057239 0 0.15998651034928929 0.070963915351755544 0 0.15446329543616341 0.069626104104570485 0 0.15919757845585511 0.069002327358520896 0 0.15998651034928929 0.070963915351755544 0 0.15446329543616341 0.069626104104570485 0 0.15919757845585511 0.069002327358520896 0 0.15446329543616341 0.069626104104570485 0 0.15998651034928929 0.070963915351755544 0 0.15919757845585511 0.069002327358520896 0 0.15998651034928929 0.070963915351755544 0 0.1695332887728116 0.094700876787494351 0 0.17868141559437861 0.075492121278057239 0 0.15998651034928929 0.070963915351755544 0 0.15304430801011831 0.09759233646353245 0 0.1695332887728116 0.094700876787494351 0 0.15635019231632599 0.084708360937410687 0 0.1695332887728116 0.094700876787494351 0 0.15998651034928929 0.070963915351755544 0 0.1695332887728116 0.094700876787494351 0 0.15998651034928929 0.070963915351755544 0 0.15635019231632599 0.084708360937410687 0 0.097740131103692757 0.47211576306312553 0 0.10228396963995549 0.48764264937867408 0 0.092199203719590395 0.48872928857719472 0 0.097740131103692757 0.47211576306312553 0 0.1146358595090817 0.48605788153156299 0 0.097740131103692757 0.47211576306312553 0 0.10228396963995549 0.48764264937867408 0 0.1146358595090817 0.48605788153156299 0 0.1038255785689283 0.5 0 0.10228396963995549 0.48764264937867408 0 0.092199203719590395 0.48872928857719472 0 0.1038255785689283 0.5 0 0.10228396963995549 0.48764264937867408 0 0.1146358595090817 0.48605788153156299 0 0.1146358595090817 0.48605788153156299 0 0.13153158791447089 0.50000000000000033 0 0.1038255785689283 0.5 0 0.1146358595090817 0.48605788153156299 0 0.13153158791447089 0.50000000000000033 0 0.097740131103692757 0.47211576306312553 0 0.1146358595090817 0.48605788153156299 0 0.1160915578241386 0.4641835533930308 0 0.1146358595090817 0.48605788153156299 0 0.1160915578241386 0.4641835533930308 0 0.13792901651589951 0.46760966493884959 0 0.1160915578241386 0.4641835533930308 0 0.1237280261196836 0.44463014715047522 0 0.10202961426548091 0.45002724093957291 0 0.1237280261196836 0.44463014715047522 0 0.1057649319772677 0.43759517983083812 0 0.10202961426548091 0.45002724093957291 0 0.1057649319772677 0.43759517983083812 0 0.10202961426548091 0.45002724093957291 0 0.08764391112498858 0.43163178618934439 0 0.097740131103692757 0.47211576306312553 0 0.1160915578241386 0.4641835533930308 0 0.10202961426548091 0.45002724093957291 0 0.080844402698305312 0.45817364459468618 0 0.076730675362011974 0.47423156549521001 0 0.097740131103692757 0.47211576306312553 0 0.080844402698305312 0.45817364459468618 0 0.097740131103692757 0.47211576306312553 0 0.10202961426548091 0.45002724093957291 0 0.080844402698305312 0.45817364459468618 0 0.097740131103692757 0.47211576306312553 0 0.080844402698305312 0.45817364459468618 0 0.076730675362011974 0.47423156549521001 0 0.080844402698305312 0.45817364459468618 0 0.08764391112498858 0.43163178618934439 0 0.10202961426548091 0.45002724093957291 0 0.080844402698305312 0.45817364459468618 0 0.08764391112498858 0.43163178618934439 0 0.080844402698305312 0.45817364459468618 0 0.07540768018483697 0.44030754071393319 0 0.08764391112498858 0.43163178618934439 0 0.080844402698305312 0.45817364459468618 0 0.07540768018483697 0.44030754071393319 0 0.061556592319121653 0.44225761358074578 0 0.080844402698305312 0.45817364459468618 0 0.061556592319121653 0.44225761358074578 0 0.080844402698305312 0.45817364459468618 0 0.067859653170709522 0.45426422462270638 0 0.061556592319121653 0.44225761358074578 0 0.080844402698305312 0.45817364459468618 0 0.064346854003363874 0.46736183993319841 0 0.076730675362011974 0.47423156549521001 0 0.064346854003363874 0.46736183993319841 0 0.067859653170709522 0.45426422462270638 0 0.056076759981020123 0.44443419347066321 0 0.080844402698305312 0.45817364459468618 0 0.064346854003363874 0.46736183993319841 0 0.067859653170709522 0.45426422462270638 0 0.076730675362011974 0.47423156549521001 0 0.072616948025712127 0.490289486395732 0 0.064346854003363874 0.46736183993319841 0 0.072616948025712127 0.490289486395732 0 0.058055043786226751 0.49051055052906067 0 0.064346854003363874 0.46736183993319841 0 0.072616948025712127 0.490289486395732 0 0.064346854003363874 0.46736183993319841 0 0.076730675362011974 0.47423156549521001 0 0.072616948025712127 0.490289486395732 0 0.076730675362011974 0.47423156549521001 0 0.082075002421626492 0.48449271935339733 0 0.072616948025712127 0.490289486395732 0 0.097740131103692757 0.47211576306312553 0 0.076730675362011974 0.47423156549521001 0 0.082075002421626492 0.48449271935339733 0 0.097740131103692757 0.47211576306312553 0 0.092199203719590395 0.48872928857719472 0 0.082075002421626492 0.48449271935339733 0 0.1038255785689283 0.5 0 0.092199203719590395 0.48872928857719472 0 0.076119569223385697 0.50000000000000089 0 0.092199203719590395 0.48872928857719472 0 0.082075002421626492 0.48449271935339733 0 0.076119569223385697 0.50000000000000089 0 0.072616948025712127 0.490289486395732 0 0.07012930311136284 0.49999999999999661 0 0.076119569223385697 0.50000000000000089 0 0.072616948025712127 0.490289486395732 0 0.07012930311136284 0.49999999999999661 0 0.076119569223385697 0.50000000000000089 0 0.072616948025712127 0.490289486395732 0 0.082075002421626492 0.48449271935339733 0 0.076119569223385697 0.50000000000000089 0 0.072616948025712127 0.490289486395732 0 0.072616948025712127 0.490289486395732 0 0.07012930311136284 0.49999999999999661 0 0.058055043786226751 0.49051055052906067 0 0.058055043786226751 0.49051055052906067 0 0.046280597366186747 0.47957307303049429 0 0.044860440428939378 0.4999999999999995 0 0.07012930311136284 0.49999999999999661 0 0.058055043786226751 0.49051055052906067 0 0.044860440428939378 0.4999999999999995 0 0.064346854003363874 0.46736183993319841 0 0.058055043786226751 0.49051055052906067 0 0.046280597366186747 0.47957307303049429 0 0.046280597366186747 0.47957307303049429 0 0.047700754303434179 0.45914614606098908 0 0.046280597366186747 0.47957307303049429 0 0.029897162037545319 0.4839753813588808 0 0.03521852719449324 0.46736449501777538 0 0.044860440428939378 0.4999999999999995 0 0.01907995414838232 0.5 0 0.029897162037545319 0.4839753813588808 0 0.046280597366186747 0.47957307303049429 0 0.044860440428939378 0.4999999999999995 0 0.046280597366186747 0.47957307303049429 0 0.044860440428939378 0.4999999999999995 0 0.029897162037545319 0.4839753813588808 0 0.01907995414838232 0.5 0 0.029897162037545319 0.4839753813588808 0 0.01223017135109394 0.48399563131022733 0 0.029897162037545319 0.4839753813588808 0 0.02313076419329519 0.4718947066398041 0 0.01223017135109394 0.48399563131022733 0 0.029897162037545319 0.4839753813588808 0 0.02313076419329519 0.4718947066398041 0 0.03521852719449324 0.46736449501777538 0 0.02313076419329519 0.4718947066398041 0 0.01223017135109394 0.48399563131022733 0 0.01319884020628341 0.47022233111689332 0 -0.003880604538310756 0.48346324919380129 0 0.01223017135109394 0.48399563131022733 0 0.0050866533922729329 0.47701524235381432 0 0.01223017135109394 0.48399563131022733 0 0.01319884020628341 0.47022233111689332 0 0.0050866533922729329 0.47701524235381432 0 0.01319884020628341 0.47022233111689332 0 0.0053167838454733218 0.46943384557929257 0 0.0050866533922729329 0.47701524235381432 0 -0.001026908195020756 0.47486914558720472 0 0.0053167838454733218 0.46943384557929257 0 0.0050866533922729329 0.47701524235381432 0 -0.003880604538310756 0.48346324919380129 0 -0.001026908195020756 0.47486914558720472 0 0.0050866533922729329 0.47701524235381432 0 -0.0067005321321746969 0.5 0 0.01907995414838232 0.5 0 0.01223017135109394 0.48399563131022733 0 -0.0067005321321746969 0.5 0 -0.003880604538310756 0.48346324919380129 0 0.01223017135109394 0.48399563131022733 0 0.0094816941431487278 0.45086042579757712 0 0.01399183751309625 0.44462120914047132 0 0.0048617880261327502 0.44584476697033082 0 0.0094816941431487278 0.45086042579757712 0 0.01399183751309625 0.44462120914047132 0 0.016302396861864351 0.45114502888407948 0 0.01049598620797234 0.43767394788706171 0 0.01399183751309625 0.44462120914047132 0 0.0048617880261327502 0.44584476697033082 0 0.01049598620797234 0.43767394788706171 0 0.01399183751309625 0.44462120914047132 0 0.020379531913139331 0.43685778481219928 0 0.01049598620797234 0.43767394788706171 0 0.0048617880261327502 0.44584476697033082 0 0.01049598620797234 0.43767394788706171 0 0.0048617880261327502 0.44584476697033082 0 0.0065189226172944724 0.43188650626448272 0 0.0094816941431487278 0.45086042579757712 0 0.0048617880261327502 0.44584476697033082 0 0.0015605482097463411 0.45063228640423969 0 0.0048617880261327502 0.44584476697033082 0 0.0015605482097463411 0.45063228640423969 0 0.0094816941431487278 0.45086042579757712 0 0.0048617880261327502 0.44584476697033082 0 0.0015605482097463411 0.45063228640423969 0 0.0080738590363113663 0.46132998490476868 0 0.01222090350615627 0.45893997922115709 0 0.0015605482097463411 0.45063228640423969 0 0.01222090350615627 0.45893997922115709 0 -0.0094095992007081283 0.46654139838691122 0 0.0053167838454733218 0.46943384557929257 0 0.0080738590363113663 0.46132998490476868 0 0.0094816941431487278 0.45086042579757712 0 0.0015605482097463411 0.45063228640423969 0 0.01222090350615627 0.45893997922115709 0 -0.0094095992007081283 0.46654139838691122 0 0.0015605482097463411 0.45063228640423969 0 0.0080738590363113663 0.46132998490476868 0 0.0080738590363113663 0.46132998490476868 0 0.01222090350615627 0.45893997922115709 0 0.025557317273330941 0.45611857142262657 0 0.01319884020628341 0.47022233111689332 0 0.0080738590363113663 0.46132998490476868 0 0.025557317273330941 0.45611857142262657 0 0.01319884020628341 0.47022233111689332 0 0.0053167838454733218 0.46943384557929257 0 0.0080738590363113663 0.46132998490476868 0 0.0094816941431487278 0.45086042579757712 0 0.01222090350615627 0.45893997922115709 0 0.016302396861864351 0.45114502888407948 0 0.01222090350615627 0.45893997922115709 0 0.025557317273330941 0.45611857142262657 0 0.016302396861864351 0.45114502888407948 0 0.0080738590363113663 0.46132998490476868 0 0.025557317273330941 0.45611857142262657 0 0.02313076419329519 0.4718947066398041 0 0.01319884020628341 0.47022233111689332 0 0.025557317273330941 0.45611857142262657 0 0.02313076419329519 0.4718947066398041 0 0.025557317273330941 0.45611857142262657 0 0.03521852719449324 0.46736449501777538 0 0.025557317273330941 0.45611857142262657 0 0.029497972404799989 0.4465970104894148 0 0.021231693005787571 0.44530579808828252 0 0.025557317273330941 0.45611857142262657 0 0.016302396861864351 0.45114502888407948 0 0.021231693005787571 0.44530579808828252 0 0.01399183751309625 0.44462120914047132 0 0.016302396861864351 0.45114502888407948 0 0.021231693005787571 0.44530579808828252 0 0.01399183751309625 0.44462120914047132 0 0.021231693005787571 0.44530579808828252 0 0.020379531913139331 0.43685778481219928 0 0.029497972404799989 0.4465970104894148 0 0.021231693005787571 0.44530579808828252 0 0.030311313049230751 0.43763339856834432 0 0.021231693005787571 0.44530579808828252 0 0.030311313049230751 0.43763339856834432 0 0.020379531913139331 0.43685778481219928 0 0.038697605999956301 0.44825738244890739 0 0.047700754303434179 0.45914614606098908 0 0.049120911240681603 0.43871921909148398 0 0.029497972404799989 0.4465970104894148 0 0.038697605999956301 0.44825738244890739 0 0.040333793699140981 0.43958103258297831 0 0.029497972404799989 0.4465970104894148 0 0.030311313049230751 0.43763339856834432 0 0.040333793699140981 0.43958103258297831 0 0.025557317273330941 0.45611857142262657 0 0.029497972404799989 0.4465970104894148 0 0.038697605999956301 0.44825738244890739 0 0.038697605999956301 0.44825738244890739 0 0.040333793699140981 0.43958103258297831 0 0.049120911240681603 0.43871921909148398 0 0.046280597366186747 0.47957307303049429 0 0.03521852719449324 0.46736449501777538 0 0.047700754303434179 0.45914614606098908 0 0.025557317273330941 0.45611857142262657 0 0.038697605999956301 0.44825738244890739 0 0.03521852719449324 0.46736449501777538 0 0.038697605999956301 0.44825738244890739 0 0.03521852719449324 0.46736449501777538 0 0.047700754303434179 0.45914614606098908 0 0.064346854003363874 0.46736183993319841 0 0.056076759981020123 0.44443419347066321 0 0.064346854003363874 0.46736183993319841 0 0.046280597366186747 0.47957307303049429 0 0.047700754303434179 0.45914614606098908 0 0.064346854003363874 0.46736183993319841 0 0.047700754303434179 0.45914614606098908 0 0.056076759981020123 0.44443419347066321 0 0.047700754303434179 0.45914614606098908 0 0.049120911240681603 0.43871921909148398 0 0.056076759981020123 0.44443419347066321 0 0.047700754303434179 0.45914614606098908 0 0.049120911240681603 0.43871921909148398 0 0.067859653170709522 0.45426422462270638 0 0.056076759981020123 0.44443419347066321 0 0.061556592319121653 0.44225761358074578 0 0.056076759981020123 0.44443419347066321 0 0.061556592319121653 0.44225761358074578 0 0.059201111644200437 0.43099696977894508 0 0.056076759981020123 0.44443419347066321 0 0.047806665958676359 0.42150654700812801 0 0.049120911240681603 0.43871921909148398 0 0.056076759981020123 0.44443419347066321 0 0.047806665958676359 0.42150654700812801 0 0.056076759981020123 0.44443419347066321 0 0.059201111644200437 0.43099696977894508 0 0.047806665958676359 0.42150654700812801 0 0.059201111644200437 0.43099696977894508 0 0.058979725365252707 0.4176193763442323 0 0.047806665958676359 0.42150654700812801 0 0.058979725365252707 0.4176193763442323 0 0.039536571936328653 0.39857890054559408 0 0.063240005814886313 0.40658319209587829 0 0.058979725365252707 0.4176193763442323 0 0.047806665958676359 0.42150654700812801 0 0.039536571936328653 0.39857890054559408 0 0.035113551011259521 0.41687403621696922 0 0.02872917033170445 0.40503675834663061 0 0.039536571936328653 0.39857890054559408 0 0.047806665958676359 0.42150654700812801 0 0.039536571936328653 0.39857890054559408 0 0.047806665958676359 0.42150654700812801 0 0.035113551011259521 0.41687403621696922 0 0.039536571936328653 0.39857890054559408 0 0.049120911240681603 0.43871921909148398 0 0.047806665958676359 0.42150654700812801 0 0.039708047704291503 0.4306454839277386 0 0.040333793699140981 0.43958103258297831 0 0.049120911240681603 0.43871921909148398 0 0.039708047704291503 0.4306454839277386 0 0.047806665958676359 0.42150654700812801 0 0.035113551011259521 0.41687403621696922 0 0.039708047704291503 0.4306454839277386 0 0.035113551011259521 0.41687403621696922 0 0.039708047704291503 0.4306454839277386 0 0.028741688689164512 0.42811504149697438 0 0.030311313049230751 0.43763339856834432 0 0.039708047704291503 0.4306454839277386 0 0.028741688689164512 0.42811504149697438 0 0.030311313049230751 0.43763339856834432 0 0.040333793699140981 0.43958103258297831 0 0.039708047704291503 0.4306454839277386 0 0.030311313049230751 0.43763339856834432 0 0.020379531913139331 0.43685778481219928 0 0.028741688689164512 0.42811504149697438 0 0.01049598620797234 0.43767394788706171 0 0.020379531913139331 0.43685778481219928 0 0.01750467301358458 0.42779731369206181 0 0.020379531913139331 0.43685778481219928 0 0.01750467301358458 0.42779731369206181 0 0.028741688689164512 0.42811504149697438 0 0.01750467301358458 0.42779731369206181 0 0.028741688689164512 0.42811504149697438 0 0.02615916144738779 0.41736148597675132 0 0.035113551011259521 0.41687403621696922 0 0.028741688689164512 0.42811504149697438 0 0.02615916144738779 0.41736148597675132 0 0.02615916144738779 0.41736148597675132 0 0.010437450069317761 0.40463061763750507 0 0.02872917033170445 0.40503675834663061 0 0.02615916144738779 0.41736148597675132 0 0.01517065216307991 0.41806138940930709 0 0.010437450069317761 0.40463061763750507 0 0.035113551011259521 0.41687403621696922 0 0.02615916144738779 0.41736148597675132 0 0.02872917033170445 0.40503675834663061 0 0.01750467301358458 0.42779731369206181 0 0.02615916144738779 0.41736148597675132 0 0.01517065216307991 0.41806138940930709 0 -0.003174347114314008 0.41591217031924949 0 0.0065813241220295041 0.42245614033091039 0 0.010437450069317761 0.40463061763750507 0 -0.0064316016559190746 0.3999483233353413 0 -0.003174347114314008 0.41591217031924949 0 0.010437450069317761 0.40463061763750507 0 0.01517065216307991 0.41806138940930709 0 0.0065813241220295041 0.42245614033091039 0 0.010437450069317761 0.40463061763750507 0 -0.003174347114314008 0.41591217031924949 0 0.010437450069317761 0.40463061763750507 0 -0.003174347114314008 0.41591217031924949 0 0.0065813241220295041 0.42245614033091039 0 -0.0026301228576318379 0.42717885202372191 0 -0.003174347114314008 0.41591217031924949 0 0.0065813241220295041 0.42245614033091039 0 -0.0026301228576318379 0.42717885202372191 0 0.0065813241220295041 0.42245614033091039 0 0.0065189226172944724 0.43188650626448272 0 -0.0026301228576318379 0.42717885202372191 0 0.0048617880261327502 0.44584476697033082 0 0.0065189226172944724 0.43188650626448272 0 0.01049598620797234 0.43767394788706171 0 0.01750467301358458 0.42779731369206181 0 0.0065189226172944724 0.43188650626448272 0 0.01750467301358458 0.42779731369206181 0 0.0065813241220295041 0.42245614033091039 0 0.0065189226172944724 0.43188650626448272 0 0.01750467301358458 0.42779731369206181 0 0.01517065216307991 0.41806138940930709 0 0.0065813241220295041 0.42245614033091039 0 -0.0042030409966118051 0.38380869400061962 0 0.01009735409817194 0.38238429504652488 0 0.02404924725294803 0.393349064955759 0 -0.0042030409966118051 0.38380869400061962 0 0.02404924725294803 0.393349064955759 0 0.01009735409817194 0.38238429504652488 0 0.0197357255374827 0.37571737083264412 0 0.011110712074150059 0.37343232972227269 0 -0.001064505034491721 0.37161458349227261 0 0.01009735409817194 0.38238429504652488 0 0.011110712074150059 0.37343232972227269 0 -0.001064505034491721 0.37161458349227261 0 -0.0042030409966118051 0.38380869400061962 0 0.01009735409817194 0.38238429504652488 0 -0.0042030409966118051 0.38380869400061962 0 0.01009735409817194 0.38238429504652488 0 -0.0042030409966118051 0.38380869400061962 0 0.010437450069317761 0.40463061763750507 0 0.02404924725294803 0.393349064955759 0 0.010437450069317761 0.40463061763750507 0 0.02872917033170445 0.40503675834663061 0 0.02404924725294803 0.393349064955759 0 0.010437450069317761 0.40463061763750507 0 0.02404924725294803 0.393349064955759 0 0.02872917033170445 0.40503675834663061 0 0.02404924725294803 0.393349064955759 0 0.039536571936328653 0.39857890054559408 0 0.02404924725294803 0.393349064955759 0 0.034519904376963118 0.38467091111880503 0 0.02404924725294803 0.393349064955759 0 0.0197357255374827 0.37571737083264412 0 0.034519904376963118 0.38467091111880503 0 0.01009735409817194 0.38238429504652488 0 0.02404924725294803 0.393349064955759 0 0.0197357255374827 0.37571737083264412 0 0.034519904376963118 0.38467091111880503 0 0.050307067216076778 0.37158640017128619 0 0.034519904376963118 0.38467091111880503 0 0.039536571936328653 0.39857890054559408 0 0.056773536515482913 0.38908479613358171 0 0.02404924725294803 0.393349064955759 0 0.039536571936328653 0.39857890054559408 0 0.034519904376963118 0.38467091111880503 0 0.039536571936328653 0.39857890054559408 0 0.02404924725294803 0.393349064955759 0 0.034519904376963118 0.38467091111880503 0 0.039536571936328653 0.39857890054559408 0 0.039536571936328653 0.39857890054559408 0 0.063240005814886313 0.40658319209587829 0 0.039536571936328653 0.39857890054559408 0 0.056773536515482913 0.38908479613358171 0 0.063240005814886313 0.40658319209587829 0 0.056773536515482913 0.38908479613358171 0 0.063240005814886313 0.40658319209587829 0 0.056773536515482913 0.38908479613358171 0 0.059721524030669819 0.37431687333309788 0 0.050307067216076778 0.37158640017128619 0 0.056773536515482913 0.38908479613358171 0 0.050307067216076778 0.37158640017128619 0 0.034519904376963118 0.38467091111880503 0 0.056773536515482913 0.38908479613358171 0 0.050307067216076778 0.37158640017128619 0 0.056773536515482913 0.38908479613358171 0 0.069041936002645535 0.37820082441249081 0 0.059721524030669819 0.37431687333309788 0 0.056773536515482913 0.38908479613358171 0 0.069041936002645535 0.37820082441249081 0 0.068225210254675303 0.39186969982647402 0 0.069041936002645535 0.37820082441249081 0 0.078928226936330073 0.3918395352538776 0 0.068225210254675303 0.39186969982647402 0 0.069041936002645535 0.37820082441249081 0 0.087739402474845588 0.37833299208434412 0 0.078928226936330073 0.3918395352538776 0 0.087739402474845588 0.37833299208434412 0 0.078928226936330073 0.3918395352538776 0 0.094443419551670932 0.40508992778400232 0 0.078928226936330073 0.3918395352538776 0 0.080832552055978585 0.40498983155533402 0 0.094443419551670932 0.40508992778400232 0 0.080832552055978585 0.40498983155533402 0 0.073695702888484968 0.40005040040525608 0 0.075088081656536507 0.41058410832735293 0 0.078928226936330073 0.3918395352538776 0 0.080832552055978585 0.40498983155533402 0 0.073695702888484968 0.40005040040525608 0 0.056773536515482913 0.38908479613358171 0 0.068225210254675303 0.39186969982647402 0 0.063240005814886313 0.40658319209587829 0 0.073695702888484968 0.40005040040525608 0 0.063240005814886313 0.40658319209587829 0 0.075088081656536507 0.41058410832735293 0 0.078928226936330073 0.3918395352538776 0 0.073695702888484968 0.40005040040525608 0 0.068225210254675303 0.39186969982647402 0 0.073695702888484968 0.40005040040525608 0 0.068225210254675303 0.39186969982647402 0 0.063240005814886313 0.40658319209587829 0 0.058979725365252707 0.4176193763442323 0 0.063240005814886313 0.40658319209587829 0 0.071585814596931419 0.42916711849095618 0 0.063240005814886313 0.40658319209587829 0 0.075088081656536507 0.41058410832735293 0 0.071585814596931419 0.42916711849095618 0 0.063240005814886313 0.40658319209587829 0 0.071585814596931419 0.42916711849095618 0 0.063240005814886313 0.40658319209587829 0 0.075088081656536507 0.41058410832735293 0 0.075088081656536507 0.41058410832735293 0 0.071585814596931419 0.42916711849095618 0 0.082007329246870417 0.41738518600618091 0 0.061556592319121653 0.44225761358074578 0 0.059201111644200437 0.43099696977894508 0 0.071585814596931419 0.42916711849095618 0 0.07540768018483697 0.44030754071393319 0 0.061556592319121653 0.44225761358074578 0 0.071585814596931419 0.42916711849095618 0 0.059201111644200437 0.43099696977894508 0 0.058979725365252707 0.4176193763442323 0 0.071585814596931419 0.42916711849095618 0 0.07540768018483697 0.44030754071393319 0 0.071585814596931419 0.42916711849095618 0 0.08764391112498858 0.43163178618934439 0 0.071585814596931419 0.42916711849095618 0 0.08764391112498858 0.43163178618934439 0 0.082007329246870417 0.41738518600618091 0 0.08764391112498858 0.43163178618934439 0 0.082007329246870417 0.41738518600618091 0 0.094443419551670932 0.40508992778400232 0 0.08764391112498858 0.43163178618934439 0 0.094443419551670932 0.40508992778400232 0 0.080832552055978585 0.40498983155533402 0 0.075088081656536507 0.41058410832735293 0 0.082007329246870417 0.41738518600618091 0 0.080832552055978585 0.40498983155533402 0 0.082007329246870417 0.41738518600618091 0 0.094443419551670932 0.40508992778400232 0 0.08764391112498858 0.43163178618934439 0 0.1096581763989177 0.42409154504396013 0 0.094443419551670932 0.40508992778400232 0 0.1096581763989177 0.42409154504396013 0 0.11163148259572971 0.40863234267508453 0 0.094443419551670932 0.40508992778400232 0 0.1057649319772677 0.43759517983083812 0 0.08764391112498858 0.43163178618934439 0 0.1096581763989177 0.42409154504396013 0 0.1237280261196836 0.44463014715047522 0 0.1096581763989177 0.42409154504396013 0 0.13502200614688589 0.42010390008240672 0 0.1237280261196836 0.44463014715047522 0 0.1057649319772677 0.43759517983083812 0 0.1096581763989177 0.42409154504396013 0 0.11163148259572971 0.40863234267508453 0 0.1236499924648251 0.3984302041169589 0 0.13502200614688589 0.42010390008240672 0 0.1096581763989177 0.42409154504396013 0 0.11163148259572971 0.40863234267508453 0 0.13502200614688589 0.42010390008240672 0 0.11163148259572971 0.40863234267508453 0 0.1236499924648251 0.3984302041169589 0 0.10863659533572551 0.39290197353284961 0 0.10863659533572551 0.39290197353284961 0 0.114060711710889 0.37342974127053702 0 0.12550685613774351 0.37951055496914998 0 0.1236499924648251 0.3984302041169589 0 0.10863659533572551 0.39290197353284961 0 0.12550685613774351 0.37951055496914998 0 0.1012429279783533 0.37854806937866009 0 0.10863659533572551 0.39290197353284961 0 0.114060711710889 0.37342974127053702 0 0.087739402474845588 0.37833299208434412 0 0.1012429279783533 0.37854806937866009 0 0.094443419551670932 0.40508992778400232 0 0.11163148259572971 0.40863234267508453 0 0.10863659533572551 0.39290197353284961 0 0.094443419551670932 0.40508992778400232 0 0.1012429279783533 0.37854806937866009 0 0.094443419551670932 0.40508992778400232 0 0.1012429279783533 0.37854806937866009 0 0.10863659533572551 0.39290197353284961 0 0.094443419551670932 0.40508992778400232 0 0.10055213054656729 0.36013865237867942 0 0.1100489009895301 0.33374314175173209 0 0.10055213054656729 0.36013865237867942 0 0.1100489009895301 0.33374314175173209 0 0.08625589277749264 0.346999797836966 0 0.1069344999541316 0.36147573913557879 0 0.10055213054656729 0.36013865237867942 0 0.1165634558871128 0.3492406052842485 0 0.10055213054656729 0.36013865237867942 0 0.1165634558871128 0.3492406052842485 0 0.1100489009895301 0.33374314175173209 0 0.087739402474845588 0.37833299208434412 0 0.1012429279783533 0.37854806937866009 0 0.1069344999541316 0.36147573913557879 0 0.1012429279783533 0.37854806937866009 0 0.1069344999541316 0.36147573913557879 0 0.114060711710889 0.37342974127053702 0 0.1069344999541316 0.36147573913557879 0 0.10055213054656729 0.36013865237867942 0 0.081229983254247365 0.36650003300062722 0 0.1069344999541316 0.36147573913557879 0 0.081229983254247365 0.36650003300062722 0 0.114060711710889 0.37342974127053702 0 0.1326390166540157 0.35645144527053041 0 0.12550685613774351 0.37951055496914998 0 0.1069344999541316 0.36147573913557879 0 0.114060711710889 0.37342974127053702 0 0.1326390166540157 0.35645144527053041 0 0.1069344999541316 0.36147573913557879 0 0.1165634558871128 0.3492406052842485 0 0.1326390166540157 0.35645144527053041 0 0.1069344999541316 0.36147573913557879 0 0.1326390166540157 0.35645144527053041 0 0.1165634558871128 0.3492406052842485 0 0.1100489009895301 0.33374314175173209 0 0.13264273129131951 0.33439404788472138 0 0.1100489009895301 0.33374314175173209 0 0.099713977183769634 0.31807175575135088 0 0.11954567143249289 0.30734763112478491 0 0.1100489009895301 0.33374314175173209 0 0.11954567143249289 0.30734763112478491 0 0.13264273129131951 0.33439404788472138 0 0.1100489009895301 0.33374314175173209 0 0.11954567143249289 0.30734763112478491 0 0.1100489009895301 0.33374314175173209 0 0.099713977183769634 0.31807175575135088 0 0.083894735805945045 0.32735700357097808 0 0.1100489009895301 0.33374314175173209 0 0.083894735805945045 0.32735700357097808 0 0.08625589277749264 0.346999797836966 0 0.083894735805945045 0.32735700357097808 0 0.068148884279383815 0.34110740296781622 0 0.08625589277749264 0.346999797836966 0 0.099713977183769634 0.31807175575135088 0 0.083894735805945045 0.32735700357097808 0 0.079241751540062577 0.3091409184095229 0 0.083894735805945045 0.32735700357097808 0 0.067542665246266162 0.32227296773822012 0 0.079241751540062577 0.3091409184095229 0 0.067542665246266162 0.32227296773822012 0 0.068148884279383815 0.34110740296781622 0 0.052098030758102709 0.32848813316288678 0 0.083894735805945045 0.32735700357097808 0 0.067542665246266162 0.32227296773822012 0 0.068148884279383815 0.34110740296781622 0 0.068148884279383815 0.34110740296781622 0 0.072981575438615956 0.35429511825148829 0 0.08625589277749264 0.346999797836966 0 0.068148884279383815 0.34110740296781622 0 0.072981575438615956 0.35429511825148829 0 0.059971533893319953 0.35265308331869138 0 0.072981575438615956 0.35429511825148829 0 0.066555082361941326 0.36578627017444021 0 0.059971533893319953 0.35265308331869138 0 0.10055213054656729 0.36013865237867942 0 0.08625589277749264 0.346999797836966 0 0.081229983254247365 0.36650003300062722 0 0.072981575438615956 0.35429511825148829 0 0.08625589277749264 0.346999797836966 0 0.081229983254247365 0.36650003300062722 0 0.087739402474845588 0.37833299208434412 0 0.1069344999541316 0.36147573913557879 0 0.081229983254247365 0.36650003300062722 0 0.069041936002645535 0.37820082441249081 0 0.087739402474845588 0.37833299208434412 0 0.081229983254247365 0.36650003300062722 0 0.069041936002645535 0.37820082441249081 0 0.081229983254247365 0.36650003300062722 0 0.066555082361941326 0.36578627017444021 0 0.072981575438615956 0.35429511825148829 0 0.081229983254247365 0.36650003300062722 0 0.066555082361941326 0.36578627017444021 0 0.069041936002645535 0.37820082441249081 0 0.066555082361941326 0.36578627017444021 0 0.059721524030669819 0.37431687333309788 0 0.055929998057201551 0.36692607577369102 0 0.050307067216076778 0.37158640017128619 0 0.041108453413194898 0.34669476624024848 0 0.066555082361941326 0.36578627017444021 0 0.059721524030669819 0.37431687333309788 0 0.055929998057201551 0.36692607577369102 0 0.059721524030669819 0.37431687333309788 0 0.055929998057201551 0.36692607577369102 0 0.050307067216076778 0.37158640017128619 0 0.066555082361941326 0.36578627017444021 0 0.055929998057201551 0.36692607577369102 0 0.059971533893319953 0.35265308331869138 0 0.055929998057201551 0.36692607577369102 0 0.050307067216076778 0.37158640017128619 0 0.055929998057201551 0.36692607577369102 0 0.059971533893319953 0.35265308331869138 0 0.041108453413194898 0.34669476624024848 0 0.059971533893319953 0.35265308331869138 0 0.041108453413194898 0.34669476624024848 0 0.053731959496234848 0.34189436452501393 0 0.068148884279383815 0.34110740296781622 0 0.059971533893319953 0.35265308331869138 0 0.053731959496234848 0.34189436452501393 0 0.050307067216076778 0.37158640017128619 0 0.041108453413194898 0.34669476624024848 0 0.036325720293778493 0.35734230210966361 0 0.050307067216076778 0.37158640017128619 0 0.041108453413194898 0.34669476624024848 0 0.041108453413194898 0.34669476624024848 0 0.036325720293778493 0.35734230210966361 0 0.028822601092593811 0.34272768621728472 0 0.034519904376963118 0.38467091111880503 0 0.036565816098641138 0.36791040757449411 0 0.02482466364838485 0.35779225034500489 0 0.034519904376963118 0.38467091111880503 0 0.050307067216076778 0.37158640017128619 0 0.036565816098641138 0.36791040757449411 0 0.050307067216076778 0.37158640017128619 0 0.036325720293778493 0.35734230210966361 0 0.036565816098641138 0.36791040757449411 0 0.036325720293778493 0.35734230210966361 0 0.036565816098641138 0.36791040757449411 0 0.02482466364838485 0.35779225034500489 0 0.034519904376963118 0.38467091111880503 0 0.02482466364838485 0.35779225034500489 0 0.0197357255374827 0.37571737083264412 0 0.034519904376963118 0.38467091111880503 0 0.02482466364838485 0.35779225034500489 0 0.0197357255374827 0.37571737083264412 0 0.015674273695437339 0.36401306951764911 0 0.02482466364838485 0.35779225034500489 0 0.015674273695437339 0.36401306951764911 0 0.02482466364838485 0.35779225034500489 0 0.015768167676543349 0.35713923686247862 0 0.02482466364838485 0.35779225034500489 0 0.01512942291980679 0.33091358957120492 0 0.02482466364838485 0.35779225034500489 0 0.01512942291980679 0.33091358957120492 0 0.028822601092593811 0.34272768621728472 0 0.036325720293778493 0.35734230210966361 0 0.02482466364838485 0.35779225034500489 0 0.028822601092593811 0.34272768621728472 0 0.02482466364838485 0.35779225034500489 0 0.012196298529549159 0.34905700984651278 0 0.01512942291980679 0.33091358957120492 0 0.02482466364838485 0.35779225034500489 0 0.015768167676543349 0.35713923686247862 0 0.012196298529549159 0.34905700984651278 0 0.01037743483280206 0.35769461774074762 0 0.012196298529549159 0.34905700984651278 0 0.0032447233134405931 0.35422125060834359 0 0.015768167676543349 0.35713923686247862 0 0.01037743483280206 0.35769461774074762 0 0.012196298529549159 0.34905700984651278 0 -0.002583240235104544 0.34489224502179239 0 0.012196298529549159 0.34905700984651278 0 0.0065182143906638264 0.33911035096943482 0 -0.002583240235104544 0.34489224502179239 0 0.012196298529549159 0.34905700984651278 0 0.0032447233134405931 0.35422125060834359 0 0.01037743483280206 0.35769461774074762 0 0.0032447233134405931 0.35422125060834359 0 0.0039428335920915006 0.36531030276633031 0 -0.0064988099748367559 0.35299106404641623 0 0.0032447233134405931 0.35422125060834359 0 0.0039428335920915006 0.36531030276633031 0 -0.001064505034491721 0.37161458349227261 0 0.015674273695437339 0.36401306951764911 0 0.0039428335920915006 0.36531030276633031 0 -0.001064505034491721 0.37161458349227261 0 0.015674273695437339 0.36401306951764911 0 0.011110712074150059 0.37343232972227269 0 -0.001064505034491721 0.37161458349227261 0 0.015674273695437339 0.36401306951764911 0 0.0197357255374827 0.37571737083264412 0 0.015674273695437339 0.36401306951764911 0 0.011110712074150059 0.37343232972227269 0 0.015674273695437339 0.36401306951764911 0 0.01037743483280206 0.35769461774074762 0 0.0039428335920915006 0.36531030276633031 0 0.015674273695437339 0.36401306951764911 0 0.015768167676543349 0.35713923686247862 0 0.01037743483280206 0.35769461774074762 0 -0.00058836015198596755 0.32088344941533808 0 0.01512942291980679 0.33091358957120492 0 0.0054341821912287152 0.30403492879740468 0 0.01512942291980679 0.33091358957120492 0 0.0054341821912287152 0.30403492879740468 0 0.01512942291980679 0.33091358957120492 0 0.018796167632194181 0.3134157872639986 0 0.0054341821912287152 0.30403492879740468 0 0.012196298529549159 0.34905700984651278 0 0.01512942291980679 0.33091358957120492 0 0.0065182143906638264 0.33911035096943482 0 -0.0025616559074486049 0.3329031852911295 0 -0.00058836015198596755 0.32088344941533808 0 0.01512942291980679 0.33091358957120492 0 -0.0025616559074486049 0.3329031852911295 0 0.01512942291980679 0.33091358957120492 0 0.0065182143906638264 0.33911035096943482 0 -0.0025616559074486049 0.3329031852911295 0 -0.002583240235104544 0.34489224502179239 0 0.0065182143906638264 0.33911035096943482 0 0.01512942291980679 0.33091358957120492 0 0.028822601092593811 0.34272768621728472 0 0.031909839610312053 0.3218031323092112 0 0.01512942291980679 0.33091358957120492 0 0.018796167632194181 0.3134157872639986 0 0.031909839610312053 0.3218031323092112 0 0.031909839610312053 0.3218031323092112 0 0.052098030758102709 0.32848813316288678 0 0.054329923847836643 0.30527138057989611 0 0.041108453413194898 0.34669476624024848 0 0.031909839610312053 0.3218031323092112 0 0.041108453413194898 0.34669476624024848 0 0.028822601092593811 0.34272768621728472 0 0.031909839610312053 0.3218031323092112 0 0.041108453413194898 0.34669476624024848 0 0.031909839610312053 0.3218031323092112 0 0.052098030758102709 0.32848813316288678 0 0.041108453413194898 0.34669476624024848 0 0.052098030758102709 0.32848813316288678 0 0.053731959496234848 0.34189436452501393 0 0.068148884279383815 0.34110740296781622 0 0.052098030758102709 0.32848813316288678 0 0.053731959496234848 0.34189436452501393 0 0.067542665246266162 0.32227296773822012 0 0.052098030758102709 0.32848813316288678 0 0.054329923847836643 0.30527138057989611 0 0.054329923847836643 0.30527138057989611 0 0.058643640903709077 0.2841886380467647 0 0.070108093408202884 0.28237758711201172 0 0.054329923847836643 0.30527138057989611 0 0.058643640903709077 0.2841886380467647 0 0.046708945964444748 0.28470371633566799 0 0.054329923847836643 0.30527138057989611 0 0.070108093408202884 0.28237758711201172 0 0.033299114928103571 0.2853556706935409 0 0.038381760441483573 0.30030485014671859 0 0.022711225807429191 0.29691149837817382 0 0.054329923847836643 0.30527138057989611 0 0.046708945964444748 0.28470371633566799 0 0.038381760441483573 0.30030485014671859 0 0.046708945964444748 0.28470371633566799 0 0.033299114928103571 0.2853556706935409 0 0.038381760441483573 0.30030485014671859 0 0.031909839610312053 0.3218031323092112 0 0.054329923847836643 0.30527138057989611 0 0.038381760441483573 0.30030485014671859 0 0.031909839610312053 0.3218031323092112 0 0.022711225807429191 0.29691149837817382 0 0.018796167632194181 0.3134157872639986 0 0.031909839610312053 0.3218031323092112 0 0.022711225807429191 0.29691149837817382 0 0.018796167632194181 0.3134157872639986 0 0.022711225807429191 0.29691149837817382 0 0.0054341821912287152 0.30403492879740468 0 0.031909839610312053 0.3218031323092112 0 0.038381760441483573 0.30030485014671859 0 0.022711225807429191 0.29691149837817382 0 0.022711225807429191 0.29691149837817382 0 0.0097135815956244098 0.28932323485025419 0 0.01496997692118909 0.27919024420183391 0 0.033299114928103571 0.2853556706935409 0 0.022711225807429191 0.29691149837817382 0 0.01496997692118909 0.27919024420183391 0 -0.0042610585373493576 0.2771562680236046 0 0.0097135815956244098 0.28932323485025419 0 0.01496997692118909 0.27919024420183391 0 -0.0042610585373493576 0.2771562680236046 0 0.0097135815956244098 0.28932323485025419 0 0.0054341821912287152 0.30403492879740468 0 0.022711225807429191 0.29691149837817382 0 0.0097135815956244098 0.28932323485025419 0 0.0054341821912287152 0.30403492879740468 0 -0.0042610585373493576 0.2771562680236046 0 0.0054341821912287152 0.30403492879740468 0 0.012156823249103331 0.25259817100369902 0 0.0071094060709509964 0.26564087220093879 0 0.023079021189564172 0.26593697868694532 0 -0.0082457657602449386 0.25246627485226031 0 0.012156823249103331 0.25259817100369902 0 0.0071094060709509964 0.26564087220093879 0 0.0071094060709509964 0.26564087220093879 0 0.01496997692118909 0.27919024420183391 0 0.023079021189564172 0.26593697868694532 0 -0.0042610585373493576 0.2771562680236046 0 0.0071094060709509964 0.26564087220093879 0 0.01496997692118909 0.27919024420183391 0 0.033299114928103571 0.2853556706935409 0 0.01496997692118909 0.27919024420183391 0 0.023079021189564172 0.26593697868694532 0 0.012156823249103331 0.25259817100369902 0 0.023079021189564172 0.26593697868694532 0 0.030652172791378579 0.25229956247347313 0 0.023079021189564172 0.26593697868694532 0 0.030652172791378579 0.25229956247347313 0 0.04073495957405681 0.26035892983227987 0 0.044937254539659167 0.2379713478153713 0 0.030652172791378579 0.25229956247347313 0 0.04073495957405681 0.26035892983227987 0 0.033299114928103571 0.2853556706935409 0 0.023079021189564172 0.26593697868694532 0 0.04073495957405681 0.26035892983227987 0 0.033299114928103571 0.2853556706935409 0 0.04073495957405681 0.26035892983227987 0 0.046708945964444748 0.28470371633566799 0 0.033299114928103571 0.2853556706935409 0 0.04073495957405681 0.26035892983227987 0 0.046708945964444748 0.28470371633566799 0 0.04073495957405681 0.26035892983227987 0 0.054656664038459993 0.27221644551962948 0 0.058643640903709077 0.2841886380467647 0 0.046708945964444748 0.28470371633566799 0 0.054656664038459993 0.27221644551962948 0 0.054656664038459993 0.27221644551962948 0 0.05595459183600883 0.25980758553240452 0 0.063151913248908592 0.26702092668087168 0 0.054656664038459993 0.27221644551962948 0 0.063151913248908592 0.26702092668087168 0 0.062868354845155253 0.27542318723842002 0 0.058643640903709077 0.2841886380467647 0 0.054656664038459993 0.27221644551962948 0 0.062868354845155253 0.27542318723842002 0 0.058643640903709077 0.2841886380467647 0 0.062868354845155253 0.27542318723842002 0 0.06481936793225318 0.27971168374165578 0 0.052294646587479003 0.2493466198794505 0 0.04073495957405681 0.26035892983227987 0 0.05595459183600883 0.25980758553240452 0 0.04073495957405681 0.26035892983227987 0 0.054656664038459993 0.27221644551962948 0 0.05595459183600883 0.25980758553240452 0 0.05595459183600883 0.25980758553240452 0 0.066495423171073403 0.25816184380531082 0 0.063151913248908592 0.26702092668087168 0 0.052294646587479003 0.2493466198794505 0 0.05595459183600883 0.25980758553240452 0 0.06034442261467237 0.25120339486286308 0 0.05595459183600883 0.25980758553240452 0 0.06034442261467237 0.25120339486286308 0 0.066495423171073403 0.25816184380531082 0 0.067445722382230539 0.24771064348785149 0 0.066495423171073403 0.25816184380531082 0 0.074707437689247702 0.25389633834412328 0 0.067445722382230539 0.24771064348785149 0 0.06034442261467237 0.25120339486286308 0 0.066495423171073403 0.25816184380531082 0 0.066495423171073403 0.25816184380531082 0 0.070468357435777063 0.2657419037057816 0 0.063151913248908592 0.26702092668087168 0 0.066495423171073403 0.25816184380531082 0 0.074357597956477339 0.26064435546358339 0 0.070468357435777063 0.2657419037057816 0 0.074357597956477339 0.26064435546358339 0 0.075194191089397802 0.26640127341757941 0 0.070468357435777063 0.2657419037057816 0 0.074357597956477339 0.26064435546358339 0 0.080427883817154544 0.25791465254204288 0 0.078852294536213494 0.26175012096666261 0 0.074357597956477339 0.26064435546358339 0 0.078852294536213494 0.26175012096666261 0 0.075194191089397802 0.26640127341757941 0 0.066495423171073403 0.25816184380531082 0 0.074357597956477339 0.26064435546358339 0 0.074707437689247702 0.25389633834412328 0 0.074357597956477339 0.26064435546358339 0 0.074707437689247702 0.25389633834412328 0 0.080427883817154544 0.25791465254204288 0 0.085975255819246227 0.24304742420893821 0 0.080478695998155714 0.25165019938018113 0 0.085886262968569133 0.25948379364412733 0 0.080478695998155714 0.25165019938018113 0 0.080427883817154544 0.25791465254204288 0 0.085886262968569133 0.25948379364412733 0 0.10166443252893551 0.23659000017624271 0 0.085886262968569133 0.25948379364412733 0 0.093061372415253377 0.25945310375487363 0 0.074707437689247702 0.25389633834412328 0 0.080478695998155714 0.25165019938018113 0 0.080427883817154544 0.25791465254204288 0 0.078852294536213494 0.26175012096666261 0 0.085886262968569133 0.25948379364412733 0 0.075194191089397802 0.26640127341757941 0 0.080427883817154544 0.25791465254204288 0 0.078852294536213494 0.26175012096666261 0 0.085886262968569133 0.25948379364412733 0 0.093061372415253377 0.25945310375487363 0 0.088669334409182038 0.27365465257629329 0 0.074192652952093263 0.28111713417870732 0 0.093061372415253377 0.25945310375487363 0 0.074192652952093263 0.28111713417870732 0 0.085886262968569133 0.25948379364412733 0 0.093061372415253377 0.25945310375487363 0 0.074192652952093263 0.28111713417870732 0 0.088669334409182038 0.27365465257629329 0 0.090629520296699906 0.27989165378522829 0 0.096617072050330918 0.27420358010706619 0 0.088669334409182038 0.27365465257629329 0 0.090629520296699906 0.27989165378522829 0 0.083300485689734874 0.28178689503457671 0 0.093061372415253377 0.25945310375487363 0 0.088669334409182038 0.27365465257629329 0 0.097208854645582696 0.26674380090640232 0 0.088669334409182038 0.27365465257629329 0 0.074192652952093263 0.28111713417870732 0 0.083300485689734874 0.28178689503457671 0 0.085886262968569133 0.25948379364412733 0 0.072732619288592745 0.27411268144752271 0 0.070108093408202884 0.28237758711201172 0 0.085886262968569133 0.25948379364412733 0 0.074192652952093263 0.28111713417870732 0 0.070108093408202884 0.28237758711201172 0 0.085886262968569133 0.25948379364412733 0 0.070108093408202884 0.28237758711201172 0 0.085886262968569133 0.25948379364412733 0 0.072732619288592745 0.27411268144752271 0 0.075194191089397802 0.26640127341757941 0 0.072732619288592745 0.27411268144752271 0 0.075194191089397802 0.26640127341757941 0 0.068678803079962825 0.27092621584326698 0 0.075194191089397802 0.26640127341757941 0 0.070468357435777063 0.2657419037057816 0 0.068678803079962825 0.27092621584326698 0 0.068678803079962825 0.27092621584326698 0 0.063151913248908592 0.26702092668087168 0 0.062868354845155253 0.27542318723842002 0 0.070468357435777063 0.2657419037057816 0 0.068678803079962825 0.27092621584326698 0 0.063151913248908592 0.26702092668087168 0 0.072732619288592745 0.27411268144752271 0 0.067657382571945521 0.27685732256942691 0 0.070108093408202884 0.28237758711201172 0 0.067657382571945521 0.27685732256942691 0 0.06481936793225318 0.27971168374165578 0 0.070108093408202884 0.28237758711201172 0 0.072732619288592745 0.27411268144752271 0 0.068678803079962825 0.27092621584326698 0 0.067657382571945521 0.27685732256942691 0 0.067657382571945521 0.27685732256942691 0 0.062868354845155253 0.27542318723842002 0 0.06481936793225318 0.27971168374165578 0 0.068678803079962825 0.27092621584326698 0 0.067657382571945521 0.27685732256942691 0 0.062868354845155253 0.27542318723842002 0 0.058643640903709077 0.2841886380467647 0 0.06481936793225318 0.27971168374165578 0 0.070108093408202884 0.28237758711201172 0 0.054329923847836643 0.30527138057989611 0 0.070108093408202884 0.28237758711201172 0 0.07616196246918229 0.29401120062856562 0 0.070108093408202884 0.28237758711201172 0 0.07616196246918229 0.29401120062856562 0 0.077305327314718786 0.28670206069564769 0 0.074192652952093263 0.28111713417870732 0 0.070108093408202884 0.28237758711201172 0 0.077305327314718786 0.28670206069564769 0 0.054329923847836643 0.30527138057989611 0 0.07616196246918229 0.29401120062856562 0 0.079241751540062577 0.3091409184095229 0 0.067542665246266162 0.32227296773822012 0 0.054329923847836643 0.30527138057989611 0 0.079241751540062577 0.3091409184095229 0 0.07616196246918229 0.29401120062856562 0 0.079241751540062577 0.3091409184095229 0 0.093760017070794913 0.30048783451418309 0 0.099713977183769634 0.31807175575135088 0 0.079241751540062577 0.3091409184095229 0 0.093760017070794913 0.30048783451418309 0 0.07616196246918229 0.29401120062856562 0 0.086675975183887061 0.28808357667035972 0 0.093760017070794913 0.30048783451418309 0 0.074192652952093263 0.28111713417870732 0 0.077305327314718786 0.28670206069564769 0 0.083300485689734874 0.28178689503457671 0 0.077305327314718786 0.28670206069564769 0 0.083300485689734874 0.28178689503457671 0 0.086675975183887061 0.28808357667035972 0 0.07616196246918229 0.29401120062856562 0 0.077305327314718786 0.28670206069564769 0 0.086675975183887061 0.28808357667035972 0 0.090629520296699906 0.27989165378522829 0 0.083300485689734874 0.28178689503457671 0 0.086675975183887061 0.28808357667035972 0 0.090629520296699906 0.27989165378522829 0 0.086675975183887061 0.28808357667035972 0 0.1012207646153751 0.28627192450051492 0 0.086675975183887061 0.28808357667035972 0 0.1012207646153751 0.28627192450051492 0 0.093760017070794913 0.30048783451418309 0 0.099713977183769634 0.31807175575135088 0 0.093760017070794913 0.30048783451418309 0 0.11954567143249289 0.30734763112478491 0 0.1012207646153751 0.28627192450051492 0 0.093760017070794913 0.30048783451418309 0 0.11954567143249289 0.30734763112478491 0 0.11954567143249289 0.30734763112478491 0 0.1141818460752707 0.27714397317686529 0 0.12904244187545569 0.2809521204978378 0 0.1012207646153751 0.28627192450051492 0 0.11954567143249289 0.30734763112478491 0 0.1141818460752707 0.27714397317686529 0 0.11954567143249289 0.30734763112478491 0 0.12904244187545569 0.2809521204978378 0 0.1141818460752707 0.27714397317686529 0 0.11615378911320511 0.26032519799560372 0 0.1048644735931679 0.26655228778042589 0 0.1141818460752707 0.27714397317686529 0 0.11615378911320511 0.26032519799560372 0 0.12904244187545569 0.2809521204978378 0 0.1152979079485152 0.2467056018988516 0 0.1250676346401875 0.24796443701554319 0 0.11615378911320511 0.26032519799560372 0 0.1152979079485152 0.2467056018988516 0 0.11615378911320511 0.26032519799560372 0 0.10650461767427161 0.25132517155921902 0 0.11615378911320511 0.26032519799560372 0 0.1028320207599793 0.25985538031335248 0 0.1048644735931679 0.26655228778042589 0 0.1028320207599793 0.25985538031335248 0 0.097208854645582696 0.26674380090640232 0 0.1048644735931679 0.26655228778042589 0 0.11615378911320511 0.26032519799560372 0 0.1028320207599793 0.25985538031335248 0 0.10650461767427161 0.25132517155921902 0 0.093061372415253377 0.25945310375487363 0 0.1028320207599793 0.25985538031335248 0 0.10650461767427161 0.25132517155921902 0 0.093061372415253377 0.25945310375487363 0 0.1028320207599793 0.25985538031335248 0 0.097208854645582696 0.26674380090640232 0 0.088669334409182038 0.27365465257629329 0 0.097208854645582696 0.26674380090640232 0 0.096617072050330918 0.27420358010706619 0 0.097208854645582696 0.26674380090640232 0 0.096617072050330918 0.27420358010706619 0 0.1048644735931679 0.26655228778042589 0 0.1141818460752707 0.27714397317686529 0 0.096617072050330918 0.27420358010706619 0 0.1048644735931679 0.26655228778042589 0 0.1012207646153751 0.28627192450051492 0 0.1141818460752707 0.27714397317686529 0 0.096617072050330918 0.27420358010706619 0 0.090629520296699906 0.27989165378522829 0 0.1012207646153751 0.28627192450051492 0 0.096617072050330918 0.27420358010706619 0 0.1384713120865835 0.25773302092121009 0 0.12904244187545569 0.2809521204978378 0 0.15915390062653459 0.27760612704708998 0 0.1514273965657848 0.24085309905483679 0 0.1384713120865835 0.25773302092121009 0 0.156278998070083 0.25778272565978 0 0.1384713120865835 0.25773302092121009 0 0.15915390062653459 0.27760612704708998 0 0.156278998070083 0.25778272565978 0 0.1250676346401875 0.24796443701554319 0 0.11615378911320511 0.26032519799560372 0 0.1384713120865835 0.25773302092121009 0 0.11615378911320511 0.26032519799560372 0 0.1384713120865835 0.25773302092121009 0 0.12904244187545569 0.2809521204978378 0 0.11954567143249289 0.30734763112478491 0 0.12904244187545569 0.2809521204978378 0 0.14488164426314301 0.29594920495010729 0 0.11954567143249289 0.30734763112478491 0 0.14488164426314301 0.29594920495010729 0 0.15139514334923471 0.31791608062108467 0 0.14488164426314301 0.29594920495010729 0 0.16637322996135739 0.30016678813796199 0 0.15139514334923471 0.31791608062108467 0 0.12904244187545569 0.2809521204978378 0 0.14488164426314301 0.29594920495010729 0 0.15915390062653459 0.27760612704708998 0 0.14488164426314301 0.29594920495010729 0 0.16637322996135739 0.30016678813796199 0 0.15915390062653459 0.27760612704708998 0 0.16637322996135739 0.30016678813796199 0 0.18265278236186541 0.28020603593405619 0 0.15915390062653459 0.27760612704708998 0 0.16637322996135739 0.30016678813796199 0 0.18588027836364171 0.30417070427619303 0 0.17427563080372541 0.32515257599924119 0 0.16637322996135739 0.30016678813796199 0 0.18588027836364171 0.30417070427619303 0 0.18265278236186541 0.28020603593405619 0 0.18265278236186541 0.28020603593405619 0 0.15915390062653459 0.27760612704708998 0 0.17660728565697029 0.25284173787090108 0 0.18265278236186541 0.28020603593405619 0 0.17660728565697029 0.25284173787090108 0 0.20178717474815569 0.26483037668696541 0 0.1514273965657848 0.24085309905483679 0 0.156278998070083 0.25778272565978 0 0.17660728565697029 0.25284173787090108 0 0.15915390062653459 0.27760612704708998 0 0.156278998070083 0.25778272565978 0 0.17660728565697029 0.25284173787090108 0 0.1971008006350988 0.24422433182354611 0 0.17660728565697029 0.25284173787090108 0 0.20178717474815569 0.26483037668696541 0 0.17660728565697029 0.25284173787090108 0 0.20178717474815569 0.26483037668696541 0 0.18265278236186541 0.28020603593405619 0 0.20178717474815569 0.26483037668696541 0 0.20721699074389299 0.28586320426344869 0 0.20178717474815569 0.26483037668696541 0 0.22696706383934109 0.27681901550302962 0 0.20721699074389299 0.28586320426344869 0 0.20178717474815569 0.26483037668696541 0 0.22696706383934109 0.27681901550302962 0 0.1971008006350988 0.24422433182354611 0 0.20178717474815569 0.26483037668696541 0 0.2257125065402284 0.25431107802280528 0 0.20178717474815569 0.26483037668696541 0 0.2257125065402284 0.25431107802280528 0 0.22696706383934109 0.27681901550302962 0 0.2257125065402284 0.25431107802280528 0 0.23435940432808119 0.2558835225658645 0 0.2376751292839718 0.27741240132337408 0 0.2257125065402284 0.25431107802280528 0 0.22696706383934109 0.27681901550302962 0 0.2376751292839718 0.27741240132337408 0 0.2257125065402284 0.25431107802280528 0 0.2376751292839718 0.27741240132337408 0 0.22696706383934109 0.27681901550302962 0 0.2376751292839718 0.27741240132337408 0 0.2318681827461313 0.28775992326468519 0 0.23435940432808119 0.2558835225658645 0 0.2434397278092077 0.27846069768541332 0 0.2376751292839718 0.27741240132337408 0 0.23435940432808119 0.2558835225658645 0 0.2434397278092077 0.27846069768541332 0 0.23435940432808119 0.2558835225658645 0 0.2434397278092077 0.27846069768541332 0 0.24763005152173001 0.25910176257370959 0 0.2459873280094696 0.23707215699401071 0 0.23435940432808119 0.2558835225658645 0 0.24763005152173001 0.25910176257370959 0 0.24963775202771521 0.30051372462394288 0 0.22557231514573739 0.29747977878921561 0 0.2305146992996441 0.31691702429977642 0 0.2376751292839718 0.27741240132337408 0 0.24963775202771521 0.30051372462394288 0 0.2318681827461313 0.28775992326468519 0 0.2434397278092077 0.27846069768541332 0 0.25252005129033422 0.30103787280496203 0 0.2434397278092077 0.27846069768541332 0 0.2376751292839718 0.27741240132337408 0 0.24963775202771521 0.30051372462394288 0 0.2434397278092077 0.27846069768541332 0 0.24963775202771521 0.30051372462394288 0 0.25252005129033422 0.30103787280496203 0 0.24963775202771521 0.30051372462394288 0 0.2318681827461313 0.28775992326468519 0 0.22557231514573739 0.29747977878921561 0 0.2376751292839718 0.27741240132337408 0 0.24963775202771521 0.30051372462394288 0 0.22696706383934109 0.27681901550302962 0 0.2318681827461313 0.28775992326468519 0 0.22192971392309441 0.28686454206331458 0 0.2318681827461313 0.28775992326468519 0 0.22192971392309441 0.28686454206331458 0 0.22557231514573739 0.29747977878921561 0 0.22557231514573739 0.29747977878921561 0 0.21067009246602381 0.31050760251916348 0 0.2305146992996441 0.31691702429977642 0 0.22557231514573739 0.29747977878921561 0 0.2305146992996441 0.31691702429977642 0 0.22557231514573739 0.29747977878921561 0 0.21067009246602381 0.31050760251916348 0 0.20721699074389299 0.28586320426344869 0 0.22192971392309441 0.28686454206331458 0 0.22557231514573739 0.29747977878921561 0 0.20721699074389299 0.28586320426344869 0 0.22696706383934109 0.27681901550302962 0 0.22192971392309441 0.28686454206331458 0 0.20721699074389299 0.28586320426344869 0 0.18588027836364171 0.30417070427619303 0 0.18265278236186541 0.28020603593405619 0 0.20721699074389299 0.28586320426344869 0 0.18588027836364171 0.30417070427619303 0 0.21067009246602381 0.31050760251916348 0 0.20721699074389299 0.28586320426344869 0 0.18588027836364171 0.30417070427619303 0 0.21067009246602381 0.31050760251916348 0 0.1975742485098208 0.32622361772240582 0 0.1975742485098208 0.32622361772240582 0 0.2097525667536678 0.34137856367538538 0 0.18404805005378369 0.34640285754043382 0 0.1975742485098208 0.32622361772240582 0 0.2097525667536678 0.34137856367538538 0 0.2167937380965417 0.3262762156054137 0 0.21067009246602381 0.31050760251916348 0 0.1975742485098208 0.32622361772240582 0 0.2167937380965417 0.3262762156054137 0 0.21067009246602381 0.31050760251916348 0 0.2167937380965417 0.3262762156054137 0 0.2305146992996441 0.31691702429977642 0 0.2305146992996441 0.31691702429977642 0 0.2354570834535519 0.33635426981033711 0 0.2167937380965417 0.3262762156054137 0 0.2305146992996441 0.31691702429977642 0 0.2354570834535519 0.33635426981033711 0 0.2097525667536678 0.34137856367538538 0 0.2167937380965417 0.3262762156054137 0 0.2354570834535519 0.33635426981033711 0 0.2097525667536678 0.34137856367538538 0 0.2354570834535519 0.33635426981033711 0 0.2097525667536678 0.34137856367538538 0 0.2354570834535519 0.33635426981033711 0 0.22572342153310379 0.35183723080414581 0 0.2354570834535519 0.33635426981033711 0 0.24833100513142109 0.32161764704062729 0 0.26518788721623437 0.33054298393043219 0 0.24963775202771521 0.30051372462394288 0 0.2305146992996441 0.31691702429977642 0 0.24833100513142109 0.32161764704062729 0 0.2305146992996441 0.31691702429977642 0 0.2354570834535519 0.33635426981033711 0 0.24833100513142109 0.32161764704062729 0 0.2354570834535519 0.33635426981033711 0 0.24217950803475169 0.36279199964721098 0 0.25397109136889212 0.34953950795812871 0 0.2354570834535519 0.33635426981033711 0 0.24217950803475169 0.36279199964721098 0 0.22572342153310379 0.35183723080414581 0 0.2354570834535519 0.33635426981033711 0 0.24217950803475169 0.36279199964721098 0 0.24217950803475169 0.36279199964721098 0 0.22572342153310379 0.35183723080414581 0 0.21637712922286109 0.36651385017664678 0 0.24217950803475169 0.36279199964721098 0 0.21637712922286109 0.36651385017664678 0 0.22693728272114971 0.38251641872149622 0 0.2097525667536678 0.34137856367538538 0 0.22572342153310379 0.35183723080414581 0 0.21637712922286109 0.36651385017664678 0 0.2097525667536678 0.34137856367538538 0 0.21637712922286109 0.36651385017664678 0 0.19198276408895759 0.36846918068195189 0 0.2097525667536678 0.34137856367538538 0 0.19198276408895759 0.36846918068195189 0 0.18404805005378369 0.34640285754043382 0 0.2097525667536678 0.34137856367538538 0 0.18404805005378369 0.34640285754043382 0 0.21637712922286109 0.36651385017664678 0 0.19198276408895759 0.36846918068195189 0 0.2008438189570996 0.38963870543367402 0 0.1583435333538997 0.35142715140548209 0 0.18404805005378369 0.34640285754043382 0 0.17157629822801171 0.38002160271682978 0 0.19198276408895759 0.36846918068195189 0 0.18404805005378369 0.34640285754043382 0 0.17157629822801171 0.38002160271682978 0 0.1583435333538997 0.35142715140548209 0 0.14756927440754089 0.37573381366887992 0 0.17157629822801171 0.38002160271682978 0 0.1583435333538997 0.35142715140548209 0 0.18404805005378369 0.34640285754043382 0 0.1583435333538997 0.35142715140548209 0 0.17427563080372541 0.32515257599924119 0 0.15139514334923471 0.31791608062108467 0 0.1975742485098208 0.32622361772240582 0 0.18404805005378369 0.34640285754043382 0 0.17427563080372541 0.32515257599924119 0 0.1583435333538997 0.35142715140548209 0 0.18404805005378369 0.34640285754043382 0 0.17427563080372541 0.32515257599924119 0 0.18588027836364171 0.30417070427619303 0 0.1975742485098208 0.32622361772240582 0 0.17427563080372541 0.32515257599924119 0 0.16637322996135739 0.30016678813796199 0 0.17427563080372541 0.32515257599924119 0 0.15139514334923471 0.31791608062108467 0 0.1583435333538997 0.35142715140548209 0 0.15139514334923471 0.31791608062108467 0 0.13264273129131951 0.33439404788472138 0 0.11954567143249289 0.30734763112478491 0 0.15139514334923471 0.31791608062108467 0 0.13264273129131951 0.33439404788472138 0 0.1165634558871128 0.3492406052842485 0 0.13264273129131951 0.33439404788472138 0 0.1326390166540157 0.35645144527053041 0 0.1326390166540157 0.35645144527053041 0 0.14756927440754089 0.37573381366887992 0 0.12550685613774351 0.37951055496914998 0 0.1583435333538997 0.35142715140548209 0 0.1326390166540157 0.35645144527053041 0 0.14756927440754089 0.37573381366887992 0 0.1583435333538997 0.35142715140548209 0 0.1326390166540157 0.35645144527053041 0 0.1583435333538997 0.35142715140548209 0 0.13264273129131951 0.33439404788472138 0 0.1326390166540157 0.35645144527053041 0 0.1528019220027558 0.40532518960412911 0 0.14756927440754089 0.37573381366887992 0 0.13567422075440499 0.38715007620423969 0 0.14756927440754089 0.37573381366887992 0 0.12550685613774351 0.37951055496914998 0 0.13567422075440499 0.38715007620423969 0 0.1236499924648251 0.3984302041169589 0 0.12550685613774351 0.37951055496914998 0 0.13567422075440499 0.38715007620423969 0 0.1236499924648251 0.3984302041169589 0 0.1528019220027558 0.40532518960412911 0 0.13567422075440499 0.38715007620423969 0 0.1528019220027558 0.40532518960412911 0 0.13502200614688589 0.42010390008240672 0 0.17098438647877001 0.42850314348833868 0 0.13502200614688589 0.42010390008240672 0 0.17098438647877001 0.42850314348833868 0 0.1532788809183856 0.44756588495706878 0 0.1236499924648251 0.3984302041169589 0 0.1528019220027558 0.40532518960412911 0 0.13502200614688589 0.42010390008240672 0 0.1237280261196836 0.44463014715047522 0 0.13502200614688589 0.42010390008240672 0 0.1532788809183856 0.44756588495706878 0 0.1528019220027558 0.40532518960412911 0 0.17098438647877001 0.42850314348833868 0 0.1528019220027558 0.40532518960412911 0 0.17098438647877001 0.42850314348833868 0 0.17902253221663289 0.40492788695933207 0 0.17098438647877001 0.42850314348833868 0 0.19890623541652749 0.42115079355368912 0 0.18916685095478419 0.4516810973725483 0 0.17098438647877001 0.42850314348833868 0 0.17902253221663289 0.40492788695933207 0 0.19890623541652749 0.42115079355368912 0 0.17902253221663289 0.40492788695933207 0 0.17157629822801171 0.38002160271682978 0 0.2008438189570996 0.38963870543367402 0 0.1528019220027558 0.40532518960412911 0 0.17902253221663289 0.40492788695933207 0 0.17157629822801171 0.38002160271682978 0 0.1528019220027558 0.40532518960412911 0 0.14756927440754089 0.37573381366887992 0 0.17157629822801171 0.38002160271682978 0 0.17902253221663289 0.40492788695933207 0 0.2008438189570996 0.38963870543367402 0 0.19890623541652749 0.42115079355368912 0 0.19198276408895759 0.36846918068195189 0 0.17157629822801171 0.38002160271682978 0 0.2008438189570996 0.38963870543367402 0 0.2008438189570996 0.38963870543367402 0 0.22638402477508329 0.40440780886586492 0 0.19890623541652749 0.42115079355368912 0 0.2008438189570996 0.38963870543367402 0 0.22693728272114971 0.38251641872149622 0 0.22638402477508329 0.40440780886586492 0 0.21637712922286109 0.36651385017664678 0 0.2008438189570996 0.38963870543367402 0 0.22693728272114971 0.38251641872149622 0 0.22693728272114971 0.38251641872149622 0 0.22638402477508329 0.40440780886586492 0 0.24890193261595259 0.38922972948408457 0 0.22638402477508329 0.40440780886586492 0 0.24890193261595259 0.38922972948408457 0 0.25562435719715348 0.41566745932095828 0 0.24217950803475169 0.36279199964721098 0 0.24890193261595259 0.38922972948408457 0 0.24217950803475169 0.36279199964721098 0 0.22693728272114971 0.38251641872149622 0 0.24890193261595259 0.38922972948408457 0 0.22638402477508329 0.40440780886586492 0 0.23929670148200641 0.42651558303428039 0 0.25562435719715348 0.41566745932095828 0 0.22638402477508329 0.40440780886586492 0 0.23929670148200641 0.42651558303428039 0 0.21947817947708001 0.42577831055793047 0 0.23929670148200641 0.42651558303428039 0 0.21947817947708001 0.42577831055793047 0 0.23265016418236131 0.44461914726881641 0 0.21947817947708001 0.42577831055793047 0 0.19890623541652749 0.42115079355368912 0 0.21144352365240529 0.44700262568134053 0 0.22638402477508329 0.40440780886586492 0 0.21947817947708001 0.42577831055793047 0 0.19890623541652749 0.42115079355368912 0 0.19890623541652749 0.42115079355368912 0 0.18916685095478419 0.4516810973725483 0 0.21144352365240529 0.44700262568134053 0 0.18916685095478419 0.4516810973725483 0 0.20734931543079829 0.47485905125675792 0 0.18916685095478419 0.4516810973725483 0 0.21144352365240529 0.44700262568134053 0 0.20734931543079829 0.47485905125675792 0 0.21144352365240529 0.44700262568134053 0 0.22111039645288069 0.46392735407830132 0 0.20734931543079829 0.47485905125675792 0 0.21144352365240529 0.44700262568134053 0 0.23265016418236131 0.44461914726881641 0 0.22111039645288069 0.46392735407830132 0 0.21947817947708001 0.42577831055793047 0 0.21144352365240529 0.44700262568134053 0 0.23265016418236131 0.44461914726881641 0 0.23265016418236131 0.44461914726881641 0 0.22111039645288069 0.46392735407830132 0 0.24508980140621781 0.46623513653650361 0 0.22111039645288069 0.46392735407830132 0 0.24508980140621781 0.46623513653650361 0 0.23265016418236131 0.44461914726881641 0 0.24508980140621781 0.46623513653650361 0 0.26234678177835441 0.44210518915783192 0 0.23929670148200641 0.42651558303428039 0 0.23265016418236131 0.44461914726881641 0 0.26234678177835441 0.44210518915783192 0 0.2479606543192433 0.5 0 0.23772208332050199 0.48786840683281429 0 0.2255317799068125 0.49803700514096738 0 0.2479606543192433 0.5 0 0.23772208332050199 0.48786840683281429 0 0.25513941322049821 0.48355515434954122 0 0.24508980140621781 0.46623513653650361 0 0.23688712964706901 0.4763018139788181 0 0.25513941322049821 0.48355515434954122 0 0.23772208332050199 0.48786840683281429 0 0.23688712964706901 0.4763018139788181 0 0.25513941322049821 0.48355515434954122 0 0.22111039645288069 0.46392735407830132 0 0.23688712964706901 0.4763018139788181 0 0.22537395383524639 0.47992301809693011 0 0.22537395383524639 0.47992301809693011 0 0.2255317799068125 0.49803700514096738 0 0.20734931543079829 0.47485905125675792 0 0.23772208332050199 0.48786840683281429 0 0.23688712964706901 0.4763018139788181 0 0.22537395383524639 0.47992301809693011 0 0.22111039645288069 0.46392735407830132 0 0.24508980140621781 0.46623513653650361 0 0.23688712964706901 0.4763018139788181 0 0.23772208332050199 0.48786840683281429 0 0.22537395383524639 0.47992301809693011 0 0.2255317799068125 0.49803700514096738 0 0.2479606543192433 0.5 0 0.21885338771805021 0.5 0 0.2255317799068125 0.49803700514096738 0 0.21885338771805021 0.5 0 0.2255317799068125 0.49803700514096738 0 0.20734931543079829 0.47485905125675792 0 0.21885338771805021 0.5 0 0.20734931543079829 0.47485905125675792 0 0.1897461211168571 0.5 0 0.2255317799068125 0.49803700514096738 0 0.20734931543079829 0.47485905125675792 0 0.22111039645288069 0.46392735407830132 0 0.22537395383524639 0.47992301809693011 0 0.20734931543079829 0.47485905125675792 0 0.18916685095478419 0.4516810973725483 0 0.20734931543079829 0.47485905125675792 0 0.18375498264642379 0.4799820804674747 0 0.20734931543079829 0.47485905125675792 0 0.1897461211168571 0.5 0 0.18375498264642379 0.4799820804674747 0 0.1897461211168571 0.5 0 0.1606388545156639 0.5 0 0.18375498264642379 0.4799820804674747 0 0.1606388545156639 0.5 0 0.16284299929429041 0.47286735670979418 0 0.18375498264642379 0.4799820804674747 0 0.17098438647877001 0.42850314348833868 0 0.18916685095478419 0.4516810973725483 0 0.1532788809183856 0.44756588495706878 0 0.18916685095478419 0.4516810973725483 0 0.16284299929429041 0.47286735670979418 0 0.18375498264642379 0.4799820804674747 0 0.18916685095478419 0.4516810973725483 0 0.16284299929429041 0.47286735670979418 0 0.1532788809183856 0.44756588495706878 0 0.17098438647877001 0.42850314348833868 0 0.18916685095478419 0.4516810973725483 0 0.16284299929429041 0.47286735670979418 0 0.1532788809183856 0.44756588495706878 0 0.13792901651589951 0.46760966493884959 0 0.1160915578241386 0.4641835533930308 0 0.1237280261196836 0.44463014715047522 0 0.13792901651589951 0.46760966493884959 0 0.1237280261196836 0.44463014715047522 0 0.1532788809183856 0.44756588495706878 0 0.13792901651589951 0.46760966493884959 0 0.1146358595090817 0.48605788153156299 0 0.13792901651589951 0.46760966493884959 0 0.14375381424303349 0.48699105670781317 0 0.1146358595090817 0.48605788153156299 0 0.13153158791447089 0.50000000000000033 0 0.14375381424303349 0.48699105670781317 0 0.1606388545156639 0.5 0 0.13153158791447089 0.50000000000000033 0 0.14375381424303349 0.48699105670781317 0 0.1606388545156639 0.5 0 0.16284299929429041 0.47286735670979418 0 0.14375381424303349 0.48699105670781317 0 0.16284299929429041 0.47286735670979418 0 0.13792901651589951 0.46760966493884959 0 0.14375381424303349 0.48699105670781317 0 0.35818797179075601 0.47458138126870081 0 0.34642182508771258 0.48585203466637861 0 0.33573625410597768 0.47071191077640329 0 0.35818797179075601 0.47458138126870081 0 0.34642182508771258 0.48585203466637861 0 0.35839011049240282 0.5 0 0.34642182508771258 0.48585203466637861 0 0.35839011049240282 0.5 0 0.33128271396841408 0.5 0 0.35818797179075601 0.47458138126870081 0 0.35839011049240282 0.5 0 0.37951078222479251 0.47868038482078018 0 0.35839011049240282 0.5 0 0.37951078222479251 0.47868038482078018 0 0.38549750701639152 0.5 0 0.35818797179075601 0.47458138126870081 0 0.37565915938479377 0.45849116020829678 0 0.37951078222479251 0.47868038482078018 0 0.35818797179075601 0.47458138126870081 0 0.35384759317055892 0.4558722467826386 0 0.37565915938479377 0.45849116020829678 0 0.3672128213662551 0.44140310366938379 0 0.35384759317055892 0.4558722467826386 0 0.37565915938479377 0.45849116020829678 0 0.35041805056504127 0.44039830756831011 0 0.35384759317055892 0.4558722467826386 0 0.33587130181052999 0.44964761720473639 0 0.3672128213662551 0.44140310366938379 0 0.35041805056504127 0.44039830756831011 0 0.35384759317055892 0.4558722467826386 0 0.35818797179075601 0.47458138126870081 0 0.35384759317055892 0.4558722467826386 0 0.33573625410597768 0.47071191077640329 0 0.33587130181052999 0.44964761720473639 0 0.32245641590876828 0.45710047073305682 0 0.33573625410597768 0.47071191077640329 0 0.35384759317055892 0.4558722467826386 0 0.33587130181052999 0.44964761720473639 0 0.33573625410597768 0.47071191077640329 0 0.35041805056504127 0.44039830756831011 0 0.33587130181052999 0.44964761720473639 0 0.34011375395909899 0.42827966665244982 0 0.33587130181052999 0.44964761720473639 0 0.32313042491148092 0.43915640659962429 0 0.34011375395909899 0.42827966665244982 0 0.33587130181052999 0.44964761720473639 0 0.32313042491148092 0.43915640659962429 0 0.32245641590876828 0.45710047073305682 0 0.32313042491148092 0.43915640659962429 0 0.32245641590876828 0.45710047073305682 0 0.3069723578181176 0.44921026163567479 0 0.32313042491148092 0.43915640659962429 0 0.3069723578181176 0.44921026163567479 0 0.30967478190587899 0.43248339293908478 0 0.32245641590876828 0.45710047073305682 0 0.31479002533830769 0.47294309924184441 0 0.33573625410597768 0.47071191077640329 0 0.32245641590876828 0.45710047073305682 0 0.31479002533830769 0.47294309924184441 0 0.3069723578181176 0.44921026163567479 0 0.31479002533830769 0.47294309924184441 0 0.33573625410597768 0.47071191077640329 0 0.33128271396841408 0.5 0 0.34642182508771258 0.48585203466637861 0 0.33573625410597768 0.47071191077640329 0 0.33128271396841408 0.5 0 0.31479002533830769 0.47294309924184441 0 0.33128271396841408 0.5 0 0.30417531744442527 0.5 0 0.31479002533830769 0.47294309924184441 0 0.30417531744442527 0.5 0 0.29074220063683293 0.48758109823480927 0 0.31479002533830769 0.47294309924184441 0 0.29192961584893129 0.47074300911827521 0 0.29074220063683293 0.48758109823480927 0 0.31479002533830769 0.47294309924184441 0 0.29192961584893129 0.47074300911827521 0 0.29192961584893129 0.47074300911827521 0 0.29074220063683293 0.48758109823480927 0 0.27306856363999571 0.4842714594973539 0 0.30417531744442527 0.5 0 0.29074220063683293 0.48758109823480927 0 0.27706792092043642 0.500000000000002 0 0.27706792092043642 0.500000000000002 0 0.27306856363999571 0.4842714594973539 0 0.25513941322049821 0.48355515434954122 0 0.29074220063683293 0.48758109823480927 0 0.27706792092043642 0.500000000000002 0 0.27306856363999571 0.4842714594973539 0 0.27706792092043642 0.500000000000002 0 0.27306856363999571 0.4842714594973539 0 0.29192961584893129 0.47074300911827521 0 0.26906920635955489 0.46854291899470579 0 0.27306856363999571 0.4842714594973539 0 0.25513941322049821 0.48355515434954122 0 0.26906920635955489 0.46854291899470579 0 0.29192961584893129 0.47074300911827521 0 0.27306856363999571 0.4842714594973539 0 0.26906920635955489 0.46854291899470579 0 0.27306856363999571 0.4842714594973539 0 0.26906920635955489 0.46854291899470579 0 0.24508980140621781 0.46623513653650361 0 0.25513941322049821 0.48355515434954122 0 0.26906920635955489 0.46854291899470579 0 0.2479606543192433 0.5 0 0.27706792092043642 0.500000000000002 0 0.25513941322049821 0.48355515434954122 0 0.24508980140621781 0.46623513653650361 0 0.26906920635955489 0.46854291899470579 0 0.24508980140621781 0.46623513653650361 0 0.26234678177835441 0.44210518915783192 0 0.26906920635955489 0.46854291899470579 0 0.29192961584893129 0.47074300911827521 0 0.26906920635955489 0.46854291899470579 0 0.2825318911539082 0.44937975844880462 0 0.26234678177835441 0.44210518915783192 0 0.26906920635955489 0.46854291899470579 0 0.26234678177835441 0.44210518915783192 0 0.26906920635955489 0.46854291899470579 0 0.2825318911539082 0.44937975844880462 0 0.26234678177835441 0.44210518915783192 0 0.2825318911539082 0.44937975844880462 0 0.2735489225425754 0.42398780939214897 0 0.2825318911539082 0.44937975844880462 0 0.3069723578181176 0.44921026163567479 0 0.29424437368670248 0.43173942196487358 0 0.29192961584893129 0.47074300911827521 0 0.2825318911539082 0.44937975844880462 0 0.3069723578181176 0.44921026163567479 0 0.31479002533830769 0.47294309924184441 0 0.29192961584893129 0.47074300911827521 0 0.3069723578181176 0.44921026163567479 0 0.3069723578181176 0.44921026163567479 0 0.30967478190587899 0.43248339293908478 0 0.29424437368670248 0.43173942196487358 0 0.30967478190587899 0.43248339293908478 0 0.3045281829251868 0.41996349248923659 0 0.31949857018790712 0.42234738200601463 0 0.30967478190587899 0.43248339293908478 0 0.3045281829251868 0.41996349248923659 0 0.29424437368670248 0.43173942196487358 0 0.31221380766262308 0.41141105291454111 0 0.3045281829251868 0.41996349248923659 0 0.30175255758949709 0.40539483602959481 0 0.31221380766262308 0.41141105291454111 0 0.3045281829251868 0.41996349248923659 0 0.31949857018790712 0.42234738200601463 0 0.3045281829251868 0.41996349248923659 0 0.29116822628179151 0.41527777958226658 0 0.30175255758949709 0.40539483602959481 0 0.29116822628179151 0.41527777958226658 0 0.2735489225425754 0.42398780939214897 0 0.28009549588900451 0.40671294327225221 0 0.29116822628179151 0.41527777958226658 0 0.29046685710439091 0.40365495696152731 0 0.30175255758949709 0.40539483602959481 0 0.29116822628179151 0.41527777958226658 0 0.28009549588900451 0.40671294327225221 0 0.29046685710439091 0.40365495696152731 0 0.29116822628179151 0.41527777958226658 0 0.29424437368670248 0.43173942196487358 0 0.2735489225425754 0.42398780939214897 0 0.3045281829251868 0.41996349248923659 0 0.29116822628179151 0.41527777958226658 0 0.29424437368670248 0.43173942196487358 0 0.2825318911539082 0.44937975844880462 0 0.29424437368670248 0.43173942196487358 0 0.2735489225425754 0.42398780939214897 0 0.2735489225425754 0.42398780939214897 0 0.28009549588900451 0.40671294327225221 0 0.26594594197715632 0.40587542564026857 0 0.2735489225425754 0.42398780939214897 0 0.25562435719715348 0.41566745932095828 0 0.26594594197715632 0.40587542564026857 0 0.26234678177835441 0.44210518915783192 0 0.25562435719715348 0.41566745932095828 0 0.23929670148200641 0.42651558303428039 0 0.26234678177835441 0.44210518915783192 0 0.25562435719715348 0.41566745932095828 0 0.26234678177835441 0.44210518915783192 0 0.2735489225425754 0.42398780939214897 0 0.25562435719715348 0.41566745932095828 0 0.24890193261595259 0.38922972948408457 0 0.27155900164109531 0.39377918673189899 0 0.26817635423288699 0.37969346344739391 0 0.24890193261595259 0.38922972948408457 0 0.26817635423288699 0.37969346344739391 0 0.26082178769032438 0.36496323128775521 0 0.24890193261595259 0.38922972948408457 0 0.25562435719715348 0.41566745932095828 0 0.24890193261595259 0.38922972948408457 0 0.27155900164109531 0.39377918673189899 0 0.26594594197715632 0.40587542564026857 0 0.24890193261595259 0.38922972948408457 0 0.25562435719715348 0.41566745932095828 0 0.26594594197715632 0.40587542564026857 0 0.28009549588900451 0.40671294327225221 0 0.27155900164109531 0.39377918673189899 0 0.26594594197715632 0.40587542564026857 0 0.28009549588900451 0.40671294327225221 0 0.27155900164109531 0.39377918673189899 0 0.2841626669368148 0.39603484022980262 0 0.27155900164109531 0.39377918673189899 0 0.27917556467927279 0.38707504911542251 0 0.2841626669368148 0.39603484022980262 0 0.27917556467927279 0.38707504911542251 0 0.27737653217987568 0.3763299637903077 0 0.28641533258273322 0.38531457319514678 0 0.27155900164109531 0.39377918673189899 0 0.27917556467927279 0.38707504911542251 0 0.26817635423288699 0.37969346344739391 0 0.26817635423288699 0.37969346344739391 0 0.27737653217987568 0.3763299637903077 0 0.26995518240551242 0.36922466410125959 0 0.27917556467927279 0.38707504911542251 0 0.26817635423288699 0.37969346344739391 0 0.27737653217987568 0.3763299637903077 0 0.27917556467927279 0.38707504911542251 0 0.28749669470930389 0.39059918652862902 0 0.28641533258273322 0.38531457319514678 0 0.28749669470930389 0.39059918652862902 0 0.28641533258273322 0.38531457319514678 0 0.29321390271680048 0.38636149671614523 0 0.28641533258273322 0.38531457319514678 0 0.29321390271680048 0.38636149671614523 0 0.29155132770994241 0.38145409056705559 0 0.28749669470930389 0.39059918652862902 0 0.29321390271680048 0.38636149671614523 0 0.2951553388248469 0.39485438569372039 0 0.29321390271680048 0.38636149671614523 0 0.2951553388248469 0.39485438569372039 0 0.30172663999730548 0.38411556817588999 0 0.2951337916801352 0.37545299726164849 0 0.29155132770994241 0.38145409056705559 0 0.29028041611347422 0.37131190521640561 0 0.29650911823343812 0.38027524721939082 0 0.2951337916801352 0.37545299726164849 0 0.29155132770994241 0.38145409056705559 0 0.29321390271680048 0.38636149671614523 0 0.29650911823343812 0.38027524721939082 0 0.29155132770994241 0.38145409056705559 0 0.28009549588900451 0.40671294327225221 0 0.2841626669368148 0.39603484022980262 0 0.29046685710439091 0.40365495696152731 0 0.27917556467927279 0.38707504911542251 0 0.28749669470930389 0.39059918652862902 0 0.2841626669368148 0.39603484022980262 0 0.28749669470930389 0.39059918652862902 0 0.2841626669368148 0.39603484022980262 0 0.2951553388248469 0.39485438569372039 0 0.2841626669368148 0.39603484022980262 0 0.2951553388248469 0.39485438569372039 0 0.29046685710439091 0.40365495696152731 0 0.2951553388248469 0.39485438569372039 0 0.29046685710439091 0.40365495696152731 0 0.30175255758949709 0.40539483602959481 0 0.2951553388248469 0.39485438569372039 0 0.30416997859767031 0.39496190780794832 0 0.30172663999730548 0.38411556817588999 0 0.2951553388248469 0.39485438569372039 0 0.30175255758949709 0.40539483602959481 0 0.30416997859767031 0.39496190780794832 0 0.30416997859767031 0.39496190780794832 0 0.31194754139156228 0.39992908639018659 0 0.31058504665001713 0.38993607806902841 0 0.31221380766262308 0.41141105291454111 0 0.30175255758949709 0.40539483602959481 0 0.31194754139156228 0.39992908639018659 0 0.30175255758949709 0.40539483602959481 0 0.30416997859767031 0.39496190780794832 0 0.31194754139156228 0.39992908639018659 0 0.29650911823343812 0.38027524721939082 0 0.30172663999730548 0.38411556817588999 0 0.30091992906300691 0.3739920833762147 0 0.30172663999730548 0.38411556817588999 0 0.31077839752677883 0.37658419253607489 0 0.30091992906300691 0.3739920833762147 0 0.29650911823343812 0.38027524721939082 0 0.2951337916801352 0.37545299726164849 0 0.30091992906300691 0.3739920833762147 0 0.29321390271680048 0.38636149671614523 0 0.29650911823343812 0.38027524721939082 0 0.30172663999730548 0.38411556817588999 0 0.30416997859767031 0.39496190780794832 0 0.30172663999730548 0.38411556817588999 0 0.31058504665001713 0.38993607806902841 0 0.30172663999730548 0.38411556817588999 0 0.31058504665001713 0.38993607806902841 0 0.31077839752677883 0.37658419253607489 0 0.31077839752677883 0.37658419253607489 0 0.31867525833463911 0.38494833593070971 0 0.32306703930603953 0.37623237809600169 0 0.31058504665001713 0.38993607806902841 0 0.31867525833463911 0.38494833593070971 0 0.31878199461777879 0.39362573130725731 0 0.31058504665001713 0.38993607806902841 0 0.31077839752677883 0.37658419253607489 0 0.31867525833463911 0.38494833593070971 0 0.31867525833463911 0.38494833593070971 0 0.32306703930603953 0.37623237809600169 0 0.32934203852673438 0.38871677178939867 0 0.31867525833463911 0.38494833593070971 0 0.32934203852673438 0.38871677178939867 0 0.31878199461777879 0.39362573130725731 0 0.32306703930603953 0.37623237809600169 0 0.33555471090824662 0.37714848622012531 0 0.32934203852673438 0.38871677178939867 0 0.33555471090824662 0.37714848622012531 0 0.32934203852673438 0.38871677178939867 0 0.34865402358820241 0.38746960960344728 0 0.32934203852673438 0.38871677178939867 0 0.33838050486014071 0.40132571833470809 0 0.34865402358820241 0.38746960960344728 0 0.32934203852673438 0.38871677178939867 0 0.33838050486014071 0.40132571833470809 0 0.32336008818594092 0.40459838435696299 0 0.32934203852673438 0.38871677178939867 0 0.32336008818594092 0.40459838435696299 0 0.31878199461777879 0.39362573130725731 0 0.31194754139156228 0.39992908639018659 0 0.31058504665001713 0.38993607806902841 0 0.31878199461777879 0.39362573130725731 0 0.31221380766262308 0.41141105291454111 0 0.31194754139156228 0.39992908639018659 0 0.32336008818594092 0.40459838435696299 0 0.31194754139156228 0.39992908639018659 0 0.32336008818594092 0.40459838435696299 0 0.31878199461777879 0.39362573130725731 0 0.31221380766262308 0.41141105291454111 0 0.32336008818594092 0.40459838435696299 0 0.31949857018790712 0.42234738200601463 0 0.32336008818594092 0.40459838435696299 0 0.31949857018790712 0.42234738200601463 0 0.33335541567677851 0.41413927737501682 0 0.32313042491148092 0.43915640659962429 0 0.31949857018790712 0.42234738200601463 0 0.34011375395909899 0.42827966665244982 0 0.32313042491148092 0.43915640659962429 0 0.30967478190587899 0.43248339293908478 0 0.31949857018790712 0.42234738200601463 0 0.31949857018790712 0.42234738200601463 0 0.34011375395909899 0.42827966665244982 0 0.33335541567677851 0.41413927737501682 0 0.34011375395909899 0.42827966665244982 0 0.33335541567677851 0.41413927737501682 0 0.35251535500997389 0.4097633894025835 0 0.33838050486014071 0.40132571833470809 0 0.33335541567677851 0.41413927737501682 0 0.35251535500997389 0.4097633894025835 0 0.33838050486014071 0.40132571833470809 0 0.32336008818594092 0.40459838435696299 0 0.33335541567677851 0.41413927737501682 0 0.34011375395909899 0.42827966665244982 0 0.35251535500997389 0.4097633894025835 0 0.3591301267131588 0.42602683944016839 0 0.3672128213662551 0.44140310366938379 0 0.35041805056504127 0.44039830756831011 0 0.3591301267131588 0.42602683944016839 0 0.35041805056504127 0.44039830756831011 0 0.34011375395909899 0.42827966665244982 0 0.3591301267131588 0.42602683944016839 0 0.3672128213662551 0.44140310366938379 0 0.3591301267131588 0.42602683944016839 0 0.37786999239799629 0.42201923841731348 0 0.3591301267131588 0.42602683944016839 0 0.36674031876838431 0.41287021939491358 0 0.37786999239799629 0.42201923841731348 0 0.35251535500997389 0.4097633894025835 0 0.36674031876838431 0.41287021939491358 0 0.36672310374365391 0.3972274770167053 0 0.36674031876838431 0.41287021939491358 0 0.37714557779446961 0.40580011292323048 0 0.37786999239799629 0.42201923841731348 0 0.35251535500997389 0.4097633894025835 0 0.3591301267131588 0.42602683944016839 0 0.36674031876838431 0.41287021939491358 0 0.36674031876838431 0.41287021939491358 0 0.36672310374365391 0.3972274770167053 0 0.37714557779446961 0.40580011292323048 0 0.36672310374365391 0.3972274770167053 0 0.34865402358820241 0.38746960960344728 0 0.36927583114563117 0.37168826674887129 0 0.36672310374365391 0.3972274770167053 0 0.36927583114563117 0.37168826674887129 0 0.38594138320053972 0.39504117240748449 0 0.34865402358820241 0.38746960960344728 0 0.34769055634412588 0.36745966958429022 0 0.36927583114563117 0.37168826674887129 0 0.33555471090824662 0.37714848622012531 0 0.34865402358820241 0.38746960960344728 0 0.34769055634412588 0.36745966958429022 0 0.35251535500997389 0.4097633894025835 0 0.36672310374365391 0.3972274770167053 0 0.34865402358820241 0.38746960960344728 0 0.33838050486014071 0.40132571833470809 0 0.35251535500997389 0.4097633894025835 0 0.34865402358820241 0.38746960960344728 0 0.35261027909072251 0.34833536109025781 0 0.34769055634412588 0.36745966958429022 0 0.33944519881702218 0.35670643516570921 0 0.35261027909072251 0.34833536109025781 0 0.34769055634412588 0.36745966958429022 0 0.36927583114563117 0.37168826674887129 0 0.35261027909072251 0.34833536109025781 0 0.36927583114563117 0.37168826674887129 0 0.35261027909072251 0.34833536109025781 0 0.36927583114563117 0.37168826674887129 0 0.38014707859742553 0.358601566133181 0 0.35261027909072251 0.34833536109025781 0 0.37418757138316661 0.34003979241565702 0 0.38014707859742553 0.358601566133181 0 0.37418757138316661 0.34003979241565702 0 0.36114413796306788 0.32433110896381118 0 0.38634354889032002 0.32367976249598251 0 0.35261027909072251 0.34833536109025781 0 0.37418757138316661 0.34003979241565702 0 0.36114413796306788 0.32433110896381118 0 0.36114413796306788 0.32433110896381118 0 0.38634354889032002 0.32367976249598251 0 0.36114413796306788 0.32433110896381118 0 0.36246687595182442 0.30494518477727961 0 0.38634354889032002 0.32367976249598251 0 0.36114413796306788 0.32433110896381118 0 0.33594472703581602 0.32498245543164278 0 0.36114413796306788 0.32433110896381118 0 0.33594472703581602 0.32498245543164278 0 0.34448717235649018 0.30756264321984922 0 0.35261027909072251 0.34833536109025781 0 0.36114413796306788 0.32433110896381118 0 0.33594472703581602 0.32498245543164278 0 0.35261027909072251 0.34833536109025781 0 0.33594472703581602 0.32498245543164278 0 0.35261027909072251 0.34833536109025781 0 0.33361265820108371 0.33601463685995558 0 0.33594472703581602 0.32498245543164278 0 0.35261027909072251 0.34833536109025781 0 0.33361265820108371 0.33601463685995558 0 0.33117650937159632 0.34590223044488833 0 0.33361265820108371 0.33601463685995558 0 0.33594472703581602 0.32498245543164278 0 0.32592845192929348 0.32524135296818618 0 0.33361265820108371 0.33601463685995558 0 0.32240332357799001 0.33561178436480271 0 0.33117650937159632 0.34590223044488833 0 0.33594472703581602 0.32498245543164278 0 0.32420479997372442 0.30853167071016102 0 0.33594472703581602 0.32498245543164278 0 0.32592845192929348 0.32524135296818618 0 0.32420479997372442 0.30853167071016102 0 0.33594472703581602 0.32498245543164278 0 0.32420479997372442 0.30853167071016102 0 0.34448717235649018 0.30756264321984922 0 0.33594472703581602 0.32498245543164278 0 0.32592845192929348 0.32524135296818618 0 0.32592845192929348 0.32524135296818618 0 0.31778971146991503 0.31788997842391498 0 0.32420479997372442 0.30853167071016102 0 0.32592845192929348 0.32524135296818618 0 0.31591730865868939 0.32743152395768732 0 0.31778971146991503 0.31788997842391498 0 0.31591730865868939 0.32743152395768732 0 0.31778971146991503 0.31788997842391498 0 0.30920411140212778 0.3196886032463338 0 0.32240332357799001 0.33561178436480271 0 0.31863003654071292 0.34601962911411782 0 0.33117650937159632 0.34590223044488833 0 0.33361265820108371 0.33601463685995558 0 0.32592845192929348 0.32524135296818618 0 0.32240332357799001 0.33561178436480271 0 0.32592845192929348 0.32524135296818618 0 0.31591730865868939 0.32743152395768732 0 0.32240332357799001 0.33561178436480271 0 0.31591730865868939 0.32743152395768732 0 0.32240332357799001 0.33561178436480271 0 0.31164832743931292 0.33689503642828789 0 0.32240332357799001 0.33561178436480271 0 0.31863003654071292 0.34601962911411782 0 0.31164832743931292 0.33689503642828789 0 0.31863003654071292 0.34601962911411782 0 0.30992842843050988 0.3457112388019602 0 0.31164832743931292 0.33689503642828789 0 0.31863003654071292 0.34601962911411782 0 0.30992842843050988 0.3457112388019602 0 0.31160887743439081 0.35478490180041172 0 0.32445766980723489 0.35579424438156659 0 0.31686549990355672 0.36548826773678422 0 0.31160887743439081 0.35478490180041172 0 0.31863003654071292 0.34601962911411782 0 0.32445766980723489 0.35579424438156659 0 0.31160887743439081 0.35478490180041172 0 0.31863003654071292 0.34601962911411782 0 0.32445766980723489 0.35579424438156659 0 0.33117650937159632 0.34590223044488833 0 0.35261027909072251 0.34833536109025781 0 0.33117650937159632 0.34590223044488833 0 0.33944519881702218 0.35670643516570921 0 0.32445766980723489 0.35579424438156659 0 0.33117650937159632 0.34590223044488833 0 0.33944519881702218 0.35670643516570921 0 0.33555471090824662 0.37714848622012531 0 0.34769055634412588 0.36745966958429022 0 0.3290198967761308 0.36586400202748842 0 0.34769055634412588 0.36745966958429022 0 0.33944519881702218 0.35670643516570921 0 0.3290198967761308 0.36586400202748842 0 0.32445766980723489 0.35579424438156659 0 0.33944519881702218 0.35670643516570921 0 0.3290198967761308 0.36586400202748842 0 0.32306703930603953 0.37623237809600169 0 0.33555471090824662 0.37714848622012531 0 0.3290198967761308 0.36586400202748842 0 0.32306703930603953 0.37623237809600169 0 0.3290198967761308 0.36586400202748842 0 0.31686549990355672 0.36548826773678422 0 0.32445766980723489 0.35579424438156659 0 0.3290198967761308 0.36586400202748842 0 0.31686549990355672 0.36548826773678422 0 0.31077839752677883 0.37658419253607489 0 0.32306703930603953 0.37623237809600169 0 0.31686549990355672 0.36548826773678422 0 0.31077839752677883 0.37658419253607489 0 0.30653952356419251 0.36486132392814918 0 0.30091992906300691 0.3739920833762147 0 0.31077839752677883 0.37658419253607489 0 0.31686549990355672 0.36548826773678422 0 0.30653952356419251 0.36486132392814918 0 0.31686549990355672 0.36548826773678422 0 0.30653952356419251 0.36486132392814918 0 0.31160887743439081 0.35478490180041172 0 0.30653952356419251 0.36486132392814918 0 0.29956039950038399 0.36055845947794762 0 0.29968882481084308 0.36620473963642819 0 0.30653952356419251 0.36486132392814918 0 0.29956039950038399 0.36055845947794762 0 0.30450437459886343 0.35739179545954242 0 0.29956039950038399 0.36055845947794762 0 0.29968882481084308 0.36620473963642819 0 0.2946843591870788 0.36349444767638139 0 0.29968882481084308 0.36620473963642819 0 0.30091992906300691 0.3739920833762147 0 0.29515321138997108 0.36891281366618561 0 0.30653952356419251 0.36486132392814918 0 0.29968882481084308 0.36620473963642819 0 0.30091992906300691 0.3739920833762147 0 0.2951337916801352 0.37545299726164849 0 0.30091992906300691 0.3739920833762147 0 0.29515321138997108 0.36891281366618561 0 0.30992842843050988 0.3457112388019602 0 0.31160887743439081 0.35478490180041172 0 0.30300584901730271 0.34938636887413438 0 0.30992842843050988 0.3457112388019602 0 0.30300584901730271 0.34938636887413438 0 0.30284961949963451 0.34180688944884569 0 0.31160887743439081 0.35478490180041172 0 0.30450437459886343 0.35739179545954242 0 0.30300584901730271 0.34938636887413438 0 0.30653952356419251 0.36486132392814918 0 0.31160887743439081 0.35478490180041172 0 0.30450437459886343 0.35739179545954242 0 0.30450437459886343 0.35739179545954242 0 0.29772286606791931 0.35422336501427332 0 0.30300584901730271 0.34938636887413438 0 0.29956039950038399 0.36055845947794762 0 0.30450437459886343 0.35739179545954242 0 0.29772286606791931 0.35422336501427332 0 0.29772286606791931 0.35422336501427332 0 0.30300584901730271 0.34938636887413438 0 0.29508057650716829 0.34607515835053693 0 0.30300584901730271 0.34938636887413438 0 0.29508057650716829 0.34607515835053693 0 0.30284961949963451 0.34180688944884569 0 0.29508057650716829 0.34607515835053693 0 0.29128433478161492 0.3514692197730912 0 0.28696318970460172 0.34507386829548542 0 0.29772286606791931 0.35422336501427332 0 0.29508057650716829 0.34607515835053693 0 0.29128433478161492 0.3514692197730912 0 0.29128433478161492 0.3514692197730912 0 0.29260686737414288 0.35803349489433017 0 0.28831593146678952 0.35482697607295582 0 0.29772286606791931 0.35422336501427332 0 0.29128433478161492 0.3514692197730912 0 0.29260686737414288 0.35803349489433017 0 0.29956039950038399 0.36055845947794762 0 0.29772286606791931 0.35422336501427332 0 0.29260686737414288 0.35803349489433017 0 0.29260686737414288 0.35803349489433017 0 0.28714468874269172 0.35854684035017659 0 0.29097547274489571 0.36086700820637557 0 0.29260686737414288 0.35803349489433017 0 0.28714468874269172 0.35854684035017659 0 0.28831593146678952 0.35482697607295582 0 0.28714468874269172 0.35854684035017659 0 0.28946597567566928 0.3633932499046143 0 0.27836960746308909 0.35599853724874359 0 0.28714468874269172 0.35854684035017659 0 0.28392422607346179 0.35383006020545288 0 0.27836960746308909 0.35599853724874359 0 0.28714468874269172 0.35854684035017659 0 0.28392422607346179 0.35383006020545288 0 0.28831593146678952 0.35482697607295582 0 0.28392422607346179 0.35383006020545288 0 0.28273558166129192 0.34922596943765521 0 0.28101653893848899 0.35208327708388421 0 0.28392422607346179 0.35383006020545288 0 0.28831593146678952 0.35482697607295582 0 0.2863539578433606 0.35136140079780598 0 0.29128433478161492 0.3514692197730912 0 0.28831593146678952 0.35482697607295582 0 0.2863539578433606 0.35136140079780598 0 0.29128433478161492 0.3514692197730912 0 0.2863539578433606 0.35136140079780598 0 0.28696318970460172 0.34507386829548542 0 0.2863539578433606 0.35136140079780598 0 0.28273558166129192 0.34922596943765521 0 0.28696318970460172 0.34507386829548542 0 0.28392422607346179 0.35383006020545288 0 0.2863539578433606 0.35136140079780598 0 0.28273558166129192 0.34922596943765521 0 0.28696318970460172 0.34507386829548542 0 0.28013569367420871 0.34584772387197749 0 0.28119375649751349 0.3415044430455576 0 0.28273558166129192 0.34922596943765521 0 0.28696318970460172 0.34507386829548542 0 0.28013569367420871 0.34584772387197749 0 0.29155132770994241 0.38145409056705559 0 0.29028041611347422 0.37131190521640561 0 0.27836960746308909 0.35599853724874359 0 0.28641533258273322 0.38531457319514678 0 0.29155132770994241 0.38145409056705559 0 0.2754302243437341 0.35800137086985789 0 0.29155132770994241 0.38145409056705559 0 0.2754302243437341 0.35800137086985789 0 0.27836960746308909 0.35599853724874359 0 0.29155132770994241 0.38145409056705559 0 0.27836960746308909 0.35599853724874359 0 0.29028041611347422 0.37131190521640561 0 0.29515321138997108 0.36891281366618561 0 0.28946597567566928 0.3633932499046143 0 0.2951337916801352 0.37545299726164849 0 0.29028041611347422 0.37131190521640561 0 0.29515321138997108 0.36891281366618561 0 0.29968882481084308 0.36620473963642819 0 0.29515321138997108 0.36891281366618561 0 0.2946843591870788 0.36349444767638139 0 0.29515321138997108 0.36891281366618561 0 0.2946843591870788 0.36349444767638139 0 0.28946597567566928 0.3633932499046143 0 0.29956039950038399 0.36055845947794762 0 0.29260686737414288 0.35803349489433017 0 0.2946843591870788 0.36349444767638139 0 0.28714468874269172 0.35854684035017659 0 0.29097547274489571 0.36086700820637557 0 0.28946597567566928 0.3633932499046143 0 0.2946843591870788 0.36349444767638139 0 0.29097547274489571 0.36086700820637557 0 0.28946597567566928 0.3633932499046143 0 0.29260686737414288 0.35803349489433017 0 0.2946843591870788 0.36349444767638139 0 0.29097547274489571 0.36086700820637557 0 0.29028041611347422 0.37131190521640561 0 0.28946597567566928 0.3633932499046143 0 0.27836960746308909 0.35599853724874359 0 0.28641533258273322 0.38531457319514678 0 0.2754302243437341 0.35800137086985789 0 0.27737653217987568 0.3763299637903077 0 0.28641533258273322 0.38531457319514678 0 0.2754302243437341 0.35800137086985789 0 0.27737653217987568 0.3763299637903077 0 0.27292546410526491 0.36629585246079138 0 0.2754302243437341 0.35800137086985789 0 0.27737653217987568 0.3763299637903077 0 0.26995518240551242 0.36922466410125959 0 0.27292546410526491 0.36629585246079138 0 0.26817635423288699 0.37969346344739391 0 0.26995518240551242 0.36922466410125959 0 0.26082178769032438 0.36496323128775521 0 0.26995518240551242 0.36922466410125959 0 0.26893991749193752 0.36162741108174062 0 0.26082178769032438 0.36496323128775521 0 0.26893991749193752 0.36162741108174062 0 0.27292546410526491 0.36629585246079138 0 0.2754302243437341 0.35800137086985789 0 0.26995518240551242 0.36922466410125959 0 0.26893991749193752 0.36162741108174062 0 0.27292546410526491 0.36629585246079138 0 0.2754302243437341 0.35800137086985789 0 0.26518788721623437 0.33054298393043219 0 0.2754302243437341 0.35800137086985789 0 0.27836960746308909 0.35599853724874359 0 0.26518788721623437 0.33054298393043219 0 0.2754302243437341 0.35800137086985789 0 0.26469999689944002 0.35285812485780471 0 0.26518788721623437 0.33054298393043219 0 0.27836960746308909 0.35599853724874359 0 0.28101653893848899 0.35208327708388421 0 0.2797945401242129 0.34946851842389731 0 0.28392422607346179 0.35383006020545288 0 0.27836960746308909 0.35599853724874359 0 0.28101653893848899 0.35208327708388421 0 0.27836960746308909 0.35599853724874359 0 0.2797945401242129 0.34946851842389731 0 0.27671527888398562 0.3441870844772259 0 0.28013569367420871 0.34584772387197749 0 0.2797945401242129 0.34946851842389731 0 0.27671527888398562 0.3441870844772259 0 0.28013569367420871 0.34584772387197749 0 0.27671527888398562 0.3441870844772259 0 0.28119375649751349 0.3415044430455576 0 0.28273558166129192 0.34922596943765521 0 0.28013569367420871 0.34584772387197749 0 0.2797945401242129 0.34946851842389731 0 0.28273558166129192 0.34922596943765521 0 0.28101653893848899 0.35208327708388421 0 0.2797945401242129 0.34946851842389731 0 0.26893991749193752 0.36162741108174062 0 0.2754302243437341 0.35800137086985789 0 0.26469999689944002 0.35285812485780471 0 0.26469999689944002 0.35285812485780471 0 0.25397109136889212 0.34953950795812871 0 0.26518788721623437 0.33054298393043219 0 0.26469999689944002 0.35285812485780471 0 0.25397109136889212 0.34953950795812871 0 0.26082178769032438 0.36496323128775521 0 0.24217950803475169 0.36279199964721098 0 0.25397109136889212 0.34953950795812871 0 0.26082178769032438 0.36496323128775521 0 0.24217950803475169 0.36279199964721098 0 0.24890193261595259 0.38922972948408457 0 0.26082178769032438 0.36496323128775521 0 0.26893991749193752 0.36162741108174062 0 0.26469999689944002 0.35285812485780471 0 0.26082178769032438 0.36496323128775521 0 0.26160037477145948 0.32361504792451118 0 0.26961523156275707 0.31863310602586059 0 0.25252005129033422 0.30103787280496203 0 0.24833100513142109 0.32161764704062729 0 0.26160037477145948 0.32361504792451118 0 0.26518788721623437 0.33054298393043219 0 0.24963775202771521 0.30051372462394288 0 0.24833100513142109 0.32161764704062729 0 0.26160037477145948 0.32361504792451118 0 0.26160037477145948 0.32361504792451118 0 0.26518788721623437 0.33054298393043219 0 0.26731122343739822 0.32545953491366858 0 0.26160037477145948 0.32361504792451118 0 0.26518788721623437 0.33054298393043219 0 0.2354570834535519 0.33635426981033711 0 0.26518788721623437 0.33054298393043219 0 0.2354570834535519 0.33635426981033711 0 0.25397109136889212 0.34953950795812871 0 0.26518788721623437 0.33054298393043219 0 0.27836960746308909 0.35599853724874359 0 0.27671527888398562 0.3441870844772259 0 0.26518788721623437 0.33054298393043219 0 0.26518788721623437 0.33054298393043219 0 0.2728414001991406 0.32904700177387047 0 0.26518788721623437 0.33054298393043219 0 0.2728414001991406 0.32904700177387047 0 0.26731122343739822 0.32545953491366858 0 0.27836960746308909 0.35599853724874359 0 0.26518788721623437 0.33054298393043219 0 0.26518788721623437 0.33054298393043219 0 0.2728414001991406 0.32904700177387047 0 0.27786043041236869 0.33471626715991409 0 0.27671527888398562 0.3441870844772259 0 0.26518788721623437 0.33054298393043219 0 0.27786043041236869 0.33471626715991409 0 0.27671527888398562 0.3441870844772259 0 0.28119375649751349 0.3415044430455576 0 0.27786043041236869 0.33471626715991409 0 0.2728414001991406 0.32904700177387047 0 0.27786043041236869 0.33471626715991409 0 0.27936204924768121 0.32498307102898349 0 0.27786043041236869 0.33471626715991409 0 0.27936204924768121 0.32498307102898349 0 0.28525590824973168 0.33019860290154568 0 0.2728414001991406 0.32904700177387047 0 0.27936204924768121 0.32498307102898349 0 0.26961523156275707 0.31863310602586059 0 0.2728414001991406 0.32904700177387047 0 0.26731122343739822 0.32545953491366858 0 0.26961523156275707 0.31863310602586059 0 0.26160037477145948 0.32361504792451118 0 0.26731122343739822 0.32545953491366858 0 0.26961523156275707 0.31863310602586059 0 0.27936204924768121 0.32498307102898349 0 0.26961523156275707 0.31863310602586059 0 0.28133089707177739 0.31565660162935461 0 0.26961523156275707 0.31863310602586059 0 0.28133089707177739 0.31565660162935461 0 0.27162220014601168 0.30819847959926649 0 0.28133089707177739 0.31565660162935461 0 0.28926842799031183 0.32164684668335553 0 0.29289622389348391 0.31173450207074938 0 0.27936204924768121 0.32498307102898349 0 0.28926842799031183 0.32164684668335553 0 0.28525590824973168 0.33019860290154568 0 0.27936204924768121 0.32498307102898349 0 0.28133089707177739 0.31565660162935461 0 0.28926842799031183 0.32164684668335553 0 0.28926842799031183 0.32164684668335553 0 0.29270679870612148 0.33133919612790758 0 0.29864702146159328 0.32643954785611667 0 0.28926842799031183 0.32164684668335553 0 0.28525590824973168 0.33019860290154568 0 0.29270679870612148 0.33133919612790758 0 0.28926842799031183 0.32164684668335553 0 0.30057412006284873 0.3182848580649148 0 0.29864702146159328 0.32643954785611667 0 0.28926842799031183 0.32164684668335553 0 0.30057412006284873 0.3182848580649148 0 0.29289622389348391 0.31173450207074938 0 0.28696318970460172 0.34507386829548542 0 0.28119375649751349 0.3415044430455576 0 0.28563489893157912 0.33697664508827291 0 0.28696318970460172 0.34507386829548542 0 0.28563489893157912 0.33697664508827291 0 0.29440715639490739 0.33866623850310912 0 0.28119375649751349 0.3415044430455576 0 0.27786043041236869 0.33471626715991409 0 0.28563489893157912 0.33697664508827291 0 0.28563489893157912 0.33697664508827291 0 0.28525590824973168 0.33019860290154568 0 0.29270679870612148 0.33133919612790758 0 0.27786043041236869 0.33471626715991409 0 0.28563489893157912 0.33697664508827291 0 0.28525590824973168 0.33019860290154568 0 0.29270679870612148 0.33133919612790758 0 0.29440715639490739 0.33866623850310912 0 0.30302737920860612 0.33410729573504611 0 0.28563489893157912 0.33697664508827291 0 0.29270679870612148 0.33133919612790758 0 0.29440715639490739 0.33866623850310912 0 0.29508057650716829 0.34607515835053693 0 0.28696318970460172 0.34507386829548542 0 0.29440715639490739 0.33866623850310912 0 0.29508057650716829 0.34607515835053693 0 0.29440715639490739 0.33866623850310912 0 0.30284961949963451 0.34180688944884569 0 0.29440715639490739 0.33866623850310912 0 0.30284961949963451 0.34180688944884569 0 0.30302737920860612 0.33410729573504611 0 0.29270679870612148 0.33133919612790758 0 0.30302737920860612 0.33410729573504611 0 0.29864702146159328 0.32643954785611667 0 0.30302737920860612 0.33410729573504611 0 0.29864702146159328 0.32643954785611667 0 0.30648676239126638 0.32698903389663531 0 0.30302737920860612 0.33410729573504611 0 0.31164832743931292 0.33689503642828789 0 0.30648676239126638 0.32698903389663531 0 0.31591730865868939 0.32743152395768732 0 0.31164832743931292 0.33689503642828789 0 0.30648676239126638 0.32698903389663531 0 0.30284961949963451 0.34180688944884569 0 0.30302737920860612 0.33410729573504611 0 0.31164832743931292 0.33689503642828789 0 0.30992842843050988 0.3457112388019602 0 0.30284961949963451 0.34180688944884569 0 0.31164832743931292 0.33689503642828789 0 0.30057412006284873 0.3182848580649148 0 0.3075048900192453 0.30846754722968978 0 0.29289622389348391 0.31173450207074938 0 0.30057412006284873 0.3182848580649148 0 0.29864702146159328 0.32643954785611667 0 0.30648676239126638 0.32698903389663531 0 0.30057412006284873 0.3182848580649148 0 0.30648676239126638 0.32698903389663531 0 0.30920411140212778 0.3196886032463338 0 0.31591730865868939 0.32743152395768732 0 0.30648676239126638 0.32698903389663531 0 0.30920411140212778 0.3196886032463338 0 0.30057412006284873 0.3182848580649148 0 0.30920411140212778 0.3196886032463338 0 0.3075048900192453 0.30846754722968978 0 0.31778971146991503 0.31788997842391498 0 0.30920411140212778 0.3196886032463338 0 0.3075048900192453 0.30846754722968978 0 0.3075048900192453 0.30846754722968978 0 0.29694347339530303 0.29848366127231912 0 0.31246487291163488 0.29208088598867771 0 0.3075048900192453 0.30846754722968978 0 0.29694347339530303 0.29848366127231912 0 0.29289622389348391 0.31173450207074938 0 0.31246487291163488 0.29208088598867771 0 0.29888580149873889 0.28140566667868477 0 0.31966717048778492 0.28020807462702291 0 0.29694347339530303 0.29848366127231912 0 0.31246487291163488 0.29208088598867771 0 0.29888580149873889 0.28140566667868477 0 0.29694347339530303 0.29848366127231912 0 0.29888580149873889 0.28140566667868477 0 0.28532215262680061 0.29218967158653381 0 0.29888580149873889 0.28140566667868477 0 0.28532215262680061 0.29218967158653381 0 0.27597263544757811 0.27926985653850322 0 0.29694347339530303 0.29848366127231912 0 0.29289622389348391 0.31173450207074938 0 0.28421062956037713 0.3046253325656294 0 0.29694347339530303 0.29848366127231912 0 0.28532215262680061 0.29218967158653381 0 0.28421062956037713 0.3046253325656294 0 0.28133089707177739 0.31565660162935461 0 0.29289622389348391 0.31173450207074938 0 0.28421062956037713 0.3046253325656294 0 0.28133089707177739 0.31565660162935461 0 0.28421062956037713 0.3046253325656294 0 0.27162220014601168 0.30819847959926649 0 0.28421062956037713 0.3046253325656294 0 0.27162220014601168 0.30819847959926649 0 0.27073357959762612 0.29469717476731772 0 0.28532215262680061 0.29218967158653381 0 0.28421062956037713 0.3046253325656294 0 0.27073357959762612 0.29469717476731772 0 0.27073357959762612 0.29469717476731772 0 0.25964825064670849 0.2811944406245902 0 0.27597263544757811 0.27926985653850322 0 0.28532215262680061 0.29218967158653381 0 0.27073357959762612 0.29469717476731772 0 0.27597263544757811 0.27926985653850322 0 0.2434397278092077 0.27846069768541332 0 0.25252005129033422 0.30103787280496203 0 0.25964825064670849 0.2811944406245902 0 0.27073357959762612 0.29469717476731772 0 0.25252005129033422 0.30103787280496203 0 0.25964825064670849 0.2811944406245902 0 0.24963775202771521 0.30051372462394288 0 0.26160037477145948 0.32361504792451118 0 0.26160037477145948 0.32361504792451118 0 0.25252005129033422 0.30103787280496203 0 0.24963775202771521 0.30051372462394288 0 0.26160037477145948 0.32361504792451118 0 0.25252005129033422 0.30103787280496203 0 0.27162220014601168 0.30819847959926649 0 0.27073357959762612 0.29469717476731772 0 0.25252005129033422 0.30103787280496203 0 0.26961523156275707 0.31863310602586059 0 0.27162220014601168 0.30819847959926649 0 0.25252005129033422 0.30103787280496203 0 0.26005695654466249 0.26476207857526007 0 0.25877170878786238 0.25302463852503437 0 0.26784118605052742 0.25766384122118591 0 0.26005695654466249 0.26476207857526007 0 0.26877199542094288 0.271185286046489 0 0.26784118605052742 0.25766384122118591 0 0.24763005152173001 0.25910176257370959 0 0.26005695654466249 0.26476207857526007 0 0.25877170878786238 0.25302463852503437 0 0.26005695654466249 0.26476207857526007 0 0.25964825064670849 0.2811944406245902 0 0.26877199542094288 0.271185286046489 0 0.2434397278092077 0.27846069768541332 0 0.26005695654466249 0.26476207857526007 0 0.25964825064670849 0.2811944406245902 0 0.2434397278092077 0.27846069768541332 0 0.24763005152173001 0.25910176257370959 0 0.26005695654466249 0.26476207857526007 0 0.25964825064670849 0.2811944406245902 0 0.26877199542094288 0.271185286046489 0 0.27597263544757811 0.27926985653850322 0 0.26877199542094288 0.271185286046489 0 0.27597263544757811 0.27926985653850322 0 0.27647749418933931 0.26389562134405542 0 0.27597263544757811 0.27926985653850322 0 0.27647749418933931 0.26389562134405542 0 0.28921799240021828 0.26815650339571012 0 0.27647749418933931 0.26389562134405542 0 0.27542464597538868 0.25681776053554017 0 0.28272693040926428 0.25881526167589219 0 0.27647749418933931 0.26389562134405542 0 0.26784118605052742 0.25766384122118591 0 0.27542464597538868 0.25681776053554017 0 0.26877199542094288 0.271185286046489 0 0.27647749418933931 0.26389562134405542 0 0.26784118605052742 0.25766384122118591 0 0.26784118605052742 0.25766384122118591 0 0.27542464597538868 0.25681776053554017 0 0.27283394916361492 0.24742619336605559 0 0.25877170878786238 0.25302463852503437 0 0.26784118605052742 0.25766384122118591 0 0.27283394916361492 0.24742619336605559 0 0.27542464597538868 0.25681776053554017 0 0.28272693040926428 0.25881526167589219 0 0.27283394916361492 0.24742619336605559 0 0.28272693040926428 0.25881526167589219 0 0.29968057031776052 0.25778022973809978 0 0.27283394916361492 0.24742619336605559 0 0.28272693040926428 0.25881526167589219 0 0.28921799240021828 0.26815650339571012 0 0.29968057031776052 0.25778022973809978 0 0.29968057031776052 0.25778022973809978 0 0.27283394916361492 0.24742619336605559 0 0.29968057031776052 0.25778022973809978 0 0.27283394916361492 0.24742619336605559 0 0.3016365876598241 0.24719201463661561 0 0.27647749418933931 0.26389562134405542 0 0.28272693040926428 0.25881526167589219 0 0.28921799240021828 0.26815650339571012 0 0.28921799240021828 0.26815650339571012 0 0.29917140266547992 0.2696271248040239 0 0.29968057031776052 0.25778022973809978 0 0.29888580149873889 0.28140566667868477 0 0.27597263544757811 0.27926985653850322 0 0.28921799240021828 0.26815650339571012 0 0.29888580149873889 0.28140566667868477 0 0.28921799240021828 0.26815650339571012 0 0.29917140266547992 0.2696271248040239 0 0.30890124644520212 0.27116609940360098 0 0.29968057031776052 0.25778022973809978 0 0.32652719147190618 0.26813426611014402 0 0.29888580149873889 0.28140566667868477 0 0.30890124644520212 0.27116609940360098 0 0.31966717048778492 0.28020807462702291 0 0.29888580149873889 0.28140566667868477 0 0.29917140266547992 0.2696271248040239 0 0.30890124644520212 0.27116609940360098 0 0.29917140266547992 0.2696271248040239 0 0.30890124644520212 0.27116609940360098 0 0.29968057031776052 0.25778022973809978 0 0.29968057031776052 0.25778022973809978 0 0.31432639173362298 0.2563396134856944 0 0.3016365876598241 0.24719201463661561 0 0.29968057031776052 0.25778022973809978 0 0.32652719147190618 0.26813426611014402 0 0.29968057031776052 0.25778022973809978 0 0.31432639173362298 0.2563396134856944 0 0.32652719147190618 0.26813426611014402 0 0.31432639173362298 0.2563396134856944 0 0.32946121748500129 0.25225194345791829 0 0.3016365876598241 0.24719201463661561 0 0.31432639173362298 0.2563396134856944 0 0.32946121748500129 0.25225194345791829 0 0.32652719147190618 0.26813426611014402 0 0.32946121748500129 0.25225194345791829 0 0.35728584731017871 0.25731187227922109 0 0.32946121748500129 0.25225194345791829 0 0.33854302537622011 0.27351786473126699 0 0.35728584731017871 0.25731187227922109 0 0.32946121748500129 0.25225194345791829 0 0.33854302537622011 0.27351786473126699 0 0.32652719147190618 0.26813426611014402 0 0.33854302537622011 0.27351786473126699 0 0.32652719147190618 0.26813426611014402 0 0.31966717048778492 0.28020807462702291 0 0.30890124644520212 0.27116609940360098 0 0.32652719147190618 0.26813426611014402 0 0.31966717048778492 0.28020807462702291 0 0.31246487291163488 0.29208088598867771 0 0.31966717048778492 0.28020807462702291 0 0.33172871425663403 0.29269405324557379 0 0.31778971146991503 0.31788997842391498 0 0.3075048900192453 0.30846754722968978 0 0.32420479997372442 0.30853167071016102 0 0.31246487291163488 0.29208088598867771 0 0.32420479997372442 0.30853167071016102 0 0.31246487291163488 0.29208088598867771 0 0.32420479997372442 0.30853167071016102 0 0.33172871425663403 0.29269405324557379 0 0.3075048900192453 0.30846754722968978 0 0.31246487291163488 0.29208088598867771 0 0.32420479997372442 0.30853167071016102 0 0.32420479997372442 0.30853167071016102 0 0.33172871425663403 0.29269405324557379 0 0.34448717235649018 0.30756264321984922 0 0.33854302537622011 0.27351786473126699 0 0.31966717048778492 0.28020807462702291 0 0.33172871425663403 0.29269405324557379 0 0.33172871425663403 0.29269405324557379 0 0.3503635169770366 0.28966006865463678 0 0.34448717235649018 0.30756264321984922 0 0.33854302537622011 0.27351786473126699 0 0.33172871425663403 0.29269405324557379 0 0.3503635169770366 0.28966006865463678 0 0.3503635169770366 0.28966006865463678 0 0.34448717235649018 0.30756264321984922 0 0.36246687595182442 0.30494518477727961 0 0.36114413796306788 0.32433110896381118 0 0.34448717235649018 0.30756264321984922 0 0.36246687595182442 0.30494518477727961 0 0.36246687595182442 0.30494518477727961 0 0.37008896088821891 0.27907488192658342 0 0.38127772340545701 0.29855436992749679 0 0.3503635169770366 0.28966006865463678 0 0.36246687595182442 0.30494518477727961 0 0.37008896088821891 0.27907488192658342 0 0.37008896088821891 0.27907488192658342 0 0.35728584731017871 0.25731187227922109 0 0.35441181453934328 0.27463334472066592 0 0.37008896088821891 0.27907488192658342 0 0.35728584731017871 0.25731187227922109 0 0.38511047713535562 0.2623718011005241 0 0.35728584731017871 0.25731187227922109 0 0.38511047713535562 0.2623718011005241 0 0.37293454716760283 0.2396311516560117 0 0.35728584731017871 0.25731187227922109 0 0.38511047713535562 0.2623718011005241 0 0.33854302537622011 0.27351786473126699 0 0.3503635169770366 0.28966006865463678 0 0.35441181453934328 0.27463334472066592 0 0.33854302537622011 0.27351786473126699 0 0.35728584731017871 0.25731187227922109 0 0.35441181453934328 0.27463334472066592 0 0.3503635169770366 0.28966006865463678 0 0.37008896088821891 0.27907488192658342 0 0.35441181453934328 0.27463334472066592 0 0.4059739891301799 0.26616584566893298 0 0.38511047713535562 0.2623718011005241 0 0.39575362435311728 0.2822497143692822 0 0.4059739891301799 0.26616584566893298 0 0.39575362435311728 0.2822497143692822 0 0.41466985898722469 0.28617745239982811 0 0.4059739891301799 0.26616584566893298 0 0.38511047713535562 0.2623718011005241 0 0.39933451681408499 0.24222051247515669 0 0.4059739891301799 0.26616584566893298 0 0.38511047713535562 0.2623718011005241 0 0.38511047713535562 0.2623718011005241 0 0.37293454716760283 0.2396311516560117 0 0.37008896088821891 0.27907488192658342 0 0.38511047713535562 0.2623718011005241 0 0.39575362435311728 0.2822497143692822 0 0.38511047713535562 0.2623718011005241 0 0.39575362435311728 0.2822497143692822 0 0.37008896088821891 0.27907488192658342 0 0.38127772340545701 0.29855436992749679 0 0.39575362435311728 0.2822497143692822 0 0.38127772340545701 0.29855436992749679 0 0.39341545683502421 0.31015448597301559 0 0.38634354889032002 0.32367976249598251 0 0.38127772340545701 0.29855436992749679 0 0.38634354889032002 0.32367976249598251 0 0.36246687595182442 0.30494518477727961 0 0.38127772340545701 0.29855436992749679 0 0.38634354889032002 0.32367976249598251 0 0.38127772340545701 0.29855436992749679 0 0.39341545683502421 0.31015448597301559 0 0.40639677157087911 0.30212762763804019 0 0.39341545683502421 0.31015448597301559 0 0.40639677157087911 0.30212762763804019 0 0.4081981699382346 0.3139513768470385 0 0.39575362435311728 0.2822497143692822 0 0.40639677157087911 0.30212762763804019 0 0.38127772340545701 0.29855436992749679 0 0.39575362435311728 0.2822497143692822 0 0.40639677157087911 0.30212762763804019 0 0.39575362435311728 0.2822497143692822 0 0.41466985898722469 0.28617745239982811 0 0.40639677157087911 0.30212762763804019 0 0.41466985898722469 0.28617745239982811 0 0.40639677157087911 0.30212762763804019 0 0.42063747895650733 0.30228076741981708 0 0.40639677157087911 0.30212762763804019 0 0.417039918788641 0.32200554090679828 0 0.40639677157087911 0.30212762763804019 0 0.42063747895650733 0.30228076741981708 0 0.41590325438833858 0.31571238371771643 0 0.42063747895650733 0.30228076741981708 0 0.43554340190627211 0.31006971119553528 0 0.43241978878766019 0.29428086906555412 0 0.42063747895650733 0.30228076741981708 0 0.43554340190627211 0.31006971119553528 0 0.41590325438833858 0.31571238371771643 0 0.43241978878766019 0.29428086906555412 0 0.42683750112500368 0.26995989023734401 0 0.43795337608323548 0.28151673092589807 0 0.41466985898722469 0.28617745239982811 0 0.43241978878766019 0.29428086906555412 0 0.42683750112500368 0.26995989023734401 0 0.43241978878766019 0.29428086906555412 0 0.42683750112500368 0.26995989023734401 0 0.41466985898722469 0.28617745239982811 0 0.42063747895650733 0.30228076741981708 0 0.43241978878766019 0.29428086906555412 0 0.4059739891301799 0.26616584566893298 0 0.42683750112500368 0.26995989023734401 0 0.4059739891301799 0.26616584566893298 0 0.41466985898722469 0.28617745239982811 0 0.42683750112500368 0.26995989023734401 0 0.4059739891301799 0.26616584566893298 0 0.42683750112500368 0.26995989023734401 0 0.42092918023873821 0.24421844589255121 0 0.4059739891301799 0.26616584566893298 0 0.39933451681408499 0.24222051247515669 0 0.42092918023873821 0.24421844589255121 0 0.42683750112500368 0.26995989023734401 0 0.44089414042045799 0.25771217685885472 0 0.42092918023873821 0.24421844589255121 0 0.42683750112500368 0.26995989023734401 0 0.42092918023873821 0.24421844589255121 0 0.44089414042045799 0.25771217685885472 0 0.45301423403414209 0.26007999789895508 0 0.4569230610569987 0.24819013429900669 0 0.44089414042045799 0.25771217685885472 0 0.45301423403414209 0.26007999789895508 0 0.44973892600361531 0.27412453072026172 0 0.42683750112500368 0.26995989023734401 0 0.44089414042045799 0.25771217685885472 0 0.44973892600361531 0.27412453072026172 0 0.42683750112500368 0.26995989023734401 0 0.44973892600361531 0.27412453072026172 0 0.43795337608323548 0.28151673092589807 0 0.42683750112500368 0.26995989023734401 0 0.44973892600361531 0.27412453072026172 0 0.44973892600361531 0.27412453072026172 0 0.46478170596961249 0.26323965275109401 0 0.47264035088222628 0.27828917120318131 0 0.44973892600361531 0.27412453072026172 0 0.47264035088222628 0.27828917120318131 0 0.44973892600361531 0.27412453072026172 0 0.47264035088222628 0.27828917120318131 0 0.46226850420995219 0.28814127863090738 0 0.45301423403414209 0.26007999789895508 0 0.44973892600361531 0.27412453072026172 0 0.46478170596961249 0.26323965275109401 0 0.46478170596961249 0.26323965275109401 0 0.47264035088222628 0.27828917120318131 0 0.46478170596961249 0.26323965275109401 0 0.4569230610569987 0.24819013429900669 0 0.45301423403414209 0.26007999789895508 0 0.46478170596961249 0.26323965275109401 0 0.4569230610569987 0.24819013429900669 0 0.46478170596961249 0.26323965275109401 0 0.46750550623703407 0.25349570762290419 0 0.47341939214644252 0.26170481890296848 0 0.46478170596961249 0.26323965275109401 0 0.46750550623703407 0.25349570762290419 0 0.4569230610569987 0.24819013429900669 0 0.47341939214644252 0.26170481890296848 0 0.48489893488970792 0.25686202981026901 0 0.47278153852907701 0.24486280325581439 0 0.46750550623703407 0.25349570762290419 0 0.47341939214644252 0.26170481890296848 0 0.47278153852907701 0.24486280325581439 0 0.47341939214644252 0.26170481890296848 0 0.47278153852907701 0.24486280325581439 0 0.47341939214644252 0.26170481890296848 0 0.48000757765913032 0.26759533659828072 0 0.48489893488970792 0.25686202981026901 0 0.47341939214644252 0.26170481890296848 0 0.47405724576380859 0.27854683455012252 0 0.48000757765913032 0.26759533659828072 0 0.47341939214644252 0.26170481890296848 0 0.47264035088222628 0.27828917120318131 0 0.47405724576380859 0.27854683455012252 0 0.46478170596961249 0.26323965275109401 0 0.47341939214644252 0.26170481890296848 0 0.47264035088222628 0.27828917120318131 0 0.47405724576380859 0.27854683455012252 0 0.47415752390174082 0.28119459874267072 0 0.50000000000001354 0.28326454295050368 0 0.47341939214644252 0.26170481890296848 0 0.47405724576380859 0.27854683455012252 0 0.47264035088222628 0.27828917120318131 0 0.47405724576380859 0.27854683455012252 0 0.47405724576380859 0.27854683455012252 0 0.47415752390174082 0.28119459874267072 0 0.47264035088222628 0.27828917120318131 0 0.47405724576380859 0.27854683455012252 0 0.47415752390174082 0.28119459874267072 0 0.47264035088222628 0.27828917120318131 0 0.47415752390174082 0.28119459874267072 0 0.47405724576380859 0.27854683455012252 0 0.48000757765913032 0.26759533659828072 0 0.48909471086131839 0.26954423778064313 0 0.47405724576380859 0.27854683455012252 0 0.50000000000001354 0.28326454295050368 0 0.47405724576380859 0.27854683455012252 0 0.48909471086131839 0.26954423778064313 0 0.50000000000001354 0.28326454295050368 0 0.48909471086131839 0.26954423778064313 0 0.5 0.25553121794514477 0 0.50000000000001354 0.28326454295050368 0 0.5 0.25553121794514477 0 0.48489893488970792 0.25686202981026901 0 0.48903365503734891 0.24299047468837701 0 0.48909471086131839 0.26954423778064313 0 0.5 0.25553121794514477 0 0.48489893488970792 0.25686202981026901 0 0.48000757765913032 0.26759533659828072 0 0.48909471086131839 0.26954423778064313 0 0.48489893488970792 0.25686202981026901 0 0.48223131843763373 0.29665613456690521 0 0.49274985611107969 0.31679941989990179 0 0.48223131843763373 0.29665613456690521 0 0.49274985611107969 0.31679941989990179 0 0.48532411314893581 0.31403081790115361 0 0.49298554246438231 0.30475618362627349 0 0.48223131843763373 0.29665613456690521 0 0.49274985611107969 0.31679941989990179 0 0.49298554246438231 0.30475618362627349 0 0.4969609953088156 0.2924242547978898 0 0.5 0.31314492524039728 0 0.49298554246438231 0.30475618362627349 0 0.4969609953088156 0.2924242547978898 0 0.48223131843763373 0.29665613456690521 0 0.49298554246438231 0.30475618362627349 0 0.49274985611107969 0.31679941989990179 0 0.5 0.31314492524039728 0 0.4969609953088156 0.2924242547978898 0 0.50000000000001354 0.28326454295050368 0 0.5 0.31314492524039728 0 0.47415752390174082 0.28119459874267072 0 0.4969609953088156 0.2924242547978898 0 0.50000000000001354 0.28326454295050368 0 0.47415752390174082 0.28119459874267072 0 0.4969609953088156 0.2924242547978898 0 0.48223131843763373 0.29665613456690521 0 0.4969609953088156 0.2924242547978898 0 0.48223131843763373 0.29665613456690521 0 0.47415752390174082 0.28119459874267072 0 0.47482369694213911 0.29878436615117387 0 0.47415752390174082 0.28119459874267072 0 0.47482369694213911 0.29878436615117387 0 0.46226850420995219 0.28814127863090738 0 0.47415752390174082 0.28119459874267072 0 0.48223131843763373 0.29665613456690521 0 0.47482369694213911 0.29878436615117387 0 0.47415752390174082 0.28119459874267072 0 0.48223131843763373 0.29665613456690521 0 0.47264035088222628 0.27828917120318131 0 0.47415752390174082 0.28119459874267072 0 0.46226850420995219 0.28814127863090738 0 0.48223131843763373 0.29665613456690521 0 0.48022688714188239 0.30485617861310249 0 0.48532411314893581 0.31403081790115361 0 0.47482369694213911 0.29878436615117387 0 0.4785284200388214 0.30995339583317788 0 0.47567910166728178 0.32137064515506791 0 0.47482369694213911 0.29878436615117387 0 0.46683928615616721 0.31034493157342358 0 0.47567910166728178 0.32137064515506791 0 0.47482369694213911 0.29878436615117387 0 0.47567910166728178 0.32137064515506791 0 0.47482369694213911 0.29878436615117387 0 0.48022688714188239 0.30485617861310249 0 0.4785284200388214 0.30995339583317788 0 0.48223131843763373 0.29665613456690521 0 0.47482369694213911 0.29878436615117387 0 0.48022688714188239 0.30485617861310249 0 0.48223131843763373 0.29665613456690521 0 0.47482369694213911 0.29878436615117387 0 0.48022688714188239 0.30485617861310249 0 0.4785284200388214 0.30995339583317788 0 0.48532411314893581 0.31403081790115361 0 0.47482369694213911 0.29878436615117387 0 0.46683928615616721 0.31034493157342358 0 0.45518354942420552 0.3044270386733543 0 0.47482369694213911 0.29878436615117387 0 0.45518354942420552 0.3044270386733543 0 0.46683928615616721 0.31034493157342358 0 0.45518354942420552 0.3044270386733543 0 0.46090063033065398 0.31457074158430443 0 0.47482369694213911 0.29878436615117387 0 0.45518354942420552 0.3044270386733543 0 0.46226850420995219 0.28814127863090738 0 0.45518354942420552 0.3044270386733543 0 0.46226850420995219 0.28814127863090738 0 0.44650245416143669 0.29205179777212908 0 0.44973892600361531 0.27412453072026172 0 0.46226850420995219 0.28814127863090738 0 0.44650245416143669 0.29205179777212908 0 0.44973892600361531 0.27412453072026172 0 0.44650245416143669 0.29205179777212908 0 0.43795337608323548 0.28151673092589807 0 0.43241978878766019 0.29428086906555412 0 0.44650245416143669 0.29205179777212908 0 0.43795337608323548 0.28151673092589807 0 0.43554340190627211 0.31006971119553528 0 0.45518354942420552 0.3044270386733543 0 0.44650245416143669 0.29205179777212908 0 0.43554340190627211 0.31006971119553528 0 0.43241978878766019 0.29428086906555412 0 0.44650245416143669 0.29205179777212908 0 0.43554340190627211 0.31006971119553528 0 0.45518354942420552 0.3044270386733543 0 0.44590058407496119 0.32214035093537202 0 0.43554340190627211 0.31006971119553528 0 0.45518354942420552 0.3044270386733543 0 0.44438162939182968 0.33527616080122319 0 0.43941431748234389 0.34697694962204328 0 0.43138153093963261 0.33684778794266318 0 0.44438162939182968 0.33527616080122319 0 0.43138153093963261 0.33684778794266318 0 0.43736796180383269 0.33070162376080392 0 0.44590058407496119 0.32214035093537202 0 0.44438162939182968 0.33527616080122319 0 0.43736796180383269 0.33070162376080392 0 0.44590058407496119 0.32214035093537202 0 0.44438162939182968 0.33527616080122319 0 0.45938090137280319 0.33331169935871768 0 0.44438162939182968 0.33527616080122319 0 0.45466128638888681 0.34537342559846479 0 0.43941431748234389 0.34697694962204328 0 0.44438162939182968 0.33527616080122319 0 0.45938090137280319 0.33331169935871768 0 0.45466128638888681 0.34537342559846479 0 0.45938090137280319 0.33331169935871768 0 0.47648750655815691 0.34271593104932652 0 0.45466128638888681 0.34537342559846479 0 0.45518354942420552 0.3044270386733543 0 0.44590058407496119 0.32214035093537202 0 0.46090063033065398 0.31457074158430443 0 0.44590058407496119 0.32214035093537202 0 0.47567910166728178 0.32137064515506791 0 0.44590058407496119 0.32214035093537202 0 0.45938090137280319 0.33331169935871768 0 0.47567910166728178 0.32137064515506791 0 0.44590058407496119 0.32214035093537202 0 0.46090063033065398 0.31457074158430443 0 0.47567910166728178 0.32137064515506791 0 0.46683928615616721 0.31034493157342358 0 0.46090063033065398 0.31457074158430443 0 0.47567910166728178 0.32137064515506791 0 0.4785284200388214 0.30995339583317788 0 0.48037384835626529 0.31664076505113292 0 0.47567910166728178 0.32137064515506791 0 0.48037384835626529 0.31664076505113292 0 0.48196375857002199 0.32120820131513239 0 0.47567910166728178 0.32137064515506791 0 0.48037384835626529 0.31664076505113292 0 0.48196375857002199 0.32120820131513239 0 0.48532411314893581 0.31403081790115361 0 0.4785284200388214 0.30995339583317788 0 0.48037384835626529 0.31664076505113292 0 0.48532411314893581 0.31403081790115361 0 0.48196375857002199 0.32120820131513239 0 0.48271443300740718 0.32966898805558448 0 0.48700966075600671 0.32276244140519528 0 0.48196375857002199 0.32120820131513239 0 0.47567910166728178 0.32137064515506791 0 0.48271443300740718 0.32966898805558448 0 0.48196375857002199 0.32120820131513239 0 0.47567910166728178 0.32137064515506791 0 0.47567910166728178 0.32137064515506791 0 0.47648750655815691 0.34271593104932652 0 0.47567910166728178 0.32137064515506791 0 0.47648750655815691 0.34271593104932652 0 0.48271443300740718 0.32966898805558448 0 0.45938090137280319 0.33331169935871768 0 0.47567910166728178 0.32137064515506791 0 0.47648750655815691 0.34271593104932652 0 0.47648750655815691 0.34271593104932652 0 0.48271443300740718 0.32966898805558448 0 0.49227852706914571 0.3310448133387906 0 0.47648750655815691 0.34271593104932652 0 0.5 0.34302530753029081 0 0.49227852706914571 0.3310448133387906 0 0.5 0.34302530753029081 0 0.49227852706914571 0.3310448133387906 0 0.5 0.31314492524039728 0 0.49227852706914571 0.3310448133387906 0 0.49274985611107969 0.31679941989990179 0 0.5 0.31314492524039728 0 0.48196375857002199 0.32120820131513239 0 0.48532411314893581 0.31403081790115361 0 0.48700966075600671 0.32276244140519528 0 0.49274985611107969 0.31679941989990179 0 0.48532411314893581 0.31403081790115361 0 0.48700966075600671 0.32276244140519528 0 0.48271443300740718 0.32966898805558448 0 0.49227852706914571 0.3310448133387906 0 0.48700966075600671 0.32276244140519528 0 0.49227852706914571 0.3310448133387906 0 0.49274985611107969 0.31679941989990179 0 0.48700966075600671 0.32276244140519528 0 0.5 0.37290568982018429 0 0.48906820236105919 0.3579654986752378 0 0.48477613844387402 0.38021688004838439 0 0.47648750655815691 0.34271593104932652 0 0.5 0.34302530753029081 0 0.48906820236105919 0.3579654986752378 0 0.5 0.34302530753029081 0 0.5 0.37290568982018429 0 0.48906820236105919 0.3579654986752378 0 0.47648750655815691 0.34271593104932652 0 0.4736556537454587 0.3678330253399309 0 0.4628011452372443 0.35721885356897543 0 0.47648750655815691 0.34271593104932652 0 0.48906820236105919 0.3579654986752378 0 0.4736556537454587 0.3678330253399309 0 0.48906820236105919 0.3579654986752378 0 0.4736556537454587 0.3678330253399309 0 0.48477613844387402 0.38021688004838439 0 0.4736556537454587 0.3678330253399309 0 0.45151374504626951 0.36758660991241321 0 0.46980882541715813 0.38208294099771128 0 0.4736556537454587 0.3678330253399309 0 0.4628011452372443 0.35721885356897543 0 0.45151374504626951 0.36758660991241321 0 0.47648750655815691 0.34271593104932652 0 0.4628011452372443 0.35721885356897543 0 0.45466128638888681 0.34537342559846479 0 0.4628011452372443 0.35721885356897543 0 0.45466128638888681 0.34537342559846479 0 0.45151374504626951 0.36758660991241321 0 0.43941431748234389 0.34697694962204328 0 0.45151374504626951 0.36758660991241321 0 0.43248649325656402 0.35912170041613489 0 0.45466128638888681 0.34537342559846479 0 0.43941431748234389 0.34697694962204328 0 0.45151374504626951 0.36758660991241321 0 0.45151374504626951 0.36758660991241321 0 0.4343808670510142 0.37207818795490849 0 0.43248649325656402 0.35912170041613489 0 0.4343808670510142 0.37207818795490849 0 0.41565945607251759 0.36236511110304392 0 0.42235721568131929 0.38220686924127689 0 0.4343808670510142 0.37207818795490849 0 0.41565945607251759 0.36236511110304392 0 0.43248649325656402 0.35912170041613489 0 0.41565945607251759 0.36236511110304392 0 0.40683499004542412 0.37566900985645529 0 0.42235721568131929 0.38220686924127689 0 0.41565945607251759 0.36236511110304392 0 0.42423344021441339 0.3469403641650044 0 0.40881868850316022 0.34319093436892228 0 0.41565945607251759 0.36236511110304392 0 0.40881868850316022 0.34319093436892228 0 0.40255325820206211 0.35440744329028528 0 0.41565945607251759 0.36236511110304392 0 0.42423344021441339 0.3469403641650044 0 0.43248649325656402 0.35912170041613489 0 0.43941431748234389 0.34697694962204328 0 0.42423344021441339 0.3469403641650044 0 0.43248649325656402 0.35912170041613489 0 0.43941431748234389 0.34697694962204328 0 0.42423344021441339 0.3469403641650044 0 0.43138153093963261 0.33684778794266318 0 0.43138153093963261 0.33684778794266318 0 0.43736796180383269 0.33070162376080392 0 0.42780810280890752 0.32854219536395729 0 0.43138153093963261 0.33684778794266318 0 0.42780810280890752 0.32854219536395729 0 0.41974391964010321 0.33544292333485398 0 0.42780810280890752 0.32854219536395729 0 0.41816216709540432 0.32913892271221878 0 0.41974391964010321 0.33544292333485398 0 0.42423344021441339 0.3469403641650044 0 0.43138153093963261 0.33684778794266318 0 0.41974391964010321 0.33544292333485398 0 0.44590058407496119 0.32214035093537202 0 0.417039918788641 0.32200554090679828 0 0.43554340190627211 0.31006971119553528 0 0.42610184512817068 0.31856760869421968 0 0.41590325438833858 0.31571238371771643 0 0.44590058407496119 0.32214035093537202 0 0.42610184512817068 0.31856760869421968 0 0.417039918788641 0.32200554090679828 0 0.44590058407496119 0.32214035093537202 0 0.42780810280890752 0.32854219536395729 0 0.417039918788641 0.32200554090679828 0 0.44590058407496119 0.32214035093537202 0 0.43736796180383269 0.33070162376080392 0 0.42780810280890752 0.32854219536395729 0 0.43554340190627211 0.31006971119553528 0 0.41590325438833858 0.31571238371771643 0 0.43554340190627211 0.31006971119553528 0 0.44590058407496119 0.32214035093537202 0 0.42610184512817068 0.31856760869421968 0 0.40639677157087911 0.30212762763804019 0 0.417039918788641 0.32200554090679828 0 0.4081981699382346 0.3139513768470385 0 0.40639677157087911 0.30212762763804019 0 0.41590325438833858 0.31571238371771643 0 0.417039918788641 0.32200554090679828 0 0.42610184512817068 0.31856760869421968 0 0.41590325438833858 0.31571238371771643 0 0.417039918788641 0.32200554090679828 0 0.417039918788641 0.32200554090679828 0 0.41816216709540432 0.32913892271221878 0 0.41176425843116088 0.33156610519561941 0 0.42780810280890752 0.32854219536395729 0 0.417039918788641 0.32200554090679828 0 0.41816216709540432 0.32913892271221878 0 0.42423344021441339 0.3469403641650044 0 0.41974391964010321 0.33544292333485398 0 0.40881868850316022 0.34319093436892228 0 0.41816216709540432 0.32913892271221878 0 0.41974391964010321 0.33544292333485398 0 0.41176425843116088 0.33156610519561941 0 0.417039918788641 0.32200554090679828 0 0.41176425843116088 0.33156610519561941 0 0.40171431040203109 0.33103781916521291 0 0.41176425843116088 0.33156610519561941 0 0.40881868850316022 0.34319093436892228 0 0.40171431040203109 0.33103781916521291 0 0.41974391964010321 0.33544292333485398 0 0.41176425843116088 0.33156610519561941 0 0.40881868850316022 0.34319093436892228 0 0.40171431040203109 0.33103781916521291 0 0.38634354889032002 0.32367976249598251 0 0.39069281237429682 0.34525116339505252 0 0.40881868850316022 0.34319093436892228 0 0.40171431040203109 0.33103781916521291 0 0.39069281237429682 0.34525116339505252 0 0.417039918788641 0.32200554090679828 0 0.40171431040203109 0.33103781916521291 0 0.38634354889032002 0.32367976249598251 0 0.417039918788641 0.32200554090679828 0 0.4081981699382346 0.3139513768470385 0 0.38634354889032002 0.32367976249598251 0 0.39341545683502421 0.31015448597301559 0 0.4081981699382346 0.3139513768470385 0 0.38634354889032002 0.32367976249598251 0 0.417039918788641 0.32200554090679828 0 0.38634354889032002 0.32367976249598251 0 0.38634354889032002 0.32367976249598251 0 0.39069281237429682 0.34525116339505252 0 0.37418757138316661 0.34003979241565702 0 0.38634354889032002 0.32367976249598251 0 0.39069281237429682 0.34525116339505252 0 0.37418757138316661 0.34003979241565702 0 0.38014707859742553 0.358601566133181 0 0.39069281237429682 0.34525116339505252 0 0.38014707859742553 0.358601566133181 0 0.39504207585827378 0.36682256429412252 0 0.39069281237429682 0.34525116339505252 0 0.36927583114563117 0.37168826674887129 0 0.38014707859742553 0.358601566133181 0 0.3861818138235471 0.37714139125663793 0 0.38014707859742553 0.358601566133181 0 0.39504207585827378 0.36682256429412252 0 0.3861818138235471 0.37714139125663793 0 0.41565945607251759 0.36236511110304392 0 0.39504207585827378 0.36682256429412252 0 0.40683499004542412 0.37566900985645529 0 0.41565945607251759 0.36236511110304392 0 0.39504207585827378 0.36682256429412252 0 0.40255325820206211 0.35440744329028528 0 0.39504207585827378 0.36682256429412252 0 0.40255325820206211 0.35440744329028528 0 0.39069281237429682 0.34525116339505252 0 0.40881868850316022 0.34319093436892228 0 0.40255325820206211 0.35440744329028528 0 0.39069281237429682 0.34525116339505252 0 0.39504207585827378 0.36682256429412252 0 0.39069281237429682 0.34525116339505252 0 0.3993913393422508 0.38839396519319253 0 0.39020643165102042 0.40750290438779102 0 0.40342788129008578 0.41136751416027151 0 0.3993913393422508 0.38839396519319253 0 0.40342788129008578 0.41136751416027151 0 0.41247484703898341 0.39668929567888889 0 0.3993913393422508 0.38839396519319253 0 0.38594138320053972 0.39504117240748449 0 0.39020643165102042 0.40750290438779102 0 0.39504207585827378 0.36682256429412252 0 0.3993913393422508 0.38839396519319253 0 0.40683499004542412 0.37566900985645529 0 0.39504207585827378 0.36682256429412252 0 0.3993913393422508 0.38839396519319253 0 0.39504207585827378 0.36682256429412252 0 0.3993913393422508 0.38839396519319253 0 0.3861818138235471 0.37714139125663793 0 0.3993913393422508 0.38839396519319253 0 0.41247484703898341 0.39668929567888889 0 0.40683499004542412 0.37566900985645529 0 0.36927583114563117 0.37168826674887129 0 0.38594138320053972 0.39504117240748449 0 0.3993913393422508 0.38839396519319253 0 0.3861818138235471 0.37714139125663793 0 0.38594138320053972 0.39504117240748449 0 0.36927583114563117 0.37168826674887129 0 0.3861818138235471 0.37714139125663793 0 0.38594138320053972 0.39504117240748449 0 0.36672310374365391 0.3972274770167053 0 0.38594138320053972 0.39504117240748449 0 0.37714557779446961 0.40580011292323048 0 0.38594138320053972 0.39504117240748449 0 0.37714557779446961 0.40580011292323048 0 0.39020643165102042 0.40750290438779102 0 0.37714557779446961 0.40580011292323048 0 0.39020643165102042 0.40750290438779102 0 0.37786999239799629 0.42201923841731348 0 0.39020643165102042 0.40750290438779102 0 0.37786999239799629 0.42201923841731348 0 0.39620875860206523 0.42610388639599522 0 0.3672128213662551 0.44140310366938379 0 0.37786999239799629 0.42201923841731348 0 0.38861509636247821 0.44175005125570632 0 0.37786999239799629 0.42201923841731348 0 0.39620875860206523 0.42610388639599522 0 0.38861509636247821 0.44175005125570632 0 0.39620875860206523 0.42610388639599522 0 0.40342788129008578 0.41136751416027151 0 0.4165515890159211 0.43106581875832262 0 0.39020643165102042 0.40750290438779102 0 0.39620875860206523 0.42610388639599522 0 0.40342788129008578 0.41136751416027151 0 0.40342788129008578 0.41136751416027151 0 0.4194649070479346 0.41075775866906961 0 0.4165515890159211 0.43106581875832262 0 0.40342788129008578 0.41136751416027151 0 0.4194649070479346 0.41075775866906961 0 0.41247484703898341 0.39668929567888889 0 0.39620875860206523 0.42610388639599522 0 0.4165515890159211 0.43106581875832262 0 0.40679533173472487 0.44514780784289609 0 0.4165515890159211 0.43106581875832262 0 0.44107028692003247 0.43153611533185032 0 0.4165515890159211 0.43106581875832262 0 0.43527838440837918 0.41507327228856877 0 0.44107028692003247 0.43153611533185032 0 0.4194649070479346 0.41075775866906961 0 0.4165515890159211 0.43106581875832262 0 0.43527838440837918 0.41507327228856877 0 0.4194649070479346 0.41075775866906961 0 0.43527838440837918 0.41507327228856877 0 0.42844040697821201 0.39890611008127758 0 0.43527838440837918 0.41507327228856877 0 0.42844040697821201 0.39890611008127758 0 0.44356544647064411 0.40084295107477419 0 0.42844040697821201 0.39890611008127758 0 0.43978627658039499 0.38550810048347522 0 0.44356544647064411 0.40084295107477419 0 0.4194649070479346 0.41075775866906961 0 0.42844040697821201 0.39890611008127758 0 0.41247484703898341 0.39668929567888889 0 0.42844040697821201 0.39890611008127758 0 0.41247484703898341 0.39668929567888889 0 0.42235721568131929 0.38220686924127689 0 0.41247484703898341 0.39668929567888889 0 0.40683499004542412 0.37566900985645529 0 0.42235721568131929 0.38220686924127689 0 0.4343808670510142 0.37207818795490849 0 0.42235721568131929 0.38220686924127689 0 0.43978627658039499 0.38550810048347522 0 0.42844040697821201 0.39890611008127758 0 0.42235721568131929 0.38220686924127689 0 0.43978627658039499 0.38550810048347522 0 0.45151374504626951 0.36758660991241321 0 0.4343808670510142 0.37207818795490849 0 0.43978627658039499 0.38550810048347522 0 0.45151374504626951 0.36758660991241321 0 0.43978627658039499 0.38550810048347522 0 0.45722528454721961 0.3906654768237981 0 0.43978627658039499 0.38550810048347522 0 0.44356544647064411 0.40084295107477419 0 0.45722528454721961 0.3906654768237981 0 0.44356544647064411 0.40084295107477419 0 0.45722528454721961 0.3906654768237981 0 0.45594545333092312 0.41337501331873322 0 0.45722528454721961 0.3906654768237981 0 0.47568108772685191 0.39367102650606373 0 0.46881626912638691 0.40427363304328218 0 0.45722528454721961 0.3906654768237981 0 0.46881626912638691 0.40427363304328218 0 0.45594545333092312 0.41337501331873322 0 0.45151374504626951 0.36758660991241321 0 0.45722528454721961 0.3906654768237981 0 0.46980882541715813 0.38208294099771128 0 0.45722528454721961 0.3906654768237981 0 0.46980882541715813 0.38208294099771128 0 0.47568108772685191 0.39367102650606373 0 0.4736556537454587 0.3678330253399309 0 0.46980882541715813 0.38208294099771128 0 0.48477613844387402 0.38021688004838439 0 0.47568108772685191 0.39367102650606373 0 0.48702766555901961 0.39491075051184021 0 0.48477613844387402 0.38021688004838439 0 0.46980882541715813 0.38208294099771128 0 0.47568108772685191 0.39367102650606373 0 0.48477613844387402 0.38021688004838439 0 0.47568108772685191 0.39367102650606373 0 0.46881626912638691 0.40427363304328218 0 0.48151606592710777 0.40452093291302588 0 0.47568108772685191 0.39367102650606373 0 0.48151606592710777 0.40452093291302588 0 0.48702766555901961 0.39491075051184021 0 0.48702766555901961 0.39491075051184021 0 0.49874079622209128 0.38660437256818281 0 0.49442423947517328 0.40954054052354433 0 0.5 0.40278607211007789 0 0.49874079622209128 0.38660437256818281 0 0.49442423947517328 0.40954054052354433 0 0.49874079622209128 0.38660437256818281 0 0.49442423947517328 0.40954054052354433 0 0.48151606592710777 0.40452093291302588 0 0.48702766555901961 0.39491075051184021 0 0.49442423947517328 0.40954054052354433 0 0.5 0.37290568982018429 0 0.5 0.40278607211007789 0 0.49874079622209128 0.38660437256818281 0 0.5 0.37290568982018429 0 0.49874079622209128 0.38660437256818281 0 0.48477613844387402 0.38021688004838439 0 0.48702766555901961 0.39491075051184021 0 0.49874079622209128 0.38660437256818281 0 0.48477613844387402 0.38021688004838439 0 0.49010768272825528 0.43247670847890568 0 0.49999999999999839 0.43266645439997159 0 0.49442423947517328 0.40954054052354433 0 0.49010768272825528 0.43247670847890568 0 0.49999999999999839 0.43266645439997159 0 0.5 0.40278607211007789 0 0.49999999999999839 0.43266645439997159 0 0.49442423947517328 0.40954054052354433 0 0.49010768272825528 0.43247670847890568 0 0.49442423947517328 0.40954054052354433 0 0.47768739680387268 0.41777805257305989 0 0.48151606592710777 0.40452093291302588 0 0.49442423947517328 0.40954054052354433 0 0.47768739680387268 0.41777805257305989 0 0.49010768272825528 0.43247670847890568 0 0.49442423947517328 0.40954054052354433 0 0.46881626912638691 0.40427363304328218 0 0.48151606592710777 0.40452093291302588 0 0.47768739680387268 0.41777805257305989 0 0.49010768272825528 0.43247670847890568 0 0.47768739680387268 0.41777805257305989 0 0.4655889848241439 0.43200641190537797 0 0.49010768272825528 0.43247670847890568 0 0.4655889848241439 0.43200641190537797 0 0.47536631759922843 0.44556886167195853 0 0.49010768272825528 0.43247670847890568 0 0.4655889848241439 0.43200641190537797 0 0.4655889848241439 0.43200641190537797 0 0.44107028692003247 0.43153611533185032 0 0.4655889848241439 0.43200641190537797 0 0.45594545333092312 0.41337501331873322 0 0.44107028692003247 0.43153611533185032 0 0.4655889848241439 0.43200641190537797 0 0.44107028692003247 0.43153611533185032 0 0.4606865760628292 0.44801704672434101 0 0.47768739680387268 0.41777805257305989 0 0.4655889848241439 0.43200641190537797 0 0.45594545333092312 0.41337501331873322 0 0.46881626912638691 0.40427363304328218 0 0.47768739680387268 0.41777805257305989 0 0.45594545333092312 0.41337501331873322 0 0.43527838440837918 0.41507327228856877 0 0.45594545333092312 0.41337501331873322 0 0.44107028692003247 0.43153611533185032 0 0.43527838440837918 0.41507327228856877 0 0.44356544647064411 0.40084295107477419 0 0.45594545333092312 0.41337501331873322 0 0.49999999999999839 0.43266645439997159 0 0.48505572566105232 0.45932045051458531 0 0.5 0.5 0 0.44107028692003247 0.43153611533185032 0 0.44376664188615123 0.45979150936037488 0 0.4606865760628292 0.44801704672434101 0 0.44376664188615123 0.45979150936037488 0 0.46112241578244989 0.46478661640483648 0 0.45121200239437631 0.4807671998253365 0 0.44376664188615123 0.45979150936037488 0 0.46112241578244989 0.46478661640483648 0 0.4606865760628292 0.44801704672434101 0 0.46112241578244989 0.46478661640483648 0 0.4606865760628292 0.44801704672434101 0 0.47539261871986088 0.45602369073658289 0 0.4655889848241439 0.43200641190537797 0 0.4606865760628292 0.44801704672434101 0 0.47536631759922843 0.44556886167195853 0 0.49010768272825528 0.43247670847890568 0 0.47536631759922843 0.44556886167195853 0 0.48505572566105232 0.45932045051458531 0 0.4606865760628292 0.44801704672434101 0 0.47536631759922843 0.44556886167195853 0 0.47539261871986088 0.45602369073658289 0 0.47539261871986088 0.45602369073658289 0 0.47110615765410929 0.47801184536829172 0 0.47539261871986088 0.45602369073658289 0 0.48505572566105232 0.45932045051458531 0 0.47110615765410929 0.47801184536829172 0 0.46112241578244989 0.46478661640483648 0 0.47539261871986088 0.45602369073658289 0 0.47110615765410929 0.47801184536829172 0 0.47536631759922843 0.44556886167195853 0 0.47539261871986088 0.45602369073658289 0 0.48505572566105232 0.45932045051458531 0 0.49010768272825528 0.43247670847890568 0 0.48505572566105232 0.45932045051458531 0 0.49010768272825528 0.43247670847890568 0 0.49999999999999839 0.43266645439997159 0 0.48505572566105232 0.45932045051458531 0 0.48505572566105232 0.45932045051458531 0 0.5 0.5 0 0.48000376859384941 0.48616419255026477 0 0.5 0.5 0 0.48000376859384941 0.48616419255026477 0 0.46681969658835759 0.50000000000000044 0 0.48505572566105232 0.45932045051458531 0 0.47110615765410929 0.47801184536829172 0 0.48000376859384941 0.48616419255026477 0 0.48505572566105232 0.45932045051458531 0 0.48000376859384941 0.48616419255026477 0 0.47110615765410929 0.47801184536829172 0 0.46681969658835759 0.50000000000000044 0 0.47110615765410929 0.47801184536829172 0 0.48000376859384941 0.48616419255026477 0 0.46681969658835759 0.50000000000000044 0 0.47110615765410929 0.47801184536829172 0 0.46681969658835759 0.50000000000000044 0 0.45121200239437631 0.4807671998253365 0 0.46112241578244989 0.46478661640483648 0 0.47110615765410929 0.47801184536829172 0 0.45121200239437631 0.4807671998253365 0 0.44376664188615123 0.45979150936037488 0 0.45121200239437631 0.4807671998253365 0 0.42408561830569141 0.47732830779616442 0 0.46681969658835759 0.50000000000000044 0 0.45121200239437631 0.4807671998253365 0 0.43971230006436901 0.5 0 0.45121200239437631 0.4807671998253365 0 0.43971230006436901 0.5 0 0.42408561830569141 0.47732830779616442 0 0.43971230006436901 0.5 0 0.41260490354038032 0.5 0 0.42408561830569141 0.47732830779616442 0 0.41260490354038032 0.5 0 0.42408561830569141 0.47732830779616442 0 0.40044085355502113 0.48368683573266119 0 0.42408561830569141 0.47732830779616442 0 0.40050545668784993 0.46242548604636152 0 0.40044085355502113 0.48368683573266119 0 0.44376664188615123 0.45979150936037488 0 0.42408561830569141 0.47732830779616442 0 0.42267709028742451 0.45339185591380432 0 0.44107028692003247 0.43153611533185032 0 0.44376664188615123 0.45979150936037488 0 0.42267709028742451 0.45339185591380432 0 0.4165515890159211 0.43106581875832262 0 0.44107028692003247 0.43153611533185032 0 0.42267709028742451 0.45339185591380432 0 0.4165515890159211 0.43106581875832262 0 0.42267709028742451 0.45339185591380432 0 0.40679533173472487 0.44514780784289609 0 0.42408561830569141 0.47732830779616442 0 0.42267709028742451 0.45339185591380432 0 0.40050545668784993 0.46242548604636152 0 0.42267709028742451 0.45339185591380432 0 0.40679533173472487 0.44514780784289609 0 0.40050545668784993 0.46242548604636152 0 0.40679533173472487 0.44514780784289609 0 0.40050545668784993 0.46242548604636152 0 0.38861509636247821 0.44175005125570632 0 0.39620875860206523 0.42610388639599522 0 0.40679533173472487 0.44514780784289609 0 0.38861509636247821 0.44175005125570632 0 0.3672128213662551 0.44140310366938379 0 0.38861509636247821 0.44175005125570632 0 0.37565915938479377 0.45849116020829678 0 0.40050545668784993 0.46242548604636152 0 0.37565915938479377 0.45849116020829678 0 0.37951078222479251 0.47868038482078018 0 0.40050545668784993 0.46242548604636152 0 0.38861509636247821 0.44175005125570632 0 0.37565915938479377 0.45849116020829678 0 0.37951078222479251 0.47868038482078018 0 0.38549750701639152 0.5 0 0.40044085355502113 0.48368683573266119 0 0.41260490354038032 0.5 0 0.38549750701639152 0.5 0 0.40044085355502113 0.48368683573266119 0 0.40050545668784993 0.46242548604636152 0 0.37951078222479251 0.47868038482078018 0 0.40044085355502113 0.48368683573266119 0 0.3285700774521132 0.069227507684709172 0 0.34376262838779448 0.090160381808613591 0 0.3285700774521132 0.069227507684709172 0 0.34376262838779448 0.090160381808613591 0 0.3570119940846016 0.07655140493877155 0 0.3285700774521132 0.069227507684709172 0 0.31851483003181857 0.089032350953859848 0 0.34376262838779448 0.090160381808613591 0 0.3285700774521132 0.069227507684709172 0 0.31851483003181857 0.089032350953859848 0 0.30262144479489489 0.063472250579192202 0 0.31851483003181857 0.089032350953859848 0 0.32257158209111758 0.11034462767622299 0 0.33741607394213652 0.1036774965936159 0 0.31851483003181857 0.089032350953859848 0 0.32257158209111758 0.11034462767622299 0 0.29867863108980142 0.1045573716884185 0 0.32257158209111758 0.11034462767622299 0 0.32933038512457441 0.1245201253257071 0 0.3207185438207466 0.1263919595033525 0 0.32257158209111758 0.11034462767622299 0 0.31156748461804079 0.12537242366950921 0 0.3207185438207466 0.1263919595033525 0 0.32933038512457441 0.1245201253257071 0 0.34646453309243358 0.11613188366402739 0 0.34441400131097022 0.1288917011053414 0 0.32257158209111758 0.11034462767622299 0 0.33741607394213652 0.1036774965936159 0 0.34646453309243358 0.11613188366402739 0 0.32257158209111758 0.11034462767622299 0 0.34646453309243358 0.11613188366402739 0 0.32257158209111758 0.11034462767622299 0 0.32933038512457441 0.1245201253257071 0 0.34646453309243358 0.11613188366402739 0 0.31851483003181857 0.089032350953859848 0 0.33741607394213652 0.1036774965936159 0 0.34376262838779448 0.090160381808613591 0 0.35895517932347593 0.111093255932518 0 0.36286728541875429 0.096218484345557367 0 0.34376262838779448 0.090160381808613591 0 0.33741607394213652 0.1036774965936159 0 0.35895517932347593 0.111093255932518 0 0.34376262838779448 0.090160381808613591 0 0.35895517932347593 0.111093255932518 0 0.34376262838779448 0.090160381808613591 0 0.34646453309243358 0.11613188366402739 0 0.35895517932347593 0.111093255932518 0 0.37035748409374952 0.12191913965183331 0 0.34646453309243358 0.11613188366402739 0 0.37035748409374952 0.12191913965183331 0 0.33741607394213652 0.1036774965936159 0 0.34646453309243358 0.11613188366402739 0 0.35895517932347593 0.111093255932518 0 0.34646453309243358 0.11613188366402739 0 0.37035748409374952 0.12191913965183331 0 0.34441400131097022 0.1288917011053414 0 0.35895517932347593 0.111093255932518 0 0.36901916600157941 0.1100142775002767 0 0.37035748409374952 0.12191913965183331 0 0.36901916600157941 0.1100142775002767 0 0.37035748409374952 0.12191913965183331 0 0.37815432920295677 0.1109533992790251 0 0.37035748409374952 0.12191913965183331 0 0.37511757494472903 0.123072110010257 0 0.37035748409374952 0.12191913965183331 0 0.37169283910029199 0.12815165521797289 0 0.37511757494472903 0.123072110010257 0 0.36286728541875429 0.096218484345557367 0 0.37455144446510141 0.10193275935197101 0 0.37400882161871279 0.083619613235024759 0 0.35895517932347593 0.111093255932518 0 0.36901916600157941 0.1100142775002767 0 0.36286728541875429 0.096218484345557367 0 0.36901916600157941 0.1100142775002767 0 0.36286728541875429 0.096218484345557367 0 0.37455144446510141 0.10193275935197101 0 0.36901916600157941 0.1100142775002767 0 0.37455144446510141 0.10193275935197101 0 0.37815432920295677 0.1109533992790251 0 0.36286728541875429 0.096218484345557367 0 0.37400882161871279 0.083619613235024759 0 0.3570119940846016 0.07655140493877155 0 0.36286728541875429 0.096218484345557367 0 0.34376262838779448 0.090160381808613591 0 0.3570119940846016 0.07655140493877155 0 0.3285700774521132 0.069227507684709172 0 0.3570119940846016 0.07655140493877155 0 0.3540274811898364 0.057481719132925622 0 0.37400882161871279 0.083619613235024759 0 0.3570119940846016 0.07655140493877155 0 0.37883567044039879 0.062600723425798879 0 0.3570119940846016 0.07655140493877155 0 0.3540274811898364 0.057481719132925622 0 0.37883567044039879 0.062600723425798879 0 0.36884998715724038 0.048654936693666287 0 0.3540274811898364 0.057481719132925622 0 0.37883567044039879 0.062600723425798879 0 0.36884998715724038 0.048654936693666287 0 0.36096242836060388 0.032492650360987897 0 0.3540274811898364 0.057481719132925622 0 0.36884998715724038 0.048654936693666287 0 0.36096242836060388 0.032492650360987897 0 0.38366251926208489 0.041581833616573027 0 0.36096242836060388 0.032492650360987897 0 0.3540274811898364 0.057481719132925622 0 0.33343548863743699 0.044422356914628619 0 0.36096242836060388 0.032492650360987897 0 0.34150772405548108 0.025325389551572871 0 0.33343548863743699 0.044422356914628619 0 0.36096242836060388 0.032492650360987897 0 0.33343548863743699 0.044422356914628619 0 0.36934971840039982 0.01412264887454192 0 0.38120377069012762 0.010554394007073271 0 0.36845156083710567 -0.0060515153414843056 0 0.36934971840039982 0.01412264887454192 0 0.35188933009005469 0.012921367503740049 0 0.36845156083710567 -0.0060515153414843056 0 0.36096242836060388 0.032492650360987897 0 0.38848936808377088 0.020562943807347231 0 0.36096242836060388 0.032492650360987897 0 0.36934971840039982 0.01412264887454192 0 0.35188933009005469 0.012921367503740049 0 0.36096242836060388 0.032492650360987897 0 0.36934971840039982 0.01412264887454192 0 0.38848936808377088 0.020562943807347231 0 0.36096242836060388 0.032492650360987897 0 0.35188933009005469 0.012921367503740049 0 0.34150772405548108 0.025325389551572871 0 0.35188933009005469 0.012921367503740049 0 0.36845156083710567 -0.0060515153414843056 0 0.34114057903213352 -0.00099436838624600288 0 0.32992396985460443 0.01263339996306794 0 0.31382959722716158 0.0040627785689932028 0 0.34114057903213352 -0.00099436838624600288 0 0.35188933009005469 0.012921367503740049 0 0.32992396985460443 0.01263339996306794 0 0.34114057903213352 -0.00099436838624600288 0 0.32992396985460443 0.01263339996306794 0 0.34150772405548108 0.025325389551572871 0 0.32077834005703848 0.02927741351548363 0 0.35188933009005469 0.012921367503740049 0 0.32992396985460443 0.01263339996306794 0 0.34150772405548108 0.025325389551572871 0 0.32992396985460443 0.01263339996306794 0 0.32077834005703848 0.02927741351548363 0 0.31391214704691389 0.015516024244919061 0 0.32992396985460443 0.01263339996306794 0 0.31391214704691389 0.015516024244919061 0 0.31382959722716158 0.0040627785689932028 0 0.31382959722716158 0.0040627785689932028 0 0.34183048761771712 -0.0039986291523161147 0 0.31382959722716158 0.0040627785689932028 0 0.34114057903213352 -0.00099436838624600288 0 0.31382959722716158 0.0040627785689932028 0 0.30752965714041391 0.0058765203804442539 0 0.32194573769061952 -0.0077676308935595512 0 0.3285700774521132 0.069227507684709172 0 0.3540274811898364 0.057481719132925622 0 0.33343548863743699 0.044422356914628619 0 0.34150772405548108 0.025325389551572871 0 0.32077834005703848 0.02927741351548363 0 0.33343548863743699 0.044422356914628619 0 0.32077834005703848 0.02927741351548363 0 0.33343548863743699 0.044422356914628619 0 0.31337752651643169 0.04829463356080467 0 0.3285700774521132 0.069227507684709172 0 0.31337752651643169 0.04829463356080467 0 0.3285700774521132 0.069227507684709172 0 0.33343548863743699 0.044422356914628619 0 0.31337752651643169 0.04829463356080467 0 0.3285700774521132 0.069227507684709172 0 0.31337752651643169 0.04829463356080467 0 0.30262144479489489 0.063472250579192202 0 0.31337752651643169 0.04829463356080467 0 0.29190445549758398 0.041801895735158197 0 0.30262144479489489 0.063472250579192202 0 0.31337752651643169 0.04829463356080467 0 0.29818497558074802 0.027361759436901809 0 0.31337752651643169 0.04829463356080467 0 0.29190445549758398 0.041801895735158197 0 0.29818497558074802 0.027361759436901809 0 0.32077834005703848 0.02927741351548363 0 0.31337752651643169 0.04829463356080467 0 0.29818497558074802 0.027361759436901809 0 0.29190445549758398 0.041801895735158197 0 0.29818497558074802 0.027361759436901809 0 0.28149235485467722 0.028426230672526639 0 0.29190445549758398 0.041801895735158197 0 0.28562393541442521 0.056242032033416753 0 0.26921605588191849 0.040519794607793452 0 0.29190445549758398 0.041801895735158197 0 0.29818497558074802 0.027361759436901809 0 0.29190445549758398 0.041801895735158197 0 0.28562393541442521 0.056242032033416753 0 0.29190445549758398 0.041801895735158197 0 0.28562393541442521 0.056242032033416753 0 0.30262144479489489 0.063472250579192202 0 0.2978295874258669 0.0070254842464454832 0 0.30752965714041391 0.0058765203804442539 0 0.2978295874258669 0.0070254842464454832 0 0.30752965714041391 0.0058765203804442539 0 0.29396858594285019 -0.001032612778502764 0 0.31382959722716158 0.0040627785689932028 0 0.30752965714041391 0.0058765203804442539 0 0.31391214704691389 0.015516024244919061 0 0.30752965714041391 0.0058765203804442539 0 0.30398999522707459 0.014014891057021139 0 0.30752965714041391 0.0058765203804442539 0 0.30398999522707459 0.014014891057021139 0 0.31391214704691389 0.015516024244919061 0 0.31382959722716158 0.0040627785689932028 0 0.30752965714041391 0.0058765203804442539 0 0.2978295874258669 0.0070254842464454832 0 0.30752965714041391 0.0058765203804442539 0 0.30398999522707459 0.014014891057021139 0 0.2978295874258669 0.0070254842464454832 0 0.30398999522707459 0.014014891057021139 0 0.31391214704691389 0.015516024244919061 0 0.30398999522707459 0.014014891057021139 0 0.29818497558074802 0.027361759436901809 0 0.32077834005703848 0.02927741351548363 0 0.31391214704691389 0.015516024244919061 0 0.29818497558074802 0.027361759436901809 0 0.30398999522707459 0.014014891057021139 0 0.29818497558074802 0.027361759436901809 0 0.30398999522707459 0.014014891057021139 0 0.29818497558074802 0.027361759436901809 0 0.28690172397702512 0.011815266518820099 0 0.29818497558074802 0.027361759436901809 0 0.28149235485467722 0.028426230672526639 0 0.28690172397702512 0.011815266518820099 0 0.29818497558074802 0.027361759436901809 0 0.28690172397702512 0.011815266518820099 0 0.28690172397702512 0.011815266518820099 0 0.28687677889875068 0.001725005618485562 0 0.27267603034966698 -0.0077854348569651906 0 0.2978295874258669 0.0070254842464454832 0 0.30398999522707459 0.014014891057021139 0 0.28690172397702512 0.011815266518820099 0 0.2978295874258669 0.0070254842464454832 0 0.28690172397702512 0.011815266518820099 0 0.29376575238797509 0.0077779804816672602 0 0.2978295874258669 0.0070254842464454832 0 0.28690172397702512 0.011815266518820099 0 0.2978295874258669 0.0070254842464454832 0 0.28687677889875068 0.001725005618485562 0 0.29376575238797509 0.0077779804816672602 0 0.28690172397702512 0.011815266518820099 0 0.28687677889875068 0.001725005618485562 0 0.29376575238797509 0.0077779804816672602 0 0.2978295874258669 0.0070254842464454832 0 0.29376575238797509 0.0077779804816672602 0 0.28690172397702512 0.011815266518820099 0 0.26939274767164711 0.0040745279013861191 0 0.27267603034966698 -0.0077854348569651906 0 0.28690172397702512 0.011815266518820099 0 0.26440570944936082 0.018291830038140541 0 0.28690172397702512 0.011815266518820099 0 0.26939274767164711 0.0040745279013861191 0 0.26440570944936082 0.018291830038140541 0 0.28690172397702512 0.011815266518820099 0 0.27267603034966698 -0.0077854348569651906 0 0.28149235485467722 0.028426230672526639 0 0.26440570944936082 0.018291830038140541 0 0.26921605588191849 0.040519794607793452 0 0.28149235485467722 0.028426230672526639 0 0.28690172397702512 0.011815266518820099 0 0.26440570944936082 0.018291830038140541 0 0.24190969492169709 0.024768393557462999 0 0.26440570944936082 0.018291830038140541 0 0.2485551203034157 0.0102848256948572 0 0.24190969492169709 0.024768393557462999 0 0.26440570944936082 0.018291830038140541 0 0.24190969492169709 0.024768393557462999 0 0.26440570944936082 0.018291830038140541 0 0.25291178968964928 0.037547667281027097 0 0.2485551203034157 0.0102848256948572 0 0.26440570944936082 0.018291830038140541 0 0.25894279220913391 0.003459445712386486 0 0.26939274767164711 0.0040745279013861191 0 0.26440570944936082 0.018291830038140541 0 0.25894279220913391 0.003459445712386486 0 0.2485551203034157 0.0102848256948572 0 0.25894279220913391 0.003459445712386486 0 0.2479891295484222 -0.0022684572774312019 0 0.26939274767164711 0.0040745279013861191 0 0.25894279220913391 0.003459445712386486 0 0.26317147738524183 -0.0038637327990410169 0 0.28562393541442521 0.056242032033416753 0 0.27026274557325353 0.056119745337220257 0 0.26921605588191849 0.040519794607793452 0 0.28562393541442521 0.056242032033416753 0 0.27026274557325353 0.056119745337220257 0 0.27167623587568768 0.070814912161459326 0 0.29190445549758398 0.041801895735158197 0 0.28149235485467722 0.028426230672526639 0 0.26921605588191849 0.040519794607793452 0 0.26921605588191849 0.040519794607793452 0 0.25291178968964928 0.037547667281027097 0 0.25425538404847059 0.057624927133231481 0 0.26440570944936082 0.018291830038140541 0 0.26921605588191849 0.040519794607793452 0 0.25291178968964928 0.037547667281027097 0 0.27026274557325353 0.056119745337220257 0 0.26921605588191849 0.040519794607793452 0 0.25425538404847059 0.057624927133231481 0 0.27026274557325353 0.056119745337220257 0 0.25425538404847059 0.057624927133231481 0 0.27167623587568768 0.070814912161459326 0 0.25425538404847059 0.057624927133231481 0 0.27167623587568768 0.070814912161459326 0 0.25282536794073712 0.073272794188635415 0 0.26618138576237349 0.084067315497028519 0 0.27167623587568768 0.070814912161459326 0 0.25425538404847059 0.057624927133231481 0 0.25282536794073712 0.073272794188635415 0 0.27167623587568768 0.070814912161459326 0 0.25089272908716931 0.092982859712809007 0 0.26618138576237349 0.084067315497028519 0 0.27478568008848531 0.098770115700614086 0 0.25282536794073712 0.073272794188635415 0 0.25089272908716931 0.092982859712809007 0 0.26618138576237349 0.084067315497028519 0 0.26618138576237349 0.084067315497028519 0 0.28181267844286689 0.084890460016538952 0 0.27478568008848531 0.098770115700614086 0 0.26618138576237349 0.084067315497028519 0 0.27167623587568768 0.070814912161459326 0 0.28181267844286689 0.084890460016538952 0 0.27167623587568768 0.070814912161459326 0 0.2870451550563029 0.071072764848292863 0 0.28181267844286689 0.084890460016538952 0 0.2870451550563029 0.071072764848292863 0 0.29673814540623761 0.08207029957157172 0 0.30262144479489489 0.063472250579192202 0 0.28562393541442521 0.056242032033416753 0 0.2870451550563029 0.071072764848292863 0 0.30262144479489489 0.063472250579192202 0 0.28562393541442521 0.056242032033416753 0 0.27167623587568768 0.070814912161459326 0 0.2870451550563029 0.071072764848292863 0 0.2870451550563029 0.071072764848292863 0 0.28181267844286689 0.084890460016538952 0 0.29673814540623761 0.08207029957157172 0 0.28181267844286689 0.084890460016538952 0 0.29673814540623761 0.08207029957157172 0 0.29867863108980142 0.1045573716884185 0 0.31851483003181857 0.089032350953859848 0 0.29673814540623761 0.08207029957157172 0 0.30262144479489489 0.063472250579192202 0 0.31851483003181857 0.089032350953859848 0 0.29673814540623761 0.08207029957157172 0 0.29867863108980142 0.1045573716884185 0 0.2991284260398443 0.1226428311133997 0 0.29867863108980142 0.1045573716884185 0 0.31156748461804079 0.12537242366950921 0 0.32257158209111758 0.11034462767622299 0 0.29867863108980142 0.1045573716884185 0 0.31156748461804079 0.12537242366950921 0 0.32257158209111758 0.11034462767622299 0 0.29867863108980142 0.1045573716884185 0 0.29867863108980142 0.1045573716884185 0 0.27478568008848531 0.098770115700614086 0 0.29867863108980142 0.1045573716884185 0 0.27783009132198788 0.1122622341296569 0 0.27478568008848531 0.098770115700614086 0 0.28181267844286689 0.084890460016538952 0 0.29867863108980142 0.1045573716884185 0 0.27478568008848531 0.098770115700614086 0 0.2991284260398443 0.1226428311133997 0 0.29867863108980142 0.1045573716884185 0 0.28707615928971691 0.1208096883177448 0 0.29867863108980142 0.1045573716884185 0 0.28707615928971691 0.1208096883177448 0 0.27783009132198788 0.1122622341296569 0 0.2991284260398443 0.1226428311133997 0 0.28707615928971691 0.1208096883177448 0 0.29671346303214241 0.12961196471325551 0 0.26302281242735981 0.111198171579071 0 0.27515289576754948 0.1294134834453334 0 0.28707615928971691 0.1208096883177448 0 0.27783009132198788 0.1122622341296569 0 0.27515289576754948 0.1294134834453334 0 0.27783009132198788 0.1122622341296569 0 0.26302281242735981 0.111198171579071 0 0.27515289576754948 0.1294134834453334 0 0.26302281242735981 0.111198171579071 0 0.26007351669183237 0.1253037732749688 0 0.27515289576754948 0.1294134834453334 0 0.27783009132198788 0.1122622341296569 0 0.27478568008848531 0.098770115700614086 0 0.26302281242735981 0.111198171579071 0 0.25089272908716931 0.092982859712809007 0 0.26302281242735981 0.111198171579071 0 0.2496952397761337 0.1160329650041991 0 0.25089272908716931 0.092982859712809007 0 0.26302281242735981 0.111198171579071 0 0.25089272908716931 0.092982859712809007 0 0.27478568008848531 0.098770115700614086 0 0.26302281242735981 0.111198171579071 0 0.25089272908716931 0.092982859712809007 0 0.27478568008848531 0.098770115700614086 0 0.2471064899150823 0.133463067737116 0 0.2496952397761337 0.1160329650041991 0 0.26007351669183237 0.1253037732749688 0 0.2496952397761337 0.1160329650041991 0 0.26302281242735981 0.111198171579071 0 0.26007351669183237 0.1253037732749688 0 0.2471064899150823 0.133463067737116 0 0.26212056590251792 0.13860634342131159 0 0.25227113898158787 0.14916335431643429 0 0.2471064899150823 0.133463067737116 0 0.26212056590251792 0.13860634342131159 0 0.26007351669183237 0.1253037732749688 0 0.27515289576754948 0.1294134834453334 0 0.28728297910773942 0.14762879531159581 0 0.27515289576754948 0.1294134834453334 0 0.27408945104382287 0.14431330872834849 0 0.28728297910773942 0.14762879531159581 0 0.26212056590251792 0.13860634342131159 0 0.26007351669183237 0.1253037732749688 0 0.27515289576754948 0.1294134834453334 0 0.26212056590251792 0.13860634342131159 0 0.27515289576754948 0.1294134834453334 0 0.27408945104382287 0.14431330872834849 0 0.27408945104382287 0.14431330872834849 0 0.27716137478162928 0.15889869399298601 0 0.28728297910773942 0.14762879531159581 0 0.26212056590251792 0.13860634342131159 0 0.27408945104382287 0.14431330872834849 0 0.26493391480523859 0.14953421755469451 0 0.27408945104382287 0.14431330872834849 0 0.26493391480523859 0.14953421755469451 0 0.27716137478162928 0.15889869399298601 0 0.26493391480523859 0.14953421755469451 0 0.25227113898158787 0.14916335431643429 0 0.25784869618064837 0.16117632967822779 0 0.26212056590251792 0.13860634342131159 0 0.26493391480523859 0.14953421755469451 0 0.25227113898158787 0.14916335431643429 0 0.24342118736862761 0.16410875332904781 0 0.25227113898158787 0.14916335431643429 0 0.25784869618064837 0.16117632967822779 0 0.24342118736862761 0.16410875332904781 0 0.25784869618064837 0.16117632967822779 0 0.25421457754785548 0.17528354573505059 0 0.25784869618064837 0.16117632967822779 0 0.25421457754785548 0.17528354573505059 0 0.26798999978846311 0.16999528723303189 0 0.25421457754785548 0.17528354573505059 0 0.26688833639653942 0.18474270353269559 0 0.25113643024109478 0.19094495075723769 0 0.25421457754785548 0.17528354573505059 0 0.26688833639653942 0.18474270353269559 0 0.26798999978846311 0.16999528723303189 0 0.26688833639653942 0.18474270353269559 0 0.27899922157627788 0.1740987885831469 0 0.26798999978846311 0.16999528723303189 0 0.26688833639653942 0.18474270353269559 0 0.27899922157627788 0.1740987885831469 0 0.28165513110548479 0.1855437801635878 0 0.25784869618064837 0.16117632967822779 0 0.26798999978846311 0.16999528723303189 0 0.27716137478162928 0.15889869399298601 0 0.26493391480523859 0.14953421755469451 0 0.25784869618064837 0.16117632967822779 0 0.27716137478162928 0.15889869399298601 0 0.27899922157627788 0.1740987885831469 0 0.26798999978846311 0.16999528723303189 0 0.27716137478162928 0.15889869399298601 0 0.27716137478162928 0.15889869399298601 0 0.28838527260411961 0.16768800255462621 0 0.29642958482603432 0.1586868689393966 0 0.27899922157627788 0.1740987885831469 0 0.27716137478162928 0.15889869399298601 0 0.28838527260411961 0.16768800255462621 0 0.28838527260411961 0.16768800255462621 0 0.29642958482603432 0.1586868689393966 0 0.2990812202460017 0.16972771789266669 0 0.28165513110548479 0.1855437801635878 0 0.29057456817046978 0.17841330338653549 0 0.29442149412013968 0.19018242885082931 0 0.27899922157627788 0.1740987885831469 0 0.28165513110548479 0.1855437801635878 0 0.29057456817046978 0.17841330338653549 0 0.27899922157627788 0.1740987885831469 0 0.28838527260411961 0.16768800255462621 0 0.29057456817046978 0.17841330338653549 0 0.28838527260411961 0.16768800255462621 0 0.29057456817046978 0.17841330338653549 0 0.2990812202460017 0.16972771789266669 0 0.29057456817046978 0.17841330338653549 0 0.30085032626191438 0.18018504882584371 0 0.2990812202460017 0.16972771789266669 0 0.29057456817046978 0.17841330338653549 0 0.30085032626191438 0.18018504882584371 0 0.29442149412013968 0.19018242885082931 0 0.30085032626191438 0.18018504882584371 0 0.29442149412013968 0.19018242885082931 0 0.3080553032197017 0.1887293017033026 0 0.30085032626191438 0.18018504882584371 0 0.31056514142368619 0.1744383831500049 0 0.2990812202460017 0.16972771789266669 0 0.30085032626191438 0.18018504882584371 0 0.31056514142368619 0.1744383831500049 0 0.3080553032197017 0.1887293017033026 0 0.29642958482603432 0.1586868689393966 0 0.30747502192119819 0.16230778928688711 0 0.30151933753066762 0.14970454816787401 0 0.29642958482603432 0.1586868689393966 0 0.2990812202460017 0.16972771789266669 0 0.30747502192119819 0.16230778928688711 0 0.31056514142368619 0.1744383831500049 0 0.2990812202460017 0.16972771789266669 0 0.30747502192119819 0.16230778928688711 0 0.30747502192119819 0.16230778928688711 0 0.30151933753066762 0.14970454816787401 0 0.3129765302581462 0.1494710021231663 0 0.30151933753066762 0.14970454816787401 0 0.29882590938581222 0.14264553562683399 0 0.30718649112507979 0.14443915855455869 0 0.30151933753066762 0.14970454816787401 0 0.30718649112507979 0.14443915855455869 0 0.3129765302581462 0.1494710021231663 0 0.29882590938581222 0.14264553562683399 0 0.30718649112507979 0.14443915855455869 0 0.31229822968882548 0.13781435906697939 0 0.30718649112507979 0.14443915855455869 0 0.31229822968882548 0.13781435906697939 0 0.3129765302581462 0.1494710021231663 0 0.31229822968882548 0.13781435906697939 0 0.28502845800881449 0.13413009067030229 0 0.31229822968882548 0.13781435906697939 0 0.29671346303214241 0.12961196471325551 0 0.28502845800881449 0.13413009067030229 0 0.29882590938581222 0.14264553562683399 0 0.31229822968882548 0.13781435906697939 0 0.28502845800881449 0.13413009067030229 0 0.2991284260398443 0.1226428311133997 0 0.31156748461804079 0.12537242366950921 0 0.30438347209902411 0.12928289016934871 0 0.31229822968882548 0.13781435906697939 0 0.31156748461804079 0.12537242366950921 0 0.30438347209902411 0.12928289016934871 0 0.31229822968882548 0.13781435906697939 0 0.30438347209902411 0.12928289016934871 0 0.29671346303214241 0.12961196471325551 0 0.2991284260398443 0.1226428311133997 0 0.30438347209902411 0.12928289016934871 0 0.29671346303214241 0.12961196471325551 0 0.27515289576754948 0.1294134834453334 0 0.28502845800881449 0.13413009067030229 0 0.28728297910773942 0.14762879531159581 0 0.28707615928971691 0.1208096883177448 0 0.29671346303214241 0.12961196471325551 0 0.28502845800881449 0.13413009067030229 0 0.28707615928971691 0.1208096883177448 0 0.27515289576754948 0.1294134834453334 0 0.28502845800881449 0.13413009067030229 0 0.27716137478162928 0.15889869399298601 0 0.29642958482603432 0.1586868689393966 0 0.28728297910773942 0.14762879531159581 0 0.29642958482603432 0.1586868689393966 0 0.30151933753066762 0.14970454816787401 0 0.28728297910773942 0.14762879531159581 0 0.30151933753066762 0.14970454816787401 0 0.29882590938581222 0.14264553562683399 0 0.28728297910773942 0.14762879531159581 0 0.29882590938581222 0.14264553562683399 0 0.28502845800881449 0.13413009067030229 0 0.28728297910773942 0.14762879531159581 0 0.2459873280094696 0.23707215699401071 0 0.27381195783464701 0.24213208581531279 0 0.2459873280094696 0.23707215699401071 0 0.27381195783464701 0.24213208581531279 0 0.27283394916361492 0.24742619336605559 0 0.2459873280094696 0.23707215699401071 0 0.27283394916361492 0.24742619336605559 0 0.2459873280094696 0.23707215699401071 0 0.25877170878786238 0.25302463852503437 0 0.27283394916361492 0.24742619336605559 0 0.2459873280094696 0.23707215699401071 0 0.24763005152173001 0.25910176257370959 0 0.25877170878786238 0.25302463852503437 0 0.24332195560292991 0.2175119837032847 0 0.2459873280094696 0.23707215699401071 0 0.26947725056793032 0.22188821543332771 0 0.2459873280094696 0.23707215699401071 0 0.27381195783464701 0.24213208581531279 0 0.26947725056793032 0.22188821543332771 0 0.24332195560292991 0.2175119837032847 0 0.26947725056793032 0.22188821543332771 0 0.27381195783464701 0.24213208581531279 0 0.26947725056793032 0.22188821543332771 0 0.29563254553293061 0.22626444716337071 0 0.26947725056793032 0.22188821543332771 0 0.26383894902510108 0.20488334565775601 0 0.28252807440433819 0.20448568929014271 0 0.24828008483854189 0.20295934428596721 0 0.24332195560292991 0.2175119837032847 0 0.26383894902510108 0.20488334565775601 0 0.24332195560292991 0.2175119837032847 0 0.26947725056793032 0.22188821543332771 0 0.26383894902510108 0.20488334565775601 0 0.26688833639653942 0.18474270353269559 0 0.26383894902510108 0.20488334565775601 0 0.25113643024109478 0.19094495075723769 0 0.24828008483854189 0.20295934428596721 0 0.26383894902510108 0.20488334565775601 0 0.25113643024109478 0.19094495075723769 0 0.26688833639653942 0.18474270353269559 0 0.26383894902510108 0.20488334565775601 0 0.27369942293731819 0.19569303942008121 0 0.26383894902510108 0.20488334565775601 0 0.27369942293731819 0.19569303942008121 0 0.28252807440433819 0.20448568929014271 0 0.28165513110548479 0.1855437801635878 0 0.27369942293731819 0.19569303942008121 0 0.28252807440433819 0.20448568929014271 0 0.26688833639653942 0.18474270353269559 0 0.28165513110548479 0.1855437801635878 0 0.27369942293731819 0.19569303942008121 0 0.28165513110548479 0.1855437801635878 0 0.29442149412013968 0.19018242885082931 0 0.28252807440433819 0.20448568929014271 0 0.29442149412013968 0.19018242885082931 0 0.30168066081365352 0.2029210297493958 0 0.28252807440433819 0.20448568929014271 0 0.29442149412013968 0.19018242885082931 0 0.3080553032197017 0.1887293017033026 0 0.30168066081365352 0.2029210297493958 0 0.3080553032197017 0.1887293017033026 0 0.30168066081365352 0.2029210297493958 0 0.31674655555173881 0.19902842766084339 0 0.30168066081365352 0.2029210297493958 0 0.29563254553293061 0.22626444716337071 0 0.31377845179643721 0.21458276756770189 0 0.30168066081365352 0.2029210297493958 0 0.31377845179643721 0.21458276756770189 0 0.31674655555173881 0.19902842766084339 0 0.30168066081365352 0.2029210297493958 0 0.28252807440433819 0.20448568929014271 0 0.29563254553293061 0.22626444716337071 0 0.26947725056793032 0.22188821543332771 0 0.28252807440433819 0.20448568929014271 0 0.29563254553293061 0.22626444716337071 0 0.26947725056793032 0.22188821543332771 0 0.29563254553293061 0.22626444716337071 0 0.29563254553293061 0.22626444716337071 0 0.3217878404979308 0.23064067889341369 0 0.31377845179643721 0.21458276756770189 0 0.29563254553293061 0.22626444716337071 0 0.3217878404979308 0.23064067889341369 0 0.29563254553293061 0.22626444716337071 0 0.3016365876598241 0.24719201463661561 0 0.3217878404979308 0.23064067889341369 0 0.27381195783464701 0.24213208581531279 0 0.29563254553293061 0.22626444716337071 0 0.3016365876598241 0.24719201463661561 0 0.27381195783464701 0.24213208581531279 0 0.3016365876598241 0.24719201463661561 0 0.27381195783464701 0.24213208581531279 0 0.27283394916361492 0.24742619336605559 0 0.3016365876598241 0.24719201463661561 0 0.32946121748500129 0.25225194345791829 0 0.3217878404979308 0.23064067889341369 0 0.34556910970536658 0.23921390462248199 0 0.32946121748500129 0.25225194345791829 0 0.3016365876598241 0.24719201463661561 0 0.3217878404979308 0.23064067889341369 0 0.32946121748500129 0.25225194345791829 0 0.3016365876598241 0.24719201463661561 0 0.3217878404979308 0.23064067889341369 0 0.33460182177363001 0.21999966289075409 0 0.31377845179643721 0.21458276756770189 0 0.3217878404979308 0.23064067889341369 0 0.33460182177363001 0.21999966289075409 0 0.34556910970536658 0.23921390462248199 0 0.33460182177363001 0.21999966289075409 0 0.3278776259658665 0.2076214509036243 0 0.34419695055865512 0.20542025302645439 0 0.33460182177363001 0.21999966289075409 0 0.31377845179643721 0.21458276756770189 0 0.3278776259658665 0.2076214509036243 0 0.31377845179643721 0.21458276756770189 0 0.3278776259658665 0.2076214509036243 0 0.31674655555173881 0.19902842766084339 0 0.3278776259658665 0.2076214509036243 0 0.31674655555173881 0.19902842766084339 0 0.32893527636844411 0.194937601908272 0 0.3080553032197017 0.1887293017033026 0 0.31674655555173881 0.19902842766084339 0 0.32122387935841612 0.1836610840160959 0 0.31674655555173881 0.19902842766084339 0 0.32893527636844411 0.194937601908272 0 0.32122387935841612 0.1836610840160959 0 0.32893527636844411 0.194937601908272 0 0.34419695055865512 0.20542025302645439 0 0.33967484433078321 0.18584068278097349 0 0.32893527636844411 0.194937601908272 0 0.32122387935841612 0.1836610840160959 0 0.33967484433078321 0.18584068278097349 0 0.3278776259658665 0.2076214509036243 0 0.32893527636844411 0.194937601908272 0 0.34419695055865512 0.20542025302645439 0 0.35368837148756882 0.19334260062126429 0 0.34419695055865512 0.20542025302645439 0 0.33967484433078321 0.18584068278097349 0 0.35368837148756882 0.19334260062126429 0 0.36735815001373812 0.20351917688449569 0 0.34419695055865512 0.20542025302645439 0 0.36735815001373812 0.20351917688449569 0 0.36699199379966768 0.18628457072029089 0 0.38367398474104891 0.18179268717308689 0 0.35368837148756882 0.19334260062126429 0 0.36735815001373812 0.20351917688449569 0 0.36699199379966768 0.18628457072029089 0 0.36735815001373812 0.20351917688449569 0 0.35440095211752448 0.2225189223308488 0 0.37280151553833601 0.22024831863616021 0 0.36735815001373812 0.20351917688449569 0 0.37280151553833601 0.22024831863616021 0 0.38406378734192298 0.20777210545990279 0 0.36735815001373812 0.20351917688449569 0 0.34419695055865512 0.20542025302645439 0 0.35440095211752448 0.2225189223308488 0 0.33460182177363001 0.21999966289075409 0 0.34419695055865512 0.20542025302645439 0 0.35440095211752448 0.2225189223308488 0 0.35440095211752448 0.2225189223308488 0 0.37293454716760283 0.2396311516560117 0 0.34556910970536658 0.23921390462248199 0 0.33460182177363001 0.21999966289075409 0 0.35440095211752448 0.2225189223308488 0 0.34556910970536658 0.23921390462248199 0 0.35440095211752448 0.2225189223308488 0 0.37280151553833601 0.22024831863616021 0 0.37293454716760283 0.2396311516560117 0 0.32946121748500129 0.25225194345791829 0 0.35728584731017871 0.25731187227922109 0 0.34556910970536658 0.23921390462248199 0 0.35728584731017871 0.25731187227922109 0 0.37293454716760283 0.2396311516560117 0 0.34556910970536658 0.23921390462248199 0 0.33789665254535572 0.15537308983460499 0 0.33956800136883641 0.14149862746365649 0 0.32484504322689201 0.150618498474763 0 0.33789665254535572 0.15537308983460499 0 0.32484504322689201 0.150618498474763 0 0.32925575641373173 0.1625602653078303 0 0.33789665254535572 0.15537308983460499 0 0.33956800136883641 0.14149862746365649 0 0.35085012880757988 0.15547460686614431 0 0.31847051852819058 0.13586426255884801 0 0.34441400131097022 0.1288917011053414 0 0.32933038512457441 0.1245201253257071 0 0.31847051852819058 0.13586426255884801 0 0.34441400131097022 0.1288917011053414 0 0.33956800136883641 0.14149862746365649 0 0.31847051852819058 0.13586426255884801 0 0.34441400131097022 0.1288917011053414 0 0.31229822968882548 0.13781435906697939 0 0.33956800136883641 0.14149862746365649 0 0.31229822968882548 0.13781435906697939 0 0.33956800136883641 0.14149862746365649 0 0.31847051852819058 0.13586426255884801 0 0.32933038512457441 0.1245201253257071 0 0.3207185438207466 0.1263919595033525 0 0.31847051852819058 0.13586426255884801 0 0.31156748461804079 0.12537242366950921 0 0.3207185438207466 0.1263919595033525 0 0.31847051852819058 0.13586426255884801 0 0.31229822968882548 0.13781435906697939 0 0.31156748461804079 0.12537242366950921 0 0.31847051852819058 0.13586426255884801 0 0.31229822968882548 0.13781435906697939 0 0.33956800136883641 0.14149862746365649 0 0.32484504322689201 0.150618498474763 0 0.31229822968882548 0.13781435906697939 0 0.32484504322689201 0.150618498474763 0 0.3129765302581462 0.1494710021231663 0 0.32484504322689201 0.150618498474763 0 0.3129765302581462 0.1494710021231663 0 0.31772009751989111 0.15842714336302041 0 0.30747502192119819 0.16230778928688711 0 0.3129765302581462 0.1494710021231663 0 0.31772009751989111 0.15842714336302041 0 0.30747502192119819 0.16230778928688711 0 0.31772009751989111 0.15842714336302041 0 0.32080742045079952 0.16866520015094741 0 0.31056514142368619 0.1744383831500049 0 0.30747502192119819 0.16230778928688711 0 0.32080742045079952 0.16866520015094741 0 0.32080742045079952 0.16866520015094741 0 0.33131907253280629 0.1738795647946571 0 0.32925575641373173 0.1625602653078303 0 0.32484504322689201 0.150618498474763 0 0.31772009751989111 0.15842714336302041 0 0.32925575641373173 0.1625602653078303 0 0.31772009751989111 0.15842714336302041 0 0.32080742045079952 0.16866520015094741 0 0.32925575641373173 0.1625602653078303 0 0.31056514142368619 0.1744383831500049 0 0.3080553032197017 0.1887293017033026 0 0.32122387935841612 0.1836610840160959 0 0.31056514142368619 0.1744383831500049 0 0.32080742045079952 0.16866520015094741 0 0.32122387935841612 0.1836610840160959 0 0.32080742045079952 0.16866520015094741 0 0.32122387935841612 0.1836610840160959 0 0.33131907253280629 0.1738795647946571 0 0.33131907253280629 0.1738795647946571 0 0.33967484433078321 0.18584068278097349 0 0.34294625220664587 0.1683980952289891 0 0.32122387935841612 0.1836610840160959 0 0.33131907253280629 0.1738795647946571 0 0.33967484433078321 0.18584068278097349 0 0.33131907253280629 0.1738795647946571 0 0.32925575641373173 0.1625602653078303 0 0.34294625220664587 0.1683980952289891 0 0.33789665254535572 0.15537308983460499 0 0.32925575641373173 0.1625602653078303 0 0.34294625220664587 0.1683980952289891 0 0.34294625220664587 0.1683980952289891 0 0.35531914635495271 0.16562513299740311 0 0.35085012880757988 0.15547460686614431 0 0.33789665254535572 0.15537308983460499 0 0.34294625220664587 0.1683980952289891 0 0.35085012880757988 0.15547460686614431 0 0.34294625220664587 0.1683980952289891 0 0.35531914635495271 0.16562513299740311 0 0.35387202203434698 0.17803066266241011 0 0.35531914635495271 0.16562513299740311 0 0.35387202203434698 0.17803066266241011 0 0.36550295271590683 0.1690726970215666 0 0.35531914635495271 0.16562513299740311 0 0.36342437601028388 0.15714960320790561 0 0.35085012880757988 0.15547460686614431 0 0.33967484433078321 0.18584068278097349 0 0.34294625220664587 0.1683980952289891 0 0.35387202203434698 0.17803066266241011 0 0.35368837148756882 0.19334260062126429 0 0.33967484433078321 0.18584068278097349 0 0.35387202203434698 0.17803066266241011 0 0.35368837148756882 0.19334260062126429 0 0.35387202203434698 0.17803066266241011 0 0.36699199379966768 0.18628457072029089 0 0.37486327834919952 0.17324080595030389 0 0.36699199379966768 0.18628457072029089 0 0.36550295271590683 0.1690726970215666 0 0.35387202203434698 0.17803066266241011 0 0.36699199379966768 0.18628457072029089 0 0.36550295271590683 0.1690726970215666 0 0.36342437601028388 0.15714960320790561 0 0.36550295271590683 0.1690726970215666 0 0.38328418214017468 0.15581326888627101 0 0.37486327834919952 0.17324080595030389 0 0.36550295271590683 0.1690726970215666 0 0.38328418214017468 0.15581326888627101 0 0.35531914635495271 0.16562513299740311 0 0.36342437601028388 0.15714960320790561 0 0.36550295271590683 0.1690726970215666 0 0.36342437601028388 0.15714960320790561 0 0.36683777304884752 0.14518289586033359 0 0.38328418214017468 0.15581326888627101 0 0.36342437601028388 0.15714960320790561 0 0.36683777304884752 0.14518289586033359 0 0.35085012880757988 0.15547460686614431 0 0.33956800136883641 0.14149862746365649 0 0.36683777304884752 0.14518289586033359 0 0.33956800136883641 0.14149862746365649 0 0.36683777304884752 0.14518289586033359 0 0.35085012880757988 0.15547460686614431 0 0.37035748409374952 0.12191913965183331 0 0.34441400131097022 0.1288917011053414 0 0.33956800136883641 0.14149862746365649 0 0.34441400131097022 0.1288917011053414 0 0.35985245571789548 0.13256521397634091 0 0.37035748409374952 0.12191913965183331 0 0.34441400131097022 0.1288917011053414 0 0.35985245571789548 0.13256521397634091 0 0.33956800136883641 0.14149862746365649 0 0.36683777304884752 0.14518289586033359 0 0.35985245571789548 0.13256521397634091 0 0.36683777304884752 0.14518289586033359 0 0.37024230120578611 0.13336796185197819 0 0.3828943795393005 0.1298338505994551 0 0.36683777304884752 0.14518289586033359 0 0.35985245571789548 0.13256521397634091 0 0.37024230120578611 0.13336796185197819 0 0.35985245571789548 0.13256521397634091 0 0.37024230120578611 0.13336796185197819 0 0.37169283910029199 0.12815165521797289 0 0.37024230120578611 0.13336796185197819 0 0.37169283910029199 0.12815165521797289 0 0.3828943795393005 0.1298338505994551 0 0.37035748409374952 0.12191913965183331 0 0.35985245571789548 0.13256521397634091 0 0.37169283910029199 0.12815165521797289 0 0.37169283910029199 0.12815165521797289 0 0.3828943795393005 0.1298338505994551 0 0.37511757494472903 0.123072110010257 0 0.3828943795393005 0.1298338505994551 0 0.39816792615439378 0.12760480203569169 0 0.39443703245191569 0.14316330482662179 0 0.39816792615439378 0.12760480203569169 0 0.39443703245191569 0.14316330482662179 0 0.40813897635800228 0.13879757292358971 0 0.40355831469332321 0.14905262061052801 0 0.39443703245191569 0.14316330482662179 0 0.39831584160420508 0.1589856433255693 0 0.39443703245191569 0.14316330482662179 0 0.38328418214017468 0.15581326888627101 0 0.39831584160420508 0.1589856433255693 0 0.40355831469332321 0.14905262061052801 0 0.39831584160420508 0.1589856433255693 0 0.41313230378900101 0.1549252007201132 0 0.40355831469332321 0.14905262061052801 0 0.39443703245191569 0.14316330482662179 0 0.40813897635800228 0.13879757292358971 0 0.3828943795393005 0.1298338505994551 0 0.39443703245191569 0.14316330482662179 0 0.38328418214017468 0.15581326888627101 0 0.36683777304884752 0.14518289586033359 0 0.3828943795393005 0.1298338505994551 0 0.38328418214017468 0.15581326888627101 0 0.3828943795393005 0.1298338505994551 0 0.38328418214017468 0.15581326888627101 0 0.38328418214017468 0.15581326888627101 0 0.38367398474104891 0.18179268717308689 0 0.37486327834919952 0.17324080595030389 0 0.38328418214017468 0.15581326888627101 0 0.38367398474104891 0.18179268717308689 0 0.38328418214017468 0.15581326888627101 0 0.38367398474104891 0.18179268717308689 0 0.39626047774709761 0.17356948839180519 0 0.37486327834919952 0.17324080595030389 0 0.36699199379966768 0.18628457072029089 0 0.38367398474104891 0.18179268717308689 0 0.38367398474104891 0.18179268717308689 0 0.39626047774709761 0.17356948839180519 0 0.39402839101454218 0.18926537882500041 0 0.41201559310989622 0.1717711692121752 0 0.39402839101454218 0.18926537882500041 0 0.40911253846621609 0.1927355572029634 0 0.41201559310989622 0.1717711692121752 0 0.39402839101454218 0.18926537882500041 0 0.39626047774709761 0.17356948839180519 0 0.41201559310989622 0.1717711692121752 0 0.39402839101454218 0.18926537882500041 0 0.38328418214017468 0.15581326888627101 0 0.39626047774709761 0.17356948839180519 0 0.39831584160420508 0.1589856433255693 0 0.39626047774709761 0.17356948839180519 0 0.39831584160420508 0.1589856433255693 0 0.41201559310989622 0.1717711692121752 0 0.39831584160420508 0.1589856433255693 0 0.41201559310989622 0.1717711692121752 0 0.41313230378900101 0.1549252007201132 0 0.41201559310989622 0.1717711692121752 0 0.43000279520525009 0.1542769595993502 0 0.41201559310989622 0.1717711692121752 0 0.43000279520525009 0.1542769595993502 0 0.41313230378900101 0.1549252007201132 0 0.41201559310989622 0.1717711692121752 0 0.42496471626184562 0.18478050847474101 0 0.40911253846621609 0.1927355572029634 0 0.42496471626184562 0.18478050847474101 0 0.42886790669691233 0.1683305758749721 0 0.44390934378202151 0.1869955505783234 0 0.41201559310989622 0.1717711692121752 0 0.42496471626184562 0.18478050847474101 0 0.42886790669691233 0.1683305758749721 0 0.42886790669691233 0.1683305758749721 0 0.44390934378202151 0.1869955505783234 0 0.41201559310989622 0.1717711692121752 0 0.42886790669691233 0.1683305758749721 0 0.43000279520525009 0.1542769595993502 0 0.42886790669691233 0.1683305758749721 0 0.43000279520525009 0.1542769595993502 0 0.44221599041969212 0.16183818438693329 0 0.43000279520525009 0.1542769595993502 0 0.42332430940078591 0.1392784445062823 0 0.4479899973006039 0.1367827499865252 0 0.43000279520525009 0.1542769595993502 0 0.42332430940078591 0.1392784445062823 0 0.41313230378900101 0.1549252007201132 0 0.429848517254516 0.1255917524949702 0 0.42332430940078591 0.1392784445062823 0 0.41384889774502859 0.12525543762671809 0 0.429848517254516 0.1255917524949702 0 0.42332430940078591 0.1392784445062823 0 0.4479899973006039 0.1367827499865252 0 0.39816792615439378 0.12760480203569169 0 0.41384889774502859 0.12525543762671809 0 0.40813897635800228 0.13879757292358971 0 0.42332430940078591 0.1392784445062823 0 0.41384889774502859 0.12525543762671809 0 0.40813897635800228 0.13879757292358971 0 0.40355831469332321 0.14905262061052801 0 0.40813897635800228 0.13879757292358971 0 0.41313230378900101 0.1549252007201132 0 0.42332430940078591 0.1392784445062823 0 0.40813897635800228 0.13879757292358971 0 0.41313230378900101 0.1549252007201132 0 0.38511047713535562 0.2623718011005241 0 0.37293454716760283 0.2396311516560117 0 0.39933451681408499 0.24222051247515669 0 0.37293454716760283 0.2396311516560117 0 0.39933451681408499 0.24222051247515669 0 0.39045396999845727 0.2225958518425987 0 0.37280151553833601 0.22024831863616021 0 0.37293454716760283 0.2396311516560117 0 0.39045396999845727 0.2225958518425987 0 0.39933451681408499 0.24222051247515669 0 0.39045396999845727 0.2225958518425987 0 0.41502085935247712 0.2184770015477572 0 0.39045396999845727 0.2225958518425987 0 0.39965272480706299 0.2061417744041574 0 0.38406378734192298 0.20777210545990279 0 0.39045396999845727 0.2225958518425987 0 0.39965272480706299 0.2061417744041574 0 0.41502085935247712 0.2184770015477572 0 0.37280151553833601 0.22024831863616021 0 0.39045396999845727 0.2225958518425987 0 0.38406378734192298 0.20777210545990279 0 0.36735815001373812 0.20351917688449569 0 0.38367398474104891 0.18179268717308689 0 0.38406378734192298 0.20777210545990279 0 0.38367398474104891 0.18179268717308689 0 0.38406378734192298 0.20777210545990279 0 0.38367398474104891 0.18179268717308689 0 0.38406378734192298 0.20777210545990279 0 0.39402839101454218 0.18926537882500041 0 0.39965272480706299 0.2061417744041574 0 0.38406378734192298 0.20777210545990279 0 0.39402839101454218 0.18926537882500041 0 0.39965272480706299 0.2061417744041574 0 0.39402839101454218 0.18926537882500041 0 0.40911253846621609 0.1927355572029634 0 0.42496471626184562 0.18478050847474101 0 0.40911253846621609 0.1927355572029634 0 0.43133039545531981 0.20312972213906441 0 0.42496471626184562 0.18478050847474101 0 0.43133039545531981 0.20312972213906441 0 0.44390934378202151 0.1869955505783234 0 0.43133039545531981 0.20312972213906441 0 0.41502085935247712 0.2184770015477572 0 0.43839838412078092 0.2247149777195776 0 0.40911253846621609 0.1927355572029634 0 0.41502085935247712 0.2184770015477572 0 0.40911253846621609 0.1927355572029634 0 0.43133039545531981 0.20312972213906441 0 0.41502085935247712 0.2184770015477572 0 0.39965272480706299 0.2061417744041574 0 0.40911253846621609 0.1927355572029634 0 0.41502085935247712 0.2184770015477572 0 0.41502085935247712 0.2184770015477572 0 0.42092918023873821 0.24421844589255121 0 0.41502085935247712 0.2184770015477572 0 0.42092918023873821 0.24421844589255121 0 0.43839838412078092 0.2247149777195776 0 0.42092918023873821 0.24421844589255121 0 0.44272868649399699 0.2414724783298311 0 0.43839838412078092 0.2247149777195776 0 0.44089414042045799 0.25771217685885472 0 0.42092918023873821 0.24421844589255121 0 0.44272868649399699 0.2414724783298311 0 0.39933451681408499 0.24222051247515669 0 0.41502085935247712 0.2184770015477572 0 0.42092918023873821 0.24421844589255121 0 0.46750550623703407 0.25349570762290419 0 0.4569230610569987 0.24819013429900669 0 0.47278153852907701 0.24486280325581439 0 0.4569230610569987 0.24819013429900669 0 0.45723446189795819 0.23161380727854039 0 0.47278153852907701 0.24486280325581439 0 0.4569230610569987 0.24819013429900669 0 0.44272868649399699 0.2414724783298311 0 0.45723446189795819 0.23161380727854039 0 0.44089414042045799 0.25771217685885472 0 0.4569230610569987 0.24819013429900669 0 0.44272868649399699 0.2414724783298311 0 0.43839838412078092 0.2247149777195776 0 0.45723446189795819 0.23161380727854039 0 0.45895078086713059 0.20566052528167461 0 0.44272868649399699 0.2414724783298311 0 0.43839838412078092 0.2247149777195776 0 0.45723446189795819 0.23161380727854039 0 0.45723446189795819 0.23161380727854039 0 0.47399221795223978 0.22432549998502579 0 0.47278153852907701 0.24486280325581439 0 0.45723446189795819 0.23161380727854039 0 0.45895078086713059 0.20566052528167461 0 0.47399221795223978 0.22432549998502579 0 0.45895078086713059 0.20566052528167461 0 0.47399221795223978 0.22432549998502579 0 0.43133039545531981 0.20312972213906441 0 0.43839838412078092 0.2247149777195776 0 0.45895078086713059 0.20566052528167461 0 0.43133039545531981 0.20312972213906441 0 0.45895078086713059 0.20566052528167461 0 0.44390934378202151 0.1869955505783234 0 0.45895078086713059 0.20566052528167461 0 0.44390934378202151 0.1869955505783234 0 0.45895078086713059 0.20566052528167461 0 0.44390934378202151 0.1869955505783234 0 0.47471792995388828 0.18435875067661631 0 0.45895078086713059 0.20566052528167461 0 0.47967819324703809 0.2043502093285503 0 0.47471792995388828 0.18435875067661631 0 0.5 0.20006456793442701 0 0.47967819324703809 0.2043502093285503 0 0.47471792995388828 0.18435875067661631 0 0.5 0.20006456793442701 0 0.48813206750880261 0.21755351138133391 0 0.47967819324703809 0.2043502093285503 0 0.5 0.20006456793442701 0 0.48813206750880261 0.21755351138133391 0 0.5 0.22779789293978581 0 0.45895078086713059 0.20566052528167461 0 0.47967819324703809 0.2043502093285503 0 0.47399221795223978 0.22432549998502579 0 0.48813206750880261 0.21755351138133391 0 0.47967819324703809 0.2043502093285503 0 0.47399221795223978 0.22432549998502579 0 0.48813206750880261 0.21755351138133391 0 0.47399221795223978 0.22432549998502579 0 0.48903365503734891 0.24299047468837701 0 0.47399221795223978 0.22432549998502579 0 0.48903365503734891 0.24299047468837701 0 0.48813206750880261 0.21755351138133391 0 0.5 0.22779789293978581 0 0.48903365503734891 0.24299047468837701 0 0.5 0.25553121794514477 0 0.5 0.22779789293978581 0 0.48903365503734891 0.24299047468837701 0 0.48489893488970792 0.25686202981026901 0 0.48903365503734891 0.24299047468837701 0 0.47278153852907701 0.24486280325581439 0 0.47399221795223978 0.22432549998502579 0 0.48903365503734891 0.24299047468837701 0 0.47278153852907701 0.24486280325581439 0 0.4479899973006039 0.1367827499865252 0 0.46030990911367259 0.16280508589549539 0 0.47332178232586258 0.14483424446409521 0 0.4479899973006039 0.1367827499865252 0 0.47332178232586258 0.14483424446409521 0 0.46597719939595772 0.11928854037370019 0 0.4479899973006039 0.1367827499865252 0 0.46597719939595772 0.11928854037370019 0 0.429848517254516 0.1255917524949702 0 0.4479899973006039 0.1367827499865252 0 0.44441253831551758 0.1138689947079024 0 0.43000279520525009 0.1542769595993502 0 0.4479899973006039 0.1367827499865252 0 0.44221599041969212 0.16183818438693329 0 0.43000279520525009 0.1542769595993502 0 0.4479899973006039 0.1367827499865252 0 0.4479899973006039 0.1367827499865252 0 0.44221599041969212 0.16183818438693329 0 0.46030990911367259 0.16280508589549539 0 0.44221599041969212 0.16183818438693329 0 0.44390934378202151 0.1869955505783234 0 0.46030990911367259 0.16280508589549539 0 0.42886790669691233 0.1683305758749721 0 0.44221599041969212 0.16183818438693329 0 0.44390934378202151 0.1869955505783234 0 0.44390934378202151 0.1869955505783234 0 0.46030990911367259 0.16280508589549539 0 0.47471792995388828 0.18435875067661631 0 0.46030990911367259 0.16280508589549539 0 0.48162298028441808 0.16304382698580119 0 0.47332178232586258 0.14483424446409521 0 0.46030990911367259 0.16280508589549539 0 0.48162298028441808 0.16304382698580119 0 0.47471792995388828 0.18435875067661631 0 0.5 0.20006456793442701 0 0.47471792995388828 0.18435875067661631 0 0.5 0.17233124292906801 0 0.48162298028441808 0.16304382698580119 0 0.47471792995388828 0.18435875067661631 0 0.5 0.17233124292906801 0 0.48162298028441808 0.16304382698580119 0 0.5 0.17233124292906801 0 0.5 0.14459791792370899 0 0.48162298028441808 0.16304382698580119 0 0.5 0.14459791792370899 0 0.47332178232586258 0.14483424446409521 0 0.47332178232586258 0.14483424446409521 0 0.48369720064842647 0.1280225697211729 0 0.46597719939595772 0.11928854037370019 0 0.5 0.14459791792370899 0 0.48369720064842647 0.1280225697211729 0 0.5 0.1168645929183502 0 0.5 0.14459791792370899 0 0.47332178232586258 0.14483424446409521 0 0.48369720064842647 0.1280225697211729 0 0.48369720064842647 0.1280225697211729 0 0.5 0.1168645929183502 0 0.47911227232856668 0.09907818001940101 0 0.5 0.1168645929183502 0 0.47911227232856668 0.09907818001940101 0 0.5 0.089131267912991197 0 0.48369720064842647 0.1280225697211729 0 0.47911227232856668 0.09907818001940101 0 0.46597719939595772 0.11928854037370019 0 0.48592231416185638 0.0752646054103117 0 0.5 0.089131267912991197 0 0.5 0.06139794290763223 0 0.47911227232856668 0.09907818001940101 0 0.48592231416185638 0.0752646054103117 0 0.5 0.089131267912991197 0 0.47911227232856668 0.09907818001940101 0 0.48592231416185638 0.0752646054103117 0 0.46599422920766509 0.071585542922595516 0 0.48592231416185638 0.0752646054103117 0 0.46599422920766509 0.071585542922595516 0 0.47969083044660421 0.050503904472553283 0 0.47911227232856668 0.09907818001940101 0 0.46599422920766509 0.071585542922595516 0 0.45660210543223351 0.096238293732025512 0 0.46599422920766509 0.071585542922595516 0 0.44319262383460789 0.070531660330671375 0 0.45660210543223351 0.096238293732025512 0 0.44319262383460789 0.070531660330671375 0 0.45660210543223351 0.096238293732025512 0 0.43559540491542181 0.095634413362833848 0 0.46597719939595772 0.11928854037370019 0 0.45660210543223351 0.096238293732025512 0 0.44441253831551758 0.1138689947079024 0 0.47911227232856668 0.09907818001940101 0 0.46597719939595772 0.11928854037370019 0 0.45660210543223351 0.096238293732025512 0 0.45660210543223351 0.096238293732025512 0 0.44441253831551758 0.1138689947079024 0 0.43559540491542181 0.095634413362833848 0 0.4479899973006039 0.1367827499865252 0 0.46597719939595772 0.11928854037370019 0 0.44441253831551758 0.1138689947079024 0 0.429848517254516 0.1255917524949702 0 0.44441253831551758 0.1138689947079024 0 0.42416274095453271 0.1101558860989641 0 0.429848517254516 0.1255917524949702 0 0.41384889774502859 0.12525543762671809 0 0.42416274095453271 0.1101558860989641 0 0.41384889774502859 0.12525543762671809 0 0.42416274095453271 0.1101558860989641 0 0.40716605829359193 0.1120264799895512 0 0.39816792615439378 0.12760480203569169 0 0.41384889774502859 0.12525543762671809 0 0.40716605829359193 0.1120264799895512 0 0.40716605829359193 0.1120264799895512 0 0.41525133388600899 0.093407911538609431 0 0.39656535672550852 0.092974877928873267 0 0.42416274095453271 0.1101558860989641 0 0.40716605829359193 0.1120264799895512 0 0.41525133388600899 0.093407911538609431 0 0.42416274095453271 0.1101558860989641 0 0.43559540491542181 0.095634413362833848 0 0.41525133388600899 0.093407911538609431 0 0.44441253831551758 0.1138689947079024 0 0.42416274095453271 0.1101558860989641 0 0.43559540491542181 0.095634413362833848 0 0.43559540491542181 0.095634413362833848 0 0.4195547633014628 0.073570994746074828 0 0.41525133388600899 0.093407911538609431 0 0.43559540491542181 0.095634413362833848 0 0.4195547633014628 0.073570994746074828 0 0.44319262383460789 0.070531660330671375 0 0.43559540491542181 0.095634413362833848 0 0.4195547633014628 0.073570994746074828 0 0.44319262383460789 0.070531660330671375 0 0.4195547633014628 0.073570994746074828 0 0.42728191937221521 0.050914286525162993 0 0.4195547633014628 0.073570994746074828 0 0.39780951386322527 0.071813900777571313 0 0.40351412168750378 0.051507576129315842 0 0.4195547633014628 0.073570994746074828 0 0.40351412168750378 0.051507576129315842 0 0.4195547633014628 0.073570994746074828 0 0.41525133388600899 0.093407911538609431 0 0.39780951386322527 0.071813900777571313 0 0.41525133388600899 0.093407911538609431 0 0.39656535672550852 0.092974877928873267 0 0.39780951386322527 0.071813900777571313 0 0.37400882161871279 0.083619613235024759 0 0.37883567044039879 0.062600723425798879 0 0.39780951386322527 0.071813900777571313 0 0.37883567044039879 0.062600723425798879 0 0.3909554563133032 0.056876008487314757 0 0.37400882161871279 0.083619613235024759 0 0.39780951386322527 0.071813900777571313 0 0.37883567044039879 0.062600723425798879 0 0.37400882161871279 0.083619613235024759 0 0.39656535672550852 0.092974877928873267 0 0.38808178026068268 0.10392801007035141 0 0.37400882161871279 0.083619613235024759 0 0.39656535672550852 0.092974877928873267 0 0.39780951386322527 0.071813900777571313 0 0.37455144446510141 0.10193275935197101 0 0.37400882161871279 0.083619613235024759 0 0.38808178026068268 0.10392801007035141 0 0.37455144446510141 0.10193275935197101 0 0.38808178026068268 0.10392801007035141 0 0.37815432920295677 0.1109533992790251 0 0.37035748409374952 0.12191913965183331 0 0.38876177119367089 0.116972809820693 0 0.37035748409374952 0.12191913965183331 0 0.37511757494472903 0.123072110010257 0 0.38876177119367089 0.116972809820693 0 0.37035748409374952 0.12191913965183331 0 0.37815432920295677 0.1109533992790251 0 0.38876177119367089 0.116972809820693 0 0.3828943795393005 0.1298338505994551 0 0.37511757494472903 0.123072110010257 0 0.38876177119367089 0.116972809820693 0 0.3828943795393005 0.1298338505994551 0 0.39816792615439378 0.12760480203569169 0 0.38876177119367089 0.116972809820693 0 0.38808178026068268 0.10392801007035141 0 0.37815432920295677 0.1109533992790251 0 0.38876177119367089 0.116972809820693 0 0.40716605829359193 0.1120264799895512 0 0.38876177119367089 0.116972809820693 0 0.39816792615439378 0.12760480203569169 0 0.40716605829359193 0.1120264799895512 0 0.38876177119367089 0.116972809820693 0 0.40716605829359193 0.1120264799895512 0 0.38808178026068268 0.10392801007035141 0 0.38876177119367089 0.116972809820693 0 0.40716605829359193 0.1120264799895512 0 0.39656535672550852 0.092974877928873267 0 0.38808178026068268 0.10392801007035141 0 0.39895333728429933 0.027539300906755181 0 0.38848936808377088 0.020562943807347231 0 0.4122691541308795 0.010257189796790951 0 0.39895333728429933 0.027539300906755181 0 0.38848936808377088 0.020562943807347231 0 0.38747348007354487 0.029444157512556919 0 0.39212595536292472 0.0047271407553128551 0 0.4122691541308795 0.010257189796790951 0 0.40542454288086849 -0.004070234290400764 0 0.38848936808377088 0.020562943807347231 0 0.4122691541308795 0.010257189796790951 0 0.39212595536292472 0.0047271407553128551 0 0.38848936808377088 0.020562943807347231 0 0.4122691541308795 0.010257189796790951 0 0.39212595536292472 0.0047271407553128551 0 0.38120377069012762 0.010554394007073271 0 0.36845156083710567 -0.0060515153414843056 0 0.36934971840039982 0.01412264887454192 0 0.38120377069012762 0.010554394007073271 0 0.38848936808377088 0.020562943807347231 0 0.39212595536292472 0.0047271407553128551 0 0.38120377069012762 0.010554394007073271 0 0.38848936808377088 0.020562943807347231 0 0.39212595536292472 0.0047271407553128551 0 0.38848936808377088 0.020562943807347231 0 0.38848936808377088 0.020562943807347231 0 0.38747348007354487 0.029444157512556919 0 0.38366251926208489 0.041581833616573027 0 0.38848936808377088 0.020562943807347231 0 0.38366251926208489 0.041581833616573027 0 0.36096242836060388 0.032492650360987897 0 0.38848936808377088 0.020562943807347231 0 0.38366251926208489 0.041581833616573027 0 0.37883567044039879 0.062600723425798879 0 0.38366251926208489 0.041581833616573027 0 0.3909554563133032 0.056876008487314757 0 0.37883567044039879 0.062600723425798879 0 0.38366251926208489 0.041581833616573027 0 0.36884998715724038 0.048654936693666287 0 0.37883567044039879 0.062600723425798879 0 0.38366251926208489 0.041581833616573027 0 0.38366251926208489 0.041581833616573027 0 0.40351412168750378 0.051507576129315842 0 0.3909554563133032 0.056876008487314757 0 0.39780951386322527 0.071813900777571313 0 0.40351412168750378 0.051507576129315842 0 0.3909554563133032 0.056876008487314757 0 0.38747348007354487 0.029444157512556919 0 0.40351412168750378 0.051507576129315842 0 0.39895333728429933 0.027539300906755181 0 0.40351412168750378 0.051507576129315842 0 0.40867742594100492 0.02913313449165824 0 0.39895333728429933 0.027539300906755181 0 0.38747348007354487 0.029444157512556919 0 0.40351412168750378 0.051507576129315842 0 0.38747348007354487 0.029444157512556919 0 0.38366251926208489 0.041581833616573027 0 0.40351412168750378 0.051507576129315842 0 0.40351412168750378 0.051507576129315842 0 0.41712069737947322 0.039684074088297272 0 0.40867742594100492 0.02913313449165824 0 0.41712069737947322 0.039684074088297272 0 0.42900932251716922 0.027181299207052031 0 0.40867742594100492 0.02913313449165824 0 0.40351412168750378 0.051507576129315842 0 0.41712069737947322 0.039684074088297272 0 0.42728191937221521 0.050914286525162993 0 0.4195547633014628 0.073570994746074828 0 0.40351412168750378 0.051507576129315842 0 0.42728191937221521 0.050914286525162993 0 0.41712069737947322 0.039684074088297272 0 0.42728191937221521 0.050914286525162993 0 0.42900932251716922 0.027181299207052031 0 0.42728191937221521 0.050914286525162993 0 0.42900932251716922 0.027181299207052031 0 0.45357816737839107 0.043281393992262968 0 0.42900932251716922 0.027181299207052031 0 0.40867742594100492 0.02913313449165824 0 0.4122691541308795 0.010257189796790951 0 0.39895333728429933 0.027539300906755181 0 0.40867742594100492 0.02913313449165824 0 0.4122691541308795 0.010257189796790951 0 0.4122691541308795 0.010257189796790951 0 0.42733427856619571 -0.0085863840744332814 0 0.43604894017798812 -4.8564213765240817e-05 0 0.42900932251716922 0.027181299207052031 0 0.4122691541308795 0.010257189796790951 0 0.43604894017798812 -4.8564213765240817e-05 0 0.4122691541308795 0.010257189796790951 0 0.43604894017798812 -4.8564213765240817e-05 0 0.45021491583924189 0.016350560368503721 0 0.45982872622509668 -0.01035431822432146 0 0.43604894017798812 -4.8564213765240817e-05 0 0.42900932251716922 0.027181299207052031 0 0.45021491583924189 0.016350560368503721 0 0.43604894017798812 -4.8564213765240817e-05 0 0.42900932251716922 0.027181299207052031 0 0.45021491583924189 0.016350560368503721 0 0.45357816737839107 0.043281393992262968 0 0.45021491583924189 0.016350560368503721 0 0.45357816737839107 0.043281393992262968 0 0.47265027193171238 0.017829323700243871 0 0.45021491583924189 0.016350560368503721 0 0.47265027193171238 0.017829323700243871 0 0.45982872622509668 -0.01035431822432146 0 0.45357816737839107 0.043281393992262968 0 0.47969083044660421 0.050503904472553283 0 0.47265027193171238 0.017829323700243871 0 0.44319262383460789 0.070531660330671375 0 0.42728191937221521 0.050914286525162993 0 0.45357816737839107 0.043281393992262968 0 0.46599422920766509 0.071585542922595516 0 0.44319262383460789 0.070531660330671375 0 0.45357816737839107 0.043281393992262968 0 0.46599422920766509 0.071585542922595516 0 0.45357816737839107 0.043281393992262968 0 0.47969083044660421 0.050503904472553283 0 0.47969083044660421 0.050503904472553283 0 0.5 0.033664617902273368 0 0.47265027193171238 0.017829323700243871 0 0.48592231416185638 0.0752646054103117 0 0.47969083044660421 0.050503904472553283 0 0.5 0.06139794290763223 0 0.47969083044660421 0.050503904472553283 0 0.5 0.033664617902273368 0 0.5 0.06139794290763223 0 0.5 0.033664617902273368 0 0.47265027193171238 0.017829323700243871 0 0.5 0.0059312928969145204 0 0.47265027193171238 0.017829323700243871 0 0.5 0.0059312928969145204 0 0.48261795830076532 -0.0084137270416950408 0 0.5 0.0059312928969145204 0 0.48261795830076532 -0.0084137270416950408 0 0.5 -0.021802032108444391 0 0.47265027193171238 0.017829323700243871 0 0.48261795830076532 -0.0084137270416950408 0 0.45982872622509668 -0.01035431822432146 0 0.48261795830076532 -0.0084137270416950408 0 0.48385521188952352 -0.03103713942335571 0 0.45982872622509668 -0.01035431822432146 0 0.48385521188952352 -0.03103713942335571 0 0.46768790053651399 -0.040232759786602873 0 0.45982872622509668 -0.01035431822432146 0 0.48261795830076532 -0.0084137270416950408 0 0.48385521188952352 -0.03103713942335571 0 0.5 -0.021802032108444391 0 0.48385521188952352 -0.03103713942335571 0 0.49518245524492172 -0.045789595090724652 0 0.49482530481253351 -0.04804557135493729 0 0.5 -0.021802032108444391 0 0.49518245524492172 -0.045789595090724652 0 0.49999999999998263 -0.049535357113803247 0 0.48385521188952352 -0.03103713942335571 0 0.5 -0.021802032108444391 0 0.49518245524492172 -0.045789595090724652 0 0.49482530481253351 -0.04804557135493729 0 0.47636674367150789 -0.060588545727567042 0 0.49016972248203172 -0.07745302065780417 0 0.49999999999998263 -0.049535357113803247 0 0.49482530481253351 -0.04804557135493729 0 0.49016972248203172 -0.07745302065780417 0 0.49999999999998263 -0.049535357113803247 0 0.49482530481253351 -0.04804557135493729 0 0.49518245524492172 -0.045789595090724652 0 0.49999999999998263 -0.049535357113803247 0 0.49482530481253351 -0.04804557135493729 0 0.49518245524492172 -0.045789595090724652 0 0.49482530481253351 -0.04804557135493729 0 0.49482530481253351 -0.04804557135493729 0 0.47636674367150789 -0.060588545727567042 0 0.46768790053651399 -0.040232759786602873 0 0.49482530481253351 -0.04804557135493729 0 0.46768790053651399 -0.040232759786602873 0 0.48385521188952352 -0.03103713942335571 0 0.49482530481253351 -0.04804557135493729 0 0.46768790053651399 -0.040232759786602873 0 0.46768790053651399 -0.040232759786602873 0 0.44055049626049481 -0.03241994821826754 0 0.47636674367150789 -0.060588545727567042 0 0.46768790053651399 -0.040232759786602873 0 0.44971823816913109 -0.058611894661768998 0 0.46768790053651399 -0.040232759786602873 0 0.44971823816913109 -0.058611894661768998 0 0.44055049626049481 -0.03241994821826754 0 0.44971823816913109 -0.058611894661768998 0 0.44055049626049481 -0.03241994821826754 0 0.42776585910878662 -0.047462582859365887 0 0.44055049626049481 -0.03241994821826754 0 0.43862233638968018 -0.01433991032473066 0 0.45982872622509668 -0.01035431822432146 0 0.45982872622509668 -0.01035431822432146 0 0.43604894017798812 -4.8564213765240817e-05 0 0.43862233638968018 -0.01433991032473066 0 0.45982872622509668 -0.01035431822432146 0 0.43604894017798812 -4.8564213765240817e-05 0 0.46768790053651399 -0.040232759786602873 0 0.44055049626049481 -0.03241994821826754 0 0.45982872622509668 -0.01035431822432146 0 0.47499259514944292 -0.1202547269832886 0 0.48551414015152222 -0.10686046996066979 0 0.48085855782101261 -0.13626791926353529 0 0.47418157221881441 -0.11112465676427991 0 0.47528951870947961 -0.09927779745641295 0 0.46093003486481321 -0.11810563265674839 0 0.48551414015152222 -0.10686046996066979 0 0.48085855782101261 -0.13626791926353529 0 0.47499259514944292 -0.1202547269832886 0 0.46093003486481321 -0.11810563265674839 0 0.47239045088042492 -0.13005034139104371 0 0.47499259514944292 -0.1202547269832886 0 0.47418157221881441 -0.11112465676427991 0 0.46093003486481321 -0.11810563265674839 0 0.47499259514944292 -0.1202547269832886 0 0.47418157221881441 -0.11112465676427991 0 0.48551414015152222 -0.10686046996066979 0 0.48986304781109291 -0.1242692167884092 0 0.49384429699065369 -0.1173080088948287 0 0.48551414015152222 -0.10686046996066979 0 0.48986304781109291 -0.1242692167884092 0 0.48551414015152222 -0.10686046996066979 0 0.48085855782101261 -0.13626791926353529 0 0.49384429699065369 -0.1173080088948287 0 0.5 -0.1051480109548549 0 0.5 -0.13295433787538069 0 0.48986304781109291 -0.1242692167884092 0 0.49384429699065369 -0.1173080088948287 0 0.5 -0.13295433787538069 0 0.49384429699065369 -0.1173080088948287 0 0.48551414015152222 -0.10686046996066979 0 0.5 -0.1051480109548549 0 0.48551414015152222 -0.10686046996066979 0 0.5 -0.1051480109548549 0 0.49016972248203172 -0.07745302065780417 0 0.48551414015152222 -0.10686046996066979 0 0.47528951870947961 -0.09927779745641295 0 0.4786949329242487 -0.090297096352784045 0 0.47418157221881441 -0.11112465676427991 0 0.48551414015152222 -0.10686046996066979 0 0.47528951870947961 -0.09927779745641295 0 0.47494193394216588 -0.078729965701305249 0 0.4786949329242487 -0.090297096352784045 0 0.46755934933604398 -0.089164227987728051 0 0.47528951870947961 -0.09927779745641295 0 0.4786949329242487 -0.090297096352784045 0 0.46755934933604398 -0.089164227987728051 0 0.47494193394216588 -0.078729965701305249 0 0.4786949329242487 -0.090297096352784045 0 0.49016972248203172 -0.07745302065780417 0 0.48551414015152222 -0.10686046996066979 0 0.49016972248203172 -0.07745302065780417 0 0.5 -0.1051480109548549 0 0.49016972248203172 -0.07745302065780417 0 0.5 -0.077341684034329061 0 0.48551414015152222 -0.10686046996066979 0 0.4786949329242487 -0.090297096352784045 0 0.49016972248203172 -0.07745302065780417 0 0.49999999999998263 -0.049535357113803247 0 0.49016972248203172 -0.07745302065780417 0 0.5 -0.077341684034329061 0 0.49482530481253351 -0.04804557135493729 0 0.49016972248203172 -0.07745302065780417 0 0.47636674367150789 -0.060588545727567042 0 0.47494193394216588 -0.078729965701305249 0 0.49016972248203172 -0.07745302065780417 0 0.47636674367150789 -0.060588545727567042 0 0.47494193394216588 -0.078729965701305249 0 0.4592808493329405 -0.078369632624057675 0 0.47636674367150789 -0.060588545727567042 0 0.44971823816913109 -0.058611894661768998 0 0.4592808493329405 -0.078369632624057675 0 0.47636674367150789 -0.060588545727567042 0 0.4592808493329405 -0.078369632624057675 0 0.44971823816913109 -0.058611894661768998 0 0.44126951216661869 -0.079236189142810429 0 0.42731029070553322 -0.068277018127587574 0 0.44971823816913109 -0.058611894661768998 0 0.44126951216661869 -0.079236189142810429 0 0.4592808493329405 -0.078369632624057675 0 0.4592808493329405 -0.078369632624057675 0 0.44219495499437311 -0.096150719520548239 0 0.44126951216661869 -0.079236189142810429 0 0.4592808493329405 -0.078369632624057675 0 0.44219495499437311 -0.096150719520548239 0 0.47494193394216588 -0.078729965701305249 0 0.4592808493329405 -0.078369632624057675 0 0.46755934933604398 -0.089164227987728051 0 0.4592808493329405 -0.078369632624057675 0 0.46755934933604398 -0.089164227987728051 0 0.44219495499437311 -0.096150719520548239 0 0.46755934933604398 -0.089164227987728051 0 0.46093003486481321 -0.11810563265674839 0 0.46755934933604398 -0.089164227987728051 0 0.44219495499437311 -0.096150719520548239 0 0.46093003486481321 -0.11810563265674839 0 0.47528951870947961 -0.09927779745641295 0 0.46755934933604398 -0.089164227987728051 0 0.46093003486481321 -0.11810563265674839 0 0.441730170532879 -0.1159420230490274 0 0.46093003486481321 -0.11810563265674839 0 0.44582693855797939 -0.1311402400572215 0 0.44219495499437311 -0.096150719520548239 0 0.441730170532879 -0.1159420230490274 0 0.46093003486481321 -0.11810563265674839 0 0.42510906065580589 -0.11393180641703871 0 0.40802316631723889 -0.13171289331352951 0 0.40725115801851319 -0.1169919833964142 0 0.42510906065580589 -0.11393180641703871 0 0.40802316631723889 -0.13171289331352951 0 0.40725115801851319 -0.1169919833964142 0 0.42510906065580589 -0.11393180641703871 0 0.4147200547274239 -0.1079547067436207 0 0.40725115801851319 -0.1169919833964142 0 0.4147200547274239 -0.1079547067436207 0 0.40692444267373179 -0.1088204768843429 0 0.441730170532879 -0.1159420230490274 0 0.42510906065580589 -0.11393180641703871 0 0.43087782981676859 -0.131879285754128 0 0.44219495499437311 -0.096150719520548239 0 0.42510906065580589 -0.11393180641703871 0 0.44219495499437311 -0.096150719520548239 0 0.441730170532879 -0.1159420230490274 0 0.42510906065580589 -0.11393180641703871 0 0.44219495499437311 -0.096150719520548239 0 0.42510906065580589 -0.11393180641703871 0 0.4234909377050316 -0.092737982748798881 0 0.42510906065580589 -0.11393180641703871 0 0.4147200547274239 -0.1079547067436207 0 0.4234909377050316 -0.092737982748798881 0 0.4147200547274239 -0.1079547067436207 0 0.40904120664506322 -0.09935874077938342 0 0.4234909377050316 -0.092737982748798881 0 0.4147200547274239 -0.1079547067436207 0 0.40692444267373179 -0.1088204768843429 0 0.40904120664506322 -0.09935874077938342 0 0.40904120664506322 -0.09935874077938342 0 0.4234909377050316 -0.092737982748798881 0 0.40226126486411301 -0.082186696628613137 0 0.4234909377050316 -0.092737982748798881 0 0.42731029070553322 -0.068277018127587574 0 0.40226126486411301 -0.082186696628613137 0 0.44126951216661869 -0.079236189142810429 0 0.4234909377050316 -0.092737982748798881 0 0.42731029070553322 -0.068277018127587574 0 0.44126951216661869 -0.079236189142810429 0 0.44219495499437311 -0.096150719520548239 0 0.4234909377050316 -0.092737982748798881 0 0.42731029070553322 -0.068277018127587574 0 0.40226126486411301 -0.082186696628613137 0 0.40783717842429862 -0.053396916639273179 0 0.40226126486411301 -0.082186696628613137 0 0.40783717842429862 -0.053396916639273179 0 0.38429333219820472 -0.067131704106828338 0 0.40226126486411301 -0.082186696628613137 0 0.40783717842429862 -0.053396916639273179 0 0.38429333219820472 -0.067131704106828338 0 0.38199460798391838 -0.085246791459625215 0 0.40226126486411301 -0.082186696628613137 0 0.38199460798391838 -0.085246791459625215 0 0.40226126486411301 -0.082186696628613137 0 0.39106825526090561 -0.1007030293946076 0 0.40226126486411301 -0.082186696628613137 0 0.39106825526090561 -0.1007030293946076 0 0.39668535130392929 -0.1109764766179535 0 0.40904120664506322 -0.09935874077938342 0 0.40226126486411301 -0.082186696628613137 0 0.39668535130392929 -0.1109764766179535 0 0.40226126486411301 -0.082186696628613137 0 0.39668535130392929 -0.1109764766179535 0 0.40692444267373179 -0.1088204768843429 0 0.40904120664506322 -0.09935874077938342 0 0.39668535130392929 -0.1109764766179535 0 0.39106825526090561 -0.1007030293946076 0 0.39668535130392929 -0.1109764766179535 0 0.39106825526090561 -0.1007030293946076 0 0.3799934613124491 -0.1141351934829782 0 0.39668535130392929 -0.1109764766179535 0 0.38199460798391838 -0.085246791459625215 0 0.39106825526090561 -0.1007030293946076 0 0.37706007999693841 -0.1011775095245466 0 0.39106825526090561 -0.1007030293946076 0 0.37706007999693841 -0.1011775095245466 0 0.3799934613124491 -0.1141351934829782 0 0.3799934613124491 -0.1141351934829782 0 0.39668535130392929 -0.1109764766179535 0 0.3932705088567644 -0.1286081277708763 0 0.3799934613124491 -0.1141351934829782 0 0.37104303648388809 -0.1272612894930944 0 0.3932705088567644 -0.1286081277708763 0 0.40224748518751269 -0.1211494002184121 0 0.3932705088567644 -0.1286081277708763 0 0.39668535130392929 -0.1109764766179535 0 0.3932705088567644 -0.1286081277708763 0 0.39668535130392929 -0.1109764766179535 0 0.40224748518751269 -0.1211494002184121 0 0.3932705088567644 -0.1286081277708763 0 0.40725115801851319 -0.1169919833964142 0 0.39668535130392929 -0.1109764766179535 0 0.40224748518751269 -0.1211494002184121 0 0.39668535130392929 -0.1109764766179535 0 0.40224748518751269 -0.1211494002184121 0 0.40725115801851319 -0.1169919833964142 0 0.40692444267373179 -0.1088204768843429 0 0.39668535130392929 -0.1109764766179535 0 0.40725115801851319 -0.1169919833964142 0 0.40224748518751269 -0.1211494002184121 0 0.40725115801851319 -0.1169919833964142 0 0.40224748518751269 -0.1211494002184121 0 0.40802316631723889 -0.13171289331352951 0 0.42156842614681772 -0.015954947998216139 0 0.41341309198447568 -0.024607136649931451 0 0.42934924071862562 -0.02029033689286578 0 0.41341309198447568 -0.024607136649931451 0 0.41617709331797431 -0.010335934375633319 0 0.42156842614681772 -0.015954947998216139 0 0.41341309198447568 -0.024607136649931451 0 0.41617709331797431 -0.010335934375633319 0 0.41341309198447568 -0.024607136649931451 0 0.40231254689356027 -0.037392070823486202 0 0.40309603266908228 -0.02802239201193971 0 0.41341309198447568 -0.024607136649931451 0 0.41078796895048542 -0.01389090533175278 0 0.39783226839882679 -0.020121444594939791 0 0.41341309198447568 -0.024607136649931451 0 0.41078796895048542 -0.01389090533175278 0 0.41617709331797431 -0.010335934375633319 0 0.41078796895048542 -0.01389090533175278 0 0.41617709331797431 -0.010335934375633319 0 0.40542454288086849 -0.004070234290400764 0 0.4122691541308795 0.010257189796790951 0 0.41617709331797431 -0.010335934375633319 0 0.40542454288086849 -0.004070234290400764 0 0.4122691541308795 0.010257189796790951 0 0.41617709331797431 -0.010335934375633319 0 0.42733427856619571 -0.0085863840744332814 0 0.42156842614681772 -0.015954947998216139 0 0.41617709331797431 -0.010335934375633319 0 0.42733427856619571 -0.0085863840744332814 0 0.42156842614681772 -0.015954947998216139 0 0.42733427856619571 -0.0085863840744332814 0 0.42934924071862562 -0.02029033689286578 0 0.43862233638968018 -0.01433991032473066 0 0.42733427856619571 -0.0085863840744332814 0 0.43604894017798812 -4.8564213765240817e-05 0 0.43862233638968018 -0.01433991032473066 0 0.42733427856619571 -0.0085863840744332814 0 0.42934924071862562 -0.02029033689286578 0 0.44055049626049481 -0.03241994821826754 0 0.43862233638968018 -0.01433991032473066 0 0.42934924071862562 -0.02029033689286578 0 0.44055049626049481 -0.03241994821826754 0 0.41341309198447568 -0.024607136649931451 0 0.42934924071862562 -0.02029033689286578 0 0.44055049626049481 -0.03241994821826754 0 0.41341309198447568 -0.024607136649931451 0 0.44055049626049481 -0.03241994821826754 0 0.41341309198447568 -0.024607136649931451 0 0.42776585910878662 -0.047462582859365887 0 0.44971823816913109 -0.058611894661768998 0 0.42731029070553322 -0.068277018127587574 0 0.42776585910878662 -0.047462582859365887 0 0.42731029070553322 -0.068277018127587574 0 0.42776585910878662 -0.047462582859365887 0 0.40783717842429862 -0.053396916639273179 0 0.41341309198447568 -0.024607136649931451 0 0.42776585910878662 -0.047462582859365887 0 0.40783717842429862 -0.053396916639273179 0 0.41341309198447568 -0.024607136649931451 0 0.40783717842429862 -0.053396916639273179 0 0.40231254689356027 -0.037392070823486202 0 0.41341309198447568 -0.024607136649931451 0 0.40783717842429862 -0.053396916639273179 0 0.40231254689356027 -0.037392070823486202 0 0.3981973431289102 -0.028872790202489229 0 0.40309603266908228 -0.02802239201193971 0 0.40231254689356027 -0.037392070823486202 0 0.38732801778773829 -0.04651698367670077 0 0.38934459454031273 -0.029067224222560958 0 0.40783717842429862 -0.053396916639273179 0 0.40231254689356027 -0.037392070823486202 0 0.38732801778773829 -0.04651698367670077 0 0.40231254689356027 -0.037392070823486202 0 0.38934459454031273 -0.029067224222560958 0 0.3981973431289102 -0.028872790202489229 0 0.38429333219820472 -0.067131704106828338 0 0.40783717842429862 -0.053396916639273179 0 0.38732801778773829 -0.04651698367670077 0 0.38429333219820472 -0.067131704106828338 0 0.38732801778773829 -0.04651698367670077 0 0.37042415964797237 -0.053058901563766692 0 0.38732801778773829 -0.04651698367670077 0 0.37068698927403948 -0.035605583580554698 0 0.37042415964797237 -0.053058901563766692 0 0.38732801778773829 -0.04651698367670077 0 0.38934459454031273 -0.029067224222560958 0 0.37068698927403948 -0.035605583580554698 0 0.38934459454031273 -0.029067224222560958 0 0.36983137800827248 -0.01206003687362641 0 0.37068698927403948 -0.035605583580554698 0 0.38934459454031273 -0.029067224222560958 0 0.39783226839882679 -0.020121444594939791 0 0.36983137800827248 -0.01206003687362641 0 0.39783226839882679 -0.020121444594939791 0 0.36983137800827248 -0.01206003687362641 0 0.38934459454031273 -0.029067224222560958 0 0.3981973431289102 -0.028872790202489229 0 0.39783226839882679 -0.020121444594939791 0 0.41341309198447568 -0.024607136649931451 0 0.39783226839882679 -0.020121444594939791 0 0.41341309198447568 -0.024607136649931451 0 0.39783226839882679 -0.020121444594939791 0 0.40309603266908228 -0.02802239201193971 0 0.3981973431289102 -0.028872790202489229 0 0.39783226839882679 -0.020121444594939791 0 0.40309603266908228 -0.02802239201193971 0 0.39212595536292472 0.0047271407553128551 0 0.39576254264207811 -0.011108662296721609 0 0.39212595536292472 0.0047271407553128551 0 0.40542454288086849 -0.004070234290400764 0 0.39576254264207811 -0.011108662296721609 0 0.41078796895048542 -0.01389090533175278 0 0.39783226839882679 -0.020121444594939791 0 0.39576254264207811 -0.011108662296721609 0 0.41078796895048542 -0.01389090533175278 0 0.39576254264207811 -0.011108662296721609 0 0.41078796895048542 -0.01389090533175278 0 0.40542454288086849 -0.004070234290400764 0 0.39576254264207811 -0.011108662296721609 0 0.39783226839882679 -0.020121444594939791 0 0.39576254264207811 -0.011108662296721609 0 0.39576254264207811 -0.011108662296721609 0 0.36983137800827248 -0.01206003687362641 0 0.36845156083710567 -0.0060515153414843056 0 0.39576254264207811 -0.011108662296721609 0 0.36845156083710567 -0.0060515153414843056 0 0.39212595536292472 0.0047271407553128551 0 0.39576254264207811 -0.011108662296721609 0 0.36845156083710567 -0.0060515153414843056 0 0.39783226839882679 -0.020121444594939791 0 0.39576254264207811 -0.011108662296721609 0 0.36983137800827248 -0.01206003687362641 0 0.36983137800827248 -0.01206003687362641 0 0.36845156083710567 -0.0060515153414843056 0 0.34183048761771712 -0.0039986291523161147 0 0.36983137800827248 -0.01206003687362641 0 0.35223914962217417 -0.02278106829858554 0 0.37068698927403948 -0.035605583580554698 0 0.36983137800827248 -0.01206003687362641 0 0.35223914962217417 -0.02278106829858554 0 0.34183048761771712 -0.0039986291523161147 0 0.36983137800827248 -0.01206003687362641 0 0.34183048761771712 -0.0039986291523161147 0 0.36845156083710567 -0.0060515153414843056 0 0.34114057903213352 -0.00099436838624600288 0 0.36845156083710567 -0.0060515153414843056 0 0.34183048761771712 -0.0039986291523161147 0 0.34114057903213352 -0.00099436838624600288 0 0.35223914962217417 -0.02278106829858554 0 0.34183048761771712 -0.0039986291523161147 0 0.33977780877024261 -0.017668132193127541 0 0.31382959722716158 0.0040627785689932028 0 0.34183048761771712 -0.0039986291523161147 0 0.34114057903213352 -0.00099436838624600288 0 0.34183048761771712 -0.0039986291523161147 0 0.33574973546384762 -0.01167659105592548 0 0.32194573769061952 -0.0077676308935595512 0 0.34183048761771712 -0.0039986291523161147 0 0.33574973546384762 -0.01167659105592548 0 0.33977780877024261 -0.017668132193127541 0 0.35223914962217417 -0.02278106829858554 0 0.33977780877024261 -0.017668132193127541 0 0.33879793226643329 -0.029417681387060649 0 0.33574973546384762 -0.01167659105592548 0 0.3302717388810405 -0.020466691071749941 0 0.3196214637881436 -0.021924893160697439 0 0.33977780877024261 -0.017668132193127541 0 0.33879793226643329 -0.029417681387060649 0 0.3302717388810405 -0.020466691071749941 0 0.33879793226643329 -0.029417681387060649 0 0.32862271298124018 -0.028919582591936679 0 0.3302717388810405 -0.020466691071749941 0 0.33574973546384762 -0.01167659105592548 0 0.33977780877024261 -0.017668132193127541 0 0.3302717388810405 -0.020466691071749941 0 0.3302717388810405 -0.020466691071749941 0 0.32526768976560849 -0.02407540610795475 0 0.3196214637881436 -0.021924893160697439 0 0.33574973546384762 -0.01167659105592548 0 0.3196214637881436 -0.021924893160697439 0 0.32862271298124018 -0.028919582591936679 0 0.3302717388810405 -0.020466691071749941 0 0.32526768976560849 -0.02407540610795475 0 0.32862271298124018 -0.028919582591936679 0 0.32095671603858011 -0.024994897592425049 0 0.3231679364015333 -0.033306441836977792 0 0.32862271298124018 -0.028919582591936679 0 0.32526768976560849 -0.02407540610795475 0 0.32095671603858011 -0.024994897592425049 0 0.32526768976560849 -0.02407540610795475 0 0.32095671603858011 -0.024994897592425049 0 0.3196214637881436 -0.021924893160697439 0 0.32095671603858011 -0.024994897592425049 0 0.3196214637881436 -0.021924893160697439 0 0.31660160940309118 -0.035871797032442469 0 0.32095671603858011 -0.024994897592425049 0 0.3196214637881436 -0.021924893160697439 0 0.33574973546384762 -0.01167659105592548 0 0.3196214637881436 -0.021924893160697439 0 0.32194573769061952 -0.0077676308935595512 0 0.30752965714041391 0.0058765203804442539 0 0.3196214637881436 -0.021924893160697439 0 0.32194573769061952 -0.0077676308935595512 0 0.31382959722716158 0.0040627785689932028 0 0.34183048761771712 -0.0039986291523161147 0 0.32194573769061952 -0.0077676308935595512 0 0.30752965714041391 0.0058765203804442539 0 0.3196214637881436 -0.021924893160697439 0 0.31292981148517318 -0.054457989835630861 0 0.33951515654934239 -0.057829064589421393 0 0.331762206516936 -0.074199649102278678 0 0.31292981148517318 -0.054457989835630861 0 0.32943454752299528 -0.042779626289088678 0 0.31292981148517318 -0.054457989835630861 0 0.32943454752299528 -0.042779626289088678 0 0.33951515654934239 -0.057829064589421393 0 0.31292981148517318 -0.054457989835630861 0 0.31660160940309118 -0.035871797032442469 0 0.32943454752299528 -0.042779626289088678 0 0.32095671603858011 -0.024994897592425049 0 0.31660160940309118 -0.035871797032442469 0 0.3231679364015333 -0.033306441836977792 0 0.32862271298124018 -0.028919582591936679 0 0.3231679364015333 -0.033306441836977792 0 0.32943454752299528 -0.042779626289088678 0 0.31660160940309118 -0.035871797032442469 0 0.3231679364015333 -0.033306441836977792 0 0.32943454752299528 -0.042779626289088678 0 0.33879793226643329 -0.029417681387060649 0 0.32943454752299528 -0.042779626289088678 0 0.35178468962230941 -0.045374559850196158 0 0.33879793226643329 -0.029417681387060649 0 0.32862271298124018 -0.028919582591936679 0 0.32943454752299528 -0.042779626289088678 0 0.32943454752299528 -0.042779626289088678 0 0.33951515654934239 -0.057829064589421393 0 0.35178468962230941 -0.045374559850196158 0 0.33951515654934239 -0.057829064589421393 0 0.35178468962230941 -0.045374559850196158 0 0.35802776935757019 -0.070665676604553529 0 0.35223914962217417 -0.02278106829858554 0 0.35178468962230941 -0.045374559850196158 0 0.37068698927403948 -0.035605583580554698 0 0.35223914962217417 -0.02278106829858554 0 0.33879793226643329 -0.029417681387060649 0 0.35178468962230941 -0.045374559850196158 0 0.35178468962230941 -0.045374559850196158 0 0.37068698927403948 -0.035605583580554698 0 0.37042415964797237 -0.053058901563766692 0 0.35178468962230941 -0.045374559850196158 0 0.37042415964797237 -0.053058901563766692 0 0.35802776935757019 -0.070665676604553529 0 0.38429333219820472 -0.067131704106828338 0 0.38199460798391838 -0.085246791459625215 0 0.35802776935757019 -0.070665676604553529 0 0.38429333219820472 -0.067131704106828338 0 0.37042415964797237 -0.053058901563766692 0 0.35802776935757019 -0.070665676604553529 0 0.38429333219820472 -0.067131704106828338 0 0.35802776935757019 -0.070665676604553529 0 0.38199460798391838 -0.085246791459625215 0 0.36577500316168848 -0.093055365242956031 0 0.35802776935757019 -0.070665676604553529 0 0.38199460798391838 -0.085246791459625215 0 0.37706007999693841 -0.1011775095245466 0 0.36577500316168848 -0.093055365242956031 0 0.35802776935757019 -0.070665676604553529 0 0.34487393367809682 -0.095216741312257352 0 0.331762206516936 -0.074199649102278678 0 0.36577500316168848 -0.093055365242956031 0 0.35802776935757019 -0.070665676604553529 0 0.34487393367809682 -0.095216741312257352 0 0.35802776935757019 -0.070665676604553529 0 0.331762206516936 -0.074199649102278678 0 0.3799934613124491 -0.1141351934829782 0 0.36192545204167298 -0.11208328153174781 0 0.37104303648388809 -0.1272612894930944 0 0.36192545204167298 -0.11208328153174781 0 0.35551888896884759 -0.1297027680154724 0 0.37104303648388809 -0.1272612894930944 0 0.37706007999693841 -0.1011775095245466 0 0.3799934613124491 -0.1141351934829782 0 0.36192545204167298 -0.11208328153174781 0 0.37706007999693841 -0.1011775095245466 0 0.36577500316168848 -0.093055365242956031 0 0.36192545204167298 -0.11208328153174781 0 0.36192545204167298 -0.11208328153174781 0 0.34487393367809682 -0.095216741312257352 0 0.34014121552940491 -0.1203166258242544 0 0.36577500316168848 -0.093055365242956031 0 0.36192545204167298 -0.11208328153174781 0 0.34487393367809682 -0.095216741312257352 0 0.36192545204167298 -0.11208328153174781 0 0.34014121552940491 -0.1203166258242544 0 0.35551888896884759 -0.1297027680154724 0 0.34014121552940491 -0.1203166258242544 0 0.32517348349888747 -0.118580130041643 0 0.32373683991627678 -0.1342707635111336 0 0.34014121552940491 -0.1203166258242544 0 0.32895182275083351 -0.1060869523066566 0 0.32517348349888747 -0.118580130041643 0 0.34487393367809682 -0.095216741312257352 0 0.34014121552940491 -0.1203166258242544 0 0.32895182275083351 -0.1060869523066566 0 0.34487393367809682 -0.095216741312257352 0 0.32895182275083351 -0.1060869523066566 0 0.32681031061177879 -0.089772122834636051 0 0.32895182275083351 -0.1060869523066566 0 0.31743464692623941 -0.099981704590172707 0 0.32681031061177879 -0.089772122834636051 0 0.31743464692623941 -0.099981704590172707 0 0.31638799147784608 -0.1118713826410174 0 0.30885616350321549 -0.1072846913931271 0 0.32895182275083351 -0.1060869523066566 0 0.31743464692623941 -0.099981704590172707 0 0.31638799147784608 -0.1118713826410174 0 0.32895182275083351 -0.1060869523066566 0 0.31638799147784608 -0.1118713826410174 0 0.32517348349888747 -0.118580130041643 0 0.31638799147784608 -0.1118713826410174 0 0.31399575267335023 -0.12250180558336519 0 0.30853123694459123 -0.1170064061326217 0 0.31638799147784608 -0.1118713826410174 0 0.31399575267335023 -0.12250180558336519 0 0.32517348349888747 -0.118580130041643 0 0.33951515654934239 -0.057829064589421393 0 0.35802776935757019 -0.070665676604553529 0 0.331762206516936 -0.074199649102278678 0 0.34487393367809682 -0.095216741312257352 0 0.331762206516936 -0.074199649102278678 0 0.32681031061177879 -0.089772122834636051 0 0.32681031061177879 -0.089772122834636051 0 0.30549664367630158 -0.077733621600003855 0 0.31220284993755582 -0.090742102146006851 0 0.331762206516936 -0.074199649102278678 0 0.32681031061177879 -0.089772122834636051 0 0.30549664367630158 -0.077733621600003855 0 0.31743464692623941 -0.099981704590172707 0 0.32681031061177879 -0.089772122834636051 0 0.31220284993755582 -0.090742102146006851 0 0.31292981148517318 -0.054457989835630861 0 0.331762206516936 -0.074199649102278678 0 0.30549664367630158 -0.077733621600003855 0 0.331762206516936 -0.074199649102278678 0 0.30549664367630158 -0.077733621600003855 0 0.31292981148517318 -0.054457989835630861 0 0.30549664367630158 -0.077733621600003855 0 0.29642507544735103 -0.06613635338217283 0 0.30549664367630158 -0.077733621600003855 0 0.29743178973804058 -0.092817056036521225 0 0.29642507544735103 -0.06613635338217283 0 0.29743178973804058 -0.092817056036521225 0 0.29642507544735103 -0.06613635338217283 0 0.31220284993755582 -0.090742102146006851 0 0.30524841693787119 -0.089877123387424693 0 0.30586238439958702 -0.098215713767166868 0 0.30549664367630158 -0.077733621600003855 0 0.31220284993755582 -0.090742102146006851 0 0.30524841693787119 -0.089877123387424693 0 0.30524841693787119 -0.089877123387424693 0 0.29743178973804058 -0.092817056036521225 0 0.30586238439958702 -0.098215713767166868 0 0.30549664367630158 -0.077733621600003855 0 0.30524841693787119 -0.089877123387424693 0 0.29743178973804058 -0.092817056036521225 0 0.29430385704143641 -0.093334685648855456 0 0.28333646668855839 -0.1038254721913715 0 0.27844545300264117 -0.078858311907156253 0 0.29743178973804058 -0.092817056036521225 0 0.29430385704143641 -0.093334685648855456 0 0.29347904805936648 -0.068220893163732282 0 0.29430385704143641 -0.093334685648855456 0 0.29347904805936648 -0.068220893163732282 0 0.27844545300264117 -0.078858311907156253 0 0.29430385704143641 -0.093334685648855456 0 0.29347904805936648 -0.068220893163732282 0 0.29743178973804058 -0.092817056036521225 0 0.29642507544735103 -0.06613635338217283 0 0.29347904805936648 -0.068220893163732282 0 0.28521560802072671 -0.062721316040594208 0 0.29347904805936648 -0.068220893163732282 0 0.27844545300264117 -0.078858311907156253 0 0.29347904805936648 -0.068220893163732282 0 0.27844545300264117 -0.078858311907156253 0 0.29642507544735103 -0.06613635338217283 0 0.29347904805936648 -0.068220893163732282 0 0.29301224914481439 -0.054007794946804598 0 0.29642507544735103 -0.06613635338217283 0 0.29347904805936648 -0.068220893163732282 0 0.29743178973804058 -0.092817056036521225 0 0.29843850402873079 -0.11949775869086959 0 0.29512866602350563 -0.1184484781339787 0 0.29843850402873079 -0.11949775869086959 0 0.29512866602350563 -0.1184484781339787 0 0.30010147488007238 -0.1276093355582181 0 0.29843850402873079 -0.11949775869086959 0 0.30554459793957989 -0.1238630007756472 0 0.30853123694459123 -0.1170064061326217 0 0.29843850402873079 -0.11949775869086959 0 0.30554459793957989 -0.1238630007756472 0 0.30010147488007238 -0.1276093355582181 0 0.31399575267335023 -0.12250180558336519 0 0.30554459793957989 -0.1238630007756472 0 0.30853123694459123 -0.1170064061326217 0 0.29843850402873079 -0.11949775869086959 0 0.30853123694459123 -0.1170064061326217 0 0.30885616350321549 -0.1072846913931271 0 0.31638799147784608 -0.1118713826410174 0 0.30853123694459123 -0.1170064061326217 0 0.30885616350321549 -0.1072846913931271 0 0.29843850402873079 -0.11949775869086959 0 0.30885616350321549 -0.1072846913931271 0 0.30586238439958702 -0.098215713767166868 0 0.29743178973804058 -0.092817056036521225 0 0.29843850402873079 -0.11949775869086959 0 0.30586238439958702 -0.098215713767166868 0 0.29743178973804058 -0.092817056036521225 0 0.29843850402873079 -0.11949775869086959 0 0.31743464692623941 -0.099981704590172707 0 0.30885616350321549 -0.1072846913931271 0 0.30586238439958702 -0.098215713767166868 0 0.31743464692623941 -0.099981704590172707 0 0.31220284993755582 -0.090742102146006851 0 0.30586238439958702 -0.098215713767166868 0 0.29430385704143641 -0.093334685648855456 0 0.29512866602350563 -0.1184484781339787 0 0.29430385704143641 -0.093334685648855456 0 0.28333646668855839 -0.1038254721913715 0 0.29512866602350563 -0.1184484781339787 0 0.29743178973804058 -0.092817056036521225 0 0.29430385704143641 -0.093334685648855456 0 0.29512866602350563 -0.1184484781339787 0 0.28333646668855839 -0.1038254721913715 0 0.29512866602350563 -0.1184484781339787 0 0.28822748037447399 -0.12879263247558709 0 0.28333646668855839 -0.1038254721913715 0 0.28822748037447399 -0.12879263247558709 0 0.26621118532108262 -0.1119181791838486 0 0.25741251913389712 -0.1305951081492244 0 0.28822748037447399 -0.12879263247558709 0 0.28333646668855839 -0.1038254721913715 0 0.26621118532108262 -0.1119181791838486 0 0.28822748037447399 -0.12879263247558709 0 0.28333646668855839 -0.1038254721913715 0 0.26621118532108262 -0.1119181791838486 0 0.26565518081306061 -0.08790840808238623 0 0.26621118532108262 -0.1119181791838486 0 0.25154255280112903 -0.1006059983499779 0 0.24954668948061209 -0.11284283178631641 0 0.26621118532108262 -0.1119181791838486 0 0.25154255280112903 -0.1006059983499779 0 0.26565518081306061 -0.08790840808238623 0 0.26621118532108262 -0.1119181791838486 0 0.25741251913389712 -0.1305951081492244 0 0.24954668948061209 -0.11284283178631641 0 0.27844545300264117 -0.078858311907156253 0 0.2741393958395883 -0.056877179510702792 0 0.28007443442101287 -0.061799103716356343 0 0.27844545300264117 -0.078858311907156253 0 0.2741393958395883 -0.056877179510702792 0 0.26628957168076178 -0.070692469674316694 0 0.27844545300264117 -0.078858311907156253 0 0.2741393958395883 -0.056877179510702792 0 0.28521560802072671 -0.062721316040594208 0 0.27844545300264117 -0.078858311907156253 0 0.28007443442101287 -0.061799103716356343 0 0.26628957168076178 -0.070692469674316694 0 0.27844545300264117 -0.078858311907156253 0 0.26565518081306061 -0.08790840808238623 0 0.28333646668855839 -0.1038254721913715 0 0.27844545300264117 -0.078858311907156253 0 0.26565518081306061 -0.08790840808238623 0 0.28333646668855839 -0.1038254721913715 0 0.27844545300264117 -0.078858311907156253 0 0.27844545300264117 -0.078858311907156253 0 0.26565518081306061 -0.08790840808238623 0 0.25154255280112903 -0.1006059983499779 0 0.25664035233608162 -0.078361863555500011 0 0.24390890644978661 -0.075150332687283522 0 0.25154255280112903 -0.1006059983499779 0 0.26565518081306061 -0.08790840808238623 0 0.25664035233608162 -0.078361863555500011 0 0.26628957168076178 -0.070692469674316694 0 0.26565518081306061 -0.08790840808238623 0 0.25664035233608162 -0.078361863555500011 0 0.25664035233608162 -0.078361863555500011 0 0.25256726729664603 -0.064532785491330763 0 0.24390890644978661 -0.075150332687283522 0 0.26628957168076178 -0.070692469674316694 0 0.25256726729664603 -0.064532785491330763 0 0.2741393958395883 -0.056877179510702792 0 0.26628957168076178 -0.070692469674316694 0 0.25664035233608162 -0.078361863555500011 0 0.25256726729664603 -0.064532785491330763 0 0.25256726729664603 -0.064532785491330763 0 0.25164978009717781 -0.053061021673298493 0 0.24617004458672351 -0.058202332164817121 0 0.25256726729664603 -0.064532785491330763 0 0.26131371929964131 -0.050907379716302707 0 0.27395317434556299 -0.0509436520349522 0 0.25256726729664603 -0.064532785491330763 0 0.25164978009717781 -0.053061021673298493 0 0.26131371929964131 -0.050907379716302707 0 0.25256726729664603 -0.064532785491330763 0 0.27395317434556299 -0.0509436520349522 0 0.25164978009717781 -0.053061021673298493 0 0.26131371929964131 -0.050907379716302707 0 0.2539732262079259 -0.044675773385505282 0 0.26131371929964131 -0.050907379716302707 0 0.26227784506780882 -0.045421506107560787 0 0.2539732262079259 -0.044675773385505282 0 0.26131371929964131 -0.050907379716302707 0 0.26742863268251632 -0.045985676557136583 0 0.26227784506780882 -0.045421506107560787 0 0.25256726729664603 -0.064532785491330763 0 0.27395317434556299 -0.0509436520349522 0 0.2741393958395883 -0.056877179510702792 0 0.26131371929964131 -0.050907379716302707 0 0.27395317434556299 -0.0509436520349522 0 0.26742863268251632 -0.045985676557136583 0 0.27395317434556299 -0.0509436520349522 0 0.2741393958395883 -0.056877179510702792 0 0.28351618772518777 -0.053458991616202503 0 0.2741393958395883 -0.056877179510702792 0 0.28007443442101287 -0.061799103716356343 0 0.28351618772518777 -0.053458991616202503 0 0.2807394014679111 -0.038000872253349499 0 0.27361436003936901 -0.034999677146069851 0 0.27240238673917438 -0.042113497984529957 0 0.2807394014679111 -0.038000872253349499 0 0.27361436003936901 -0.034999677146069851 0 0.28248009054126683 -0.027824818882371601 0 0.27395317434556299 -0.0509436520349522 0 0.2807394014679111 -0.038000872253349499 0 0.27240238673917438 -0.042113497984529957 0 0.27395317434556299 -0.0509436520349522 0 0.27240238673917438 -0.042113497984529957 0 0.26742863268251632 -0.045985676557136583 0 0.27361436003936901 -0.034999677146069851 0 0.27240238673917438 -0.042113497984529957 0 0.26639580208115188 -0.040117194771298603 0 0.27240238673917438 -0.042113497984529957 0 0.26742863268251632 -0.045985676557136583 0 0.26639580208115188 -0.040117194771298603 0 0.27361436003936901 -0.034999677146069851 0 0.26639580208115188 -0.040117194771298603 0 0.26859201328057281 -0.027442020841521631 0 0.2539732262079259 -0.044675773385505282 0 0.25845033672230949 -0.02738613623275089 0 0.26859201328057281 -0.027442020841521631 0 0.2539732262079259 -0.044675773385505282 0 0.25845033672230949 -0.02738613623275089 0 0.24422464309495209 -0.046986837608536558 0 0.25845033672230949 -0.02738613623275089 0 0.24422464309495209 -0.046986837608536558 0 0.26639580208115188 -0.040117194771298603 0 0.2539732262079259 -0.044675773385505282 0 0.26859201328057281 -0.027442020841521631 0 0.2539732262079259 -0.044675773385505282 0 0.26859201328057281 -0.027442020841521631 0 0.26639580208115188 -0.040117194771298603 0 0.26227784506780882 -0.045421506107560787 0 0.2539732262079259 -0.044675773385505282 0 0.26742863268251632 -0.045985676557136583 0 0.26639580208115188 -0.040117194771298603 0 0.26227784506780882 -0.045421506107560787 0 0.25013504981522988 -0.025019616072594848 0 0.25845033672230949 -0.02738613623275089 0 0.24524507923365879 -0.0330622213940093 0 0.25845033672230949 -0.02738613623275089 0 0.27267603034966698 -0.0077854348569651906 0 0.25845033672230949 -0.02738613623275089 0 0.25886508985187012 -0.013172853544477199 0 0.27267603034966698 -0.0077854348569651906 0 0.25013504981522988 -0.025019616072594848 0 0.25247407830029878 -0.019873092178793648 0 0.25845033672230949 -0.02738613623275089 0 0.25247407830029878 -0.019873092178793648 0 0.25845033672230949 -0.02738613623275089 0 0.25886508985187012 -0.013172853544477199 0 0.25598072684389089 -0.0058943492075353007 0 0.25006914023697918 -0.01208141302270524 0 0.2479891295484222 -0.0022684572774312019 0 0.25894279220913391 0.003459445712386486 0 0.25598072684389089 -0.0058943492075353007 0 0.2479891295484222 -0.0022684572774312019 0 0.25598072684389089 -0.0058943492075353007 0 0.25006914023697918 -0.01208141302270524 0 0.25886508985187012 -0.013172853544477199 0 0.25247407830029878 -0.019873092178793648 0 0.25006914023697918 -0.01208141302270524 0 0.25886508985187012 -0.013172853544477199 0 0.25886508985187012 -0.013172853544477199 0 0.26317147738524183 -0.0038637327990410169 0 0.27267603034966698 -0.0077854348569651906 0 0.25598072684389089 -0.0058943492075353007 0 0.25886508985187012 -0.013172853544477199 0 0.26317147738524183 -0.0038637327990410169 0 0.25894279220913391 0.003459445712386486 0 0.25598072684389089 -0.0058943492075353007 0 0.26317147738524183 -0.0038637327990410169 0 0.27267603034966698 -0.0077854348569651906 0 0.26859201328057281 -0.027442020841521631 0 0.28321080035321983 -0.010208268297538009 0 0.26939274767164711 0.0040745279013861191 0 0.26317147738524183 -0.0038637327990410169 0 0.27267603034966698 -0.0077854348569651906 0 0.28687677889875068 0.001725005618485562 0 0.27267603034966698 -0.0077854348569651906 0 0.28321080035321983 -0.010208268297538009 0 0.26859201328057281 -0.027442020841521631 0 0.28321080035321983 -0.010208268297538009 0 0.25845033672230949 -0.02738613623275089 0 0.27267603034966698 -0.0077854348569651906 0 0.26859201328057281 -0.027442020841521631 0 0.26859201328057281 -0.027442020841521631 0 0.28248009054126683 -0.027824818882371601 0 0.28321080035321983 -0.010208268297538009 0 0.27361436003936901 -0.034999677146069851 0 0.26859201328057281 -0.027442020841521631 0 0.28248009054126683 -0.027824818882371601 0 0.29465383366866438 -0.01919356567853802 0 0.28248009054126683 -0.027824818882371601 0 0.29533908139447967 -0.037354518578573179 0 0.29465383366866438 -0.01919356567853802 0 0.28248009054126683 -0.027824818882371601 0 0.28321080035321983 -0.010208268297538009 0 0.29465383366866438 -0.01919356567853802 0 0.29533908139447967 -0.037354518578573179 0 0.2978295874258669 0.0070254842464454832 0 0.28321080035321983 -0.010208268297538009 0 0.29396858594285019 -0.001032612778502764 0 0.2978295874258669 0.0070254842464454832 0 0.28687677889875068 0.001725005618485562 0 0.28321080035321983 -0.010208268297538009 0 0.29465383366866438 -0.01919356567853802 0 0.28321080035321983 -0.010208268297538009 0 0.29396858594285019 -0.001032612778502764 0 0.2978295874258669 0.0070254842464454832 0 0.28321080035321983 -0.010208268297538009 0 0.29465383366866438 -0.01919356567853802 0 0.29396858594285019 -0.001032612778502764 0 0.30752965714041391 0.0058765203804442539 0 0.29465383366866438 -0.01919356567853802 0 0.29396858594285019 -0.001032612778502764 0 0.30752965714041391 0.0058765203804442539 0 0.3196214637881436 -0.021924893160697439 0 0.29465383366866438 -0.01919356567853802 0 0.3196214637881436 -0.021924893160697439 0 0.29465383366866438 -0.01919356567853802 0 0.29533908139447967 -0.037354518578573179 0 0.3196214637881436 -0.021924893160697439 0 0.29533908139447967 -0.037354518578573179 0 0.3196214637881436 -0.021924893160697439 0 0.31660160940309118 -0.035871797032442469 0 0.29533908139447967 -0.037354518578573179 0 0.31292981148517318 -0.054457989835630861 0 0.31660160940309118 -0.035871797032442469 0 0.29533908139447967 -0.037354518578573179 0 0.31292981148517318 -0.054457989835630861 0 0.29642507544735103 -0.06613635338217283 0 0.31292981148517318 -0.054457989835630861 0 0.29642507544735103 -0.06613635338217283 0 0.29533908139447967 -0.037354518578573179 0 0.29642507544735103 -0.06613635338217283 0 0.29301224914481439 -0.054007794946804598 0 0.29533908139447967 -0.037354518578573179 0 0.27395317434556299 -0.0509436520349522 0 0.28351618772518777 -0.053458991616202503 0 0.29533908139447967 -0.037354518578573179 0 0.29301224914481439 -0.054007794946804598 0 0.28351618772518777 -0.053458991616202503 0 0.29533908139447967 -0.037354518578573179 0 0.29642507544735103 -0.06613635338217283 0 0.29533908139447967 -0.037354518578573179 0 0.29347904805936648 -0.068220893163732282 0 0.29301224914481439 -0.054007794946804598 0 0.28521560802072671 -0.062721316040594208 0 0.29347904805936648 -0.068220893163732282 0 0.29301224914481439 -0.054007794946804598 0 0.28521560802072671 -0.062721316040594208 0 0.29301224914481439 -0.054007794946804598 0 0.28351618772518777 -0.053458991616202503 0 0.28521560802072671 -0.062721316040594208 0 0.28007443442101287 -0.061799103716356343 0 0.28351618772518777 -0.053458991616202503 0 0.27395317434556299 -0.0509436520349522 0 0.29533908139447967 -0.037354518578573179 0 0.27395317434556299 -0.0509436520349522 0 0.2807394014679111 -0.038000872253349499 0 0.29533908139447967 -0.037354518578573179 0 0.2807394014679111 -0.038000872253349499 0 0.28248009054126683 -0.027824818882371601 0 0.29533908139447967 -0.037354518578573179 0 0.30290052143222262 -0.20369411332823331 0 0.28158405213751547 -0.22140539282722879 0 0.30290052143222262 -0.20369411332823331 0 0.28158405213751547 -0.22140539282722879 0 0.27747759048209231 -0.20168759245952969 0 0.28632476970011178 -0.18938030831719929 0 0.30290052143222262 -0.20369411332823331 0 0.2980095077463053 -0.17872695304401809 0 0.28632476970011178 -0.18938030831719929 0 0.30290052143222262 -0.20369411332823331 0 0.27747759048209231 -0.20168759245952969 0 0.30290052143222262 -0.20369411332823331 0 0.2980095077463053 -0.17872695304401809 0 0.32549301828835953 -0.18492261693889581 0 0.30290052143222262 -0.20369411332823331 0 0.2980095077463053 -0.17872695304401809 0 0.30290052143222262 -0.20369411332823331 0 0.30715254712033069 -0.22539943122446929 0 0.28158405213751547 -0.22140539282722879 0 0.30290052143222262 -0.20369411332823331 0 0.30715254712033069 -0.22539943122446929 0 0.30290052143222262 -0.20369411332823331 0 0.30715254712033069 -0.22539943122446929 0 0.32148368101975677 -0.2112815477794289 0 0.31140457280844042 -0.24710474912070499 0 0.29234931722919649 -0.23956849287787771 0 0.29718577407036301 -0.25519814195989071 0 0.30715254712033069 -0.22539943122446929 0 0.31140457280844042 -0.24710474912070499 0 0.29234931722919649 -0.23956849287787771 0 0.30715254712033069 -0.22539943122446929 0 0.31140457280844042 -0.24710474912070499 0 0.29234931722919649 -0.23956849287787771 0 0.27362138757170362 -0.2426007269765893 0 0.28009493911397709 -0.25531812806766069 0 0.29234931722919649 -0.23956849287787771 0 0.28158405213751547 -0.22140539282722879 0 0.27362138757170362 -0.2426007269765893 0 0.30715254712033069 -0.22539943122446929 0 0.29234931722919649 -0.23956849287787771 0 0.28158405213751547 -0.22140539282722879 0 0.28158405213751547 -0.22140539282722879 0 0.26621460642996558 -0.23052855599088379 0 0.27362138757170362 -0.2426007269765893 0 0.28158405213751547 -0.22140539282722879 0 0.26621460642996558 -0.23052855599088379 0 0.26307381511529532 -0.2143756044194241 0 0.26621460642996558 -0.23052855599088379 0 0.27362138757170362 -0.2426007269765893 0 0.26034160768121078 -0.2422716922893062 0 0.27362138757170362 -0.2426007269765893 0 0.26034160768121078 -0.2422716922893062 0 0.26515279713901752 -0.25474276698909742 0 0.26034160768121078 -0.2422716922893062 0 0.26515279713901752 -0.25474276698909742 0 0.25575058308532189 -0.25269357128633052 0 0.26034160768121078 -0.2422716922893062 0 0.25134951441318748 -0.22920843539767929 0 0.2499607574480687 -0.24385609709525671 0 0.25575058308532189 -0.25269357128633052 0 0.2462907050713771 -0.25204034373521428 0 0.2499607574480687 -0.24385609709525671 0 0.26034160768121078 -0.2422716922893062 0 0.25575058308532189 -0.25269357128633052 0 0.2499607574480687 -0.24385609709525671 0 0.26621460642996558 -0.23052855599088379 0 0.25134951441318748 -0.22920843539767929 0 0.26307381511529532 -0.2143756044194241 0 0.26621460642996558 -0.23052855599088379 0 0.26034160768121078 -0.2422716922893062 0 0.25134951441318748 -0.22920843539767929 0 0.25134951441318748 -0.22920843539767929 0 0.26307381511529532 -0.2143756044194241 0 0.24314545538918961 -0.20571013864437751 0 0.26307381511529532 -0.2143756044194241 0 0.2593871514889205 -0.19799184377322379 0 0.24314545538918961 -0.20571013864437751 0 0.26307381511529532 -0.2143756044194241 0 0.27747759048209231 -0.20168759245952969 0 0.2593871514889205 -0.19799184377322379 0 0.28158405213751547 -0.22140539282722879 0 0.26307381511529532 -0.2143756044194241 0 0.27747759048209231 -0.20168759245952969 0 0.27747759048209231 -0.20168759245952969 0 0.2593871514889205 -0.19799184377322379 0 0.269221803856454 -0.185599514949991 0 0.28632476970011178 -0.18938030831719929 0 0.27747759048209231 -0.20168759245952969 0 0.269221803856454 -0.185599514949991 0 0.2593871514889205 -0.19799184377322379 0 0.269221803856454 -0.185599514949991 0 0.2437278363918948 -0.18195096812212239 0 0.260919387449559 -0.16579352929295721 0 0.269221803856454 -0.185599514949991 0 0.2437278363918948 -0.18195096812212239 0 0.260919387449559 -0.16579352929295721 0 0.28401442498348639 -0.17719336780422379 0 0.260919387449559 -0.16579352929295721 0 0.27757308642867828 -0.16101723958663619 0 0.28401442498348639 -0.17719336780422379 0 0.260919387449559 -0.16579352929295721 0 0.27757308642867828 -0.16101723958663619 0 0.27224003922127837 -0.1473222684895614 0 0.260919387449559 -0.16579352929295721 0 0.269221803856454 -0.185599514949991 0 0.28401442498348639 -0.17719336780422379 0 0.28632476970011178 -0.18938030831719929 0 0.269221803856454 -0.185599514949991 0 0.28401442498348639 -0.17719336780422379 0 0.260919387449559 -0.16579352929295721 0 0.25452239946831973 -0.14829655140993131 0 0.27224003922127837 -0.1473222684895614 0 0.260919387449559 -0.16579352929295721 0 0.25452239946831973 -0.14829655140993131 0 0.23782434991563151 -0.15439369078169049 0 0.25741251913389712 -0.1305951081492244 0 0.25452239946831973 -0.14829655140993131 0 0.27224003922127837 -0.1473222684895614 0 0.27757308642867828 -0.16101723958663619 0 0.27224003922127837 -0.1473222684895614 0 0.2931184940603897 -0.15375979275980259 0 0.25741251913389712 -0.1305951081492244 0 0.27224003922127837 -0.1473222684895614 0 0.28822748037447399 -0.12879263247558709 0 0.29512866602350563 -0.1184484781339787 0 0.2959534750055749 -0.1435622706191019 0 0.29512866602350563 -0.1184484781339787 0 0.28822748037447399 -0.12879263247558709 0 0.2959534750055749 -0.1435622706191019 0 0.2959534750055749 -0.1435622706191019 0 0.2931184940603897 -0.15375979275980259 0 0.29606782433269818 -0.16881524064208181 0 0.28822748037447399 -0.12879263247558709 0 0.2959534750055749 -0.1435622706191019 0 0.2931184940603897 -0.15375979275980259 0 0.28822748037447399 -0.12879263247558709 0 0.2931184940603897 -0.15375979275980259 0 0.27224003922127837 -0.1473222684895614 0 0.28822748037447399 -0.12879263247558709 0 0.2931184940603897 -0.15375979275980259 0 0.2959534750055749 -0.1435622706191019 0 0.29606782433269818 -0.16881524064208181 0 0.2959534750055749 -0.1435622706191019 0 0.30786991093933941 -0.1327242262548293 0 0.31334084787329858 -0.14560100496875439 0 0.2959534750055749 -0.1435622706191019 0 0.30589655906226038 -0.156608858018214 0 0.31334084787329858 -0.14560100496875439 0 0.30589655906226038 -0.156608858018214 0 0.31666093946419188 -0.15748088094218049 0 0.31334084787329858 -0.14560100496875439 0 0.29512866602350563 -0.1184484781339787 0 0.2959534750055749 -0.1435622706191019 0 0.30010147488007238 -0.1276093355582181 0 0.2959534750055749 -0.1435622706191019 0 0.30786991093933941 -0.1327242262548293 0 0.30010147488007238 -0.1276093355582181 0 0.31399575267335023 -0.12250180558336519 0 0.30554459793957989 -0.1238630007756472 0 0.30786991093933941 -0.1327242262548293 0 0.30554459793957989 -0.1238630007756472 0 0.30786991093933941 -0.1327242262548293 0 0.30010147488007238 -0.1276093355582181 0 0.28401442498348639 -0.17719336780422379 0 0.29606782433269818 -0.16881524064208181 0 0.2980095077463053 -0.17872695304401809 0 0.28632476970011178 -0.18938030831719929 0 0.28401442498348639 -0.17719336780422379 0 0.2980095077463053 -0.17872695304401809 0 0.27757308642867828 -0.16101723958663619 0 0.2931184940603897 -0.15375979275980259 0 0.28401442498348639 -0.17719336780422379 0 0.2931184940603897 -0.15375979275980259 0 0.28401442498348639 -0.17719336780422379 0 0.29606782433269818 -0.16881524064208181 0 0.2931184940603897 -0.15375979275980259 0 0.29606782433269818 -0.16881524064208181 0 0.29606782433269818 -0.16881524064208181 0 0.30589655906226038 -0.156608858018214 0 0.31145366373618227 -0.1686264437044486 0 0.2959534750055749 -0.1435622706191019 0 0.29606782433269818 -0.16881524064208181 0 0.30589655906226038 -0.156608858018214 0 0.30589655906226038 -0.156608858018214 0 0.31145366373618227 -0.1686264437044486 0 0.31666093946419188 -0.15748088094218049 0 0.31145366373618227 -0.1686264437044486 0 0.2980095077463053 -0.17872695304401809 0 0.32549301828835953 -0.18492261693889581 0 0.29606782433269818 -0.16881524064208181 0 0.31145366373618227 -0.1686264437044486 0 0.2980095077463053 -0.17872695304401809 0 0.29606782433269818 -0.16881524064208181 0 0.2980095077463053 -0.17872695304401809 0 0.31145366373618227 -0.1686264437044486 0 0.32549301828835953 -0.18492261693889581 0 0.32738776678709508 -0.16545123116759969 0 0.31145366373618227 -0.1686264437044486 0 0.32738776678709508 -0.16545123116759969 0 0.31666093946419188 -0.15748088094218049 0 0.32738776678709508 -0.16545123116759969 0 0.31666093946419188 -0.15748088094218049 0 0.32968898845727718 -0.1497650634196834 0 0.32738776678709508 -0.16545123116759969 0 0.32968898845727718 -0.1497650634196834 0 0.34808551514449421 -0.1661511205495555 0 0.32549301828835953 -0.18492261693889581 0 0.32738776678709508 -0.16545123116759969 0 0.34808551514449421 -0.1661511205495555 0 0.32549301828835953 -0.18492261693889581 0 0.34808551514449421 -0.1661511205495555 0 0.32549301828835953 -0.18492261693889581 0 0.34808551514449421 -0.1661511205495555 0 0.34521429895780248 -0.1968392362703156 0 0.30786991093933941 -0.1327242262548293 0 0.32373683991627678 -0.1342707635111336 0 0.31334084787329858 -0.14560100496875439 0 0.31399575267335023 -0.12250180558336519 0 0.32517348349888747 -0.118580130041643 0 0.32373683991627678 -0.1342707635111336 0 0.31399575267335023 -0.12250180558336519 0 0.30786991093933941 -0.1327242262548293 0 0.32373683991627678 -0.1342707635111336 0 0.32373683991627678 -0.1342707635111336 0 0.31334084787329858 -0.14560100496875439 0 0.32968898845727718 -0.1497650634196834 0 0.31666093946419188 -0.15748088094218049 0 0.31334084787329858 -0.14560100496875439 0 0.32968898845727718 -0.1497650634196834 0 0.32373683991627678 -0.1342707635111336 0 0.32968898845727718 -0.1497650634196834 0 0.34485783347551252 -0.1433779188078016 0 0.32968898845727718 -0.1497650634196834 0 0.34485783347551252 -0.1433779188078016 0 0.34808551514449421 -0.1661511205495555 0 0.34014121552940491 -0.1203166258242544 0 0.32373683991627678 -0.1342707635111336 0 0.34485783347551252 -0.1433779188078016 0 0.34014121552940491 -0.1203166258242544 0 0.35551888896884759 -0.1297027680154724 0 0.34485783347551252 -0.1433779188078016 0 0.35551888896884759 -0.1297027680154724 0 0.34485783347551252 -0.1433779188078016 0 0.37067801200062889 -0.1473796241602153 0 0.34485783347551252 -0.1433779188078016 0 0.37067801200062889 -0.1473796241602153 0 0.34808551514449421 -0.1661511205495555 0 0.35551888896884759 -0.1297027680154724 0 0.37067801200062889 -0.1473796241602153 0 0.37104303648388809 -0.1272612894930944 0 0.34808551514449421 -0.1661511205495555 0 0.36752808638216261 -0.17990459429682831 0 0.34521429895780248 -0.1968392362703156 0 0.34808551514449421 -0.1661511205495555 0 0.37072349948513561 -0.1630779710757761 0 0.36752808638216261 -0.17990459429682831 0 0.37067801200062889 -0.1473796241602153 0 0.34808551514449421 -0.1661511205495555 0 0.37072349948513561 -0.1630779710757761 0 0.37067801200062889 -0.1473796241602153 0 0.34808551514449421 -0.1661511205495555 0 0.37072349948513561 -0.1630779710757761 0 0.36752808638216261 -0.17990459429682831 0 0.38565700028273392 -0.16791849986101029 0 0.36752808638216261 -0.17990459429682831 0 0.36890805570422369 -0.19954003101511669 0 0.34521429895780248 -0.1968392362703156 0 0.36752808638216261 -0.17990459429682831 0 0.36890805570422369 -0.19954003101511669 0 0.38551481473406651 -0.18910273675150999 0 0.36890805570422369 -0.19954003101511669 0 0.35851964138810982 -0.2171827375251118 0 0.37645297458065691 -0.21353851220024839 0 0.35851964138810982 -0.2171827375251118 0 0.34521429895780248 -0.1968392362703156 0 0.33865146772119931 -0.2184974665014994 0 0.36890805570422369 -0.19954003101511669 0 0.35851964138810982 -0.2171827375251118 0 0.34521429895780248 -0.1968392362703156 0 0.32549301828835953 -0.18492261693889581 0 0.34521429895780248 -0.1968392362703156 0 0.32148368101975677 -0.2112815477794289 0 0.34521429895780248 -0.1968392362703156 0 0.33865146772119931 -0.2184974665014994 0 0.32148368101975677 -0.2112815477794289 0 0.30290052143222262 -0.20369411332823331 0 0.32549301828835953 -0.18492261693889581 0 0.32148368101975677 -0.2112815477794289 0 0.30290052143222262 -0.20369411332823331 0 0.32549301828835953 -0.18492261693889581 0 0.31140457280844042 -0.24710474912070499 0 0.32841487832378857 -0.23419691532036521 0 0.32909477526671738 -0.25319804842994992 0 0.30715254712033069 -0.22539943122446929 0 0.31140457280844042 -0.24710474912070499 0 0.32841487832378857 -0.23419691532036521 0 0.30715254712033069 -0.22539943122446929 0 0.32148368101975677 -0.2112815477794289 0 0.32841487832378857 -0.23419691532036521 0 0.33865146772119931 -0.2184974665014994 0 0.32841487832378857 -0.23419691532036521 0 0.34678876975393269 -0.23153157971564481 0 0.33865146772119931 -0.2184974665014994 0 0.32148368101975677 -0.2112815477794289 0 0.32841487832378857 -0.23419691532036521 0 0.32841487832378857 -0.23419691532036521 0 0.34542116247921317 -0.24786541093840589 0 0.32909477526671738 -0.25319804842994992 0 0.32841487832378857 -0.23419691532036521 0 0.34542116247921317 -0.24786541093840589 0 0.34678876975393269 -0.23153157971564481 0 0.34542116247921317 -0.24786541093840589 0 0.36282952759798831 -0.23490181410806829 0 0.36211004630048071 -0.25874315800932568 0 0.34542116247921317 -0.24786541093840589 0 0.34678876975393269 -0.23153157971564481 0 0.36282952759798831 -0.23490181410806829 0 0.35851964138810982 -0.2171827375251118 0 0.33865146772119931 -0.2184974665014994 0 0.34678876975393269 -0.23153157971564481 0 0.35851964138810982 -0.2171827375251118 0 0.34678876975393269 -0.23153157971564481 0 0.36282952759798831 -0.23490181410806829 0 0.35851964138810982 -0.2171827375251118 0 0.37179579398026102 -0.22561915142401329 0 0.36282952759798831 -0.23490181410806829 0 0.35851964138810982 -0.2171827375251118 0 0.37179579398026102 -0.22561915142401329 0 0.37645297458065691 -0.21353851220024839 0 0.37179579398026102 -0.22561915142401329 0 0.36282952759798831 -0.23490181410806829 0 0.37754581309809132 -0.23651361028518689 0 0.36282952759798831 -0.23490181410806829 0 0.36876625398544938 -0.24898888889403961 0 0.36211004630048071 -0.25874315800932568 0 0.36282952759798831 -0.23490181410806829 0 0.36211004630048071 -0.25874315800932568 0 0.36282952759798831 -0.23490181410806829 0 0.36876625398544938 -0.24898888889403961 0 0.37754581309809132 -0.23651361028518689 0 0.37754581309809132 -0.23651361028518689 0 0.39300219267510322 -0.23842714914515989 0 0.3871149211879113 -0.25548270742864421 0 0.39300219267510322 -0.23842714914515989 0 0.3871149211879113 -0.25548270742864421 0 0.40207495352916539 -0.25113417058953519 0 0.39300219267510322 -0.23842714914515989 0 0.40723458142941671 -0.23497076085713389 0 0.40207495352916539 -0.25113417058953519 0 0.39851670543712209 -0.2244771902628257 0 0.41039622944065363 -0.2185270516157129 0 0.40723458142941671 -0.23497076085713389 0 0.39300219267510322 -0.23842714914515989 0 0.39851670543712209 -0.2244771902628257 0 0.40723458142941671 -0.23497076085713389 0 0.39300219267510322 -0.23842714914515989 0 0.39851670543712209 -0.2244771902628257 0 0.38505811203634721 -0.22522643630241351 0 0.39851670543712209 -0.2244771902628257 0 0.38505811203634721 -0.22522643630241351 0 0.39303519244684892 -0.21278300449704671 0 0.37754581309809132 -0.23651361028518689 0 0.39300219267510322 -0.23842714914515989 0 0.38505811203634721 -0.22522643630241351 0 0.37179579398026102 -0.22561915142401329 0 0.37754581309809132 -0.23651361028518689 0 0.38505811203634721 -0.22522643630241351 0 0.37179579398026102 -0.22561915142401329 0 0.38505811203634721 -0.22522643630241351 0 0.37645297458065691 -0.21353851220024839 0 0.38505811203634721 -0.22522643630241351 0 0.37645297458065691 -0.21353851220024839 0 0.39303519244684892 -0.21278300449704671 0 0.36890805570422369 -0.19954003101511669 0 0.37645297458065691 -0.21353851220024839 0 0.38544293285627962 -0.20314808770867229 0 0.37645297458065691 -0.21353851220024839 0 0.38544293285627962 -0.20314808770867229 0 0.39303519244684892 -0.21278300449704671 0 0.36890805570422369 -0.19954003101511669 0 0.38544293285627962 -0.20314808770867229 0 0.38551481473406651 -0.18910273675150999 0 0.38544293285627962 -0.20314808770867229 0 0.38551481473406651 -0.18910273675150999 0 0.40330362681560211 -0.20077615407943949 0 0.38551481473406651 -0.18910273675150999 0 0.40330362681560211 -0.20077615407943949 0 0.39995041381356911 -0.1868338584648204 0 0.40330362681560211 -0.20077615407943949 0 0.4125958117473455 -0.19170302267586259 0 0.39995041381356911 -0.1868338584648204 0 0.40330362681560211 -0.20077615407943949 0 0.39303519244684892 -0.21278300449704671 0 0.41039622944065363 -0.2185270516157129 0 0.38544293285627962 -0.20314808770867229 0 0.40330362681560211 -0.20077615407943949 0 0.39303519244684892 -0.21278300449704671 0 0.39851670543712209 -0.2244771902628257 0 0.39303519244684892 -0.21278300449704671 0 0.41039622944065363 -0.2185270516157129 0 0.40330362681560211 -0.20077615407943949 0 0.41039622944065363 -0.2185270516157129 0 0.42189732607146729 -0.20211324892629831 0 0.41039622944065363 -0.2185270516157129 0 0.42189732607146729 -0.20211324892629831 0 0.42790605200351661 -0.22140108800821251 0 0.40330362681560211 -0.20077615407943949 0 0.4125958117473455 -0.19170302267586259 0 0.42189732607146729 -0.20211324892629831 0 0.4125958117473455 -0.19170302267586259 0 0.42189732607146729 -0.20211324892629831 0 0.42233780496578233 -0.18319904235883591 0 0.42189732607146729 -0.20211324892629831 0 0.43389642119060762 -0.191962199940241 0 0.42233780496578233 -0.18319904235883591 0 0.42189732607146729 -0.20211324892629831 0 0.43389642119060762 -0.191962199940241 0 0.43723926749718739 -0.20471492206911249 0 0.43723926749718739 -0.20471492206911249 0 0.42790605200351661 -0.22140108800821251 0 0.44233814121790038 -0.22173902575952509 0 0.42189732607146729 -0.20211324892629831 0 0.43723926749718739 -0.20471492206911249 0 0.42790605200351661 -0.22140108800821251 0 0.43048550082884018 -0.24614270293406881 0 0.44233814121790038 -0.22173902575952509 0 0.42790605200351661 -0.22140108800821251 0 0.43048550082884018 -0.24614270293406881 0 0.44233814121790038 -0.22173902575952509 0 0.42790605200351661 -0.22140108800821251 0 0.43048550082884018 -0.24614270293406881 0 0.42088007225406548 -0.23367140350055049 0 0.43048550082884018 -0.24614270293406881 0 0.44582088554477811 -0.24525862245079941 0 0.43357426810421817 -0.25015303326672972 0 0.43048550082884018 -0.24614270293406881 0 0.42846035594967069 -0.25031232086228522 0 0.43357426810421817 -0.25015303326672972 0 0.43048550082884018 -0.24614270293406881 0 0.43357426810421817 -0.25015303326672972 0 0.43048550082884018 -0.24614270293406881 0 0.418537335240391 -0.2435876000290193 0 0.42846035594967069 -0.25031232086228522 0 0.43048550082884018 -0.24614270293406881 0 0.42846035594967069 -0.25031232086228522 0 0.43048550082884018 -0.24614270293406881 0 0.42088007225406548 -0.23367140350055049 0 0.43048550082884018 -0.24614270293406881 0 0.418537335240391 -0.2435876000290193 0 0.42088007225406548 -0.23367140350055049 0 0.418537335240391 -0.2435876000290193 0 0.40723458142941671 -0.23497076085713389 0 0.42088007225406548 -0.23367140350055049 0 0.418537335240391 -0.2435876000290193 0 0.40723458142941671 -0.23497076085713389 0 0.40207495352916539 -0.25113417058953519 0 0.418537335240391 -0.2435876000290193 0 0.40207495352916539 -0.25113417058953519 0 0.42846035594967069 -0.25031232086228522 0 0.41039622944065363 -0.2185270516157129 0 0.40723458142941671 -0.23497076085713389 0 0.42088007225406548 -0.23367140350055049 0 0.41039622944065363 -0.2185270516157129 0 0.42790605200351661 -0.22140108800821251 0 0.42088007225406548 -0.23367140350055049 0 0.3932705088567644 -0.1286081277708763 0 0.38946375456974969 -0.1482633138159434 0 0.40032650034539519 -0.13972272199131119 0 0.3932705088567644 -0.1286081277708763 0 0.38946375456974969 -0.1482633138159434 0 0.40224748518751269 -0.1211494002184121 0 0.40802316631723889 -0.13171289331352951 0 0.40224748518751269 -0.1211494002184121 0 0.40096691517672778 -0.13029828582353201 0 0.3932705088567644 -0.1286081277708763 0 0.40224748518751269 -0.1211494002184121 0 0.40096691517672778 -0.13029828582353201 0 0.40802316631723889 -0.13171289331352951 0 0.40096691517672778 -0.13029828582353201 0 0.40032650034539519 -0.13972272199131119 0 0.40802316631723889 -0.13171289331352951 0 0.40032650034539519 -0.13972272199131119 0 0.40802316631723889 -0.13171289331352951 0 0.40096691517672778 -0.13029828582353201 0 0.40032650034539519 -0.13972272199131119 0 0.3932705088567644 -0.1286081277708763 0 0.37067801200062889 -0.1473796241602153 0 0.37104303648388809 -0.1272612894930944 0 0.3932705088567644 -0.1286081277708763 0 0.37067801200062889 -0.1473796241602153 0 0.3932705088567644 -0.1286081277708763 0 0.37067801200062889 -0.1473796241602153 0 0.37072349948513561 -0.1630779710757761 0 0.38946375456974969 -0.1482633138159434 0 0.37067801200062889 -0.1473796241602153 0 0.3932705088567644 -0.1286081277708763 0 0.38946375456974969 -0.1482633138159434 0 0.40032650034539519 -0.13972272199131119 0 0.38946375456974969 -0.1482633138159434 0 0.40103769468862932 -0.15735650722112959 0 0.38946375456974969 -0.1482633138159434 0 0.40103769468862932 -0.15735650722112959 0 0.38565700028273392 -0.16791849986101029 0 0.40103769468862932 -0.15735650722112959 0 0.38565700028273392 -0.16791849986101029 0 0.40804365254297231 -0.17415516972609171 0 0.37072349948513561 -0.1630779710757761 0 0.38946375456974969 -0.1482633138159434 0 0.38565700028273392 -0.16791849986101029 0 0.38946375456974969 -0.1482633138159434 0 0.38565700028273392 -0.16791849986101029 0 0.38551481473406651 -0.18910273675150999 0 0.38565700028273392 -0.16791849986101029 0 0.39995041381356911 -0.1868338584648204 0 0.36752808638216261 -0.17990459429682831 0 0.38551481473406651 -0.18910273675150999 0 0.38565700028273392 -0.16791849986101029 0 0.38565700028273392 -0.16791849986101029 0 0.39995041381356911 -0.1868338584648204 0 0.40804365254297231 -0.17415516972609171 0 0.4125958117473455 -0.19170302267586259 0 0.40804365254297231 -0.17415516972609171 0 0.42233780496578233 -0.18319904235883591 0 0.4125958117473455 -0.19170302267586259 0 0.39995041381356911 -0.1868338584648204 0 0.40804365254297231 -0.17415516972609171 0 0.42233780496578233 -0.18319904235883591 0 0.43537196508735049 -0.18173276810905351 0 0.42169756570229522 -0.15672283071129131 0 0.43389642119060762 -0.191962199940241 0 0.42233780496578233 -0.18319904235883591 0 0.43537196508735049 -0.18173276810905351 0 0.43537196508735049 -0.18173276810905351 0 0.42169756570229522 -0.15672283071129131 0 0.43537196508735049 -0.18173276810905351 0 0.42169756570229522 -0.15672283071129131 0 0.44011919579772352 -0.15902857640534751 0 0.40804365254297231 -0.17415516972609171 0 0.42233780496578233 -0.18319904235883591 0 0.42169756570229522 -0.15672283071129131 0 0.40103769468862932 -0.15735650722112959 0 0.40804365254297231 -0.17415516972609171 0 0.42169756570229522 -0.15672283071129131 0 0.40032650034539519 -0.13972272199131119 0 0.40103769468862932 -0.15735650722112959 0 0.42169756570229522 -0.15672283071129131 0 0.42169756570229522 -0.15672283071129131 0 0.40802316631723889 -0.13171289331352951 0 0.40032650034539519 -0.13972272199131119 0 0.42169756570229522 -0.15672283071129131 0 0.40802316631723889 -0.13171289331352951 0 0.42169756570229522 -0.15672283071129131 0 0.43087782981676859 -0.131879285754128 0 0.44052259681213413 -0.14512254840888281 0 0.42169756570229522 -0.15672283071129131 0 0.44052259681213413 -0.14512254840888281 0 0.44011919579772352 -0.15902857640534751 0 0.42510906065580589 -0.11393180641703871 0 0.43087782981676859 -0.131879285754128 0 0.40802316631723889 -0.13171289331352951 0 0.42169756570229522 -0.15672283071129131 0 0.43087782981676859 -0.131879285754128 0 0.40802316631723889 -0.13171289331352951 0 0.46093003486481321 -0.11810563265674839 0 0.46623847963083442 -0.1374076686568538 0 0.47239045088042492 -0.13005034139104371 0 0.46093003486481321 -0.11810563265674839 0 0.45430072039358249 -0.1470470373257684 0 0.46093003486481321 -0.11810563265674839 0 0.46623847963083442 -0.1374076686568538 0 0.45430072039358249 -0.1470470373257684 0 0.46093003486481321 -0.11810563265674839 0 0.44582693855797939 -0.1311402400572215 0 0.45430072039358249 -0.1470470373257684 0 0.441730170532879 -0.1159420230490274 0 0.43087782981676859 -0.131879285754128 0 0.44582693855797939 -0.1311402400572215 0 0.43087782981676859 -0.131879285754128 0 0.44582693855797939 -0.1311402400572215 0 0.44052259681213413 -0.14512254840888281 0 0.44582693855797939 -0.1311402400572215 0 0.44052259681213413 -0.14512254840888281 0 0.45430072039358249 -0.1470470373257684 0 0.44052259681213413 -0.14512254840888281 0 0.45430072039358249 -0.1470470373257684 0 0.44011919579772352 -0.15902857640534751 0 0.46623847963083442 -0.1374076686568538 0 0.45430072039358249 -0.1470470373257684 0 0.46795215833203208 -0.14958538313512479 0 0.45430072039358249 -0.1470470373257684 0 0.46795215833203208 -0.14958538313512479 0 0.46249654728105127 -0.15875526896169859 0 0.46249654728105127 -0.15875526896169859 0 0.44767140592235177 -0.17598844199478861 0 0.4590637049386419 -0.17656280063954849 0 0.46795215833203208 -0.14958538313512479 0 0.46765797362325351 -0.16960743348544691 0 0.46249654728105127 -0.15875526896169859 0 0.46765797362325351 -0.16960743348544691 0 0.46249654728105127 -0.15875526896169859 0 0.4590637049386419 -0.17656280063954849 0 0.45430072039358249 -0.1470470373257684 0 0.46249654728105127 -0.15875526896169859 0 0.44767140592235177 -0.17598844199478861 0 0.46249654728105127 -0.15875526896169859 0 0.4590637049386419 -0.17656280063954849 0 0.45430072039358249 -0.1470470373257684 0 0.44011919579772352 -0.15902857640534751 0 0.44767140592235177 -0.17598844199478861 0 0.45430072039358249 -0.1470470373257684 0 0.44767140592235177 -0.17598844199478861 0 0.44767140592235177 -0.17598844199478861 0 0.45131049953134228 -0.18433764364674099 0 0.4590637049386419 -0.17656280063954849 0 0.43537196508735049 -0.18173276810905351 0 0.44011919579772352 -0.15902857640534751 0 0.44767140592235177 -0.17598844199478861 0 0.43389642119060762 -0.191962199940241 0 0.43537196508735049 -0.18173276810905351 0 0.44405046135624082 -0.18412940313962539 0 0.43537196508735049 -0.18173276810905351 0 0.44767140592235177 -0.17598844199478861 0 0.44405046135624082 -0.18412940313962539 0 0.44405046135624082 -0.18412940313962539 0 0.45131049953134228 -0.18433764364674099 0 0.4501360628432447 -0.19063724014234421 0 0.44767140592235177 -0.17598844199478861 0 0.44405046135624082 -0.18412940313962539 0 0.45131049953134228 -0.18433764364674099 0 0.46765797362325351 -0.16960743348544691 0 0.4590637049386419 -0.17656280063954849 0 0.45563086259623248 -0.19437033231739831 0 0.4590637049386419 -0.17656280063954849 0 0.45563086259623248 -0.19437033231739831 0 0.46765797362325351 -0.16960743348544691 0 0.45563086259623248 -0.19437033231739831 0 0.46765797362325351 -0.16960743348544691 0 0.46817453342310178 -0.17984984725849121 0 0.45563086259623248 -0.19437033231739831 0 0.45131049953134228 -0.18433764364674099 0 0.4590637049386419 -0.17656280063954849 0 0.45563086259623248 -0.19437033231739831 0 0.46817453342310178 -0.17984984725849121 0 0.47868008644015098 -0.18364062408913809 0 0.4864423059537345 -0.17561039486471769 0 0.46817453342310178 -0.17984984725849121 0 0.47868008644015098 -0.18364062408913809 0 0.47427671796452459 -0.19390449174425081 0 0.4864423059537345 -0.17561039486471769 0 0.5 -0.16076066479590659 0 0.5 -0.1885669917164324 0 0.47868008644015098 -0.18364062408913809 0 0.4864423059537345 -0.17561039486471769 0 0.5 -0.1885669917164324 0 0.4864423059537345 -0.17561039486471769 0 0.5 -0.16076066479590659 0 0.4874204893839118 -0.1629257968797283 0 0.5 -0.16076066479590659 0 0.4874204893839118 -0.1629257968797283 0 0.48836632050416018 -0.15319142364385391 0 0.46765797362325351 -0.16960743348544691 0 0.47968508465027437 -0.14484453465349531 0 0.46817453342310178 -0.17984984725849121 0 0.4864423059537345 -0.17561039486471769 0 0.47621222687475862 -0.15989320835224299 0 0.46765797362325351 -0.16960743348544691 0 0.46817453342310178 -0.17984984725849121 0 0.47621222687475862 -0.15989320835224299 0 0.4864423059537345 -0.17561039486471769 0 0.4874204893839118 -0.1629257968797283 0 0.47621222687475862 -0.15989320835224299 0 0.46817453342310178 -0.17984984725849121 0 0.47621222687475862 -0.15989320835224299 0 0.4874204893839118 -0.1629257968797283 0 0.47621222687475862 -0.15989320835224299 0 0.48836632050416018 -0.15319142364385391 0 0.46765797362325351 -0.16960743348544691 0 0.47621222687475862 -0.15989320835224299 0 0.47968508465027437 -0.14484453465349531 0 0.47621222687475862 -0.15989320835224299 0 0.48424992032641551 -0.13993656944599481 0 0.47621222687475862 -0.15989320835224299 0 0.48836632050416018 -0.15319142364385391 0 0.48424992032641551 -0.13993656944599481 0 0.46795215833203208 -0.14958538313512479 0 0.46765797362325351 -0.16960743348544691 0 0.47968508465027437 -0.14484453465349531 0 0.47621222687475862 -0.15989320835224299 0 0.47968508465027437 -0.14484453465349531 0 0.48424992032641551 -0.13993656944599481 0 0.46623847963083442 -0.1374076686568538 0 0.46795215833203208 -0.14958538313512479 0 0.47424994269801352 -0.1397372940967013 0 0.46795215833203208 -0.14958538313512479 0 0.47968508465027437 -0.14484453465349531 0 0.47424994269801352 -0.1397372940967013 0 0.47968508465027437 -0.14484453465349531 0 0.47994759956173211 -0.14051186616834291 0 0.47424994269801352 -0.1397372940967013 0 0.47968508465027437 -0.14484453465349531 0 0.48424992032641551 -0.13993656944599481 0 0.47994759956173211 -0.14051186616834291 0 0.5 -0.16076066479590659 0 0.48836632050416018 -0.15319142364385391 0 0.5 -0.13295433787538069 0 0.48836632050416018 -0.15319142364385391 0 0.5 -0.13295433787538069 0 0.48424992032641551 -0.13993656944599481 0 0.48916266477234061 -0.13224727383335569 0 0.48085855782101261 -0.13626791926353529 0 0.48424992032641551 -0.13993656944599481 0 0.5 -0.13295433787538069 0 0.48916266477234061 -0.13224727383335569 0 0.48424992032641551 -0.13993656944599481 0 0.48986304781109291 -0.1242692167884092 0 0.5 -0.13295433787538069 0 0.48916266477234061 -0.13224727383335569 0 0.48986304781109291 -0.1242692167884092 0 0.48916266477234061 -0.13224727383335569 0 0.48085855782101261 -0.13626791926353529 0 0.47499259514944292 -0.1202547269832886 0 0.48085855782101261 -0.13626791926353529 0 0.47239045088042492 -0.13005034139104371 0 0.48085855782101261 -0.13626791926353529 0 0.48424992032641551 -0.13993656944599481 0 0.47994759956173211 -0.14051186616834291 0 0.48085855782101261 -0.13626791926353529 0 0.47994759956173211 -0.14051186616834291 0 0.47424994269801352 -0.1397372940967013 0 0.48085855782101261 -0.13626791926353529 0 0.47424994269801352 -0.1397372940967013 0 0.47239045088042492 -0.13005034139104371 0 0.46623847963083442 -0.1374076686568538 0 0.47424994269801352 -0.1397372940967013 0 0.47239045088042492 -0.13005034139104371 0 0.45735248248792831 -0.2263504469462593 0 0.45606595353113982 -0.2348942090935259 0 0.45040787416373163 -0.22146407059246401 0 0.4593659812364308 -0.22004368230368379 0 0.45735248248792831 -0.2263504469462593 0 0.45040787416373163 -0.22146407059246401 0 0.4593659812364308 -0.22004368230368379 0 0.45735248248792831 -0.2263504469462593 0 0.47005683011064803 -0.22590290220369119 0 0.4593659812364308 -0.22004368230368379 0 0.46586242272604061 -0.21273545752659301 0 0.47005683011064803 -0.22590290220369119 0 0.45735248248792831 -0.2263504469462593 0 0.45606595353113982 -0.2348942090935259 0 0.47005683011064803 -0.22590290220369119 0 0.46661169077989217 -0.2415165845456661 0 0.45606595353113982 -0.2348942090935259 0 0.47005683011064803 -0.22590290220369119 0 0.46661169077989217 -0.2415165845456661 0 0.45571617873614662 -0.24946335937342859 0 0.47785808936807489 -0.24877368548012899 0 0.45571617873614662 -0.24946335937342859 0 0.47785808936807489 -0.24877368548012899 0 0.46661169077989217 -0.2415165845456661 0 0.45518121600666411 -0.24259067484840299 0 0.45571617873614662 -0.24946335937342859 0 0.46661169077989217 -0.2415165845456661 0 0.45518121600666411 -0.24259067484840299 0 0.45606595353113982 -0.2348942090935259 0 0.45571617873614662 -0.24946335937342859 0 0.43357426810421817 -0.25015303326672972 0 0.43048550082884018 -0.24614270293406881 0 0.44582088554477811 -0.24525862245079941 0 0.44233814121790038 -0.22173902575952509 0 0.45571617873614662 -0.24946335937342859 0 0.44582088554477811 -0.24525862245079941 0 0.43357426810421817 -0.25015303326672972 0 0.45518121600666411 -0.24259067484840299 0 0.45606595353113982 -0.2348942090935259 0 0.44582088554477811 -0.24525862245079941 0 0.45518121600666411 -0.24259067484840299 0 0.45571617873614662 -0.24946335937342859 0 0.44582088554477811 -0.24525862245079941 0 0.44582088554477811 -0.24525862245079941 0 0.44233814121790038 -0.22173902575952509 0 0.45040787416373163 -0.22146407059246401 0 0.44582088554477811 -0.24525862245079941 0 0.45040787416373163 -0.22146407059246401 0 0.45606595353113982 -0.2348942090935259 0 0.44582088554477811 -0.24525862245079941 0 0.45040787416373163 -0.22146407059246401 0 0.43723926749718739 -0.20471492206911249 0 0.44233814121790038 -0.22173902575952509 0 0.45499486278268447 -0.1976695187341285 0 0.45040787416373163 -0.22146407059246401 0 0.45499486278268447 -0.1976695187341285 0 0.44233814121790038 -0.22173902575952509 0 0.45040787416373163 -0.22146407059246401 0 0.45499486278268447 -0.1976695187341285 0 0.44233814121790038 -0.22173902575952509 0 0.45499486278268447 -0.1976695187341285 0 0.43723926749718739 -0.20471492206911249 0 0.44395992212319679 -0.19308347956624619 0 0.45499486278268447 -0.1976695187341285 0 0.43389642119060762 -0.191962199940241 0 0.44405046135624082 -0.18412940313962539 0 0.44395992212319679 -0.19308347956624619 0 0.43389642119060762 -0.191962199940241 0 0.43723926749718739 -0.20471492206911249 0 0.44395992212319679 -0.19308347956624619 0 0.44395992212319679 -0.19308347956624619 0 0.45499486278268447 -0.1976695187341285 0 0.45131049953134228 -0.18433764364674099 0 0.4501360628432447 -0.19063724014234421 0 0.45563086259623248 -0.19437033231739831 0 0.44395992212319679 -0.19308347956624619 0 0.4501360628432447 -0.19063724014234421 0 0.45499486278268447 -0.1976695187341285 0 0.44405046135624082 -0.18412940313962539 0 0.44395992212319679 -0.19308347956624619 0 0.4501360628432447 -0.19063724014234421 0 0.46817453342310178 -0.17984984725849121 0 0.46013683997144489 -0.19980648616473931 0 0.47427671796452459 -0.19390449174425081 0 0.46817453342310178 -0.17984984725849121 0 0.46013683997144489 -0.19980648616473931 0 0.46817453342310178 -0.17984984725849121 0 0.45563086259623248 -0.19437033231739831 0 0.46013683997144489 -0.19980648616473931 0 0.4501360628432447 -0.19063724014234421 0 0.45563086259623248 -0.19437033231739831 0 0.45499486278268447 -0.1976695187341285 0 0.45499486278268447 -0.1976695187341285 0 0.46013683997144489 -0.19980648616473931 0 0.45563086259623248 -0.19437033231739831 0 0.45499486278268447 -0.1976695187341285 0 0.45563086259623248 -0.19437033231739831 0 0.45499486278268447 -0.1976695187341285 0 0.46013683997144489 -0.19980648616473931 0 0.46013683997144489 -0.19980648616473931 0 0.46586242272604061 -0.21273545752659301 0 0.48006841998572208 -0.20808990240084899 0 0.45040787416373163 -0.22146407059246401 0 0.45499486278268447 -0.1976695187341285 0 0.4548395438527213 -0.21295904373074681 0 0.4593659812364308 -0.22004368230368379 0 0.45040787416373163 -0.22146407059246401 0 0.4548395438527213 -0.21295904373074681 0 0.4593659812364308 -0.22004368230368379 0 0.4548395438527213 -0.21295904373074681 0 0.46586242272604061 -0.21273545752659301 0 0.46013683997144489 -0.19980648616473931 0 0.4548395438527213 -0.21295904373074681 0 0.45499486278268447 -0.1976695187341285 0 0.46013683997144489 -0.19980648616473931 0 0.4548395438527213 -0.21295904373074681 0 0.46013683997144489 -0.19980648616473931 0 0.4548395438527213 -0.21295904373074681 0 0.46586242272604061 -0.21273545752659301 0 0.46013683997144489 -0.19980648616473931 0 0.48006841998572208 -0.20808990240084899 0 0.46586242272604061 -0.21273545752659301 0 0.48006841998572208 -0.20808990240084899 0 0.47005683011064803 -0.22590290220369119 0 0.46013683997144489 -0.19980648616473931 0 0.48006841998572208 -0.20808990240084899 0 0.47427671796452459 -0.19390449174425081 0 0.47868008644015098 -0.18364062408913809 0 0.47427671796452459 -0.19390449174425081 0 0.5 -0.1885669917164324 0 0.48006841998572208 -0.20808990240084899 0 0.47427671796452459 -0.19390449174425081 0 0.5 -0.1885669917164324 0 0.48006841998572208 -0.20808990240084899 0 0.5 -0.1885669917164324 0 0.49999999999999961 -0.21637331863695819 0 0.48006841998572208 -0.20808990240084899 0 0.49999999999999961 -0.21637331863695819 0 0.48006841998572208 -0.20808990240084899 0 0.49999999999999961 -0.21637331863695819 0 0.4862545149737133 -0.22430099187442659 0 0.49999999999999961 -0.21637331863695819 0 0.5 -0.2322286651118938 0 0.4862545149737133 -0.22430099187442659 0 0.5 -0.2322286651118938 0 0.4862545149737133 -0.22430099187442659 0 0.48731543898686108 -0.23834171508702701 0 0.4862545149737133 -0.22430099187442659 0 0.47005683011064803 -0.22590290220369119 0 0.48731543898686108 -0.23834171508702701 0 0.48006841998572208 -0.20808990240084899 0 0.4862545149737133 -0.22430099187442659 0 0.47005683011064803 -0.22590290220369119 0 0.46661169077989217 -0.2415165845456661 0 0.47005683011064803 -0.22590290220369119 0 0.48731543898686108 -0.23834171508702701 0 0.46661169077989217 -0.2415165845456661 0 0.47785808936807489 -0.24877368548012899 0 0.48731543898686108 -0.23834171508702701 0 0.47785808936807489 -0.24877368548012899 0 0.50000000000000333 -0.24808401158682941 0 0.48731543898686108 -0.23834171508702701 0 0.5 -0.2322286651118938 0 0.50000000000000333 -0.24808401158682941 0 0.48731543898686108 -0.23834171508702701 0 0.47785808936807489 -0.24877368548012899 0 0.50000000000000333 -0.24808401158682941 0 0.50000000000000333 -0.24808401158682941 0 0.48656724266228879 -0.26126228076250718 0 0.5 -0.26842994380811291 0 0.47785808936807489 -0.24877368548012899 0 0.50000000000000333 -0.24808401158682941 0 0.48656724266228879 -0.26126228076250718 0 0.5 -0.26842994380811291 0 0.48208681399926079 -0.27581357356502773 0 0.50000000000000111 -0.28877587602939642 0 0.48656724266228879 -0.26126228076250718 0 0.5 -0.26842994380811291 0 0.48208681399926079 -0.27581357356502773 0 0.48208681399926079 -0.27581357356502773 0 0.46068671901070851 -0.28535474144655731 0 0.48208681399926079 -0.27581357356502773 0 0.46768981413575761 -0.2649492641288182 0 0.46068671901070851 -0.28535474144655731 0 0.48656724266228879 -0.26126228076250718 0 0.48208681399926079 -0.27581357356502773 0 0.46768981413575761 -0.2649492641288182 0 0.47785808936807489 -0.24877368548012899 0 0.48656724266228879 -0.26126228076250718 0 0.46768981413575761 -0.2649492641288182 0 0.45571617873614662 -0.24946335937342859 0 0.47785808936807489 -0.24877368548012899 0 0.46768981413575761 -0.2649492641288182 0 0.45571617873614662 -0.24946335937342859 0 0.46768981413575761 -0.2649492641288182 0 0.44713049355746243 -0.26775388735664418 0 0.46768981413575761 -0.2649492641288182 0 0.44713049355746243 -0.26775388735664418 0 0.46068671901070851 -0.28535474144655731 0 0.44713049355746243 -0.26775388735664418 0 0.46068671901070851 -0.28535474144655731 0 0.45571617873614662 -0.24946335937342859 0 0.44713049355746243 -0.26775388735664418 0 0.43357426810421817 -0.25015303326672972 0 0.44713049355746243 -0.26775388735664418 0 0.43357426810421817 -0.25015303326672972 0 0.43808872290812301 -0.29542998993102848 0 0.44582747314286902 -0.31276753443956201 0 0.43031487288344161 -0.31703067604683871 0 0.43808872290812301 -0.29542998993102848 0 0.45932525709009708 -0.30194153040829069 0 0.44582747314286902 -0.31276753443956201 0 0.43808872290812301 -0.29542998993102848 0 0.46068671901070851 -0.28535474144655731 0 0.45932525709009708 -0.30194153040829069 0 0.43808872290812301 -0.29542998993102848 0 0.46068671901070851 -0.28535474144655731 0 0.44713049355746243 -0.26775388735664418 0 0.43808872290812301 -0.29542998993102848 0 0.46068671901070851 -0.28535474144655731 0 0.46068671901070851 -0.28535474144655731 0 0.47654280981399377 -0.30594164756046982 0 0.46068671901070851 -0.28535474144655731 0 0.45932525709009708 -0.30194153040829069 0 0.47654280981399377 -0.30594164756046982 0 0.45932525709009708 -0.30194153040829069 0 0.46020140703816609 -0.31790014661013011 0 0.44582747314286902 -0.31276753443956201 0 0.47654280981399377 -0.30594164756046982 0 0.46020140703816609 -0.31790014661013011 0 0.45932525709009708 -0.30194153040829069 0 0.47654280981399377 -0.30594164756046982 0 0.46020140703816609 -0.31790014661013011 0 0.47654280981399377 -0.30594164756046982 0 0.48452590656705868 -0.31630657706248883 0 0.48208681399926079 -0.27581357356502773 0 0.46068671901070851 -0.28535474144655731 0 0.47654280981399377 -0.30594164756046982 0 0.48208681399926079 -0.27581357356502773 0 0.47654280981399377 -0.30594164756046982 0 0.50000000000000111 -0.28877587602939642 0 0.50000000000000111 -0.28877587602939642 0 0.5 -0.31627016595707702 0 0.48452590656705868 -0.31630657706248883 0 0.47654280981399377 -0.30594164756046982 0 0.50000000000000111 -0.28877587602939642 0 0.47654280981399377 -0.30594164756046982 0 0.50000000000000111 -0.28877587602939642 0 0.48452590656705868 -0.31630657706248883 0 0.5 -0.31627016595707702 0 0.48452590656705868 -0.31630657706248883 0 0.4798244965011923 -0.33203805400226027 0 0.5 -0.31627016595707702 0 0.4798244965011923 -0.33203805400226027 0 0.5 -0.34376445588475768 0 0.4798244965011923 -0.33203805400226027 0 0.46847105179670839 -0.34389899480205388 0 0.46020140703816609 -0.31790014661013011 0 0.47654280981399377 -0.30594164756046982 0 0.47527365498010271 -0.31804660630883719 0 0.46020140703816609 -0.31790014661013011 0 0.48452590656705868 -0.31630657706248883 0 0.4798244965011923 -0.33203805400226027 0 0.47527365498010271 -0.31804660630883719 0 0.4798244965011923 -0.33203805400226027 0 0.47527365498010271 -0.31804660630883719 0 0.46020140703816609 -0.31790014661013011 0 0.47654280981399377 -0.30594164756046982 0 0.48452590656705868 -0.31630657706248883 0 0.47527365498010271 -0.31804660630883719 0 0.49999999999999711 -0.37125874581243851 0 0.48806042456369142 -0.35612155968098341 0 0.47674069655525092 -0.3698978429939776 0 0.4798244965011923 -0.33203805400226027 0 0.48806042456369142 -0.35612155968098341 0 0.5 -0.34376445588475768 0 0.49999999999999711 -0.37125874581243851 0 0.48806042456369142 -0.35612155968098341 0 0.5 -0.34376445588475768 0 0.4798244965011923 -0.33203805400226027 0 0.48806042456369142 -0.35612155968098341 0 0.46847105179670839 -0.34389899480205388 0 0.48806042456369142 -0.35612155968098341 0 0.47674069655525092 -0.3698978429939776 0 0.46847105179670839 -0.34389899480205388 0 0.47674069655525092 -0.3698978429939776 0 0.46847105179670839 -0.34389899480205388 0 0.47674069655525092 -0.3698978429939776 0 0.45392603783110008 -0.37108838658624999 0 0.46847105179670839 -0.34389899480205388 0 0.45392603783110008 -0.37108838658624999 0 0.46847105179670839 -0.34389899480205388 0 0.44672977628043381 -0.35017364189741718 0 0.45392603783110008 -0.37108838658624999 0 0.44672977628043381 -0.35017364189741718 0 0.42785183481717409 -0.36595316276467199 0 0.45392603783110008 -0.37108838658624999 0 0.42785183481717409 -0.36595316276467199 0 0.43242581624588322 -0.38730115333965082 0 0.46847105179670839 -0.34389899480205388 0 0.46020140703816609 -0.31790014661013011 0 0.46847105179670839 -0.34389899480205388 0 0.46020140703816609 -0.31790014661013011 0 0.45431986664039198 -0.33607192194780172 0 0.46847105179670839 -0.34389899480205388 0 0.44672977628043381 -0.35017364189741718 0 0.45431986664039198 -0.33607192194780172 0 0.44672977628043381 -0.35017364189741718 0 0.44127539957872802 -0.33175003730325792 0 0.42823689835664952 -0.34636857782623809 0 0.44672977628043381 -0.35017364189741718 0 0.45431986664039198 -0.33607192194780172 0 0.44127539957872802 -0.33175003730325792 0 0.46020140703816609 -0.31790014661013011 0 0.45431986664039198 -0.33607192194780172 0 0.44127539957872802 -0.33175003730325792 0 0.44127539957872802 -0.33175003730325792 0 0.44582747314286902 -0.31276753443956201 0 0.43031487288344161 -0.31703067604683871 0 0.46020140703816609 -0.31790014661013011 0 0.44127539957872802 -0.33175003730325792 0 0.46020140703816609 -0.31790014661013011 0 0.44127539957872802 -0.33175003730325792 0 0.44582747314286902 -0.31276753443956201 0 0.44127539957872802 -0.33175003730325792 0 0.43031487288344161 -0.31703067604683871 0 0.41707429101309201 -0.3297381436533145 0 0.44127539957872802 -0.33175003730325792 0 0.41707429101309201 -0.3297381436533145 0 0.42823689835664952 -0.34636857782623809 0 0.41707429101309201 -0.3297381436533145 0 0.42823689835664952 -0.34636857782623809 0 0.40866613474490449 -0.35252068697126149 0 0.41707429101309201 -0.3297381436533145 0 0.39289273070295128 -0.31558048689996993 0 0.41549072680553711 -0.30550523841549909 0 0.43031487288344161 -0.31703067604683871 0 0.41707429101309201 -0.3297381436533145 0 0.41549072680553711 -0.30550523841549909 0 0.44672977628043381 -0.35017364189741718 0 0.42785183481717409 -0.36595316276467199 0 0.42823689835664952 -0.34636857782623809 0 0.42785183481717409 -0.36595316276467199 0 0.40866613474490449 -0.35252068697126149 0 0.42785183481717409 -0.36595316276467199 0 0.42823689835664952 -0.34636857782623809 0 0.40866613474490449 -0.35252068697126149 0 0.42785183481717409 -0.36595316276467199 0 0.4111933065081313 -0.36805982019164402 0 0.41287057948892703 -0.38518927514730122 0 0.42785183481717409 -0.36595316276467199 0 0.40866613474490449 -0.35252068697126149 0 0.4111933065081313 -0.36805982019164402 0 0.39290052262193498 -0.35565000096393579 0 0.38249634533461108 -0.36797477098799591 0 0.39650622041158878 -0.3765742856902482 0 0.4111933065081313 -0.36805982019164402 0 0.39290052262193498 -0.35565000096393579 0 0.39650622041158878 -0.3765742856902482 0 0.40866613474490449 -0.35252068697126149 0 0.39290052262193498 -0.35565000096393579 0 0.38948043467263488 -0.33908821117785082 0 0.40866613474490449 -0.35252068697126149 0 0.38948043467263488 -0.33908821117785082 0 0.40866613474490449 -0.35252068697126149 0 0.4111933065081313 -0.36805982019164402 0 0.39290052262193498 -0.35565000096393579 0 0.39290052262193498 -0.35565000096393579 0 0.37818146540529818 -0.34934783795600571 0 0.38249634533461108 -0.36797477098799591 0 0.39290052262193498 -0.35565000096393579 0 0.37818146540529818 -0.34934783795600571 0 0.38948043467263488 -0.33908821117785082 0 0.37818146540529818 -0.34934783795600571 0 0.38249634533461108 -0.36797477098799591 0 0.37305712147220338 -0.36102055586376819 0 0.41707429101309201 -0.3297381436533145 0 0.40866613474490449 -0.35252068697126149 0 0.38948043467263488 -0.33908821117785082 0 0.41707429101309201 -0.3297381436533145 0 0.39289273070295128 -0.31558048689996993 0 0.38948043467263488 -0.33908821117785082 0 0.37818146540529818 -0.34934783795600571 0 0.38948043467263488 -0.33908821117785082 0 0.37212478857772979 -0.33864880005647208 0 0.38948043467263488 -0.33908821117785082 0 0.37029473460036533 -0.32565573538444043 0 0.38948043467263488 -0.33908821117785082 0 0.37029473460036533 -0.32565573538444043 0 0.37212478857772979 -0.33864880005647208 0 0.39289273070295128 -0.31558048689996993 0 0.38064079273778262 -0.31288188218018531 0 0.37029473460036533 -0.32565573538444043 0 0.39289273070295128 -0.31558048689996993 0 0.37029473460036533 -0.32565573538444043 0 0.39289273070295128 -0.31558048689996993 0 0.38948043467263488 -0.33908821117785082 0 0.37029473460036533 -0.32565573538444043 0 0.38064079273778262 -0.31288188218018531 0 0.37804720550635529 -0.30651687721429538 0 0.38870969627640167 -0.30439929484627132 0 0.38064079273778262 -0.31288188218018531 0 0.37804720550635529 -0.30651687721429538 0 0.37325959660283969 -0.31225701655594912 0 0.37804720550635529 -0.30651687721429538 0 0.38032829646105881 -0.29636137241382532 0 0.36761344479238373 -0.29508033606196837 0 0.37804720550635529 -0.30651687721429538 0 0.38870969627640167 -0.30439929484627132 0 0.38032829646105881 -0.29636137241382532 0 0.38870969627640167 -0.30439929484627132 0 0.3879772147484597 -0.29176707856862888 0 0.38032829646105881 -0.29636137241382532 0 0.39289273070295128 -0.31558048689996993 0 0.38064079273778262 -0.31288188218018531 0 0.38870969627640167 -0.30439929484627132 0 0.39289273070295128 -0.31558048689996993 0 0.39985527598894161 -0.30920798579428682 0 0.41549072680553711 -0.30550523841549909 0 0.39985527598894161 -0.30920798579428682 0 0.39681295496079538 -0.29611275996065012 0 0.40939030264251791 -0.28957609748361951 0 0.39985527598894161 -0.30920798579428682 0 0.40939030264251791 -0.28957609748361951 0 0.39289273070295128 -0.31558048689996993 0 0.41549072680553711 -0.30550523841549909 0 0.39289273070295128 -0.31558048689996993 0 0.38870969627640167 -0.30439929484627132 0 0.39985527598894161 -0.30920798579428682 0 0.38870969627640167 -0.30439929484627132 0 0.39681295496079538 -0.29611275996065012 0 0.3879772147484597 -0.29176707856862888 0 0.38870969627640167 -0.30439929484627132 0 0.39985527598894161 -0.30920798579428682 0 0.39681295496079538 -0.29611275996065012 0 0.39922652050867191 -0.28295197323892363 0 0.39681295496079538 -0.29611275996065012 0 0.40939030264251791 -0.28957609748361951 0 0.39922652050867191 -0.28295197323892363 0 0.39681295496079538 -0.29611275996065012 0 0.3879772147484597 -0.29176707856862888 0 0.39922652050867191 -0.28295197323892363 0 0.3879772147484597 -0.29176707856862888 0 0.38840358504398731 -0.28029486931936831 0 0.3879772147484597 -0.29176707856862888 0 0.37929392098169401 -0.28404327537796259 0 0.38840358504398731 -0.28029486931936831 0 0.38032829646105881 -0.29636137241382532 0 0.37929392098169401 -0.28404327537796259 0 0.36761344479238373 -0.29508033606196837 0 0.3879772147484597 -0.29176707856862888 0 0.38032829646105881 -0.29636137241382532 0 0.37929392098169401 -0.28404327537796259 0 0.37929392098169401 -0.28404327537796259 0 0.38326599173650672 -0.27147868498013239 0 0.3725796289452375 -0.26579697317357759 0 0.37929392098169401 -0.28404327537796259 0 0.38326599173650672 -0.27147868498013239 0 0.38840358504398731 -0.28029486931936831 0 0.38326599173650672 -0.27147868498013239 0 0.38840358504398731 -0.28029486931936831 0 0.39544519547575041 -0.26880031542545191 0 0.37754581309809132 -0.23651361028518689 0 0.3725796289452375 -0.26579697317357759 0 0.37754581309809132 -0.23651361028518689 0 0.3871149211879113 -0.25548270742864421 0 0.3725796289452375 -0.26579697317357759 0 0.38326599173650672 -0.27147868498013239 0 0.3871149211879113 -0.25548270742864421 0 0.39544519547575041 -0.26880031542545191 0 0.38326599173650672 -0.27147868498013239 0 0.3871149211879113 -0.25548270742864421 0 0.3725796289452375 -0.26579697317357759 0 0.3871149211879113 -0.25548270742864421 0 0.40207495352916539 -0.25113417058953519 0 0.39544519547575041 -0.26880031542545191 0 0.40207495352916539 -0.25113417058953519 0 0.39544519547575041 -0.26880031542545191 0 0.41892532929609411 -0.26994420917295231 0 0.39922652050867191 -0.28295197323892363 0 0.39544519547575041 -0.26880031542545191 0 0.41892532929609411 -0.26994420917295231 0 0.39922652050867191 -0.28295197323892363 0 0.38840358504398731 -0.28029486931936831 0 0.39544519547575041 -0.26880031542545191 0 0.41892532929609411 -0.26994420917295231 0 0.40939030264251791 -0.28957609748361951 0 0.41892532929609411 -0.26994420917295231 0 0.42674472615619141 -0.28201696019190231 0 0.40939030264251791 -0.28957609748361951 0 0.39922652050867191 -0.28295197323892363 0 0.41892532929609411 -0.26994420917295231 0 0.40939030264251791 -0.28957609748361951 0 0.40207495352916539 -0.25113417058953519 0 0.41892532929609411 -0.26994420917295231 0 0.42846035594967069 -0.25031232086228522 0 0.40207495352916539 -0.25113417058953519 0 0.42846035594967069 -0.25031232086228522 0 0.44713049355746243 -0.26775388735664418 0 0.4314427817274139 -0.26389233879167029 0 0.43357426810421817 -0.25015303326672972 0 0.41892532929609411 -0.26994420917295231 0 0.42846035594967069 -0.25031232086228522 0 0.41892532929609411 -0.26994420917295231 0 0.42846035594967069 -0.25031232086228522 0 0.4314427817274139 -0.26389233879167029 0 0.42846035594967069 -0.25031232086228522 0 0.4314427817274139 -0.26389233879167029 0 0.43357426810421817 -0.25015303326672972 0 0.42846035594967069 -0.25031232086228522 0 0.43357426810421817 -0.25015303326672972 0 0.41892532929609411 -0.26994420917295231 0 0.4314427817274139 -0.26389233879167029 0 0.42674472615619141 -0.28201696019190231 0 0.44713049355746243 -0.26775388735664418 0 0.4314427817274139 -0.26389233879167029 0 0.42674472615619141 -0.28201696019190231 0 0.43808872290812301 -0.29542998993102848 0 0.42674472615619141 -0.28201696019190231 0 0.41549072680553711 -0.30550523841549909 0 0.44713049355746243 -0.26775388735664418 0 0.43808872290812301 -0.29542998993102848 0 0.42674472615619141 -0.28201696019190231 0 0.43808872290812301 -0.29542998993102848 0 0.43031487288344161 -0.31703067604683871 0 0.41549072680553711 -0.30550523841549909 0 0.43808872290812301 -0.29542998993102848 0 0.41549072680553711 -0.30550523841549909 0 0.39985527598894161 -0.30920798579428682 0 0.41549072680553711 -0.30550523841549909 0 0.40939030264251791 -0.28957609748361951 0 0.42674472615619141 -0.28201696019190231 0 0.41549072680553711 -0.30550523841549909 0 0.40939030264251791 -0.28957609748361951 0 0.43773802119989941 -0.49999999999999978 0 0.45890943729545802 -0.4823892052391901 0 0.4796611806106722 -0.48718440019654963 0 0.43773802119989941 -0.49999999999999978 0 0.44535189907423273 -0.48425652050154361 0 0.43773802119989941 -0.49999999999999978 0 0.44535189907423273 -0.48425652050154361 0 0.45890943729545802 -0.4823892052391901 0 0.43920548674920379 -0.47249175324936749 0 0.44535189907423273 -0.48425652050154361 0 0.45296577694856682 -0.46851304100308783 0 0.43920548674920379 -0.47249175324936749 0 0.44535189907423273 -0.48425652050154361 0 0.42866409193048188 -0.47676758270227471 0 0.44535189907423273 -0.48425652050154361 0 0.45589009982111051 -0.4775459799915327 0 0.45296577694856682 -0.46851304100308783 0 0.44535189907423273 -0.48425652050154361 0 0.45296577694856682 -0.46851304100308783 0 0.45589009982111051 -0.4775459799915327 0 0.45890943729545802 -0.4823892052391901 0 0.46145872075250199 -0.4714816097570898 0 0.44535189907423273 -0.48425652050154361 0 0.45589009982111051 -0.4775459799915327 0 0.45890943729545802 -0.4823892052391901 0 0.45890943729545802 -0.4823892052391901 0 0.46145872075250199 -0.4714816097570898 0 0.47563876839417468 -0.4748936591889994 0 0.46145872075250199 -0.4714816097570898 0 0.45296577694856682 -0.46851304100308783 0 0.45589009982111051 -0.4775459799915327 0 0.46145872075250199 -0.4714816097570898 0 0.45296577694856682 -0.46851304100308783 0 0.43773802119989941 -0.49999999999999978 0 0.4796611806106722 -0.48718440019654963 0 0.5 -0.5 0 0.4796611806106722 -0.48718440019654963 0 0.5 -0.5 0 0.5 -0.47026069904804169 0 0.5 -0.47026069904804169 0 0.47563876839417468 -0.4748936591889994 0 0.47905351322328699 -0.46315238170412548 0 0.4796611806106722 -0.48718440019654963 0 0.5 -0.47026069904804169 0 0.47563876839417468 -0.4748936591889994 0 0.46145872075250199 -0.4714816097570898 0 0.47563876839417468 -0.4748936591889994 0 0.47905351322328699 -0.46315238170412548 0 0.45890943729545802 -0.4823892052391901 0 0.4796611806106722 -0.48718440019654963 0 0.47563876839417468 -0.4748936591889994 0 0.47905351322328699 -0.46315238170412548 0 0.45899603635761982 -0.45604406436020939 0 0.47905351322328699 -0.46315238170412548 0 0.4788951805990147 -0.44564391983896778 0 0.45899603635761982 -0.45604406436020939 0 0.5 -0.47026069904804169 0 0.47905351322328699 -0.46315238170412548 0 0.5 -0.44373220895607401 0 0.5 -0.47026069904804169 0 0.47905351322328699 -0.46315238170412548 0 0.5 -0.44373220895607401 0 0.4788951805990147 -0.44564391983896778 0 0.48552804520920678 -0.42799216931292611 0 0.47905351322328699 -0.46315238170412548 0 0.5 -0.44373220895607401 0 0.4788951805990147 -0.44564391983896778 0 0.4788951805990147 -0.44564391983896778 0 0.45899603635761982 -0.45604406436020939 0 0.46924702726821282 -0.43484773472326599 0 0.45899603635761982 -0.45604406436020939 0 0.46924702726821282 -0.43484773472326599 0 0.45899603635761982 -0.45604406436020939 0 0.44838303037477362 -0.43447900987216292 0 0.46924702726821282 -0.43484773472326599 0 0.46145872075250199 -0.4714816097570898 0 0.47905351322328699 -0.46315238170412548 0 0.45899603635761982 -0.45604406436020939 0 0.46145872075250199 -0.4714816097570898 0 0.45899603635761982 -0.45604406436020939 0 0.45296577694856682 -0.46851304100308783 0 0.45899603635761982 -0.45604406436020939 0 0.45296577694856682 -0.46851304100308783 0 0.44562172027540892 -0.45801600689332289 0 0.45296577694856682 -0.46851304100308783 0 0.42984017904353489 -0.46042986879056458 0 0.43920548674920379 -0.47249175324936749 0 0.45296577694856682 -0.46851304100308783 0 0.42984017904353489 -0.46042986879056458 0 0.44562172027540892 -0.45801600689332289 0 0.43764883001816302 -0.44847867026387339 0 0.42984017904353489 -0.46042986879056458 0 0.45899603635761982 -0.45604406436020939 0 0.44562172027540892 -0.45801600689332289 0 0.45296577694856682 -0.46851304100308783 0 0.45296577694856682 -0.46851304100308783 0 0.42984017904353489 -0.46042986879056458 0 0.45899603635761982 -0.45604406436020939 0 0.44562172027540892 -0.45801600689332289 0 0.43764883001816302 -0.44847867026387339 0 0.45899603635761982 -0.45604406436020939 0 0.43764883001816302 -0.44847867026387339 0 0.44838303037477362 -0.43447900987216292 0 0.43764883001816302 -0.44847867026387339 0 0.44838303037477362 -0.43447900987216292 0 0.43199803478474752 -0.43480066315574151 0 0.45899603635761982 -0.45604406436020939 0 0.43764883001816302 -0.44847867026387339 0 0.44838303037477362 -0.43447900987216292 0 0.43524810038533429 -0.42324892749070769 0 0.43199803478474752 -0.43480066315574151 0 0.44838303037477362 -0.43447900987216292 0 0.45481320319103757 -0.41743251132042969 0 0.43524810038533429 -0.42324892749070769 0 0.45481320319103757 -0.41743251132042969 0 0.43477646914432833 -0.40550992295969079 0 0.43524810038533429 -0.42324892749070769 0 0.45481320319103757 -0.41743251132042969 0 0.46680969583490778 -0.41274858841526157 0 0.46924702726821282 -0.43484773472326599 0 0.45481320319103757 -0.41743251132042969 0 0.46680969583490778 -0.41274858841526157 0 0.46697148891275431 -0.40002921638500172 0 0.44838303037477362 -0.43447900987216292 0 0.45481320319103757 -0.41743251132042969 0 0.46924702726821282 -0.43484773472326599 0 0.5 -0.44373220895607401 0 0.48552804520920678 -0.42799216931292611 0 0.5 -0.40208557795999961 0 0.46924702726821282 -0.43484773472326599 0 0.48552804520920678 -0.42799216931292611 0 0.47949801817880677 -0.41365140508632309 0 0.4788951805990147 -0.44564391983896778 0 0.46924702726821282 -0.43484773472326599 0 0.48552804520920678 -0.42799216931292611 0 0.46924702726821282 -0.43484773472326599 0 0.47949801817880677 -0.41365140508632309 0 0.48552804520920678 -0.42799216931292611 0 0.47949801817880677 -0.41365140508632309 0 0.5 -0.40208557795999961 0 0.46680969583490778 -0.41274858841526157 0 0.46924702726821282 -0.43484773472326599 0 0.47949801817880677 -0.41365140508632309 0 0.46680969583490778 -0.41274858841526157 0 0.47949801817880677 -0.41365140508632309 0 0.47485796399023311 -0.40328323013715978 0 0.47949801817880677 -0.41365140508632309 0 0.47485796399023311 -0.40328323013715978 0 0.48501034131379339 -0.39589669118590137 0 0.46680969583490778 -0.41274858841526157 0 0.47485796399023311 -0.40328323013715978 0 0.46697148891275431 -0.40002921638500172 0 0.47485796399023311 -0.40328323013715978 0 0.47548297721973709 -0.39513831255209197 0 0.46697148891275431 -0.40002921638500172 0 0.47548297721973709 -0.39513831255209197 0 0.47310568845609052 -0.38536867418522291 0 0.46697148891275431 -0.40002921638500172 0 0.47548297721973709 -0.39513831255209197 0 0.48501034131379339 -0.39589669118590137 0 0.47310568845609052 -0.38536867418522291 0 0.47485796399023311 -0.40328323013715978 0 0.47548297721973709 -0.39513831255209197 0 0.48501034131379339 -0.39589669118590137 0 0.47949801817880677 -0.41365140508632309 0 0.48974900908940078 -0.39245507544938019 0 0.47949801817880677 -0.41365140508632309 0 0.5 -0.40208557795999961 0 0.48974900908940078 -0.39245507544938019 0 0.47949801817880677 -0.41365140508632309 0 0.48974900908940078 -0.39245507544938019 0 0.48501034131379339 -0.39589669118590137 0 0.49999999999999711 -0.37125874581243851 0 0.5 -0.40208557795999961 0 0.48974900908940078 -0.39245507544938019 0 0.49999999999999711 -0.37125874581243851 0 0.47674069655525092 -0.3698978429939776 0 0.48974900908940078 -0.39245507544938019 0 0.49999999999999711 -0.37125874581243851 0 0.48974900908940078 -0.39245507544938019 0 0.47674069655525092 -0.3698978429939776 0 0.48501034131379339 -0.39589669118590137 0 0.47310568845609052 -0.38536867418522291 0 0.47674069655525092 -0.3698978429939776 0 0.48974900908940078 -0.39245507544938019 0 0.48501034131379339 -0.39589669118590137 0 0.47674069655525092 -0.3698978429939776 0 0.48501034131379339 -0.39589669118590137 0 0.45392603783110008 -0.37108838658624999 0 0.47310568845609052 -0.38536867418522291 0 0.45155556879862868 -0.3944603689424081 0 0.47674069655525092 -0.3698978429939776 0 0.45392603783110008 -0.37108838658624999 0 0.47310568845609052 -0.38536867418522291 0 0.45481320319103757 -0.41743251132042969 0 0.46697148891275431 -0.40002921638500172 0 0.45155556879862868 -0.3944603689424081 0 0.47310568845609052 -0.38536867418522291 0 0.46697148891275431 -0.40002921638500172 0 0.45155556879862868 -0.3944603689424081 0 0.45481320319103757 -0.41743251132042969 0 0.45155556879862868 -0.3944603689424081 0 0.43477646914432833 -0.40550992295969079 0 0.45155556879862868 -0.3944603689424081 0 0.43242581624588322 -0.38730115333965082 0 0.43477646914432833 -0.40550992295969079 0 0.45392603783110008 -0.37108838658624999 0 0.45155556879862868 -0.3944603689424081 0 0.43242581624588322 -0.38730115333965082 0 0.42785183481717409 -0.36595316276467199 0 0.43242581624588322 -0.38730115333965082 0 0.41287057948892703 -0.38518927514730122 0 0.43242581624588322 -0.38730115333965082 0 0.43477646914432833 -0.40550992295969079 0 0.41749483707519452 -0.40538692165420498 0 0.43242581624588322 -0.38730115333965082 0 0.41749483707519452 -0.40538692165420498 0 0.41287057948892703 -0.38518927514730122 0 0.41749483707519452 -0.40538692165420498 0 0.41287057948892703 -0.38518927514730122 0 0.40336078828097621 -0.40362515372992341 0 0.4111933065081313 -0.36805982019164402 0 0.41287057948892703 -0.38518927514730122 0 0.39650622041158878 -0.3765742856902482 0 0.41287057948892703 -0.38518927514730122 0 0.39650622041158878 -0.3765742856902482 0 0.39372170841196569 -0.3925803949292499 0 0.38249634533461108 -0.36797477098799591 0 0.39650622041158878 -0.3765742856902482 0 0.37900977316023637 -0.39091548517495972 0 0.39650622041158878 -0.3765742856902482 0 0.37900977316023637 -0.39091548517495972 0 0.39372170841196569 -0.3925803949292499 0 0.38249634533461108 -0.36797477098799591 0 0.37900977316023637 -0.39091548517495972 0 0.36724772315424481 -0.38247146420994571 0 0.37900977316023637 -0.39091548517495972 0 0.39372170841196569 -0.3925803949292499 0 0.37842665921942997 -0.40887405987875969 0 0.37900977316023637 -0.39091548517495972 0 0.37842665921942997 -0.40887405987875969 0 0.36824105802713031 -0.4000969440192842 0 0.39372170841196569 -0.3925803949292499 0 0.39194747191700757 -0.41402513481906722 0 0.37842665921942997 -0.40887405987875969 0 0.41287057948892703 -0.38518927514730122 0 0.39372170841196569 -0.3925803949292499 0 0.40336078828097621 -0.40362515372992341 0 0.39372170841196569 -0.3925803949292499 0 0.40336078828097621 -0.40362515372992341 0 0.39194747191700757 -0.41402513481906722 0 0.40336078828097621 -0.40362515372992341 0 0.39194747191700757 -0.41402513481906722 0 0.41036500379586138 -0.42217021861448573 0 0.39194747191700757 -0.41402513481906722 0 0.37842665921942997 -0.40887405987875969 0 0.3754845505291648 -0.42231636227288599 0 0.39194747191700757 -0.41402513481906722 0 0.38276612650569841 -0.43173139982273478 0 0.39495441733924969 -0.43334788207120151 0 0.39194747191700757 -0.41402513481906722 0 0.3754845505291648 -0.42231636227288599 0 0.38276612650569841 -0.43173139982273478 0 0.38276612650569841 -0.43173139982273478 0 0.39495441733924969 -0.43334788207120151 0 0.38358898323347101 -0.44426352436551808 0 0.39495441733924969 -0.43334788207120151 0 0.41630162367870638 -0.44091327616753739 0 0.39194747191700757 -0.41402513481906722 0 0.39495441733924969 -0.43334788207120151 0 0.41036500379586138 -0.42217021861448573 0 0.41036500379586138 -0.42217021861448573 0 0.42295569064062533 -0.42699492369753778 0 0.41630162367870638 -0.44091327616753739 0 0.39495441733924969 -0.43334788207120151 0 0.41036500379586138 -0.42217021861448573 0 0.41630162367870638 -0.44091327616753739 0 0.41749483707519452 -0.40538692165420498 0 0.40336078828097621 -0.40362515372992341 0 0.41036500379586138 -0.42217021861448573 0 0.41749483707519452 -0.40538692165420498 0 0.41036500379586138 -0.42217021861448573 0 0.42458756094721539 -0.41613405657310448 0 0.41036500379586138 -0.42217021861448573 0 0.42458756094721539 -0.41613405657310448 0 0.42295569064062533 -0.42699492369753778 0 0.43477646914432833 -0.40550992295969079 0 0.41749483707519452 -0.40538692165420498 0 0.42458756094721539 -0.41613405657310448 0 0.43477646914432833 -0.40550992295969079 0 0.42458756094721539 -0.41613405657310448 0 0.43524810038533429 -0.42324892749070769 0 0.43199803478474752 -0.43480066315574151 0 0.42295569064062533 -0.42699492369753778 0 0.41630162367870638 -0.44091327616753739 0 0.43524810038533429 -0.42324892749070769 0 0.43199803478474752 -0.43480066315574151 0 0.42295569064062533 -0.42699492369753778 0 0.42458756094721539 -0.41613405657310448 0 0.43524810038533429 -0.42324892749070769 0 0.42295569064062533 -0.42699492369753778 0 0.43764883001816302 -0.44847867026387339 0 0.41630162367870638 -0.44091327616753739 0 0.43764883001816302 -0.44847867026387339 0 0.42984017904353489 -0.46042986879056458 0 0.41630162367870638 -0.44091327616753739 0 0.43764883001816302 -0.44847867026387339 0 0.43199803478474752 -0.43480066315574151 0 0.41630162367870638 -0.44091327616753739 0 0.42984017904353489 -0.46042986879056458 0 0.41583716859034447 -0.46620520778226737 0 0.42866409193048188 -0.47676758270227471 0 0.42984017904353489 -0.46042986879056458 0 0.4067145811385029 -0.45234669657804139 0 0.42984017904353489 -0.46042986879056458 0 0.41583716859034447 -0.46620520778226737 0 0.4067145811385029 -0.45234669657804139 0 0.41583716859034447 -0.46620520778226737 0 0.4067145811385029 -0.45234669657804139 0 0.40148396946935899 -0.46677367853588281 0 0.42984017904353489 -0.46042986879056458 0 0.4067145811385029 -0.45234669657804139 0 0.41630162367870638 -0.44091327616753739 0 0.4067145811385029 -0.45234669657804139 0 0.38358898323347101 -0.44426352436551808 0 0.39182712026942329 -0.45690385307896481 0 0.39495441733924969 -0.43334788207120151 0 0.4067145811385029 -0.45234669657804139 0 0.41630162367870638 -0.44091327616753739 0 0.39495441733924969 -0.43334788207120151 0 0.4067145811385029 -0.45234669657804139 0 0.38358898323347101 -0.44426352436551808 0 0.4067145811385029 -0.45234669657804139 0 0.38358898323347101 -0.44426352436551808 0 0.38358898323347101 -0.44426352436551808 0 0.37514595674159079 -0.45476526552439389 0 0.39182712026942329 -0.45690385307896481 0 0.38276612650569841 -0.43173139982273478 0 0.38358898323347101 -0.44426352436551808 0 0.36596817218281208 -0.43846752572535042 0 0.37514595674159079 -0.45476526552439389 0 0.38538716437757631 -0.46842775420537441 0 0.39182712026942329 -0.45690385307896481 0 0.37514595674159079 -0.45476526552439389 0 0.38538716437757631 -0.46842775420537441 0 0.37212180294075042 -0.46808428500039262 0 0.38538716437757631 -0.46842775420537441 0 0.39182712026942329 -0.45690385307896481 0 0.40148396946935899 -0.46677367853588281 0 0.4067145811385029 -0.45234669657804139 0 0.39182712026942329 -0.45690385307896481 0 0.40148396946935899 -0.46677367853588281 0 0.39434508200087892 -0.48168095957978257 0 0.4057717135424021 -0.48929931529832937 0 0.41138522724611992 -0.47610642689805982 0 0.38538716437757631 -0.46842775420537441 0 0.40148396946935899 -0.46677367853588281 0 0.39434508200087892 -0.48168095957978257 0 0.40148396946935899 -0.46677367853588281 0 0.39434508200087892 -0.48168095957978257 0 0.41138522724611992 -0.47610642689805982 0 0.38538716437757631 -0.46842775420537441 0 0.39434508200087892 -0.48168095957978257 0 0.37586822855092661 -0.48439202442808083 0 0.38538716437757631 -0.46842775420537441 0 0.37586822855092661 -0.48439202442808083 0 0.37212180294075042 -0.46808428500039262 0 0.39434508200087892 -0.48168095957978257 0 0.37586822855092661 -0.48439202442808083 0 0.39289039342582149 -0.5 0 0.37586822855092661 -0.48439202442808083 0 0.39289039342582149 -0.5 0 0.3704665795387827 -0.49999999999999961 0 0.39434508200087892 -0.48168095957978257 0 0.39289039342582149 -0.5 0 0.4057717135424021 -0.48929931529832937 0 0.39289039342582149 -0.5 0 0.4057717135424021 -0.48929931529832937 0 0.41531420731286051 -0.5 0 0.4057717135424021 -0.48929931529832937 0 0.41138522724611992 -0.47610642689805982 0 0.425256426736628 -0.48969697811313823 0 0.4057717135424021 -0.48929931529832937 0 0.41531420731286051 -0.5 0 0.425256426736628 -0.48969697811313823 0 0.41583716859034447 -0.46620520778226737 0 0.41138522724611992 -0.47610642689805982 0 0.42866409193048188 -0.47676758270227471 0 0.41138522724611992 -0.47610642689805982 0 0.42866409193048188 -0.47676758270227471 0 0.425256426736628 -0.48969697811313823 0 0.41583716859034447 -0.46620520778226737 0 0.40148396946935899 -0.46677367853588281 0 0.41138522724611992 -0.47610642689805982 0 0.44535189907423273 -0.48425652050154361 0 0.42866409193048188 -0.47676758270227471 0 0.425256426736628 -0.48969697811313823 0 0.43920548674920379 -0.47249175324936749 0 0.42984017904353489 -0.46042986879056458 0 0.42866409193048188 -0.47676758270227471 0 0.43773802119989941 -0.49999999999999978 0 0.44535189907423273 -0.48425652050154361 0 0.425256426736628 -0.48969697811313823 0 0.43773802119989941 -0.49999999999999978 0 0.41531420731286051 -0.5 0 0.425256426736628 -0.48969697811313823 0 0.32577547594680167 -0.48549728563522948 0 0.313100747974287 -0.5 0 0.34178366375653479 -0.5 0 0.32577547594680167 -0.48549728563522948 0 0.33309118936964399 -0.46704031311580291 0 0.30810638268294871 -0.47012115952174682 0 0.353331436476917 -0.48488928282810861 0 0.33309118936964399 -0.46704031311580291 0 0.32577547594680167 -0.48549728563522948 0 0.353331436476917 -0.48488928282810861 0 0.33309118936964399 -0.46704031311580291 0 0.32577547594680167 -0.48549728563522948 0 0.353331436476917 -0.48488928282810861 0 0.32577547594680167 -0.48549728563522948 0 0.34178366375653479 -0.5 0 0.353331436476917 -0.48488928282810861 0 0.34178366375653479 -0.5 0 0.353331436476917 -0.48488928282810861 0 0.3704665795387827 -0.49999999999999961 0 0.353331436476917 -0.48488928282810861 0 0.3704665795387827 -0.49999999999999961 0 0.37586822855092661 -0.48439202442808083 0 0.353331436476917 -0.48488928282810861 0 0.37586822855092661 -0.48439202442808083 0 0.353331436476917 -0.48488928282810861 0 0.3704665795387827 -0.49999999999999961 0 0.37586822855092661 -0.48439202442808083 0 0.353331436476917 -0.48488928282810861 0 0.36174609683149922 -0.47333229839911978 0 0.37586822855092661 -0.48439202442808083 0 0.36174609683149922 -0.47333229839911978 0 0.37212180294075042 -0.46808428500039262 0 0.353331436476917 -0.48488928282810861 0 0.3511187368843669 -0.46644655109408317 0 0.33309118936964399 -0.46704031311580291 0 0.353331436476917 -0.48488928282810861 0 0.36174609683149922 -0.47333229839911978 0 0.3511187368843669 -0.46644655109408317 0 0.3511187368843669 -0.46644655109408317 0 0.34821094164401439 -0.44963138573543099 0 0.33309118936964399 -0.46704031311580291 0 0.3511187368843669 -0.46644655109408317 0 0.36000734278227892 -0.4581682973830864 0 0.34821094164401439 -0.44963138573543099 0 0.36174609683149922 -0.47333229839911978 0 0.3511187368843669 -0.46644655109408317 0 0.36000734278227892 -0.4581682973830864 0 0.36174609683149922 -0.47333229839911978 0 0.36000734278227892 -0.4581682973830864 0 0.37212180294075042 -0.46808428500039262 0 0.37514595674159079 -0.45476526552439389 0 0.36000734278227892 -0.4581682973830864 0 0.37212180294075042 -0.46808428500039262 0 0.38358898323347101 -0.44426352436551808 0 0.37514595674159079 -0.45476526552439389 0 0.36596817218281208 -0.43846752572535042 0 0.37514595674159079 -0.45476526552439389 0 0.36000734278227892 -0.4581682973830864 0 0.36596817218281208 -0.43846752572535042 0 0.36596817218281208 -0.43846752572535042 0 0.34821094164401439 -0.44963138573543099 0 0.34622956703096991 -0.43300533851794337 0 0.36000734278227892 -0.4581682973830864 0 0.36596817218281208 -0.43846752572535042 0 0.34821094164401439 -0.44963138573543099 0 0.34821094164401439 -0.44963138573543099 0 0.33295970409203041 -0.44505156475946112 0 0.34622956703096991 -0.43300533851794337 0 0.34821094164401439 -0.44963138573543099 0 0.33295970409203041 -0.44505156475946112 0 0.33309118936964399 -0.46704031311580291 0 0.33295970409203041 -0.44505156475946112 0 0.33309118936964399 -0.46704031311580291 0 0.31285094226236981 -0.44919134340349842 0 0.33309118936964399 -0.46704031311580291 0 0.31285094226236981 -0.44919134340349842 0 0.33309118936964399 -0.46704031311580291 0 0.31285094226236981 -0.44919134340349842 0 0.30810638268294871 -0.47012115952174682 0 0.33295970409203041 -0.44505156475946112 0 0.31285094226236981 -0.44919134340349842 0 0.32443481461114221 -0.42819348402864749 0 0.31285094226236981 -0.44919134340349842 0 0.32443481461114221 -0.42819348402864749 0 0.30716585811758268 -0.42152601893676211 0 0.32443481461114221 -0.42819348402864749 0 0.3377381929345476 -0.41993594981441068 0 0.31826237910007699 -0.40611857650776678 0 0.32443481461114221 -0.42819348402864749 0 0.31826237910007699 -0.40611857650776678 0 0.30716585811758268 -0.42152601893676211 0 0.3377381929345476 -0.41993594981441068 0 0.33955155732169001 -0.40481801647484189 0 0.31826237910007699 -0.40611857650776678 0 0.32443481461114221 -0.42819348402864749 0 0.3377381929345476 -0.41993594981441068 0 0.34622956703096991 -0.43300533851794337 0 0.33295970409203041 -0.44505156475946112 0 0.32443481461114221 -0.42819348402864749 0 0.34622956703096991 -0.43300533851794337 0 0.3377381929345476 -0.41993594981441068 0 0.34622956703096991 -0.43300533851794337 0 0.35818280584871282 -0.41603879828427831 0 0.36596817218281208 -0.43846752572535042 0 0.34622956703096991 -0.43300533851794337 0 0.35818280584871282 -0.41603879828427831 0 0.3754845505291648 -0.42231636227288599 0 0.36596817218281208 -0.43846752572535042 0 0.35818280584871282 -0.41603879828427831 0 0.3754845505291648 -0.42231636227288599 0 0.38276612650569841 -0.43173139982273478 0 0.36596817218281208 -0.43846752572535042 0 0.37842665921942997 -0.40887405987875969 0 0.3754845505291648 -0.42231636227288599 0 0.35818280584871282 -0.41603879828427831 0 0.37842665921942997 -0.40887405987875969 0 0.35818280584871282 -0.41603879828427831 0 0.36824105802713031 -0.4000969440192842 0 0.3377381929345476 -0.41993594981441068 0 0.35818280584871282 -0.41603879828427831 0 0.33955155732169001 -0.40481801647484189 0 0.35818280584871282 -0.41603879828427831 0 0.35120943534252291 -0.3914849644630724 0 0.33955155732169001 -0.40481801647484189 0 0.35818280584871282 -0.41603879828427831 0 0.35120943534252291 -0.3914849644630724 0 0.36824105802713031 -0.4000969440192842 0 0.37900977316023637 -0.39091548517495972 0 0.36824105802713031 -0.4000969440192842 0 0.36724772315424481 -0.38247146420994571 0 0.35120943534252291 -0.3914849644630724 0 0.36824105802713031 -0.4000969440192842 0 0.36724772315424481 -0.38247146420994571 0 0.36724772315424481 -0.38247146420994571 0 0.3553956415560332 -0.375446985373177 0 0.36664078794155069 -0.36853845970684512 0 0.35120943534252291 -0.3914849644630724 0 0.3553956415560332 -0.375446985373177 0 0.34024068493209042 -0.37145909403295352 0 0.35120943534252291 -0.3914849644630724 0 0.36724772315424481 -0.38247146420994571 0 0.3553956415560332 -0.375446985373177 0 0.35120943534252291 -0.3914849644630724 0 0.33045907805143321 -0.38798152631774108 0 0.34024068493209042 -0.37145909403295352 0 0.33045907805143321 -0.38798152631774108 0 0.34024068493209042 -0.37145909403295352 0 0.32473595581008968 -0.36877041147622941 0 0.33045907805143321 -0.38798152631774108 0 0.33955155732169001 -0.40481801647484189 0 0.31826237910007699 -0.40611857650776678 0 0.35120943534252291 -0.3914849644630724 0 0.33045907805143321 -0.38798152631774108 0 0.33955155732169001 -0.40481801647484189 0 0.33045907805143321 -0.38798152631774108 0 0.31826237910007699 -0.40611857650776678 0 0.30852465471842783 -0.38296478278532459 0 0.33045907805143321 -0.38798152631774108 0 0.30852465471842783 -0.38296478278532459 0 0.32473595581008968 -0.36877041147622941 0 0.30852465471842783 -0.38296478278532459 0 0.30157177088572762 -0.39984768184154418 0 0.28524522637625171 -0.38748256695808048 0 0.31826237910007699 -0.40611857650776678 0 0.30852465471842783 -0.38296478278532459 0 0.30157177088572762 -0.39984768184154418 0 0.30157177088572762 -0.39984768184154418 0 0.28524522637625171 -0.38748256695808048 0 0.28909827497095891 -0.41314244090476959 0 0.30852465471842783 -0.38296478278532459 0 0.28524522637625171 -0.38748256695808048 0 0.29576167506738288 -0.36584798696867898 0 0.28524522637625171 -0.38748256695808048 0 0.26194523537769671 -0.38343407302417171 0 0.27628411724202862 -0.36524783617958329 0 0.26194523537769671 -0.38343407302417171 0 0.2677956642119742 -0.40840362680373948 0 0.24730388124056729 -0.40448370284608931 0 0.28524522637625171 -0.38748256695808048 0 0.26194523537769671 -0.38343407302417171 0 0.2677956642119742 -0.40840362680373948 0 0.28524522637625171 -0.38748256695808048 0 0.2677956642119742 -0.40840362680373948 0 0.28909827497095891 -0.41314244090476959 0 0.2677956642119742 -0.40840362680373948 0 0.27472650047210662 -0.43131219108599711 0 0.28909827497095891 -0.41314244090476959 0 0.2677956642119742 -0.40840362680373948 0 0.24845486683426421 -0.43056678600332871 0 0.24730388124056729 -0.40448370284608931 0 0.2677956642119742 -0.40840362680373948 0 0.27472650047210662 -0.43131219108599711 0 0.24845486683426421 -0.43056678600332871 0 0.27472650047210662 -0.43131219108599711 0 0.26710508502781599 -0.44926171113960661 0 0.24845486683426421 -0.43056678600332871 0 0.27472650047210662 -0.43131219108599711 0 0.29418269027227539 -0.43431919247607059 0 0.28909827497095891 -0.41314244090476959 0 0.29418269027227539 -0.43431919247607059 0 0.28909827497095891 -0.41314244090476959 0 0.30716585811758268 -0.42152601893676211 0 0.31826237910007699 -0.40611857650776678 0 0.30157177088572762 -0.39984768184154418 0 0.30716585811758268 -0.42152601893676211 0 0.30157177088572762 -0.39984768184154418 0 0.28909827497095891 -0.41314244090476959 0 0.30716585811758268 -0.42152601893676211 0 0.31285094226236981 -0.44919134340349842 0 0.29418269027227539 -0.43431919247607059 0 0.30716585811758268 -0.42152601893676211 0 0.31285094226236981 -0.44919134340349842 0 0.29418269027227539 -0.43431919247607059 0 0.28597809560131299 -0.4567624239266439 0 0.31285094226236981 -0.44919134340349842 0 0.28597809560131299 -0.4567624239266439 0 0.30810638268294871 -0.47012115952174682 0 0.28597809560131299 -0.4567624239266439 0 0.27356505094757272 -0.46654042127887851 0 0.28658471780149791 -0.47429793876749549 0 0.28597809560131299 -0.4567624239266439 0 0.28658471780149791 -0.47429793876749549 0 0.30810638268294871 -0.47012115952174682 0 0.27472650047210662 -0.43131219108599711 0 0.29418269027227539 -0.43431919247607059 0 0.28597809560131299 -0.4567624239266439 0 0.27472650047210662 -0.43131219108599711 0 0.28597809560131299 -0.4567624239266439 0 0.26710508502781599 -0.44926171113960661 0 0.26710508502781599 -0.44926171113960661 0 0.25055382002994903 -0.45112655962101422 0 0.24845486683426421 -0.43056678600332871 0 0.25055382002994903 -0.45112655962101422 0 0.25749380142066591 -0.46566674131117769 0 0.24452211955108941 -0.47321082899062988 0 0.26710508502781599 -0.44926171113960661 0 0.25055382002994903 -0.45112655962101422 0 0.25749380142066591 -0.46566674131117769 0 0.26710508502781599 -0.44926171113960661 0 0.25749380142066591 -0.46566674131117769 0 0.27356505094757272 -0.46654042127887851 0 0.28597809560131299 -0.4567624239266439 0 0.26710508502781599 -0.44926171113960661 0 0.27356505094757272 -0.46654042127887851 0 0.25749380142066591 -0.46566674131117769 0 0.27356505094757272 -0.46654042127887851 0 0.27066355488657068 -0.48671329124946883 0 0.27356505094757272 -0.46654042127887851 0 0.27066355488657068 -0.48671329124946883 0 0.28658471780149791 -0.47429793876749549 0 0.27066355488657068 -0.48671329124946883 0 0.24310759435645521 -0.48732129405658853 0 0.24452211955108941 -0.47321082899062988 0 0.25749380142066591 -0.46566674131117769 0 0.27066355488657068 -0.48671329124946883 0 0.24452211955108941 -0.47321082899062988 0 0.25573491640979129 -0.5 0 0.27066355488657068 -0.48671329124946883 0 0.24310759435645521 -0.48732129405658853 0 0.27066355488657068 -0.48671329124946883 0 0.24310759435645521 -0.48732129405658853 0 0.25573491640979129 -0.5 0 0.27066355488657068 -0.48671329124946883 0 0.2844178321920392 -0.5 0 0.27066355488657068 -0.48671329124946883 0 0.2844178321920392 -0.5 0 0.29821951541668618 -0.48610528844234918 0 0.27066355488657068 -0.48671329124946883 0 0.29821951541668618 -0.48610528844234918 0 0.27066355488657068 -0.48671329124946883 0 0.28658471780149791 -0.47429793876749549 0 0.29821951541668618 -0.48610528844234918 0 0.28658471780149791 -0.47429793876749549 0 0.30810638268294871 -0.47012115952174682 0 0.29821951541668618 -0.48610528844234918 0 0.32577547594680167 -0.48549728563522948 0 0.30810638268294871 -0.47012115952174682 0 0.29821951541668618 -0.48610528844234918 0 0.313100747974287 -0.5 0 0.2844178321920392 -0.5 0 0.29821951541668618 -0.48610528844234918 0 0.32577547594680167 -0.48549728563522948 0 0.29821951541668618 -0.48610528844234918 0 0.32577547594680167 -0.48549728563522948 0 0.313100747974287 -0.5 0 0.29821951541668618 -0.48610528844234918 0 0.330274064289036 -0.28402767586280209 0 0.34332234684577362 -0.29793808318023329 0 0.34457666422559302 -0.26801309975333321 0 0.330274064289036 -0.28402767586280209 0 0.34332234684577362 -0.29793808318023329 0 0.32977293544345387 -0.30596193421111573 0 0.34332234684577362 -0.29793808318023329 0 0.32977293544345387 -0.30596193421111573 0 0.34206802946595682 -0.32786306660713371 0 0.31744302567780058 -0.29875438106107682 0 0.32081511337912821 -0.31891284763754968 0 0.29956219729229971 -0.30996262866796498 0 0.32977293544345387 -0.30596193421111573 0 0.31744302567780058 -0.29875438106107682 0 0.32081511337912821 -0.31891284763754968 0 0.31744302567780058 -0.29875438106107682 0 0.315203972569992 -0.28599406388836862 0 0.30893165249025939 -0.29458973757352408 0 0.330274064289036 -0.28402767586280209 0 0.32977293544345387 -0.30596193421111573 0 0.31744302567780058 -0.29875438106107682 0 0.330274064289036 -0.28402767586280209 0 0.31744302567780058 -0.29875438106107682 0 0.315203972569992 -0.28599406388836862 0 0.31616400359283131 -0.27140021809428472 0 0.31565659849655159 -0.26881006701694032 0 0.34457666422559302 -0.26801309975333321 0 0.31616400359283131 -0.27140021809428472 0 0.31565659849655159 -0.26881006701694032 0 0.330274064289036 -0.28402767586280209 0 0.315203972569992 -0.28599406388836862 0 0.31616400359283131 -0.27140021809428472 0 0.31140457280844042 -0.24710474912070499 0 0.31565659849655159 -0.26881006701694032 0 0.31140457280844042 -0.24710474912070499 0 0.31565659849655159 -0.26881006701694032 0 0.32909477526671738 -0.25319804842994992 0 0.34542116247921317 -0.24786541093840589 0 0.32909477526671738 -0.25319804842994992 0 0.34457666422559302 -0.26801309975333321 0 0.31565659849655159 -0.26881006701694032 0 0.32909477526671738 -0.25319804842994992 0 0.34457666422559302 -0.26801309975333321 0 0.31565659849655159 -0.26881006701694032 0 0.34457666422559302 -0.26801309975333321 0 0.330274064289036 -0.28402767586280209 0 0.31616400359283131 -0.27140021809428472 0 0.34457666422559302 -0.26801309975333321 0 0.35327842571551671 -0.2677733001931194 0 0.36211004630048071 -0.25874315800932568 0 0.36139056500297317 -0.28258450191058321 0 0.34457666422559302 -0.26801309975333321 0 0.35327842571551671 -0.2677733001931194 0 0.36139056500297317 -0.28258450191058321 0 0.34457666422559302 -0.26801309975333321 0 0.35327842571551671 -0.2677733001931194 0 0.34542116247921317 -0.24786541093840589 0 0.35327842571551671 -0.2677733001931194 0 0.36211004630048071 -0.25874315800932568 0 0.34542116247921317 -0.24786541093840589 0 0.34457666422559302 -0.26801309975333321 0 0.34542116247921317 -0.24786541093840589 0 0.34457666422559302 -0.26801309975333321 0 0.35327842571551671 -0.2677733001931194 0 0.36876625398544938 -0.24898888889403961 0 0.37754581309809132 -0.23651361028518689 0 0.3725796289452375 -0.26579697317357759 0 0.36876625398544938 -0.24898888889403961 0 0.36211004630048071 -0.25874315800932568 0 0.3725796289452375 -0.26579697317357759 0 0.36211004630048071 -0.25874315800932568 0 0.36139056500297317 -0.28258450191058321 0 0.36211004630048071 -0.25874315800932568 0 0.3725796289452375 -0.26579697317357759 0 0.36139056500297317 -0.28258450191058321 0 0.3725796289452375 -0.26579697317357759 0 0.36761344479238373 -0.29508033606196837 0 0.3725796289452375 -0.26579697317357759 0 0.36139056500297317 -0.28258450191058321 0 0.36761344479238373 -0.29508033606196837 0 0.36139056500297317 -0.28258450191058321 0 0.36067108370546558 -0.30642584581184062 0 0.36139056500297317 -0.28258450191058321 0 0.36761344479238373 -0.29508033606196837 0 0.36067108370546558 -0.30642584581184062 0 0.37929392098169401 -0.28404327537796259 0 0.3725796289452375 -0.26579697317357759 0 0.36761344479238373 -0.29508033606196837 0 0.34332234684577362 -0.29793808318023329 0 0.36139056500297317 -0.28258450191058321 0 0.36067108370546558 -0.30642584581184062 0 0.34332234684577362 -0.29793808318023329 0 0.34457666422559302 -0.26801309975333321 0 0.34332234684577362 -0.29793808318023329 0 0.34457666422559302 -0.26801309975333321 0 0.36139056500297317 -0.28258450191058321 0 0.34332234684577362 -0.29793808318023329 0 0.36067108370546558 -0.30642584581184062 0 0.35385294866325562 -0.31815161708919842 0 0.37804720550635529 -0.30651687721429538 0 0.36761344479238373 -0.29508033606196837 0 0.37325959660283969 -0.31225701655594912 0 0.36761344479238373 -0.29508033606196837 0 0.37325959660283969 -0.31225701655594912 0 0.36522996683296982 -0.32210974174446261 0 0.36761344479238373 -0.29508033606196837 0 0.3626472606395299 -0.32436369895035932 0 0.36761344479238373 -0.29508033606196837 0 0.36067108370546558 -0.30642584581184062 0 0.3626472606395299 -0.32436369895035932 0 0.36067108370546558 -0.30642584581184062 0 0.35995160240795782 -0.33026718971309799 0 0.37325959660283969 -0.31225701655594912 0 0.36522996683296982 -0.32210974174446261 0 0.37029473460036533 -0.32565573538444043 0 0.36761344479238373 -0.29508033606196837 0 0.3626472606395299 -0.32436369895035932 0 0.36522996683296982 -0.32210974174446261 0 0.36067108370546558 -0.30642584581184062 0 0.3626472606395299 -0.32436369895035932 0 0.35995160240795782 -0.33026718971309799 0 0.38064079273778262 -0.31288188218018531 0 0.37325959660283969 -0.31225701655594912 0 0.37029473460036533 -0.32565573538444043 0 0.3626472606395299 -0.32436369895035932 0 0.37029473460036533 -0.32565573538444043 0 0.35995160240795782 -0.33026718971309799 0 0.37029473460036533 -0.32565573538444043 0 0.35995160240795782 -0.33026718971309799 0 0.3626472606395299 -0.32436369895035932 0 0.36522996683296982 -0.32210974174446261 0 0.37029473460036533 -0.32565573538444043 0 0.36522996683296982 -0.32210974174446261 0 0.37029473460036533 -0.32565573538444043 0 0.35995160240795782 -0.33026718971309799 0 0.35941557651728179 -0.34802939929915899 0 0.37029473460036533 -0.32565573538444043 0 0.37212478857772979 -0.33864880005647208 0 0.35995160240795782 -0.33026718971309799 0 0.3654326502107581 -0.34245967622864359 0 0.35995160240795782 -0.33026718971309799 0 0.35941557651728179 -0.34802939929915899 0 0.37212478857772979 -0.33864880005647208 0 0.3654326502107581 -0.34245967622864359 0 0.37040156667629781 -0.34671437794913718 0 0.37212478857772979 -0.33864880005647208 0 0.3654326502107581 -0.34245967622864359 0 0.35995160240795782 -0.33026718971309799 0 0.35995160240795782 -0.33026718971309799 0 0.35941557651728179 -0.34802939929915899 0 0.34162477060798069 -0.33843815246039383 0 0.35941557651728179 -0.34802939929915899 0 0.34146637893605181 -0.3422169952266676 0 0.34162477060798069 -0.33843815246039383 0 0.35995160240795782 -0.33026718971309799 0 0.34162477060798069 -0.33843815246039383 0 0.35995160240795782 -0.33026718971309799 0 0.34764647170350632 -0.33021231032179682 0 0.34162477060798069 -0.33843815246039383 0 0.35995160240795782 -0.33026718971309799 0 0.34764647170350632 -0.33021231032179682 0 0.35274785573456591 -0.3260756163463463 0 0.34764647170350632 -0.33021231032179682 0 0.34206802946595682 -0.32786306660713371 0 0.34162477060798069 -0.33843815246039383 0 0.34764647170350632 -0.33021231032179682 0 0.34206802946595682 -0.32786306660713371 0 0.35385294866325562 -0.31815161708919842 0 0.35274785573456591 -0.3260756163463463 0 0.34206802946595682 -0.32786306660713371 0 0.34764647170350632 -0.33021231032179682 0 0.35274785573456591 -0.3260756163463463 0 0.34206802946595682 -0.32786306660713371 0 0.34332234684577362 -0.29793808318023329 0 0.35385294866325562 -0.31815161708919842 0 0.34206802946595682 -0.32786306660713371 0 0.36067108370546558 -0.30642584581184062 0 0.35995160240795782 -0.33026718971309799 0 0.35385294866325562 -0.31815161708919842 0 0.35995160240795782 -0.33026718971309799 0 0.35385294866325562 -0.31815161708919842 0 0.35274785573456591 -0.3260756163463463 0 0.38249634533461108 -0.36797477098799591 0 0.36724772315424481 -0.38247146420994571 0 0.36664078794155069 -0.36853845970684512 0 0.38249634533461108 -0.36797477098799591 0 0.36664078794155069 -0.36853845970684512 0 0.37305712147220338 -0.36102055586376819 0 0.3553956415560332 -0.375446985373177 0 0.36664078794155069 -0.36853845970684512 0 0.35901533294662008 -0.36129221050145399 0 0.36664078794155069 -0.36853845970684512 0 0.37305712147220338 -0.36102055586376819 0 0.36517854466496658 -0.35714892472411869 0 0.36664078794155069 -0.36853845970684512 0 0.36517854466496658 -0.35714892472411869 0 0.35901533294662008 -0.36129221050145399 0 0.36517854466496658 -0.35714892472411869 0 0.35941557651728179 -0.34802939929915899 0 0.35901533294662008 -0.36129221050145399 0 0.36517854466496658 -0.35714892472411869 0 0.36469303305047901 -0.34973837317986511 0 0.35941557651728179 -0.34802939929915899 0 0.36517854466496658 -0.35714892472411869 0 0.37030234625384911 -0.35279401393457888 0 0.36469303305047901 -0.34973837317986511 0 0.37818146540529818 -0.34934783795600571 0 0.37305712147220338 -0.36102055586376819 0 0.37030234625384911 -0.35279401393457888 0 0.37305712147220338 -0.36102055586376819 0 0.36517854466496658 -0.35714892472411869 0 0.37030234625384911 -0.35279401393457888 0 0.37818146540529818 -0.34934783795600571 0 0.37212478857772979 -0.33864880005647208 0 0.37040156667629781 -0.34671437794913718 0 0.37818146540529818 -0.34934783795600571 0 0.37030234625384911 -0.35279401393457888 0 0.37040156667629781 -0.34671437794913718 0 0.37030234625384911 -0.35279401393457888 0 0.37040156667629781 -0.34671437794913718 0 0.36469303305047901 -0.34973837317986511 0 0.3654326502107581 -0.34245967622864359 0 0.37040156667629781 -0.34671437794913718 0 0.36469303305047901 -0.34973837317986511 0 0.36469303305047901 -0.34973837317986511 0 0.35941557651728179 -0.34802939929915899 0 0.3654326502107581 -0.34245967622864359 0 0.36469303305047901 -0.34973837317986511 0 0.35941557651728179 -0.34802939929915899 0 0.35003449333301101 -0.35574942476505861 0 0.34024068493209042 -0.37145909403295352 0 0.34146637893605181 -0.3422169952266676 0 0.35941557651728179 -0.34802939929915899 0 0.35003449333301101 -0.35574942476505861 0 0.34146637893605181 -0.3422169952266676 0 0.35941557651728179 -0.34802939929915899 0 0.34146637893605181 -0.3422169952266676 0 0.35941557651728179 -0.34802939929915899 0 0.35901533294662008 -0.36129221050145399 0 0.35941557651728179 -0.34802939929915899 0 0.35003449333301101 -0.35574942476505861 0 0.35901533294662008 -0.36129221050145399 0 0.35003449333301101 -0.35574942476505861 0 0.35901533294662008 -0.36129221050145399 0 0.34024068493209042 -0.37145909403295352 0 0.3553956415560332 -0.375446985373177 0 0.35901533294662008 -0.36129221050145399 0 0.34024068493209042 -0.37145909403295352 0 0.34024068493209042 -0.37145909403295352 0 0.33264239376833749 -0.35548373211026962 0 0.32473595581008968 -0.36877041147622941 0 0.34024068493209042 -0.37145909403295352 0 0.33264239376833749 -0.35548373211026962 0 0.34146637893605181 -0.3422169952266676 0 0.34024068493209042 -0.37145909403295352 0 0.34146637893605181 -0.3422169952266676 0 0.33264239376833749 -0.35548373211026962 0 0.32969677432389999 -0.34883746930945858 0 0.32350037713642671 -0.3535383953733186 0 0.33264239376833749 -0.35548373211026962 0 0.33484083241944268 -0.34588391539316982 0 0.34146637893605181 -0.3422169952266676 0 0.33264239376833749 -0.35548373211026962 0 0.33484083241944268 -0.34588391539316982 0 0.32969677432389999 -0.34883746930945858 0 0.33484083241944268 -0.34588391539316982 0 0.32969677432389999 -0.34883746930945858 0 0.33080291213000951 -0.34437854531234752 0 0.32969677432389999 -0.34883746930945858 0 0.33080291213000951 -0.34437854531234752 0 0.32576759743036687 -0.34544500479448842 0 0.32576759743036687 -0.34544500479448842 0 0.32008489300350967 -0.34478001059398899 0 0.32350037713642671 -0.3535383953733186 0 0.32969677432389999 -0.34883746930945858 0 0.32576759743036687 -0.34544500479448842 0 0.32350037713642671 -0.3535383953733186 0 0.32576759743036687 -0.34544500479448842 0 0.32008489300350967 -0.34478001059398899 0 0.3230261242077439 -0.3426129045732173 0 0.32008489300350967 -0.34478001059398899 0 0.31455300750316167 -0.34989325112993808 0 0.32350037713642671 -0.3535383953733186 0 0.32008489300350967 -0.34478001059398899 0 0.31455300750316167 -0.34989325112993808 0 0.31278358272303802 -0.34129775444127147 0 0.31455300750316167 -0.34989325112993808 0 0.32350037713642671 -0.3535383953733186 0 0.31266700858965563 -0.36105898834543543 0 0.33264239376833749 -0.35548373211026962 0 0.32350037713642671 -0.3535383953733186 0 0.32473595581008968 -0.36877041147622941 0 0.30852465471842783 -0.38296478278532459 0 0.31266700858965563 -0.36105898834543543 0 0.32473595581008968 -0.36877041147622941 0 0.32350037713642671 -0.3535383953733186 0 0.31266700858965563 -0.36105898834543543 0 0.32473595581008968 -0.36877041147622941 0 0.34332234684577362 -0.29793808318023329 0 0.34206802946595682 -0.32786306660713371 0 0.32977293544345387 -0.30596193421111573 0 0.34206802946595682 -0.32786306660713371 0 0.32081511337912821 -0.31891284763754968 0 0.34206802946595682 -0.32786306660713371 0 0.32602109842812482 -0.32927153728442071 0 0.32081511337912821 -0.31891284763754968 0 0.34206802946595682 -0.32786306660713371 0 0.32081511337912821 -0.31891284763754968 0 0.34206802946595682 -0.32786306660713371 0 0.34162477060798069 -0.33843815246039383 0 0.33801441914131958 -0.33597980122333287 0 0.34206802946595682 -0.32786306660713371 0 0.34162477060798069 -0.33843815246039383 0 0.34206802946595682 -0.32786306660713371 0 0.33503975802439162 -0.33352730776002742 0 0.32602109842812482 -0.32927153728442071 0 0.34206802946595682 -0.32786306660713371 0 0.33801441914131958 -0.33597980122333287 0 0.33503975802439162 -0.33352730776002742 0 0.34146637893605181 -0.3422169952266676 0 0.34162477060798069 -0.33843815246039383 0 0.33664845261102122 -0.34065682884787418 0 0.34146637893605181 -0.3422169952266676 0 0.34162477060798069 -0.33843815246039383 0 0.34162477060798069 -0.33843815246039383 0 0.33801441914131958 -0.33597980122333287 0 0.33664845261102122 -0.34065682884787418 0 0.34162477060798069 -0.33843815246039383 0 0.33664845261102122 -0.34065682884787418 0 0.33801441914131958 -0.33597980122333287 0 0.33664845261102122 -0.34065682884787418 0 0.334556636173299 -0.33621284741772872 0 0.33484083241944268 -0.34588391539316982 0 0.34146637893605181 -0.3422169952266676 0 0.33664845261102122 -0.34065682884787418 0 0.34146637893605181 -0.3422169952266676 0 0.33664845261102122 -0.34065682884787418 0 0.33080291213000951 -0.34437854531234752 0 0.33664845261102122 -0.34065682884787418 0 0.32753883147517121 -0.34023469067202677 0 0.33664845261102122 -0.34065682884787418 0 0.334556636173299 -0.33621284741772872 0 0.32852391491646382 -0.33468745183968091 0 0.33484083241944268 -0.34588391539316982 0 0.33080291213000951 -0.34437854531234752 0 0.33664845261102122 -0.34065682884787418 0 0.33503975802439162 -0.33352730776002742 0 0.32852391491646382 -0.33468745183968091 0 0.32602109842812482 -0.32927153728442071 0 0.334556636173299 -0.33621284741772872 0 0.33503975802439162 -0.33352730776002742 0 0.32852391491646382 -0.33468745183968091 0 0.33801441914131958 -0.33597980122333287 0 0.334556636173299 -0.33621284741772872 0 0.33503975802439162 -0.33352730776002742 0 0.32753883147517121 -0.34023469067202677 0 0.31871317492192791 -0.33999191223236508 0 0.30992165968220392 -0.33200201743577268 0 0.32852391491646382 -0.33468745183968091 0 0.32602109842812482 -0.32927153728442071 0 0.30992165968220392 -0.33200201743577268 0 0.33664845261102122 -0.34065682884787418 0 0.32852391491646382 -0.33468745183968091 0 0.30992165968220392 -0.33200201743577268 0 0.33664845261102122 -0.34065682884787418 0 0.32753883147517121 -0.34023469067202677 0 0.30992165968220392 -0.33200201743577268 0 0.32602109842812482 -0.32927153728442071 0 0.31516553794356478 -0.32688419612254632 0 0.30992165968220392 -0.33200201743577268 0 0.33664845261102122 -0.34065682884787418 0 0.30992165968220392 -0.33200201743577268 0 0.32753883147517121 -0.34023469067202677 0 0.3230261242077439 -0.3426129045732173 0 0.31871317492192791 -0.33999191223236508 0 0.33080291213000951 -0.34437854531234752 0 0.32576759743036687 -0.34544500479448842 0 0.32753883147517121 -0.34023469067202677 0 0.32576759743036687 -0.34544500479448842 0 0.32753883147517121 -0.34023469067202677 0 0.3230261242077439 -0.3426129045732173 0 0.32008489300350967 -0.34478001059398899 0 0.3230261242077439 -0.3426129045732173 0 0.31871317492192791 -0.33999191223236508 0 0.31871317492192791 -0.33999191223236508 0 0.31278358272303802 -0.34129775444127147 0 0.30992165968220392 -0.33200201743577268 0 0.32008489300350967 -0.34478001059398899 0 0.31871317492192791 -0.33999191223236508 0 0.31278358272303802 -0.34129775444127147 0 0.32602109842812482 -0.32927153728442071 0 0.31516553794356478 -0.32688419612254632 0 0.32081511337912821 -0.31891284763754968 0 0.31516553794356478 -0.32688419612254632 0 0.32081511337912821 -0.31891284763754968 0 0.29956219729229971 -0.30996262866796498 0 0.31516553794356478 -0.32688419612254632 0 0.30992165968220392 -0.33200201743577268 0 0.29956219729229971 -0.30996262866796498 0 0.30992165968220392 -0.33200201743577268 0 0.28319486675338662 -0.32334720602367162 0 0.29956219729229971 -0.30996262866796498 0 0.32081511337912821 -0.31891284763754968 0 0.29956219729229971 -0.30996262866796498 0 0.31516553794356478 -0.32688419612254632 0 0.29956219729229971 -0.30996262866796498 0 0.31278358272303802 -0.34129775444127147 0 0.30544777269898171 -0.33968681455295602 0 0.30372917606317851 -0.34879110689567611 0 0.31278358272303802 -0.34129775444127147 0 0.30992165968220392 -0.33200201743577268 0 0.30544777269898171 -0.33968681455295602 0 0.30992165968220392 -0.33200201743577268 0 0.30544777269898171 -0.33968681455295602 0 0.29535667232750618 -0.33665637943910393 0 0.30544777269898171 -0.33968681455295602 0 0.29535667232750618 -0.33665637943910393 0 0.30372917606317851 -0.34879110689567611 0 0.30992165968220392 -0.33200201743577268 0 0.29535667232750618 -0.33665637943910393 0 0.28319486675338662 -0.32334720602367162 0 0.29535667232750618 -0.33665637943910393 0 0.28811986741475609 -0.34954264064797458 0 0.28056009198101312 -0.33712721632873971 0 0.29535667232750618 -0.33665637943910393 0 0.28319486675338662 -0.32334720602367162 0 0.28056009198101312 -0.33712721632873971 0 0.30992165968220392 -0.33200201743577268 0 0.28319486675338662 -0.32334720602367162 0 0.30852465471842783 -0.38296478278532459 0 0.31266700858965563 -0.36105898834543543 0 0.29576167506738288 -0.36584798696867898 0 0.31266700858965563 -0.36105898834543543 0 0.30372917606317851 -0.34879110689567611 0 0.29576167506738288 -0.36584798696867898 0 0.31455300750316167 -0.34989325112993808 0 0.31266700858965563 -0.36105898834543543 0 0.30372917606317851 -0.34879110689567611 0 0.31455300750316167 -0.34989325112993808 0 0.31278358272303802 -0.34129775444127147 0 0.30372917606317851 -0.34879110689567611 0 0.30372917606317851 -0.34879110689567611 0 0.28811986741475609 -0.34954264064797458 0 0.29576167506738288 -0.36584798696867898 0 0.29535667232750618 -0.33665637943910393 0 0.30372917606317851 -0.34879110689567611 0 0.28811986741475609 -0.34954264064797458 0 0.28811986741475609 -0.34954264064797458 0 0.29576167506738288 -0.36584798696867898 0 0.27628411724202862 -0.36524783617958329 0 0.28524522637625171 -0.38748256695808048 0 0.29576167506738288 -0.36584798696867898 0 0.27628411724202862 -0.36524783617958329 0 0.27628411724202862 -0.36524783617958329 0 0.26970242523906313 -0.3463930650348116 0 0.25620327224306561 -0.36049072758523892 0 0.28811986741475609 -0.34954264064797458 0 0.27628411724202862 -0.36524783617958329 0 0.26970242523906313 -0.3463930650348116 0 0.28811986741475609 -0.34954264064797458 0 0.26970242523906313 -0.3463930650348116 0 0.28056009198101312 -0.33712721632873971 0 0.26970242523906313 -0.3463930650348116 0 0.25620327224306561 -0.36049072758523892 0 0.25110761996098008 -0.33756133299550262 0 0.26194523537769671 -0.38343407302417171 0 0.27628411724202862 -0.36524783617958329 0 0.25620327224306561 -0.36049072758523892 0 0.26194523537769671 -0.38343407302417171 0 0.25620327224306561 -0.36049072758523892 0 0.2380746425401753 -0.37739124482652259 0 0.28319486675338662 -0.32334720602367162 0 0.25646807382456938 -0.31469239461157061 0 0.28319486675338662 -0.32334720602367162 0 0.25646807382456938 -0.31469239461157061 0 0.26668910057358802 -0.30550764638795852 0 0.28319486675338662 -0.32334720602367162 0 0.26642662817035351 -0.32969679049813649 0 0.25646807382456938 -0.31469239461157061 0 0.26970242523906313 -0.3463930650348116 0 0.26642662817035351 -0.32969679049813649 0 0.28056009198101312 -0.33712721632873971 0 0.28319486675338662 -0.32334720602367162 0 0.26642662817035351 -0.32969679049813649 0 0.28056009198101312 -0.33712721632873971 0 0.26970242523906313 -0.3463930650348116 0 0.26642662817035351 -0.32969679049813649 0 0.25110761996098008 -0.33756133299550262 0 0.26642662817035351 -0.32969679049813649 0 0.25110761996098008 -0.33756133299550262 0 0.25646807382456938 -0.31469239461157061 0 0.26020915296869068 -0.2933899210744732 0 0.26668910057358802 -0.30550764638795852 0 0.24613976577650579 -0.30323365481969039 0 0.25646807382456938 -0.31469239461157061 0 0.26668910057358802 -0.30550764638795852 0 0.24613976577650579 -0.30323365481969039 0 0.26020915296869068 -0.2933899210744732 0 0.25058364390229548 -0.28023087545190861 0 0.26295470628353768 -0.27026240406269297 0 0.26020915296869068 -0.2933899210744732 0 0.25058364390229548 -0.28023087545190861 0 0.24053263080688631 -0.28510356727772701 0 0.26020915296869068 -0.2933899210744732 0 0.24053263080688631 -0.28510356727772701 0 0.26020915296869068 -0.2933899210744732 0 0.28125845178791892 -0.29011251636532881 0 0.26295470628353768 -0.27026240406269297 0 0.26020915296869068 -0.2933899210744732 0 0.27988567513049512 -0.30167627487121951 0 0.28125845178791892 -0.29011251636532881 0 0.26020915296869068 -0.2933899210744732 0 0.26668910057358802 -0.30550764638795852 0 0.27988567513049512 -0.30167627487121951 0 0.26020915296869068 -0.2933899210744732 0 0.27988567513049512 -0.30167627487121951 0 0.28319486675338662 -0.32334720602367162 0 0.26668910057358802 -0.30550764638795852 0 0.27988567513049512 -0.30167627487121951 0 0.27988567513049512 -0.30167627487121951 0 0.29956219729229971 -0.30996262866796498 0 0.28125845178791892 -0.29011251636532881 0 0.29956219729229971 -0.30996262866796498 0 0.27988567513049512 -0.30167627487121951 0 0.28125845178791892 -0.29011251636532881 0 0.29956219729229971 -0.30996262866796498 0 0.28319486675338662 -0.32334720602367162 0 0.27988567513049512 -0.30167627487121951 0 0.29956219729229971 -0.30996262866796498 0 0.28125845178791892 -0.29011251636532881 0 0.30351741442094582 -0.28364787667668517 0 0.29956219729229971 -0.30996262866796498 0 0.30351741442094582 -0.28364787667668517 0 0.30893165249025939 -0.29458973757352408 0 0.29956219729229971 -0.30996262866796498 0 0.315203972569992 -0.28599406388836862 0 0.30351741442094582 -0.28364787667668517 0 0.30893165249025939 -0.29458973757352408 0 0.31744302567780058 -0.29875438106107682 0 0.30893165249025939 -0.29458973757352408 0 0.29956219729229971 -0.30996262866796498 0 0.31140457280844042 -0.24710474912070499 0 0.31565659849655159 -0.26881006701694032 0 0.29718577407036301 -0.25519814195989071 0 0.31565659849655159 -0.26881006701694032 0 0.29718577407036301 -0.25519814195989071 0 0.28930565239004458 -0.26953623553981648 0 0.31565659849655159 -0.26881006701694032 0 0.28930565239004458 -0.26953623553981648 0 0.31565659849655159 -0.26881006701694032 0 0.30351741442094582 -0.28364787667668517 0 0.28930565239004458 -0.26953623553981648 0 0.315203972569992 -0.28599406388836862 0 0.31616400359283131 -0.27140021809428472 0 0.30351741442094582 -0.28364787667668517 0 0.31616400359283131 -0.27140021809428472 0 0.31565659849655159 -0.26881006701694032 0 0.30351741442094582 -0.28364787667668517 0 0.28125845178791892 -0.29011251636532881 0 0.30351741442094582 -0.28364787667668517 0 0.28930565239004458 -0.26953623553981648 0 0.29234931722919649 -0.23956849287787771 0 0.29718577407036301 -0.25519814195989071 0 0.28009493911397709 -0.25531812806766069 0 0.29718577407036301 -0.25519814195989071 0 0.28930565239004458 -0.26953623553981648 0 0.28009493911397709 -0.25531812806766069 0 0.28009493911397709 -0.25531812806766069 0 0.26295470628353768 -0.27026240406269297 0 0.26515279713901752 -0.25474276698909742 0 0.28930565239004458 -0.26953623553981648 0 0.28009493911397709 -0.25531812806766069 0 0.26295470628353768 -0.27026240406269297 0 0.27362138757170362 -0.2426007269765893 0 0.28009493911397709 -0.25531812806766069 0 0.26515279713901752 -0.25474276698909742 0 0.28930565239004458 -0.26953623553981648 0 0.26295470628353768 -0.27026240406269297 0 0.28125845178791892 -0.29011251636532881 0 0.28930565239004458 -0.26953623553981648 0 0.26295470628353768 -0.27026240406269297 0 0.28125845178791892 -0.29011251636532881 0 0.26295470628353768 -0.27026240406269297 0 0.26295470628353768 -0.27026240406269297 0 0.25920525151110962 -0.26619618175379239 0 0.2333624491378041 -0.27107789530058801 0 0.26295470628353768 -0.27026240406269297 0 0.25920525151110962 -0.26619618175379239 0 0.26515279713901752 -0.25474276698909742 0 0.25909559454287789 -0.26033526294480458 0 0.25575058308532189 -0.25269357128633052 0 0.26295470628353768 -0.27026240406269297 0 0.25920525151110962 -0.26619618175379239 0 0.25909559454287789 -0.26033526294480458 0 0.26295470628353768 -0.27026240406269297 0 0.26515279713901752 -0.25474276698909742 0 0.25909559454287789 -0.26033526294480458 0 0.25920525151110962 -0.26619618175379239 0 0.25909559454287789 -0.26033526294480458 0 0.2525593813984649 -0.26013433662011259 0 0.2525593813984649 -0.26013433662011259 0 0.25575058308532189 -0.25269357128633052 0 0.2462907050713771 -0.25204034373521428 0 0.25909559454287789 -0.26033526294480458 0 0.2525593813984649 -0.26013433662011259 0 0.25575058308532189 -0.25269357128633052 0 0.2525593813984649 -0.26013433662011259 0 0.2372713891187809 -0.25677075628574592 0 0.2333624491378041 -0.27107789530058801 0 0.2525593813984649 -0.26013433662011259 0 0.2462907050713771 -0.25204034373521428 0 0.2372713891187809 -0.25677075628574592 0 0.2525593813984649 -0.26013433662011259 0 0.2372713891187809 -0.25677075628574592 0 0.2462907050713771 -0.25204034373521428 0 0.2372713891187809 -0.25677075628574592 0 0.2374752251495614 -0.24157268794541539 0 0.26295470628353768 -0.27026240406269297 0 0.2333624491378041 -0.27107789530058801 0 0.25058364390229548 -0.28023087545190861 0 0.2333624491378041 -0.27107789530058801 0 0.24053263080688631 -0.28510356727772701 0 0.25920525151110962 -0.26619618175379239 0 0.2525593813984649 -0.26013433662011259 0 0.2333624491378041 -0.27107789530058801 0 0.25058364390229548 -0.28023087545190861 0 0.26295470628353768 -0.27026240406269297 0 0.2333624491378041 -0.27107789530058801 0 0.2333624491378041 -0.27107789530058801 0 0.22391874229476511 -0.2824004848955064 0 0.24053263080688631 -0.28510356727772701 0 0.2333624491378041 -0.27107789530058801 0 0.22198339683909701 -0.25340717595137879 0 0.22391874229476511 -0.2824004848955064 0 0.22198339683909701 -0.25340717595137879 0 0.21277476220729311 -0.27908963951381288 0 0.22391874229476511 -0.2824004848955064 0 0.22198339683909701 -0.25340717595137879 0 0.22391874229476511 -0.2824004848955064 0 0.2372713891187809 -0.25677075628574592 0 0.2333624491378041 -0.27107789530058801 0 0.22198339683909701 -0.25340717595137879 0 0.2372713891187809 -0.25677075628574592 0 0.22198339683909701 -0.25340717595137879 0 0.2374752251495614 -0.24157268794541539 0 0.2372713891187809 -0.25677075628574592 0 0.22198339683909701 -0.25340717595137879 0 0.22198339683909701 -0.25340717595137879 0 0.19767743283581299 -0.26201501502554969 0 0.19815896102696709 -0.24816545406213189 0 0.22198339683909701 -0.25340717595137879 0 0.19815896102696709 -0.24816545406213189 0 0.22198339683909701 -0.25340717595137879 0 0.2070014623020448 -0.26844420161526761 0 0.19767743283581299 -0.26201501502554969 0 0.22198339683909701 -0.25340717595137879 0 0.21277476220729311 -0.27908963951381288 0 0.2070014623020448 -0.26844420161526761 0 0.21277476220729311 -0.27908963951381288 0 0.19627752834655959 -0.27465633278028612 0 0.20552852767052071 -0.28818040814850709 0 0.21277476220729311 -0.27908963951381288 0 0.2070014623020448 -0.26844420161526761 0 0.19627752834655959 -0.27465633278028612 0 0.2070014623020448 -0.26844420161526761 0 0.19627752834655959 -0.27465633278028612 0 0.19767743283581299 -0.26201501502554969 0 0.19627752834655959 -0.27465633278028612 0 0.19767743283581299 -0.26201501502554969 0 0.1861358052291735 -0.26379397041404468 0 0.19767743283581299 -0.26201501502554969 0 0.1861358052291735 -0.26379397041404468 0 0.19815896102696709 -0.24816545406213189 0 0.1861358052291735 -0.26379397041404468 0 0.18066177981631051 -0.25348299893649828 0 0.19815896102696709 -0.24816545406213189 0 0.20129939135720101 -0.31175464383988888 0 0.20552852767052071 -0.28818040814850709 0 0.1861316223780578 -0.30340045511113362 0 0.20552852767052071 -0.28818040814850709 0 0.18615950714984131 -0.28714944863913389 0 0.1861316223780578 -0.30340045511113362 0 0.19627752834655959 -0.27465633278028612 0 0.20552852767052071 -0.28818040814850709 0 0.18615950714984131 -0.28714944863913389 0 0.21277476220729311 -0.27908963951381288 0 0.20552852767052071 -0.28818040814850709 0 0.22391874229476511 -0.2824004848955064 0 0.20552852767052071 -0.28818040814850709 0 0.21283890344555609 -0.30228465628523993 0 0.22391874229476511 -0.2824004848955064 0 0.20129939135720101 -0.31175464383988888 0 0.20552852767052071 -0.28818040814850709 0 0.21283890344555609 -0.30228465628523993 0 0.225854087750432 -0.31139379383963389 0 0.22391874229476511 -0.2824004848955064 0 0.21283890344555609 -0.30228465628523993 0 0.225854087750432 -0.31139379383963389 0 0.22391874229476511 -0.2824004848955064 0 0.225854087750432 -0.31139379383963389 0 0.22391874229476511 -0.2824004848955064 0 0.24053263080688631 -0.28510356727772701 0 0.26020915296869068 -0.2933899210744732 0 0.24053263080688631 -0.28510356727772701 0 0.24613976577650579 -0.30323365481969039 0 0.225854087750432 -0.31139379383963389 0 0.24053263080688631 -0.28510356727772701 0 0.24613976577650579 -0.30323365481969039 0 0.225854087750432 -0.31139379383963389 0 0.24613976577650579 -0.30323365481969039 0 0.24147179610371719 -0.32145365581003182 0 0.25110761996098008 -0.33756133299550262 0 0.25646807382456938 -0.31469239461157061 0 0.24147179610371719 -0.32145365581003182 0 0.25646807382456938 -0.31469239461157061 0 0.24613976577650579 -0.30323365481969039 0 0.24147179610371719 -0.32145365581003182 0 0.25110761996098008 -0.33756133299550262 0 0.24147179610371719 -0.32145365581003182 0 0.2277894332060989 -0.3403871027837615 0 0.225854087750432 -0.31139379383963389 0 0.24147179610371719 -0.32145365581003182 0 0.2277894332060989 -0.3403871027837615 0 0.225854087750432 -0.31139379383963389 0 0.2277894332060989 -0.3403871027837615 0 0.2131017443993804 -0.32550716011161479 0 0.225854087750432 -0.31139379383963389 0 0.2277894332060989 -0.3403871027837615 0 0.25620327224306561 -0.36049072758523892 0 0.23939100935974761 -0.35412122659527612 0 0.2380746425401753 -0.37739124482652259 0 0.25110761996098008 -0.33756133299550262 0 0.2277894332060989 -0.3403871027837615 0 0.23939100935974761 -0.35412122659527612 0 0.25620327224306561 -0.36049072758523892 0 0.25110761996098008 -0.33756133299550262 0 0.23939100935974761 -0.35412122659527612 0 0.2277894332060989 -0.3403871027837615 0 0.23939100935974761 -0.35412122659527612 0 0.22160146260088931 -0.35672021721344238 0 0.2277894332060989 -0.3403871027837615 0 0.22160146260088931 -0.35672021721344238 0 0.21393580002607371 -0.34141846605291087 0 0.23939100935974761 -0.35412122659527612 0 0.22160146260088931 -0.35672021721344238 0 0.2380746425401753 -0.37739124482652259 0 0.22160146260088931 -0.35672021721344238 0 0.21646245367279571 -0.38358476595235552 0 0.22160146260088931 -0.35672021721344238 0 0.2380746425401753 -0.37739124482652259 0 0.21646245367279571 -0.38358476595235552 0 0.22160146260088931 -0.35672021721344238 0 0.19836301469614079 -0.36402790855933592 0 0.2025217842010896 -0.37807387373583923 0 0.22160146260088931 -0.35672021721344238 0 0.21646245367279571 -0.38358476595235552 0 0.2025217842010896 -0.37807387373583923 0 0.22160146260088931 -0.35672021721344238 0 0.20535211274276649 -0.35018034328080122 0 0.21393580002607371 -0.34141846605291087 0 0.22160146260088931 -0.35672021721344238 0 0.20535211274276649 -0.35018034328080122 0 0.19836301469614079 -0.36402790855933592 0 0.20535211274276649 -0.35018034328080122 0 0.19180082998577391 -0.35029167033112268 0 0.20100079568597551 -0.33875735092892167 0 0.19180082998577391 -0.35029167033112268 0 0.19836301469614079 -0.36402790855933592 0 0.18636698824462991 -0.36225910140511608 0 0.19180082998577391 -0.35029167033112268 0 0.18636698824462991 -0.36225910140511608 0 0.18448777755487131 -0.35210036546502188 0 0.20535211274276649 -0.35018034328080122 0 0.19180082998577391 -0.35029167033112268 0 0.19836301469614079 -0.36402790855933592 0 0.19836301469614079 -0.36402790855933592 0 0.19083927531350181 -0.37426462870353422 0 0.18636698824462991 -0.36225910140511608 0 0.19836301469614079 -0.36402790855933592 0 0.19083927531350181 -0.37426462870353422 0 0.2025217842010896 -0.37807387373583923 0 0.20129939135720101 -0.31175464383988888 0 0.21283890344555609 -0.30228465628523993 0 0.2131017443993804 -0.32550716011161479 0 0.21283890344555609 -0.30228465628523993 0 0.225854087750432 -0.31139379383963389 0 0.2131017443993804 -0.32550716011161479 0 0.2277894332060989 -0.3403871027837615 0 0.2131017443993804 -0.32550716011161479 0 0.21393580002607371 -0.34141846605291087 0 0.2131017443993804 -0.32550716011161479 0 0.21393580002607371 -0.34141846605291087 0 0.20100079568597551 -0.33875735092892167 0 0.20535211274276649 -0.35018034328080122 0 0.21393580002607371 -0.34141846605291087 0 0.20100079568597551 -0.33875735092892167 0 0.19180082998577391 -0.35029167033112268 0 0.20100079568597551 -0.33875735092892167 0 0.1840044286915227 -0.33601373309634508 0 0.20100079568597551 -0.33875735092892167 0 0.19352690233448341 -0.32516644492614982 0 0.1840044286915227 -0.33601373309634508 0 0.2131017443993804 -0.32550716011161479 0 0.20100079568597551 -0.33875735092892167 0 0.19352690233448341 -0.32516644492614982 0 0.20129939135720101 -0.31175464383988888 0 0.2131017443993804 -0.32550716011161479 0 0.19352690233448341 -0.32516644492614982 0 0.20129939135720101 -0.31175464383988888 0 0.19352690233448341 -0.32516644492614982 0 0.1861316223780578 -0.30340045511113362 0 0.19352690233448341 -0.32516644492614982 0 0.17526094699071121 -0.32121364916979261 0 0.1840044286915227 -0.33601373309634508 0 0.19352690233448341 -0.32516644492614982 0 0.17526094699071121 -0.32121364916979261 0 0.1861316223780578 -0.30340045511113362 0 0.17526094699071121 -0.32121364916979261 0 0.1840044286915227 -0.33601373309634508 0 0.17670370261134591 -0.35101137430815987 0 0.17526094699071121 -0.32121364916979261 0 0.16632300769682529 -0.33914532989683449 0 0.17670370261134591 -0.35101137430815987 0 0.17526094699071121 -0.32121364916979261 0 0.17670370261134591 -0.35101137430815987 0 0.16632300769682529 -0.33914532989683449 0 0.15635532043033851 -0.32762317205032648 0 0.15384528835215919 -0.34888323103730828 0 0.17526094699071121 -0.32121364916979261 0 0.16632300769682529 -0.33914532989683449 0 0.15635532043033851 -0.32762317205032648 0 0.17526094699071121 -0.32121364916979261 0 0.15635532043033851 -0.32762317205032648 0 0.16613015085753399 -0.29794196337136208 0 0.19083927531350181 -0.37426462870353422 0 0.18636698824462991 -0.36225910140511608 0 0.17814645823198061 -0.38080909944652741 0 0.17670370261134591 -0.35101137430815987 0 0.1695008882053643 -0.3539014675276998 0 0.17814645823198061 -0.38080909944652741 0 0.17670370261134591 -0.35101137430815987 0 0.17814645823198061 -0.38080909944652741 0 0.18636698824462991 -0.36225910140511608 0 0.17670370261134591 -0.35101137430815987 0 0.17814645823198061 -0.38080909944652741 0 0.18636698824462991 -0.36225910140511608 0 0.18448777755487131 -0.35210036546502188 0 0.17670370261134591 -0.35101137430815987 0 0.18448777755487131 -0.35210036546502188 0 0.18424918471087839 -0.34735428580016242 0 0.17670370261134591 -0.35101137430815987 0 0.19180082998577391 -0.35029167033112268 0 0.1840044286915227 -0.33601373309634508 0 0.18424918471087839 -0.34735428580016242 0 0.1840044286915227 -0.33601373309634508 0 0.18424918471087839 -0.34735428580016242 0 0.17670370261134591 -0.35101137430815987 0 0.19180082998577391 -0.35029167033112268 0 0.18448777755487131 -0.35210036546502188 0 0.18424918471087839 -0.34735428580016242 0 0.16632300769682529 -0.33914532989683449 0 0.1695008882053643 -0.3539014675276998 0 0.15384528835215919 -0.34888323103730828 0 0.1695008882053643 -0.3539014675276998 0 0.15622266046030589 -0.36560529067035252 0 0.15384528835215919 -0.34888323103730828 0 0.16632300769682529 -0.33914532989683449 0 0.17670370261134591 -0.35101137430815987 0 0.1695008882053643 -0.3539014675276998 0 0.1695008882053643 -0.3539014675276998 0 0.15622266046030589 -0.36560529067035252 0 0.1662516937484437 -0.37945746017663878 0 0.1695008882053643 -0.3539014675276998 0 0.17814645823198061 -0.38080909944652741 0 0.1662516937484437 -0.37945746017663878 0 0.1695008882053643 -0.3539014675276998 0 0.1662516937484437 -0.37945746017663878 0 0.15622266046030589 -0.36560529067035252 0 0.15384528835215919 -0.34888323103730828 0 0.13913284643621729 -0.36987147755796063 0 0.15622266046030589 -0.36560529067035252 0 0.13913284643621729 -0.36987147755796063 0 0.15122325216971341 -0.38057118911269922 0 0.15384528835215919 -0.34888323103730828 0 0.13913284643621729 -0.36987147755796063 0 0.1385684583736729 -0.34280877879487409 0 0.1385684583736729 -0.34280877879487409 0 0.1245186505824013 -0.36113750934922573 0 0.1203073559828662 -0.34481831064573482 0 0.13913284643621729 -0.36987147755796063 0 0.1385684583736729 -0.34280877879487409 0 0.13913284643621729 -0.36987147755796063 0 0.1385684583736729 -0.34280877879487409 0 0.1245186505824013 -0.36113750934922573 0 0.13913284643621729 -0.36987147755796063 0 0.12672469353237761 -0.38193719477194499 0 0.1245186505824013 -0.36113750934922573 0 0.15635532043033851 -0.32762317205032648 0 0.13800407031112841 -0.31574608003178772 0 0.16613015085753399 -0.29794196337136208 0 0.15635532043033851 -0.32762317205032648 0 0.15384528835215919 -0.34888323103730828 0 0.1385684583736729 -0.34280877879487409 0 0.15635532043033851 -0.32762317205032648 0 0.1385684583736729 -0.34280877879487409 0 0.13800407031112841 -0.31574608003178772 0 0.1385684583736729 -0.34280877879487409 0 0.13800407031112841 -0.31574608003178772 0 0.1385684583736729 -0.34280877879487409 0 0.1252730154641265 -0.33501756179834041 0 0.127277047630593 -0.32368123984794023 0 0.1385684583736729 -0.34280877879487409 0 0.1252730154641265 -0.33501756179834041 0 0.1203073559828662 -0.34481831064573482 0 0.13800407031112841 -0.31574608003178772 0 0.127277047630593 -0.32368123984794023 0 0.1207194796176513 -0.31206082339016011 0 0.1385684583736729 -0.34280877879487409 0 0.13800407031112841 -0.31574608003178772 0 0.127277047630593 -0.32368123984794023 0 0.13800407031112841 -0.31574608003178772 0 0.13743968224858391 -0.28868338126870119 0 0.1207194796176513 -0.31206082339016011 0 0.13800407031112841 -0.31574608003178772 0 0.13743968224858391 -0.28868338126870119 0 0.13800407031112841 -0.31574608003178772 0 0.13743968224858391 -0.28868338126870119 0 0.16613015085753399 -0.29794196337136208 0 0.13743968224858391 -0.28868338126870119 0 0.16013622185265231 -0.27370264407204231 0 0.16613015085753399 -0.29794196337136208 0 0.13743968224858391 -0.28868338126870119 0 0.13687529418603939 -0.26162068250561471 0 0.13743968224858391 -0.28868338126870119 0 0.13687529418603939 -0.26162068250561471 0 0.12122917553908071 -0.27280048239714111 0 0.13687529418603939 -0.26162068250561471 0 0.15867772839633809 -0.25707915377424612 0 0.15532271566916761 -0.23874085795770611 0 0.13687529418603939 -0.26162068250561471 0 0.16013622185265231 -0.27370264407204231 0 0.15867772839633809 -0.25707915377424612 0 0.13743968224858391 -0.28868338126870119 0 0.13687529418603939 -0.26162068250561471 0 0.16013622185265231 -0.27370264407204231 0 0.16013622185265231 -0.27370264407204231 0 0.17163424862532001 -0.26348395238230132 0 0.17866520103123101 -0.27392164610568698 0 0.16013622185265231 -0.27370264407204231 0 0.15867772839633809 -0.25707915377424612 0 0.17163424862532001 -0.26348395238230132 0 0.15867772839633809 -0.25707915377424612 0 0.17163424862532001 -0.26348395238230132 0 0.17304535898525439 -0.24904788565112909 0 0.17163424862532001 -0.26348395238230132 0 0.18066177981631051 -0.25348299893649828 0 0.17304535898525439 -0.24904788565112909 0 0.17163424862532001 -0.26348395238230132 0 0.1861358052291735 -0.26379397041404468 0 0.18066177981631051 -0.25348299893649828 0 0.19627752834655959 -0.27465633278028612 0 0.17866520103123101 -0.27392164610568698 0 0.18615950714984131 -0.28714944863913389 0 0.19627752834655959 -0.27465633278028612 0 0.1861358052291735 -0.26379397041404468 0 0.17866520103123101 -0.27392164610568698 0 0.17163424862532001 -0.26348395238230132 0 0.1861358052291735 -0.26379397041404468 0 0.17866520103123101 -0.27392164610568698 0 0.17866520103123101 -0.27392164610568698 0 0.18615950714984131 -0.28714944863913389 0 0.16613015085753399 -0.29794196337136208 0 0.18615950714984131 -0.28714944863913389 0 0.1861316223780578 -0.30340045511113362 0 0.16613015085753399 -0.29794196337136208 0 0.17526094699071121 -0.32121364916979261 0 0.1861316223780578 -0.30340045511113362 0 0.16613015085753399 -0.29794196337136208 0 0.16013622185265231 -0.27370264407204231 0 0.17866520103123101 -0.27392164610568698 0 0.16613015085753399 -0.29794196337136208 0 0.19650118937966099 -0.48458767462136337 0 0.18247472509388471 -0.47020227486163019 0 0.1839174807145193 -0.49999999999999789 0 0.19650118937966099 -0.48458767462136337 0 0.2054847406710314 -0.5 0 0.1839174807145193 -0.49999999999999789 0 0.19650118937966099 -0.48458767462136337 0 0.1995265252191368 -0.47051219141525807 0 0.18247472509388471 -0.47020227486163019 0 0.19650118937966099 -0.48458767462136337 0 0.1995265252191368 -0.47051219141525807 0 0.21142085222808771 -0.48158275099342862 0 0.1995265252191368 -0.47051219141525807 0 0.21142085222808771 -0.48158275099342862 0 0.21140626781342409 -0.46122374827882839 0 0.21142085222808771 -0.48158275099342862 0 0.23068219321441441 -0.47630316546961982 0 0.21140626781342409 -0.46122374827882839 0 0.19650118937966099 -0.48458767462136337 0 0.21142085222808771 -0.48158275099342862 0 0.2054847406710314 -0.5 0 0.21142085222808771 -0.48158275099342862 0 0.2054847406710314 -0.5 0 0.22705200062754341 -0.49999999999999972 0 0.21142085222808771 -0.48158275099342862 0 0.22705200062754341 -0.49999999999999972 0 0.23068219321441441 -0.47630316546961982 0 0.22705200062754341 -0.49999999999999972 0 0.24310759435645521 -0.48732129405658853 0 0.23068219321441441 -0.47630316546961982 0 0.22705200062754341 -0.49999999999999972 0 0.23068219321441441 -0.47630316546961982 0 0.25573491640979129 -0.5 0 0.22705200062754341 -0.49999999999999972 0 0.24310759435645521 -0.48732129405658853 0 0.24310759435645521 -0.48732129405658853 0 0.24452211955108941 -0.47321082899062988 0 0.23068219321441441 -0.47630316546961982 0 0.23068219321441441 -0.47630316546961982 0 0.23431238580128549 -0.45260633093924002 0 0.23068219321441441 -0.47630316546961982 0 0.23431238580128549 -0.45260633093924002 0 0.21140626781342409 -0.46122374827882839 0 0.24452211955108941 -0.47321082899062988 0 0.23068219321441441 -0.47630316546961982 0 0.23431238580128549 -0.45260633093924002 0 0.25055382002994903 -0.45112655962101422 0 0.24452211955108941 -0.47321082899062988 0 0.23431238580128549 -0.45260633093924002 0 0.25055382002994903 -0.45112655962101422 0 0.23431238580128549 -0.45260633093924002 0 0.24845486683426421 -0.43056678600332871 0 0.23431238580128549 -0.45260633093924002 0 0.2061844358166085 -0.43731386343018219 0 0.22816721351006641 -0.42382217308135922 0 0.23431238580128549 -0.45260633093924002 0 0.21140626781342409 -0.46122374827882839 0 0.2061844358166085 -0.43731386343018219 0 0.21140626781342409 -0.46122374827882839 0 0.1958295915806266 -0.45496450832104018 0 0.2061844358166085 -0.43731386343018219 0 0.1995265252191368 -0.47051219141525807 0 0.1958295915806266 -0.45496450832104018 0 0.18247472509388471 -0.47020227486163019 0 0.1995265252191368 -0.47051219141525807 0 0.21140626781342409 -0.46122374827882839 0 0.1958295915806266 -0.45496450832104018 0 0.1958295915806266 -0.45496450832104018 0 0.2061844358166085 -0.43731386343018219 0 0.18103196947325001 -0.44040454972326271 0 0.19189840580791451 -0.42494462472696731 0 0.2061844358166085 -0.43731386343018219 0 0.18103196947325001 -0.44040454972326271 0 0.19189840580791451 -0.42494462472696731 0 0.1954291475964339 -0.41062193775622902 0 0.2113234447447021 -0.41044931469126889 0 0.19189840580791451 -0.42494462472696731 0 0.1954291475964339 -0.41062193775622902 0 0.17958921385261531 -0.41060682458489489 0 0.19189840580791451 -0.42494462472696731 0 0.2113234447447021 -0.41044931469126889 0 0.2061844358166085 -0.43731386343018219 0 0.2113234447447021 -0.41044931469126889 0 0.2061844358166085 -0.43731386343018219 0 0.22816721351006641 -0.42382217308135922 0 0.2113234447447021 -0.41044931469126889 0 0.2061844358166085 -0.43731386343018219 0 0.23431238580128549 -0.45260633093924002 0 0.22816721351006641 -0.42382217308135922 0 0.24845486683426421 -0.43056678600332871 0 0.22816721351006641 -0.42382217308135922 0 0.24845486683426421 -0.43056678600332871 0 0.24730388124056729 -0.40448370284608931 0 0.22816721351006641 -0.42382217308135922 0 0.22802948983690591 -0.39972126622214238 0 0.24730388124056729 -0.40448370284608931 0 0.2113234447447021 -0.41044931469126889 0 0.22816721351006641 -0.42382217308135922 0 0.22802948983690591 -0.39972126622214238 0 0.22802948983690591 -0.39972126622214238 0 0.24730388124056729 -0.40448370284608931 0 0.2380746425401753 -0.37739124482652259 0 0.26194523537769671 -0.38343407302417171 0 0.24730388124056729 -0.40448370284608931 0 0.2380746425401753 -0.37739124482652259 0 0.22802948983690591 -0.39972126622214238 0 0.2380746425401753 -0.37739124482652259 0 0.21646245367279571 -0.38358476595235552 0 0.21646245367279571 -0.38358476595235552 0 0.19890552598050351 -0.3964869870217847 0 0.2025217842010896 -0.37807387373583923 0 0.2113234447447021 -0.41044931469126889 0 0.22802948983690591 -0.39972126622214238 0 0.21646245367279571 -0.38358476595235552 0 0.2113234447447021 -0.41044931469126889 0 0.21646245367279571 -0.38358476595235552 0 0.2113234447447021 -0.41044931469126889 0 0.21646245367279571 -0.38358476595235552 0 0.19890552598050351 -0.3964869870217847 0 0.1954291475964339 -0.41062193775622902 0 0.2113234447447021 -0.41044931469126889 0 0.19890552598050351 -0.3964869870217847 0 0.1954291475964339 -0.41062193775622902 0 0.19890552598050351 -0.3964869870217847 0 0.17958921385261531 -0.41060682458489489 0 0.19890552598050351 -0.3964869870217847 0 0.19000045151593811 -0.3880482826985161 0 0.17958921385261531 -0.41060682458489489 0 0.19890552598050351 -0.3964869870217847 0 0.19000045151593811 -0.3880482826985161 0 0.2025217842010896 -0.37807387373583923 0 0.19083927531350181 -0.37426462870353422 0 0.19000045151593811 -0.3880482826985161 0 0.2025217842010896 -0.37807387373583923 0 0.19083927531350181 -0.37426462870353422 0 0.19000045151593811 -0.3880482826985161 0 0.17814645823198061 -0.38080909944652741 0 0.17814645823198061 -0.38080909944652741 0 0.17958921385261531 -0.41060682458489489 0 0.19000045151593811 -0.3880482826985161 0 0.17814645823198061 -0.38080909944652741 0 0.17958921385261531 -0.41060682458489489 0 0.17814645823198061 -0.38080909944652741 0 0.17073561596382039 -0.39301209499015272 0 0.17958921385261531 -0.41060682458489489 0 0.16300249929152311 -0.40501345282557782 0 0.1662516937484437 -0.37945746017663878 0 0.1548118257048379 -0.39098754083749682 0 0.17073561596382039 -0.39301209499015272 0 0.16300249929152311 -0.40501345282557782 0 0.1662516937484437 -0.37945746017663878 0 0.17073561596382039 -0.39301209499015272 0 0.16300249929152311 -0.40501345282557782 0 0.17958921385261531 -0.41060682458489489 0 0.16300249929152311 -0.40501345282557782 0 0.1662516937484437 -0.37945746017663878 0 0.1662516937484437 -0.37945746017663878 0 0.15122325216971341 -0.38057118911269922 0 0.1548118257048379 -0.39098754083749682 0 0.17814645823198061 -0.38080909944652741 0 0.17073561596382039 -0.39301209499015272 0 0.1662516937484437 -0.37945746017663878 0 0.15622266046030589 -0.36560529067035252 0 0.1662516937484437 -0.37945746017663878 0 0.15122325216971341 -0.38057118911269922 0 0.15122325216971341 -0.38057118911269922 0 0.13969723449876181 -0.39693417632104711 0 0.1548118257048379 -0.39098754083749682 0 0.13913284643621729 -0.36987147755796063 0 0.15122325216971341 -0.38057118911269922 0 0.13969723449876181 -0.39693417632104711 0 0.13913284643621729 -0.36987147755796063 0 0.12672469353237761 -0.38193719477194499 0 0.13969723449876181 -0.39693417632104711 0 0.13913284643621729 -0.36987147755796063 0 0.13969723449876181 -0.39693417632104711 0 0.12672469353237761 -0.38193719477194499 0 0.13969723449876181 -0.39693417632104711 0 0.1219351525082772 -0.40864131998943182 0 0.16300249929152311 -0.40501345282557782 0 0.13969723449876181 -0.39693417632104711 0 0.1524997256598466 -0.41582351463554701 0 0.16300249929152311 -0.40501345282557782 0 0.13969723449876181 -0.39693417632104711 0 0.1548118257048379 -0.39098754083749682 0 0.13969723449876181 -0.39693417632104711 0 0.1524997256598466 -0.41582351463554701 0 0.14026162256130631 -0.42399687508413381 0 0.13969723449876181 -0.39693417632104711 0 0.14026162256130631 -0.42399687508413381 0 0.13969723449876181 -0.39693417632104711 0 0.14026162256130631 -0.42399687508413381 0 0.1219351525082772 -0.40864131998943182 0 0.1272554141007321 -0.42571201066291808 0 0.14026162256130631 -0.42399687508413381 0 0.1219351525082772 -0.40864131998943182 0 0.13018508541287829 -0.43658956786597553 0 0.14026162256130631 -0.42399687508413381 0 0.14082601062385081 -0.45105957384722029 0 0.13018508541287829 -0.43658956786597553 0 0.1272554141007321 -0.42571201066291808 0 0.14026162256130631 -0.42399687508413381 0 0.1524997256598466 -0.41582351463554701 0 0.14026162256130631 -0.42399687508413381 0 0.15975330483460251 -0.43056944547451692 0 0.14026162256130631 -0.42399687508413381 0 0.15975330483460251 -0.43056944547451692 0 0.14082601062385081 -0.45105957384722029 0 0.16300249929152311 -0.40501345282557782 0 0.15975330483460251 -0.43056944547451692 0 0.17958921385261531 -0.41060682458489489 0 0.16300249929152311 -0.40501345282557782 0 0.15975330483460251 -0.43056944547451692 0 0.16300249929152311 -0.40501345282557782 0 0.1524997256598466 -0.41582351463554701 0 0.15975330483460251 -0.43056944547451692 0 0.15975330483460251 -0.43056944547451692 0 0.17958921385261531 -0.41060682458489489 0 0.18103196947325001 -0.44040454972326271 0 0.17958921385261531 -0.41060682458489489 0 0.18103196947325001 -0.44040454972326271 0 0.19189840580791451 -0.42494462472696731 0 0.17958921385261531 -0.41060682458489489 0 0.18103196947325001 -0.44040454972326271 0 0.18103196947325001 -0.44040454972326271 0 0.16491961284223791 -0.45249038001545161 0 0.18247472509388471 -0.47020227486163019 0 0.18103196947325001 -0.44040454972326271 0 0.18247472509388471 -0.47020227486163019 0 0.1958295915806266 -0.45496450832104018 0 0.18103196947325001 -0.44040454972326271 0 0.18247472509388471 -0.47020227486163019 0 0.16491961284223791 -0.45249038001545161 0 0.1605120541856016 -0.47021605617062739 0 0.18247472509388471 -0.47020227486163019 0 0.15975330483460251 -0.43056944547451692 0 0.18103196947325001 -0.44040454972326271 0 0.16491961284223791 -0.45249038001545161 0 0.15975330483460251 -0.43056944547451692 0 0.16491961284223791 -0.45249038001545161 0 0.14082601062385081 -0.45105957384722029 0 0.14026162256130631 -0.42399687508413381 0 0.14082601062385081 -0.45105957384722029 0 0.14082601062385081 -0.45105957384722029 0 0.12543676829432579 -0.44683393452868708 0 0.12531186358948529 -0.45757018679138572 0 0.13018508541287829 -0.43658956786597553 0 0.14082601062385081 -0.45105957384722029 0 0.12543676829432579 -0.44683393452868708 0 0.14082601062385081 -0.45105957384722029 0 0.12842365125323091 -0.46593607888014599 0 0.13328939848609819 -0.47119455711627289 0 0.14082601062385081 -0.45105957384722029 0 0.14139039868639619 -0.47812227261030682 0 0.13328939848609819 -0.47119455711627289 0 0.12842365125323091 -0.46593607888014599 0 0.12531186358948529 -0.45757018679138572 0 0.1232316263288145 -0.46410889533344052 0 0.12842365125323091 -0.46593607888014599 0 0.1245497287119053 -0.47085317529077592 0 0.12311265484265969 -0.46777846846391841 0 0.14082601062385081 -0.45105957384722029 0 0.12842365125323091 -0.46593607888014599 0 0.12531186358948529 -0.45757018679138572 0 0.16491961284223791 -0.45249038001545161 0 0.14082601062385081 -0.45105957384722029 0 0.1605120541856016 -0.47021605617062739 0 0.14082601062385081 -0.45105957384722029 0 0.14139039868639619 -0.47812227261030682 0 0.14082601062385081 -0.45105957384722029 0 0.14139039868639619 -0.47812227261030682 0 0.1605120541856016 -0.47021605617062739 0 0.14139039868639619 -0.47812227261030682 0 0.15939735020609169 -0.48906113630515408 0 0.1605120541856016 -0.47021605617062739 0 0.14139039868639619 -0.47812227261030682 0 0.15939735020609169 -0.48906113630515408 0 0.14139039868639619 -0.47812227261030682 0 0.13328939848609819 -0.47119455711627289 0 0.13520794413867351 -0.47916570768291911 0 0.14139039868639619 -0.47812227261030682 0 0.13520794413867351 -0.47916570768291911 0 0.13309005864575499 -0.48654881223837643 0 0.13328939848609819 -0.47119455711627289 0 0.13520794413867351 -0.47916570768291911 0 0.1282166063692238 -0.47963436787526348 0 0.13520794413867351 -0.47916570768291911 0 0.1282166063692238 -0.47963436787526348 0 0.13309005864575499 -0.48654881223837643 0 0.12842365125323091 -0.46593607888014599 0 0.1275076222339897 -0.47406719287555171 0 0.1245497287119053 -0.47085317529077592 0 0.12842365125323091 -0.46593607888014599 0 0.13328939848609819 -0.47119455711627289 0 0.1275076222339897 -0.47406719287555171 0 0.13328939848609819 -0.47119455711627289 0 0.1282166063692238 -0.47963436787526348 0 0.1275076222339897 -0.47406719287555171 0 0.1282166063692238 -0.47963436787526348 0 0.1275076222339897 -0.47406719287555171 0 0.12271037357175291 -0.47562361121234281 0 0.14139039868639619 -0.47812227261030682 0 0.13309005864575499 -0.48654881223837643 0 0.1417493920694651 -0.49533619053082339 0 0.1325088383252874 -0.49999999999999689 0 0.11946717228548211 -0.4870343347309507 0 0.1325088383252874 -0.49999999999999689 0 0.13309005864575499 -0.48654881223837643 0 0.11946717228548211 -0.4870343347309507 0 0.1282166063692238 -0.47963436787526348 0 0.13309005864575499 -0.48654881223837643 0 0.11946717228548211 -0.4870343347309507 0 0.1325088383252874 -0.49999999999999689 0 0.13309005864575499 -0.48654881223837643 0 0.1417493920694651 -0.49533619053082339 0 0.1325088383252874 -0.49999999999999689 0 0.1417493920694651 -0.49533619053082339 0 0.15495657002553739 -0.5 0 0.14139039868639619 -0.47812227261030682 0 0.14937342774687271 -0.49062989986157102 0 0.15939735020609169 -0.48906113630515408 0 0.14139039868639619 -0.47812227261030682 0 0.1417493920694651 -0.49533619053082339 0 0.14139039868639619 -0.47812227261030682 0 0.1417493920694651 -0.49533619053082339 0 0.14937342774687271 -0.49062989986157102 0 0.1417493920694651 -0.49533619053082339 0 0.14937342774687271 -0.49062989986157102 0 0.15495657002553739 -0.5 0 0.14937342774687271 -0.49062989986157102 0 0.15495657002553739 -0.5 0 0.15939735020609169 -0.48906113630515408 0 0.15939735020609169 -0.48906113630515408 0 0.17467337585270831 -0.48420504396041608 0 0.1774043017257875 -0.50000000000000111 0 0.15939735020609169 -0.48906113630515408 0 0.1774043017257875 -0.50000000000000111 0 0.15495657002553739 -0.5 0 0.15939735020609169 -0.48906113630515408 0 0.1774043017257875 -0.50000000000000111 0 0.15939735020609169 -0.48906113630515408 0 0.1605120541856016 -0.47021605617062739 0 0.17467337585270831 -0.48420504396041608 0 0.1605120541856016 -0.47021605617062739 0 0.17467337585270831 -0.48420504396041608 0 0.18247472509388471 -0.47020227486163019 0 0.18247472509388471 -0.47020227486163019 0 0.1839174807145193 -0.49999999999999789 0 0.17467337585270831 -0.48420504396041608 0 0.18247472509388471 -0.47020227486163019 0 0.1839174807145193 -0.49999999999999789 0 0.17467337585270831 -0.48420504396041608 0 0.1839174807145193 -0.49999999999999789 0 0.1774043017257875 -0.50000000000000111 0 0.065949985054517032 -0.48884997455687013 0 0.080677891680827868 -0.48404188118506331 0 0.084758324792090334 -0.49999999999999989 0 0.065949985054517032 -0.48884997455687013 0 0.084758324792090334 -0.49999999999999989 0 0.055728539092515517 -0.5 0 0.065949985054517032 -0.48884997455687013 0 0.069113753880103546 -0.47032146630200872 0 0.080677891680827868 -0.48404188118506331 0 0.065949985054517032 -0.48884997455687013 0 0.069113753880103546 -0.47032146630200872 0 0.057596711449277201 -0.48334309492942701 0 0.069113753880103546 -0.47032146630200872 0 0.080677891680827868 -0.48404188118506331 0 0.088790870678748121 -0.47481427013272492 0 0.069113753880103546 -0.47032146630200872 0 0.088790870678748121 -0.47481427013272492 0 0.09506323621333454 -0.46277261346061632 0 0.080677891680827868 -0.48404188118506331 0 0.088790870678748121 -0.47481427013272492 0 0.094776523998680279 -0.48622369493371298 0 0.080677891680827868 -0.48404188118506331 0 0.084758324792090334 -0.49999999999999989 0 0.094776523998680279 -0.48622369493371298 0 0.084758324792090334 -0.49999999999999989 0 0.10099043700106421 -0.499999999999999 0 0.094776523998680279 -0.48622369493371298 0 0.084758324792090334 -0.49999999999999989 0 0.094776523998680279 -0.48622369493371298 0 0.10099043700106421 -0.499999999999999 0 0.1064255062456735 -0.47406866946190801 0 0.10099043700106421 -0.499999999999999 0 0.094776523998680279 -0.48622369493371298 0 0.1064255062456735 -0.47406866946190801 0 0.10099043700106421 -0.499999999999999 0 0.11946717228548211 -0.4870343347309507 0 0.1064255062456735 -0.47406866946190801 0 0.1325088383252874 -0.49999999999999689 0 0.1167496376631757 -0.5 0 0.11946717228548211 -0.4870343347309507 0 0.10099043700106421 -0.499999999999999 0 0.1167496376631757 -0.5 0 0.11946717228548211 -0.4870343347309507 0 0.12074084002908721 -0.47045370359981148 0 0.12271037357175291 -0.47562361121234281 0 0.11625567037499381 -0.47238364776222469 0 0.12074084002908721 -0.47045370359981148 0 0.11625567037499381 -0.47238364776222469 0 0.1192823524431306 -0.4663394170250621 0 0.12074084002908721 -0.47045370359981148 0 0.1245497287119053 -0.47085317529077592 0 0.12271037357175291 -0.47562361121234281 0 0.12074084002908721 -0.47045370359981148 0 0.1245497287119053 -0.47085317529077592 0 0.12311265484265969 -0.46777846846391841 0 0.1275076222339897 -0.47406719287555171 0 0.1245497287119053 -0.47085317529077592 0 0.12271037357175291 -0.47562361121234281 0 0.1282166063692238 -0.47963436787526348 0 0.11946717228548211 -0.4870343347309507 0 0.12271037357175291 -0.47562361121234281 0 0.11946717228548211 -0.4870343347309507 0 0.12271037357175291 -0.47562361121234281 0 0.11625567037499381 -0.47238364776222469 0 0.11946717228548211 -0.4870343347309507 0 0.1064255062456735 -0.47406866946190801 0 0.11946717228548211 -0.4870343347309507 0 0.11625567037499381 -0.47238364776222469 0 0.1064255062456735 -0.47406866946190801 0 0.11625567037499381 -0.47238364776222469 0 0.1064255062456735 -0.47406866946190801 0 0.11129693947086181 -0.46795476393154728 0 0.1064255062456735 -0.47406866946190801 0 0.10479472320527 -0.47244738986742602 0 0.1075632658294263 -0.46864028970971422 0 0.1064255062456735 -0.47406866946190801 0 0.1075632658294263 -0.46864028970971422 0 0.11129693947086181 -0.46795476393154728 0 0.088790870678748121 -0.47481427013272492 0 0.094776523998680279 -0.48622369493371298 0 0.10479472320527 -0.47244738986742602 0 0.1064255062456735 -0.47406866946190801 0 0.1075632658294263 -0.46864028970971422 0 0.088790870678748121 -0.47481427013272492 0 0.10479472320527 -0.47244738986742602 0 0.09506323621333454 -0.46277261346061632 0 0.10479472320527 -0.47244738986742602 0 0.1075632658294263 -0.46864028970971422 0 0.1064255062456735 -0.47406866946190801 0 0.10479472320527 -0.47244738986742602 0 0.094776523998680279 -0.48622369493371298 0 0.1064255062456735 -0.47406866946190801 0 0.10479472320527 -0.47244738986742602 0 0.094776523998680279 -0.48622369493371298 0 0.10479472320527 -0.47244738986742602 0 0.10479472320527 -0.47244738986742602 0 0.09506323621333454 -0.46277261346061632 0 0.1060131744550812 -0.45411466011360518 0 0.1075632658294263 -0.46864028970971422 0 0.11260152047704799 -0.44460220652757759 0 0.09506323621333454 -0.46277261346061632 0 0.10011436795704159 -0.45274002486564408 0 0.091519926973447546 -0.44626784630584138 0 0.09506323621333454 -0.46277261346061632 0 0.10386028492466159 -0.46021350167150438 0 0.09506323621333454 -0.46277261346061632 0 0.10386028492466159 -0.46021350167150438 0 0.10011436795704159 -0.45274002486564408 0 0.10386028492466159 -0.46021350167150438 0 0.1060131744550812 -0.45411466011360518 0 0.10011436795704159 -0.45274002486564408 0 0.10386028492466159 -0.46021350167150438 0 0.1060131744550812 -0.45411466011360518 0 0.1075632658294263 -0.46864028970971422 0 0.10479472320527 -0.47244738986742602 0 0.09506323621333454 -0.46277261346061632 0 0.1075632658294263 -0.46864028970971422 0 0.09506323621333454 -0.46277261346061632 0 0.10386028492466159 -0.46021350167150438 0 0.1075632658294263 -0.46864028970971422 0 0.1075632658294263 -0.46864028970971422 0 0.1123560704600764 -0.46204957042440498 0 0.11260152047704799 -0.44460220652757759 0 0.1075632658294263 -0.46864028970971422 0 0.1123560704600764 -0.46204957042440498 0 0.1075632658294263 -0.46864028970971422 0 0.11129693947086181 -0.46795476393154728 0 0.1123560704600764 -0.46204957042440498 0 0.1075632658294263 -0.46864028970971422 0 0.11260152047704799 -0.44460220652757759 0 0.11129693947086181 -0.46795476393154728 0 0.1123560704600764 -0.46204957042440498 0 0.11129693947086181 -0.46795476393154728 0 0.1149697984784732 -0.46556593525158491 0 0.1123560704600764 -0.46204957042440498 0 0.11625567037499381 -0.47238364776222469 0 0.1149697984784732 -0.46556593525158491 0 0.1192823524431306 -0.4663394170250621 0 0.11625567037499381 -0.47238364776222469 0 0.11129693947086181 -0.46795476393154728 0 0.1149697984784732 -0.46556593525158491 0 0.1149697984784732 -0.46556593525158491 0 0.1123560704600764 -0.46204957042440498 0 0.118705430672609 -0.46205297743075813 0 0.1123560704600764 -0.46204957042440498 0 0.11635977570981471 -0.45654396370023359 0 0.118705430672609 -0.46205297743075813 0 0.1123560704600764 -0.46204957042440498 0 0.11635977570981471 -0.45654396370023359 0 0.12531186358948529 -0.45757018679138572 0 0.11635977570981471 -0.45654396370023359 0 0.118705430672609 -0.46205297743075813 0 0.12543676829432579 -0.44683393452868708 0 0.12531186358948529 -0.45757018679138572 0 0.11635977570981471 -0.45654396370023359 0 0.12531186358948529 -0.45757018679138572 0 0.1232316263288145 -0.46410889533344052 0 0.118705430672609 -0.46205297743075813 0 0.1232316263288145 -0.46410889533344052 0 0.12311265484265969 -0.46777846846391841 0 0.1192823524431306 -0.4663394170250621 0 0.12842365125323091 -0.46593607888014599 0 0.1232316263288145 -0.46410889533344052 0 0.12311265484265969 -0.46777846846391841 0 0.12074084002908721 -0.47045370359981148 0 0.12311265484265969 -0.46777846846391841 0 0.1192823524431306 -0.4663394170250621 0 0.1149697984784732 -0.46556593525158491 0 0.1192823524431306 -0.4663394170250621 0 0.118705430672609 -0.46205297743075813 0 0.1232316263288145 -0.46410889533344052 0 0.1192823524431306 -0.4663394170250621 0 0.118705430672609 -0.46205297743075813 0 0.1123560704600764 -0.46204957042440498 0 0.11714561148417681 -0.43534544520691831 0 0.1123560704600764 -0.46204957042440498 0 0.11260152047704799 -0.44460220652757759 0 0.11714561148417681 -0.43534544520691831 0 0.1123560704600764 -0.46204957042440498 0 0.11635977570981471 -0.45654396370023359 0 0.11714561148417681 -0.43534544520691831 0 0.12543676829432579 -0.44683393452868708 0 0.11635977570981471 -0.45654396370023359 0 0.11714561148417681 -0.43534544520691831 0 0.13018508541287829 -0.43658956786597553 0 0.12543676829432579 -0.44683393452868708 0 0.11714561148417681 -0.43534544520691831 0 0.10592643308722841 -0.44437727779358549 0 0.083881602994700072 -0.43088647549478237 0 0.10592643308722841 -0.44437727779358549 0 0.091519926973447546 -0.44626784630584138 0 0.083881602994700072 -0.43088647549478237 0 0.11260152047704799 -0.44460220652757759 0 0.10592643308722841 -0.44437727779358549 0 0.1086116799951807 -0.43095684568344572 0 0.1060131744550812 -0.45411466011360518 0 0.10592643308722841 -0.44437727779358549 0 0.10011436795704159 -0.45274002486564408 0 0.1060131744550812 -0.45411466011360518 0 0.11260152047704799 -0.44460220652757759 0 0.10592643308722841 -0.44437727779358549 0 0.10592643308722841 -0.44437727779358549 0 0.10011436795704159 -0.45274002486564408 0 0.091519926973447546 -0.44626784630584138 0 0.09506323621333454 -0.46277261346061632 0 0.073976492589610171 -0.44180875358221461 0 0.09506323621333454 -0.46277261346061632 0 0.091519926973447546 -0.44626784630584138 0 0.073976492589610171 -0.44180875358221461 0 0.091519926973447546 -0.44626784630584138 0 0.073976492589610171 -0.44180875358221461 0 0.083881602994700072 -0.43088647549478237 0 0.069113753880103546 -0.47032146630200872 0 0.09506323621333454 -0.46277261346061632 0 0.09506323621333454 -0.46277261346061632 0 0.075948319170580939 -0.45709497223106438 0 0.073976492589610171 -0.44180875358221461 0 0.069113753880103546 -0.47032146630200872 0 0.09506323621333454 -0.46277261346061632 0 0.075948319170580939 -0.45709497223106438 0 0.069113753880103546 -0.47032146630200872 0 0.075948319170580939 -0.45709497223106438 0 0.064267892493667544 -0.45245405090636609 0 0.064267892493667544 -0.45245405090636609 0 0.073976492589610171 -0.44180875358221461 0 0.061221704008603092 -0.43412854505433712 0 0.075948319170580939 -0.45709497223106438 0 0.064267892493667544 -0.45245405090636609 0 0.073976492589610171 -0.44180875358221461 0 0.083881602994700072 -0.43088647549478237 0 0.061836772902171017 -0.41739567319598042 0 0.061221704008603092 -0.43412854505433712 0 0.073976492589610171 -0.44180875358221461 0 0.083881602994700072 -0.43088647549478237 0 0.061221704008603092 -0.43412854505433712 0 0.083881602994700072 -0.43088647549478237 0 0.061836772902171017 -0.41739567319598042 0 0.087852613914545186 -0.40334306140395609 0 0.070156507476487037 -0.39917662383738439 0 0.061836772902171017 -0.41739567319598042 0 0.087852613914545186 -0.40334306140395609 0 0.061836772902171017 -0.41739567319598042 0 0.090204007114443943 -0.4177400312392191 0 0.087852613914545186 -0.40334306140395609 0 0.061836772902171017 -0.41739567319598042 0 0.090204007114443943 -0.4177400312392191 0 0.083881602994700072 -0.43088647549478237 0 0.061836772902171017 -0.41739567319598042 0 0.090204007114443943 -0.4177400312392191 0 0.083881602994700072 -0.43088647549478237 0 0.10022705322515101 -0.42809075962971732 0 0.10592643308722841 -0.44437727779358549 0 0.083881602994700072 -0.43088647549478237 0 0.10022705322515101 -0.42809075962971732 0 0.10592643308722841 -0.44437727779358549 0 0.10022705322515101 -0.42809075962971732 0 0.1086116799951807 -0.43095684568344572 0 0.10022705322515101 -0.42809075962971732 0 0.1086116799951807 -0.43095684568344572 0 0.10561771621597441 -0.41891116251106192 0 0.11260152047704799 -0.44460220652757759 0 0.11714561148417681 -0.43534544520691831 0 0.11763977512467 -0.42056412334544119 0 0.11714561148417681 -0.43534544520691831 0 0.1219351525082772 -0.40864131998943182 0 0.11260152047704799 -0.44460220652757759 0 0.11763977512467 -0.42056412334544119 0 0.11260152047704799 -0.44460220652757759 0 0.1086116799951807 -0.43095684568344572 0 0.11763977512467 -0.42056412334544119 0 0.1272554141007321 -0.42571201066291808 0 0.11714561148417681 -0.43534544520691831 0 0.1219351525082772 -0.40864131998943182 0 0.1086116799951807 -0.43095684568344572 0 0.11763977512467 -0.42056412334544119 0 0.10561771621597441 -0.41891116251106192 0 0.13018508541287829 -0.43658956786597553 0 0.1272554141007321 -0.42571201066291808 0 0.11714561148417681 -0.43534544520691831 0 0.1219351525082772 -0.40864131998943182 0 0.11763977512467 -0.42056412334544119 0 0.1226780297722921 -0.39652604016330478 0 0.11763977512467 -0.42056412334544119 0 0.1063857367604352 -0.40565829933023112 0 0.1226780297722921 -0.39652604016330478 0 0.11714561148417681 -0.43534544520691831 0 0.1219351525082772 -0.40864131998943182 0 0.11763977512467 -0.42056412334544119 0 0.11763977512467 -0.42056412334544119 0 0.1226780297722921 -0.39652604016330478 0 0.11763977512467 -0.42056412334544119 0 0.10561771621597441 -0.41891116251106192 0 0.1063857367604352 -0.40565829933023112 0 0.090204007114443943 -0.4177400312392191 0 0.1063857367604352 -0.40565829933023112 0 0.087852613914545186 -0.40334306140395609 0 0.090204007114443943 -0.4177400312392191 0 0.10561771621597441 -0.41891116251106192 0 0.1063857367604352 -0.40565829933023112 0 0.090204007114443943 -0.4177400312392191 0 0.10022705322515101 -0.42809075962971732 0 0.10561771621597441 -0.41891116251106192 0 0.1063857367604352 -0.40565829933023112 0 0.11269819459067421 -0.38831450138448881 0 0.097085641119374302 -0.38571424072610178 0 0.1063857367604352 -0.40565829933023112 0 0.097085641119374302 -0.38571424072610178 0 0.087852613914545186 -0.40334306140395609 0 0.12672469353237761 -0.38193719477194499 0 0.1219351525082772 -0.40864131998943182 0 0.1063857367604352 -0.40565829933023112 0 0.1226780297722921 -0.39652604016330478 0 0.11269819459067421 -0.38831450138448881 0 0.12672469353237761 -0.38193719477194499 0 0.1219351525082772 -0.40864131998943182 0 0.1226780297722921 -0.39652604016330478 0 0.12672469353237761 -0.38193719477194499 0 0.11269819459067421 -0.38831450138448881 0 0.1080928822255358 -0.3703790814713866 0 0.12672469353237761 -0.38193719477194499 0 0.1226780297722921 -0.39652604016330478 0 0.11269819459067421 -0.38831450138448881 0 0.11269819459067421 -0.38831450138448881 0 0.097085641119374302 -0.38571424072610178 0 0.1080928822255358 -0.3703790814713866 0 0.097085641119374302 -0.38571424072610178 0 0.078524092076429908 -0.38558307009035819 0 0.085574671404253372 -0.36606529366265911 0 0.097085641119374302 -0.38571424072610178 0 0.078524092076429908 -0.38558307009035819 0 0.087852613914545186 -0.40334306140395609 0 0.078524092076429908 -0.38558307009035819 0 0.087852613914545186 -0.40334306140395609 0 0.070156507476487037 -0.39917662383738439 0 0.078524092076429908 -0.38558307009035819 0 0.070156507476487037 -0.39917662383738439 0 0.064141871653705745 -0.38905297891460661 0 0.070156507476487037 -0.39917662383738439 0 0.058427186835583247 -0.40050833558202109 0 0.061836772902171017 -0.41739567319598042 0 0.070156507476487037 -0.39917662383738439 0 0.064141871653705745 -0.38905297891460661 0 0.058427186835583247 -0.40050833558202109 0 0.078524092076429908 -0.38558307009035819 0 0.064141871653705745 -0.38905297891460661 0 0.064781398010314309 -0.37536455347105108 0 0.078524092076429908 -0.38558307009035819 0 0.064781398010314309 -0.37536455347105108 0 0.085574671404253372 -0.36606529366265911 0 0.064781398010314309 -0.37536455347105108 0 0.05115882120843647 -0.38571757356542352 0 0.043890455581289831 -0.3709268115488259 0 0.05115882120843647 -0.38571757356542352 0 0.043890455581289831 -0.3709268115488259 0 0.064141871653705745 -0.38905297891460661 0 0.064781398010314309 -0.37536455347105108 0 0.05115882120843647 -0.38571757356542352 0 0.064141871653705745 -0.38905297891460661 0 0.05115882120843647 -0.38571757356542352 0 0.058427186835583247 -0.40050833558202109 0 0.05115882120843647 -0.38571757356542352 0 0.058427186835583247 -0.40050833558202109 0 0.05115882120843647 -0.38571757356542352 0 0.058427186835583247 -0.40050833558202109 0 0.039291666751458072 -0.38953557003537942 0 0.058427186835583247 -0.40050833558202109 0 0.03861507037192409 -0.403184658796582 0 0.039291666751458072 -0.38953557003537942 0 0.039291666751458072 -0.38953557003537942 0 0.030780854092194759 -0.38031894893150719 0 0.043890455581289831 -0.3709268115488259 0 0.05115882120843647 -0.38571757356542352 0 0.039291666751458072 -0.38953557003537942 0 0.043890455581289831 -0.3709268115488259 0 0.030780854092194759 -0.38031894893150719 0 0.043890455581289831 -0.3709268115488259 0 0.030780854092194759 -0.38031894893150719 0 0.0132535835722172 -0.37610527220974688 0 0.01539336784167648 -0.38897364439718468 0 0.039291666751458072 -0.38953557003537942 0 0.030780854092194759 -0.38031894893150719 0 0.01539336784167648 -0.38897364439718468 0 0.030780854092194759 -0.38031894893150719 0 0.0132535835722172 -0.37610527220974688 0 0.022072978528308879 -0.36937310690127451 0 -0.0078283346885702904 -0.37476262999778609 0 -0.0023576536845698339 -0.39611583857600319 0 0.01539336784167648 -0.38897364439718468 0 -0.0078283346885702904 -0.37476262999778609 0 0.01539336784167648 -0.38897364439718468 0 -0.0078283346885702904 -0.37476262999778609 0 0.0132535835722172 -0.37610527220974688 0 0.01539336784167648 -0.38897364439718468 0 -0.0023576536845698339 -0.39611583857600319 0 -0.0081630895937607941 -0.41129335178386173 0 0.01158543002224671 -0.40754374071996963 0 -0.0023576536845698339 -0.39611583857600319 0 0.01539336784167648 -0.38897364439718468 0 0.01158543002224671 -0.40754374071996963 0 0.03861507037192409 -0.403184658796582 0 0.039291666751458072 -0.38953557003537942 0 0.01539336784167648 -0.38897364439718468 0 0.03861507037192409 -0.403184658796582 0 0.01539336784167648 -0.38897364439718468 0 0.026736383496206509 -0.41290648431754168 0 0.01539336784167648 -0.38897364439718468 0 0.026736383496206509 -0.41290648431754168 0 0.01158543002224671 -0.40754374071996963 0 0.03861507037192409 -0.403184658796582 0 0.01539336784167648 -0.38897364439718468 0 0.026736383496206509 -0.41290648431754168 0 0.01158543002224671 -0.40754374071996963 0 0.01747615232015888 -0.42514842909431222 0 0.026736383496206509 -0.41290648431754168 0 0.01747615232015888 -0.42514842909431222 0 0.02768083642208749 -0.42593076319487821 0 0.01158543002224671 -0.40754374071996963 0 0.0026957591361241309 -0.41958824334712869 0 0.01747615232015888 -0.42514842909431222 0 -0.0081630895937607941 -0.41129335178386173 0 0.01158543002224671 -0.40754374071996963 0 0.0026957591361241309 -0.41958824334712869 0 0.0026957591361241309 -0.41958824334712869 0 0.003851027954898749 -0.43172418954792041 0 0.01747615232015888 -0.42514842909431222 0 0.003851027954898749 -0.43172418954792041 0 0.01410030331848921 -0.43483725365991388 0 0.01747615232015888 -0.42514842909431222 0 0.003851027954898749 -0.43172418954792041 0 0.01410030331848921 -0.43483725365991388 0 0.011432193992105429 -0.44462200732167467 0 0.01747615232015888 -0.42514842909431222 0 0.023728282280598981 -0.43798020184644493 0 0.01410030331848921 -0.43483725365991388 0 0.01747615232015888 -0.42514842909431222 0 0.023728282280598981 -0.43798020184644493 0 0.01747615232015888 -0.42514842909431222 0 0.02768083642208749 -0.42593076319487821 0 0.023728282280598981 -0.43798020184644493 0 0.026736383496206509 -0.41290648431754168 0 0.02768083642208749 -0.42593076319487821 0 0.042782527591385587 -0.42768793752121392 0 0.042782527591385587 -0.42768793752121392 0 0.023728282280598981 -0.43798020184644493 0 0.02768083642208749 -0.42593076319487821 0 0.042782527591385587 -0.42768793752121392 0 0.023728282280598981 -0.43798020184644493 0 0.042782527591385587 -0.42768793752121392 0 0.038339333849137569 -0.44224603439757942 0 0.023728282280598981 -0.43798020184644493 0 0.03861507037192409 -0.403184658796582 0 0.026736383496206509 -0.41290648431754168 0 0.042782527591385587 -0.42768793752121392 0 0.03861507037192409 -0.403184658796582 0 0.042782527591385587 -0.42768793752121392 0 0.061836772902171017 -0.41739567319598042 0 0.03861507037192409 -0.403184658796582 0 0.061836772902171017 -0.41739567319598042 0 0.058427186835583247 -0.40050833558202109 0 0.03861507037192409 -0.403184658796582 0 0.061836772902171017 -0.41739567319598042 0 0.042782527591385587 -0.42768793752121392 0 0.061836772902171017 -0.41739567319598042 0 0.061221704008603092 -0.43412854505433712 0 0.042782527591385587 -0.42768793752121392 0 0.061836772902171017 -0.41739567319598042 0 0.042782527591385587 -0.42768793752121392 0 0.061221704008603092 -0.43412854505433712 0 0.052693917870023622 -0.44730825455084611 0 0.064267892493667544 -0.45245405090636609 0 0.061221704008603092 -0.43412854505433712 0 0.052693917870023622 -0.44730825455084611 0 0.069113753880103546 -0.47032146630200872 0 0.064267892493667544 -0.45245405090636609 0 0.052594011880735161 -0.46258963849414558 0 0.064267892493667544 -0.45245405090636609 0 0.052693917870023622 -0.44730825455084611 0 0.052594011880735161 -0.46258963849414558 0 0.033446276913734967 -0.45792526049492271 0 0.024747075647264399 -0.46972246297684461 0 0.043164271546872197 -0.4778703191434 0 0.052693917870023622 -0.44730825455084611 0 0.052594011880735161 -0.46258963849414558 0 0.033446276913734967 -0.45792526049492271 0 0.052594011880735161 -0.46258963849414558 0 0.033446276913734967 -0.45792526049492271 0 0.043164271546872197 -0.4778703191434 0 0.033446276913734967 -0.45792526049492271 0 0.043164271546872197 -0.4778703191434 0 0.042782527591385587 -0.42768793752121392 0 0.052693917870023622 -0.44730825455084611 0 0.038339333849137569 -0.44224603439757942 0 0.033446276913734967 -0.45792526049492271 0 0.038339333849137569 -0.44224603439757942 0 0.023728282280598981 -0.43798020184644493 0 0.052693917870023622 -0.44730825455084611 0 0.033446276913734967 -0.45792526049492271 0 0.038339333849137569 -0.44224603439757942 0 0.023728282280598981 -0.43798020184644493 0 0.011432193992105429 -0.44462200732167467 0 0.01779212199045099 -0.45571080357091009 0 0.033446276913734967 -0.45792526049492271 0 0.023728282280598981 -0.43798020184644493 0 0.033446276913734967 -0.45792526049492271 0 0.023728282280598981 -0.43798020184644493 0 0.01779212199045099 -0.45571080357091009 0 0.023728282280598981 -0.43798020184644493 0 0.011432193992105429 -0.44462200732167467 0 0.01410030331848921 -0.43483725365991388 0 0.023728282280598981 -0.43798020184644493 0 0.011432193992105429 -0.44462200732167467 0 -0.01027783979290609 -0.4450418277695869 0 0.011432193992105429 -0.44462200732167467 0 0.0031349746952128348 -0.45732154608844711 0 -0.01027783979290609 -0.4450418277695869 0 0.003851027954898749 -0.43172418954792041 0 0.011432193992105429 -0.44462200732167467 0 0.011432193992105429 -0.44462200732167467 0 0.0031349746952128348 -0.45732154608844711 0 0.01779212199045099 -0.45571080357091009 0 -0.00094907817261298132 -0.47112804672216879 0 0.0031349746952128348 -0.45732154608844711 0 0.01026392841378935 -0.46669334269712659 0 0.0031349746952128348 -0.45732154608844711 0 0.01026392841378935 -0.46669334269712659 0 0.01779212199045099 -0.45571080357091009 0 0.01026392841378935 -0.46669334269712659 0 0.01779212199045099 -0.45571080357091009 0 0.024747075647264399 -0.46972246297684461 0 0.033446276913734967 -0.45792526049492271 0 0.01779212199045099 -0.45571080357091009 0 0.024747075647264399 -0.46972246297684461 0 0.024747075647264399 -0.46972246297684461 0 0.019392481307258409 -0.48478566889839131 0 0.043164271546872197 -0.4778703191434 0 0.01026392841378935 -0.46669334269712659 0 0.024747075647264399 -0.46972246297684461 0 0.019392481307258409 -0.48478566889839131 0 0.01026392841378935 -0.46669334269712659 0 0.0053352152350804568 -0.4807791696356124 0 0.019392481307258409 -0.48478566889839131 0 -0.0043176495648967151 -0.48070428616945038 0 -0.00094907817261298132 -0.47112804672216879 0 0.0053352152350804568 -0.4807791696356124 0 -0.00094907817261298132 -0.47112804672216879 0 0.01026392841378935 -0.46669334269712659 0 0.0053352152350804568 -0.4807791696356124 0 -0.0023310323066341181 -0.5 0 -0.0043793089323552817 -0.49170101865338262 0 0.019392481307258409 -0.48478566889839131 0 -0.0043793089323552817 -0.49170101865338262 0 0.019392481307258409 -0.48478566889839131 0 -0.0043793089323552817 -0.49170101865338262 0 0.0053352152350804568 -0.4807791696356124 0 0.019392481307258409 -0.48478566889839131 0 -0.0023310323066341181 -0.5 0 0.019392481307258409 -0.48478566889839131 0 0.026698753392940699 -0.5 0 0.019392481307258409 -0.48478566889839131 0 0.026698753392940699 -0.5 0 0.035353585390671842 -0.48974665193930511 0 0.035353585390671842 -0.48974665193930511 0 0.043164271546872197 -0.4778703191434 0 0.052158835315616027 -0.49633061971542908 0 0.026698753392940699 -0.5 0 0.055728539092515517 -0.5 0 0.052158835315616027 -0.49633061971542908 0 0.026698753392940699 -0.5 0 0.035353585390671842 -0.48974665193930511 0 0.052158835315616027 -0.49633061971542908 0 0.019392481307258409 -0.48478566889839131 0 0.035353585390671842 -0.48974665193930511 0 0.043164271546872197 -0.4778703191434 0 0.019392481307258409 -0.48478566889839131 0 0.043164271546872197 -0.4778703191434 0 0.069113753880103546 -0.47032146630200872 0 0.052594011880735161 -0.46258963849414558 0 0.043164271546872197 -0.4778703191434 0 0.069113753880103546 -0.47032146630200872 0 0.043164271546872197 -0.4778703191434 0 0.057596711449277201 -0.48334309492942701 0 0.069113753880103546 -0.47032146630200872 0 0.043164271546872197 -0.4778703191434 0 0.043164271546872197 -0.4778703191434 0 0.057596711449277201 -0.48334309492942701 0 0.052158835315616027 -0.49633061971542908 0 0.065949985054517032 -0.48884997455687013 0 0.057596711449277201 -0.48334309492942701 0 0.052158835315616027 -0.49633061971542908 0 0.043164271546872197 -0.4778703191434 0 0.052158835315616027 -0.49633061971542908 0 0.065949985054517032 -0.48884997455687013 0 0.055728539092515517 -0.5 0 0.052158835315616027 -0.49633061971542908 0 0.091646396761647708 -0.28947790237370968 0 0.07071546022358817 -0.28620470259943642 0 0.079999995207784586 -0.26983589460815821 0 0.091646396761647708 -0.28947790237370968 0 0.072783535289555654 -0.30157633939854622 0 0.07071546022358817 -0.28620470259943642 0 0.091646396761647708 -0.28947790237370968 0 0.087363613427391865 -0.30807629250996549 0 0.072783535289555654 -0.30157633939854622 0 0.072783535289555654 -0.30157633939854622 0 0.073259594084162577 -0.32259772896999273 0 0.056038135353808333 -0.31320409925325249 0 0.087363613427391865 -0.30807629250996549 0 0.072783535289555654 -0.30157633939854622 0 0.073259594084162577 -0.32259772896999273 0 0.072783535289555654 -0.30157633939854622 0 0.07071546022358817 -0.28620470259943642 0 0.04944647540011983 -0.29680206833493911 0 0.07071546022358817 -0.28620470259943642 0 0.079999995207784586 -0.26983589460815821 0 0.059700898458833078 -0.27333130828182889 0 0.06835359365392131 -0.25019388684260668 0 0.079999995207784586 -0.26983589460815821 0 0.08421140423371333 -0.243891226620808 0 0.06835359365392131 -0.25019388684260668 0 0.079999995207784586 -0.26983589460815821 0 0.06835359365392131 -0.25019388684260668 0 0.079999995207784586 -0.26983589460815821 0 0.059700898458833078 -0.27333130828182889 0 0.079999995207784586 -0.26983589460815821 0 0.097662046653794854 -0.25561444261418242 0 0.08421140423371333 -0.243891226620808 0 0.079999995207784586 -0.26983589460815821 0 0.1034904733698796 -0.27103876000237981 0 0.097662046653794854 -0.25561444261418242 0 0.091646396761647708 -0.28947790237370968 0 0.079999995207784586 -0.26983589460815821 0 0.091646396761647708 -0.28947790237370968 0 0.079999995207784586 -0.26983589460815821 0 0.1034904733698796 -0.27103876000237981 0 0.1034904733698796 -0.27103876000237981 0 0.097662046653794854 -0.25561444261418242 0 0.1147239364606354 -0.25215539330366038 0 0.13687529418603939 -0.26162068250561471 0 0.1147239364606354 -0.25215539330366038 0 0.1223190960555403 -0.2394332616338683 0 0.1034904733698796 -0.27103876000237981 0 0.1147239364606354 -0.25215539330366038 0 0.12122917553908071 -0.27280048239714111 0 0.13687529418603939 -0.26162068250561471 0 0.1147239364606354 -0.25215539330366038 0 0.12122917553908071 -0.27280048239714111 0 0.1034904733698796 -0.27103876000237981 0 0.12122917553908071 -0.27280048239714111 0 0.11361649143026541 -0.29050419490534962 0 0.13743968224858391 -0.28868338126870119 0 0.12122917553908071 -0.27280048239714111 0 0.11361649143026541 -0.29050419490534962 0 0.091646396761647708 -0.28947790237370968 0 0.11361649143026541 -0.29050419490534962 0 0.10329279831551071 -0.3091199101392611 0 0.091646396761647708 -0.28947790237370968 0 0.1034904733698796 -0.27103876000237981 0 0.11361649143026541 -0.29050419490534962 0 0.091646396761647708 -0.28947790237370968 0 0.10329279831551071 -0.3091199101392611 0 0.091646396761647708 -0.28947790237370968 0 0.087363613427391865 -0.30807629250996549 0 0.10329279831551071 -0.3091199101392611 0 0.11361649143026541 -0.29050419490534962 0 0.10329279831551071 -0.3091199101392611 0 0.1207194796176513 -0.31206082339016011 0 0.13743968224858391 -0.28868338126870119 0 0.11361649143026541 -0.29050419490534962 0 0.1207194796176513 -0.31206082339016011 0 0.10329279831551071 -0.3091199101392611 0 0.11030782598785099 -0.32334328523235578 0 0.1149391998693738 -0.32876191790481257 0 0.10329279831551071 -0.3091199101392611 0 0.1207194796176513 -0.31206082339016011 0 0.1149391998693738 -0.32876191790481257 0 0.127277047630593 -0.32368123984794023 0 0.1207194796176513 -0.31206082339016011 0 0.1149391998693738 -0.32876191790481257 0 0.1252730154641265 -0.33501756179834041 0 0.127277047630593 -0.32368123984794023 0 0.1149391998693738 -0.32876191790481257 0 0.11030782598785099 -0.32334328523235578 0 0.1149391998693738 -0.32876191790481257 0 0.1071562875265276 -0.34088406714172798 0 0.1252730154641265 -0.33501756179834041 0 0.1149391998693738 -0.32876191790481257 0 0.1203073559828662 -0.34481831064573482 0 0.1149391998693738 -0.32876191790481257 0 0.1071562875265276 -0.34088406714172798 0 0.1203073559828662 -0.34481831064573482 0 0.11030782598785099 -0.32334328523235578 0 0.1071562875265276 -0.34088406714172798 0 0.088168702518997374 -0.33920446067117932 0 0.11030782598785099 -0.32334328523235578 0 0.088168702518997374 -0.33920446067117932 0 0.11030782598785099 -0.32334328523235578 0 0.092685396428672781 -0.32103820683708328 0 0.088168702518997374 -0.33920446067117932 0 0.10329279831551071 -0.3091199101392611 0 0.11030782598785099 -0.32334328523235578 0 0.092685396428672781 -0.32103820683708328 0 0.087363613427391865 -0.30807629250996549 0 0.10329279831551071 -0.3091199101392611 0 0.092685396428672781 -0.32103820683708328 0 0.10329279831551071 -0.3091199101392611 0 0.1149391998693738 -0.32876191790481257 0 0.1245186505824013 -0.36113750934922573 0 0.111761677400382 -0.35565256239397869 0 0.1080928822255358 -0.3703790814713866 0 0.12672469353237761 -0.38193719477194499 0 0.1245186505824013 -0.36113750934922573 0 0.1080928822255358 -0.3703790814713866 0 0.1245186505824013 -0.36113750934922573 0 0.111761677400382 -0.35565256239397869 0 0.1203073559828662 -0.34481831064573482 0 0.1071562875265276 -0.34088406714172798 0 0.111761677400382 -0.35565256239397869 0 0.1203073559828662 -0.34481831064573482 0 0.1071562875265276 -0.34088406714172798 0 0.09828664694928807 -0.35383226801130691 0 0.088168702518997374 -0.33920446067117932 0 0.1071562875265276 -0.34088406714172798 0 0.111761677400382 -0.35565256239397869 0 0.09828664694928807 -0.35383226801130691 0 0.097085641119374302 -0.38571424072610178 0 0.1080928822255358 -0.3703790814713866 0 0.085574671404253372 -0.36606529366265911 0 0.111761677400382 -0.35565256239397869 0 0.09828664694928807 -0.35383226801130691 0 0.1080928822255358 -0.3703790814713866 0 0.09828664694928807 -0.35383226801130691 0 0.1080928822255358 -0.3703790814713866 0 0.085574671404253372 -0.36606529366265911 0 0.085574671404253372 -0.36606529366265911 0 0.066029579050143783 -0.35506563611000291 0 0.088168702518997374 -0.33920446067117932 0 0.09828664694928807 -0.35383226801130691 0 0.085574671404253372 -0.36606529366265911 0 0.088168702518997374 -0.33920446067117932 0 0.066029579050143783 -0.35506563611000291 0 0.088168702518997374 -0.33920446067117932 0 0.064781398010314309 -0.37536455347105108 0 0.085574671404253372 -0.36606529366265911 0 0.066029579050143783 -0.35506563611000291 0 0.066029579050143783 -0.35506563611000291 0 0.088168702518997374 -0.33920446067117932 0 0.073259594084162577 -0.32259772896999273 0 0.066029579050143783 -0.35506563611000291 0 0.073259594084162577 -0.32259772896999273 0 0.048222299164917798 -0.333319266554439 0 0.092685396428672781 -0.32103820683708328 0 0.088168702518997374 -0.33920446067117932 0 0.073259594084162577 -0.32259772896999273 0 0.087363613427391865 -0.30807629250996549 0 0.092685396428672781 -0.32103820683708328 0 0.073259594084162577 -0.32259772896999273 0 0.073259594084162577 -0.32259772896999273 0 0.056038135353808333 -0.31320409925325249 0 0.048222299164917798 -0.333319266554439 0 0.056038135353808333 -0.31320409925325249 0 0.048222299164917798 -0.333319266554439 0 0.036478772830285791 -0.31172509300834528 0 0.048222299164917798 -0.333319266554439 0 0.033610930591278822 -0.35000849021355163 0 0.023331405601267931 -0.32909016887827719 0 0.048222299164917798 -0.333319266554439 0 0.023331405601267931 -0.32909016887827719 0 0.036478772830285791 -0.31172509300834528 0 0.066029579050143783 -0.35506563611000291 0 0.048355778033110031 -0.35315995845717169 0 0.043890455581289831 -0.3709268115488259 0 0.066029579050143783 -0.35506563611000291 0 0.043890455581289831 -0.3709268115488259 0 0.064781398010314309 -0.37536455347105108 0 0.066029579050143783 -0.35506563611000291 0 0.043890455581289831 -0.3709268115488259 0 0.066029579050143783 -0.35506563611000291 0 0.048222299164917798 -0.333319266554439 0 0.048355778033110031 -0.35315995845717169 0 0.048222299164917798 -0.333319266554439 0 0.048355778033110031 -0.35315995845717169 0 0.033610930591278822 -0.35000849021355163 0 0.048355778033110031 -0.35315995845717169 0 0.033610930591278822 -0.35000849021355163 0 0.043890455581289831 -0.3709268115488259 0 0.033610930591278822 -0.35000849021355163 0 0.03286340713970079 -0.36889202113574671 0 0.043890455581289831 -0.3709268115488259 0 0.033610930591278822 -0.35000849021355163 0 0.043890455581289831 -0.3709268115488259 0 0.030780854092194759 -0.38031894893150719 0 0.03286340713970079 -0.36889202113574671 0 0.043890455581289831 -0.3709268115488259 0 0.033610930591278822 -0.35000849021355163 0 0.03286340713970079 -0.36889202113574671 0 0.022072978528308879 -0.36937310690127451 0 0.030780854092194759 -0.38031894893150719 0 0.03286340713970079 -0.36889202113574671 0 0.022072978528308879 -0.36937310690127451 0 0.033610930591278822 -0.35000849021355163 0 0.022072978528308879 -0.36937310690127451 0 0.014393680356963701 -0.35536411395587292 0 0.033610930591278822 -0.35000849021355163 0 0.014393680356963701 -0.35536411395587292 0 0.0105762414372169 -0.3395135522035268 0 -0.00014080085946228561 -0.35082738964002957 0 0.014393680356963701 -0.35536411395587292 0 0.0105762414372169 -0.3395135522035268 0 -0.00014080085946228561 -0.35082738964002957 0 0.014393680356963701 -0.35536411395587292 0 0.0058490520874761691 -0.36709803082098191 0 0.022072978528308879 -0.36937310690127451 0 0.014393680356963701 -0.35536411395587292 0 0.0058490520874761691 -0.36709803082098191 0 0.022072978528308879 -0.36937310690127451 0 0.0058490520874761691 -0.36709803082098191 0 0.0132535835722172 -0.37610527220974688 0 0.022072978528308879 -0.36937310690127451 0 0.0058490520874761691 -0.36709803082098191 0 -0.0078283346885702904 -0.37476262999778609 0 0.0132535835722172 -0.37610527220974688 0 0.0058490520874761691 -0.36709803082098191 0 0.023331405601267931 -0.32909016887827719 0 0.013051880611257029 -0.30817184754300292 0 0.023331405601267931 -0.32909016887827719 0 0.013051880611257029 -0.30817184754300292 0 0.036478772830285791 -0.31172509300834528 0 0.033610930591278822 -0.35000849021355163 0 0.023331405601267931 -0.32909016887827719 0 0.0105762414372169 -0.3395135522035268 0 0.033610930591278822 -0.35000849021355163 0 0.023331405601267931 -0.32909016887827719 0 0.023331405601267931 -0.32909016887827719 0 0.0105762414372169 -0.3395135522035268 0 3.5896068887442723e-05 -0.32803491845883598 0 -0.00014080085946228561 -0.35082738964002957 0 0.0105762414372169 -0.3395135522035268 0 3.5896068887442723e-05 -0.32803491845883598 0 -0.0063780240591087903 -0.31078717533589839 0 3.5896068887442723e-05 -0.32803491845883598 0 0.013051880611257029 -0.30817184754300292 0 0.023331405601267931 -0.32909016887827719 0 3.5896068887442723e-05 -0.32803491845883598 0 0.013051880611257029 -0.30817184754300292 0 0.013051880611257029 -0.30817184754300292 0 0.0027723556212477219 -0.28725352620772771 0 0.0027723556212477219 -0.28725352620772771 0 0.026109415510684009 -0.29202779727133188 0 -0.0017476628817073611 -0.27805551369469472 0 0.0027723556212477219 -0.28725352620772771 0 0.01602201902671789 -0.28191194131808539 0 0.013051880611257029 -0.30817184754300292 0 0.0027723556212477219 -0.28725352620772771 0 0.026109415510684009 -0.29202779727133188 0 0.0027723556212477219 -0.28725352620772771 0 0.026109415510684009 -0.29202779727133188 0 0.01602201902671789 -0.28191194131808539 0 -0.0074917523477661804 -0.29461577546968681 0 0.013051880611257029 -0.30817184754300292 0 0.0027723556212477219 -0.28725352620772771 0 -0.0017476628817073611 -0.27805551369469472 0 0.0027723556212477219 -0.28725352620772771 0 0.026109415510684009 -0.29202779727133188 0 0.01602201902671789 -0.28191194131808539 0 0.036314123194761641 -0.27872041929058161 0 0.013051880611257029 -0.30817184754300292 0 0.026109415510684009 -0.29202779727133188 0 0.036478772830285791 -0.31172509300834528 0 0.026109415510684009 -0.29202779727133188 0 0.036478772830285791 -0.31172509300834528 0 0.04944647540011983 -0.29680206833493911 0 0.026109415510684009 -0.29202779727133188 0 0.04944647540011983 -0.29680206833493911 0 0.036314123194761641 -0.27872041929058161 0 0.026109415510684009 -0.29202779727133188 0 0.04944647540011983 -0.29680206833493911 0 0.04944647540011983 -0.29680206833493911 0 0.059700898458833078 -0.27333130828182889 0 0.036314123194761641 -0.27872041929058161 0 0.07071546022358817 -0.28620470259943642 0 0.04944647540011983 -0.29680206833493911 0 0.059700898458833078 -0.27333130828182889 0 0.072783535289555654 -0.30157633939854622 0 0.04944647540011983 -0.29680206833493911 0 0.056038135353808333 -0.31320409925325249 0 0.036478772830285791 -0.31172509300834528 0 0.04944647540011983 -0.29680206833493911 0 0.072783535289555654 -0.30157633939854622 0 0.056038135353808333 -0.31320409925325249 0 0.04944647540011983 -0.29680206833493911 0 0.06835359365392131 -0.25019388684260668 0 0.044986508142045613 -0.25948109579330381 0 0.047362788675733028 -0.24199119006041811 0 0.06835359365392131 -0.25019388684260668 0 0.059700898458833078 -0.27333130828182889 0 0.044986508142045613 -0.25948109579330381 0 0.06835359365392131 -0.25019388684260668 0 0.044986508142045613 -0.25948109579330381 0 0.059700898458833078 -0.27333130828182889 0 0.036314123194761641 -0.27872041929058161 0 0.044986508142045613 -0.25948109579330381 0 0.036314123194761641 -0.27872041929058161 0 0.044986508142045613 -0.25948109579330381 0 0.02161942263016943 -0.26876830474400021 0 0.044986508142045613 -0.25948109579330381 0 0.02161942263016943 -0.26876830474400021 0 0.044986508142045613 -0.25948109579330381 0 0.029973277209287209 -0.25054958921230208 0 0.02161942263016943 -0.26876830474400021 0 0.044986508142045613 -0.25948109579330381 0 0.029973277209287209 -0.25054958921230208 0 0.047362788675733028 -0.24199119006041811 0 0.029973277209287209 -0.25054958921230208 0 0.015960739131678031 -0.25406337006458851 0 0.02161942263016943 -0.26876830474400021 0 0.01602201902671789 -0.28191194131808539 0 0.036314123194761641 -0.27872041929058161 0 0.02161942263016943 -0.26876830474400021 0 -0.0017476628817073611 -0.27805551369469472 0 0.01602201902671789 -0.28191194131808539 0 0.02161942263016943 -0.26876830474400021 0 -0.0017476628817073611 -0.27805551369469472 0 0.02161942263016943 -0.26876830474400021 0 -0.0017476628817073611 -0.27805551369469472 0 0.02161942263016943 -0.26876830474400021 0 0.0057386521092319797 -0.26220041049146298 0 0.015960739131678031 -0.25406337006458851 0 0.02161942263016943 -0.26876830474400021 0 0.0057386521092319797 -0.26220041049146298 0 0.015960739131678031 -0.25406337006458851 0 0.0057386521092319797 -0.26220041049146298 0 0.0025328853753160741 -0.24958102673793139 0 0.0010854142569982001 -0.23807309260292489 0 0.010575476039053681 -0.22730954243123891 0 0.017210747296828609 -0.24036453645492739 0 0.0010854142569982001 -0.23807309260292489 0 0.0025328853753160741 -0.24958102673793139 0 0.017210747296828609 -0.24036453645492739 0 0.015960739131678031 -0.25406337006458851 0 0.0025328853753160741 -0.24958102673793139 0 0.017210747296828609 -0.24036453645492739 0 -0.0061584899570064598 -0.22962027277065361 0 0.0010854142569982001 -0.23807309260292489 0 0.010575476039053681 -0.22730954243123891 0 -0.0061584899570064598 -0.22962027277065361 0 0.010575476039053681 -0.22730954243123891 0 0.0064165675551885711 -0.21575046092143421 0 -0.0061584899570064598 -0.22962027277065361 0 0.0064165675551885711 -0.21575046092143421 0 0.010575476039053681 -0.22730954243123891 0 0.0064165675551885711 -0.21575046092143421 0 0.021509429760601551 -0.21557394742371069 0 0.010575476039053681 -0.22730954243123891 0 0.0064165675551885711 -0.21575046092143421 0 0.010575476039053681 -0.22730954243123891 0 0.02225812238200572 -0.22838936745028471 0 0.017210747296828609 -0.24036453645492739 0 0.010575476039053681 -0.22730954243123891 0 0.02225812238200572 -0.22838936745028471 0 0.021509429760601551 -0.21557394742371069 0 0.02225812238200572 -0.22838936745028471 0 0.029479073121619459 -0.22118232130399371 0 0.021509429760601551 -0.21557394742371069 0 0.02225812238200572 -0.22838936745028471 0 0.029479073121619459 -0.22118232130399371 0 0.031866256870133697 -0.23515517363185631 0 0.029973277209287209 -0.25054958921230208 0 0.017210747296828609 -0.24036453645492739 0 0.031866256870133697 -0.23515517363185631 0 0.02225812238200572 -0.22838936745028471 0 0.017210747296828609 -0.24036453645492739 0 0.031866256870133697 -0.23515517363185631 0 0.029973277209287209 -0.25054958921230208 0 0.015960739131678031 -0.25406337006458851 0 0.017210747296828609 -0.24036453645492739 0 -0.0015622250741301779 -0.1935745667631632 0 0.01896638504685547 -0.20190848785827681 0 0.0091962193441852118 -0.18107109871456811 0 -0.0015622250741301779 -0.1935745667631632 0 0.0064165675551885711 -0.21575046092143421 0 0.01896638504685547 -0.20190848785827681 0 -0.0015622250741301779 -0.1935745667631632 0 0.0064165675551885711 -0.21575046092143421 0 0.0064165675551885711 -0.21575046092143421 0 0.01896638504685547 -0.20190848785827681 0 0.0064165675551885711 -0.21575046092143421 0 0.021509429760601551 -0.21557394742371069 0 0.01896638504685547 -0.20190848785827681 0 0.029479073121619459 -0.22118232130399371 0 0.021509429760601551 -0.21557394742371069 0 0.033558692489570878 -0.21195100443687931 0 0.021509429760601551 -0.21557394742371069 0 0.029251690937081031 -0.20258635003767089 0 0.033558692489570878 -0.21195100443687931 0 0.021509429760601551 -0.21557394742371069 0 0.01896638504685547 -0.20190848785827681 0 0.029251690937081031 -0.20258635003767089 0 0.01896638504685547 -0.20190848785827681 0 0.031516202538524517 -0.1880665147951214 0 0.0091962193441852118 -0.18107109871456811 0 0.01896638504685547 -0.20190848785827681 0 0.029251690937081031 -0.20258635003767089 0 0.031516202538524517 -0.1880665147951214 0 0.01896638504685547 -0.20190848785827681 0 0.031516202538524517 -0.1880665147951214 0 0.043838458457815248 -0.18986676967386279 0 0.039506267971797952 -0.20154200132731501 0 0.055741541871671067 -0.19352675789948551 0 0.043838458457815248 -0.18986676967386279 0 0.031516202538524517 -0.1880665147951214 0 0.039506267971797952 -0.20154200132731501 0 0.031516202538524517 -0.1880665147951214 0 0.039506267971797952 -0.20154200132731501 0 0.029251690937081031 -0.20258635003767089 0 0.031516202538524517 -0.1880665147951214 0 0.039506267971797952 -0.20154200132731501 0 0.039506267971797952 -0.20154200132731501 0 0.033558692489570878 -0.21195100443687931 0 0.047496333405074677 -0.2150174878595065 0 0.039506267971797952 -0.20154200132731501 0 0.047496333405074677 -0.2150174878595065 0 0.029251690937081031 -0.20258635003767089 0 0.039506267971797952 -0.20154200132731501 0 0.033558692489570878 -0.21195100443687931 0 0.033558692489570878 -0.21195100443687931 0 0.047496333405074677 -0.2150174878595065 0 0.033558692489570878 -0.21195100443687931 0 0.047496333405074677 -0.2150174878595065 0 0.039554961726260877 -0.22474601638733641 0 0.039506267971797952 -0.20154200132731501 0 0.047496333405074677 -0.2150174878595065 0 0.05523956109653505 -0.20714630445374671 0 0.047496333405074677 -0.2150174878595065 0 0.05523956109653505 -0.20714630445374671 0 0.064206587222380762 -0.21869398638814641 0 0.047496333405074677 -0.2150174878595065 0 0.064206587222380762 -0.21869398638814641 0 0.039506267971797952 -0.20154200132731501 0 0.05523956109653505 -0.20714630445374671 0 0.055741541871671067 -0.19352675789948551 0 0.05523956109653505 -0.20714630445374671 0 0.055741541871671067 -0.19352675789948551 0 0.069247075011750078 -0.20695128879428309 0 0.055741541871671067 -0.19352675789948551 0 0.069247075011750078 -0.20695128879428309 0 0.029973277209287209 -0.25054958921230208 0 0.031866256870133697 -0.23515517363185631 0 0.047362788675733028 -0.24199119006041811 0 0.031866256870133697 -0.23515517363185631 0 0.039554961726260877 -0.22474601638733641 0 0.047362788675733028 -0.24199119006041811 0 0.029479073121619459 -0.22118232130399371 0 0.031866256870133697 -0.23515517363185631 0 0.039554961726260877 -0.22474601638733641 0 0.029479073121619459 -0.22118232130399371 0 0.033558692489570878 -0.21195100443687931 0 0.039554961726260877 -0.22474601638733641 0 0.047496333405074677 -0.2150174878595065 0 0.05536207860111314 -0.2282833045590259 0 0.064206587222380762 -0.21869398638814641 0 0.05536207860111314 -0.2282833045590259 0 0.063311866646695691 -0.24149928944984211 0 0.064206587222380762 -0.21869398638814641 0 0.039554961726260877 -0.22474601638733641 0 0.05536207860111314 -0.2282833045590259 0 0.047362788675733028 -0.24199119006041811 0 0.047496333405074677 -0.2150174878595065 0 0.039554961726260877 -0.22474601638733641 0 0.05536207860111314 -0.2282833045590259 0 0.047496333405074677 -0.2150174878595065 0 0.05536207860111314 -0.2282833045590259 0 0.05536207860111314 -0.2282833045590259 0 0.063311866646695691 -0.24149928944984211 0 0.06835359365392131 -0.25019388684260668 0 0.047362788675733028 -0.24199119006041811 0 0.063311866646695691 -0.24149928944984211 0 0.05536207860111314 -0.2282833045590259 0 0.047362788675733028 -0.24199119006041811 0 0.063311866646695691 -0.24149928944984211 0 0.06835359365392131 -0.25019388684260668 0 0.08421140423371333 -0.243891226620808 0 0.06835359365392131 -0.25019388684260668 0 0.063311866646695691 -0.24149928944984211 0 0.063311866646695691 -0.24149928944984211 0 0.074219814037010917 -0.24224782663387789 0 0.081086434463253185 -0.23335707181355411 0 0.06835359365392131 -0.25019388684260668 0 0.063311866646695691 -0.24149928944984211 0 0.074219814037010917 -0.24224782663387789 0 0.06835359365392131 -0.25019388684260668 0 0.074219814037010917 -0.24224782663387789 0 0.08421140423371333 -0.243891226620808 0 0.08421140423371333 -0.243891226620808 0 0.081086434463253185 -0.23335707181355411 0 0.10006921481350529 -0.2375885663990091 0 0.08421140423371333 -0.243891226620808 0 0.10006921481350529 -0.2375885663990091 0 0.074219814037010917 -0.24224782663387789 0 0.08421140423371333 -0.243891226620808 0 0.081086434463253185 -0.23335707181355411 0 0.081086434463253185 -0.23335707181355411 0 0.085851572697872774 -0.2234561975504171 0 0.10006921481350529 -0.2375885663990091 0 0.085851572697872774 -0.2234561975504171 0 0.08275260815182911 -0.2203758196890806 0 0.098293187803831117 -0.21887499219370271 0 0.085851572697872774 -0.2234561975504171 0 0.10006921481350529 -0.2375885663990091 0 0.081086434463253185 -0.23335707181355411 0 0.085851572697872774 -0.2234561975504171 0 0.080916841039686133 -0.2223704849167896 0 0.085851572697872774 -0.2234561975504171 0 0.080916841039686133 -0.2223704849167896 0 0.085851572697872774 -0.2234561975504171 0 0.08275260815182911 -0.2203758196890806 0 0.080916841039686133 -0.2223704849167896 0 0.085851572697872774 -0.2234561975504171 0 0.08275260815182911 -0.2203758196890806 0 0.08275260815182911 -0.2203758196890806 0 0.080916841039686133 -0.2223704849167896 0 0.063311866646695691 -0.24149928944984211 0 0.080916841039686133 -0.2223704849167896 0 0.063311866646695691 -0.24149928944984211 0 0.080916841039686133 -0.2223704849167896 0 0.064206587222380762 -0.21869398638814641 0 0.080916841039686133 -0.2223704849167896 0 0.064206587222380762 -0.21869398638814641 0 0.063311866646695691 -0.24149928944984211 0 0.081086434463253185 -0.23335707181355411 0 0.080916841039686133 -0.2223704849167896 0 0.080916841039686133 -0.2223704849167896 0 0.064206587222380762 -0.21869398638814641 0 0.069247075011750078 -0.20695128879428309 0 0.05523956109653505 -0.20714630445374671 0 0.064206587222380762 -0.21869398638814641 0 0.069247075011750078 -0.20695128879428309 0 0.08275260815182911 -0.2203758196890806 0 0.069247075011750078 -0.20695128879428309 0 0.08275260815182911 -0.2203758196890806 0 0.080916841039686133 -0.2223704849167896 0 0.069247075011750078 -0.20695128879428309 0 0.055741541871671067 -0.19352675789948551 0 0.069247075011750078 -0.20695128879428309 0 0.070887819862862286 -0.1914088031202833 0 0.069247075011750078 -0.20695128879428309 0 0.070887819862862286 -0.1914088031202833 0 0.082832551139222166 -0.19914513048671481 0 0.070887819862862286 -0.1914088031202833 0 0.082832551139222166 -0.19914513048671481 0 0.081821336385090343 -0.18186245165470949 0 0.082832551139222166 -0.19914513048671481 0 0.097084301305641635 -0.20480362112478781 0 0.095405874932467813 -0.18887779734800569 0 0.082832551139222166 -0.19914513048671481 0 0.095405874932467813 -0.18887779734800569 0 0.081821336385090343 -0.18186245165470949 0 0.08275260815182911 -0.2203758196890806 0 0.082832551139222166 -0.19914513048671481 0 0.097084301305641635 -0.20480362112478781 0 0.08275260815182911 -0.2203758196890806 0 0.069247075011750078 -0.20695128879428309 0 0.082832551139222166 -0.19914513048671481 0 0.08275260815182911 -0.2203758196890806 0 0.097084301305641635 -0.20480362112478781 0 0.098293187803831117 -0.21887499219370271 0 0.08275260815182911 -0.2203758196890806 0 0.097084301305641635 -0.20480362112478781 0 0.097084301305641635 -0.20480362112478781 0 0.1146962174531268 -0.21673223195775559 0 0.098293187803831117 -0.21887499219370271 0 0.097084301305641635 -0.20480362112478781 0 0.095405874932467813 -0.18887779734800569 0 0.11141599445945349 -0.1892314225604943 0 0.097084301305641635 -0.20480362112478781 0 0.11141599445945349 -0.1892314225604943 0 0.097084301305641635 -0.20480362112478781 0 0.1210323504124224 -0.2015702574875764 0 0.11141599445945349 -0.1892314225604943 0 0.1210323504124224 -0.2015702574875764 0 0.11141599445945349 -0.1892314225604943 0 0.13523084618428721 -0.18276855246186111 0 0.1210323504124224 -0.2015702574875764 0 0.1146962174531268 -0.21673223195775559 0 0.13583218450739579 -0.2116030352811932 0 0.097084301305641635 -0.20480362112478781 0 0.1210323504124224 -0.2015702574875764 0 0.1146962174531268 -0.21673223195775559 0 0.1110812394106853 -0.22900709064647229 0 0.12594488917549271 -0.2231145762792166 0 0.1363109061234978 -0.23455798374252809 0 0.1110812394106853 -0.22900709064647229 0 0.1223190960555403 -0.2394332616338683 0 0.1363109061234978 -0.23455798374252809 0 0.1110812394106853 -0.22900709064647229 0 0.1363109061234978 -0.23455798374252809 0 0.1146962174531268 -0.21673223195775559 0 0.1110812394106853 -0.22900709064647229 0 0.12594488917549271 -0.2231145762792166 0 0.1110812394106853 -0.22900709064647229 0 0.1223190960555403 -0.2394332616338683 0 0.1084330749156753 -0.23426436422737831 0 0.1147239364606354 -0.25215539330366038 0 0.1223190960555403 -0.2394332616338683 0 0.1084330749156753 -0.23426436422737831 0 0.097662046653794854 -0.25561444261418242 0 0.1147239364606354 -0.25215539330366038 0 0.10006921481350529 -0.2375885663990091 0 0.1147239364606354 -0.25215539330366038 0 0.10006921481350529 -0.2375885663990091 0 0.1084330749156753 -0.23426436422737831 0 0.097662046653794854 -0.25561444261418242 0 0.08421140423371333 -0.243891226620808 0 0.10006921481350529 -0.2375885663990091 0 0.10006921481350529 -0.2375885663990091 0 0.1084330749156753 -0.23426436422737831 0 0.1147239364606354 -0.25215539330366038 0 0.10006921481350529 -0.2375885663990091 0 0.085851572697872774 -0.2234561975504171 0 0.1110812394106853 -0.22900709064647229 0 0.1146962174531268 -0.21673223195775559 0 0.1110812394106853 -0.22900709064647229 0 0.098293187803831117 -0.21887499219370271 0 0.085851572697872774 -0.2234561975504171 0 0.1110812394106853 -0.22900709064647229 0 0.098293187803831117 -0.21887499219370271 0 0.085851572697872774 -0.2234561975504171 0 0.1110812394106853 -0.22900709064647229 0 0.10006921481350529 -0.2375885663990091 0 0.1110812394106853 -0.22900709064647229 0 0.10006921481350529 -0.2375885663990091 0 0.1084330749156753 -0.23426436422737831 0 0.1040552578412003 -0.15282191894301261 0 0.1005807427949069 -0.13366374688330029 0 0.11727103389215909 -0.1361484369810822 0 0.1005807427949069 -0.13366374688330029 0 0.11727103389215909 -0.1361484369810822 0 0.1051359327507693 -0.1227177542784853 0 0.1040552578412003 -0.15282191894301261 0 0.1005807427949069 -0.13366374688330029 0 0.082362828069140165 -0.1319846138898183 0 0.11727103389215909 -0.1361484369810822 0 0.1154331983948798 -0.1174886032934183 0 0.13404900744611239 -0.12609877526333699 0 0.11727103389215909 -0.1361484369810822 0 0.1051359327507693 -0.1227177542784853 0 0.1154331983948798 -0.1174886032934183 0 0.1040552578412003 -0.15282191894301261 0 0.11727103389215909 -0.1361484369810822 0 0.1232701832726428 -0.15427141090171109 0 0.11727103389215909 -0.1361484369810822 0 0.1232701832726428 -0.15427141090171109 0 0.13444198148756639 -0.1449420832838656 0 0.1040552578412003 -0.15282191894301261 0 0.12574768761326591 -0.17365922399620121 0 0.1040552578412003 -0.15282191894301261 0 0.1002282447692335 -0.17458527697826651 0 0.12574768761326591 -0.17365922399620121 0 0.1040552578412003 -0.15282191894301261 0 0.1232701832726428 -0.15427141090171109 0 0.12574768761326591 -0.17365922399620121 0 0.11141599445945349 -0.1892314225604943 0 0.1002282447692335 -0.17458527697826651 0 0.12574768761326591 -0.17365922399620121 0 0.11141599445945349 -0.1892314225604943 0 0.12574768761326591 -0.17365922399620121 0 0.13523084618428721 -0.18276855246186111 0 0.11141599445945349 -0.1892314225604943 0 0.12574768761326591 -0.17365922399620121 0 0.095405874932467813 -0.18887779734800569 0 0.11141599445945349 -0.1892314225604943 0 0.1002282447692335 -0.17458527697826651 0 0.1040552578412003 -0.15282191894301261 0 0.1002282447692335 -0.17458527697826651 0 0.08311303581058499 -0.16124853818171381 0 0.095405874932467813 -0.18887779734800569 0 0.1002282447692335 -0.17458527697826651 0 0.081821336385090343 -0.18186245165470949 0 0.1002282447692335 -0.17458527697826651 0 0.08311303581058499 -0.16124853818171381 0 0.081821336385090343 -0.18186245165470949 0 0.08311303581058499 -0.16124853818171381 0 0.081821336385090343 -0.18186245165470949 0 0.066780308608768796 -0.17493307235476979 0 0.070887819862862286 -0.1914088031202833 0 0.081821336385090343 -0.18186245165470949 0 0.066780308608768796 -0.17493307235476979 0 0.055741541871671067 -0.19352675789948551 0 0.070887819862862286 -0.1914088031202833 0 0.066780308608768796 -0.17493307235476979 0 0.08311303581058499 -0.16124853818171381 0 0.066780308608768796 -0.17493307235476979 0 0.065413952892267702 -0.150678580858252 0 0.065413952892267702 -0.150678580858252 0 0.082362828069140165 -0.1319846138898183 0 0.08311303581058499 -0.16124853818171381 0 0.065413952892267702 -0.150678580858252 0 0.082362828069140165 -0.1319846138898183 0 0.1040552578412003 -0.15282191894301261 0 0.08311303581058499 -0.16124853818171381 0 0.082362828069140165 -0.1319846138898183 0 0.1040552578412003 -0.15282191894301261 0 0.082362828069140165 -0.1319846138898183 0 0.1005807427949069 -0.13366374688330029 0 0.082362828069140165 -0.1319846138898183 0 0.095577299328253623 -0.1174095529111252 0 0.082362828069140165 -0.1319846138898183 0 0.070308403876621794 -0.13238109852993221 0 0.069837722907261313 -0.1199532536492431 0 0.065413952892267702 -0.150678580858252 0 0.082362828069140165 -0.1319846138898183 0 0.070308403876621794 -0.13238109852993221 0 0.082362828069140165 -0.1319846138898183 0 0.069837722907261313 -0.1199532536492431 0 0.065413952892267702 -0.150678580858252 0 0.070308403876621794 -0.13238109852993221 0 0.06118566078759103 -0.13005342953014129 0 0.070308403876621794 -0.13238109852993221 0 0.06118566078759103 -0.13005342953014129 0 0.069837722907261313 -0.1199532536492431 0 0.065413952892267702 -0.150678580858252 0 0.06118566078759103 -0.13005342953014129 0 0.053245925046226952 -0.14076102386291889 0 0.06118566078759103 -0.13005342953014129 0 0.049352038069647858 -0.1295439288512826 0 0.048525659269531229 -0.11802361343548989 0 0.049352038069647858 -0.1295439288512826 0 0.053245925046226952 -0.14076102386291889 0 0.041700188437408421 -0.13409859591225329 0 0.06118566078759103 -0.13005342953014129 0 0.049352038069647858 -0.1295439288512826 0 0.053245925046226952 -0.14076102386291889 0 0.065413952892267702 -0.150678580858252 0 0.053245925046226952 -0.14076102386291889 0 0.048465077715394989 -0.16937254782668559 0 0.053245925046226952 -0.14076102386291889 0 0.040505841312838547 -0.14468304457988079 0 0.048465077715394989 -0.16937254782668559 0 0.040505841312838547 -0.14468304457988079 0 0.03393783807298914 -0.14093707321474161 0 0.030230252537669321 -0.1566253376229266 0 0.040505841312838547 -0.14468304457988079 0 0.030230252537669321 -0.1566253376229266 0 0.040505841312838547 -0.14468304457988079 0 0.03393783807298914 -0.14093707321474161 0 0.041700188437408421 -0.13409859591225329 0 0.03393783807298914 -0.14093707321474161 0 0.041700188437408421 -0.13409859591225329 0 0.024480650806643651 -0.1375151559245551 0 0.041700188437408421 -0.13409859591225329 0 0.042102756807481732 -0.1247829815156095 0 0.031290738437872938 -0.1201921761368282 0 0.049352038069647858 -0.1295439288512826 0 0.041700188437408421 -0.13409859591225329 0 0.042102756807481732 -0.1247829815156095 0 0.053245925046226952 -0.14076102386291889 0 0.040505841312838547 -0.14468304457988079 0 0.041700188437408421 -0.13409859591225329 0 0.055741541871671067 -0.19352675789948551 0 0.066780308608768796 -0.17493307235476979 0 0.048465077715394989 -0.16937254782668559 0 0.043838458457815248 -0.18986676967386279 0 0.055741541871671067 -0.19352675789948551 0 0.048465077715394989 -0.16937254782668559 0 0.066780308608768796 -0.17493307235476979 0 0.065413952892267702 -0.150678580858252 0 0.048465077715394989 -0.16937254782668559 0 0.065413952892267702 -0.150678580858252 0 0.048465077715394989 -0.16937254782668559 0 0.040505841312838547 -0.14468304457988079 0 0.048465077715394989 -0.16937254782668559 0 0.030230252537669321 -0.1566253376229266 0 0.048465077715394989 -0.16937254782668559 0 0.033338822752702377 -0.1705348433046637 0 0.030230252537669321 -0.1566253376229266 0 0.043838458457815248 -0.18986676967386279 0 0.031516202538524517 -0.1880665147951214 0 0.048465077715394989 -0.16937254782668559 0 0.031516202538524517 -0.1880665147951214 0 0.048465077715394989 -0.16937254782668559 0 0.031516202538524517 -0.1880665147951214 0 0.048465077715394989 -0.16937254782668559 0 0.033338822752702377 -0.1705348433046637 0 0.031516202538524517 -0.1880665147951214 0 0.033338822752702377 -0.1705348433046637 0 0.01995466376250531 -0.16856763066597699 0 0.031516202538524517 -0.1880665147951214 0 0.01995466376250531 -0.16856763066597699 0 0.031516202538524517 -0.1880665147951214 0 0.01995466376250531 -0.16856763066597699 0 0.0091962193441852118 -0.18107109871456811 0 0.01995466376250531 -0.16856763066597699 0 0.030230252537669321 -0.1566253376229266 0 0.008868239412810253 -0.14987004135808221 0 0.033338822752702377 -0.1705348433046637 0 0.01995466376250531 -0.16856763066597699 0 0.030230252537669321 -0.1566253376229266 0 0.01995466376250531 -0.16856763066597699 0 0.030230252537669321 -0.1566253376229266 0 -0.0025999653858941639 -0.16131422913783491 0 0.0067086063528142403 -0.16809244781376179 0 0.008868239412810253 -0.14987004135808221 0 0.01995466376250531 -0.16856763066597699 0 0.008868239412810253 -0.14987004135808221 0 0.01995466376250531 -0.16856763066597699 0 0.0067086063528142403 -0.16809244781376179 0 0.008868239412810253 -0.14987004135808221 0 -0.0084927016390539001 -0.17431231470194719 0 0.0067086063528142403 -0.16809244781376179 0 0.0091962193441852118 -0.18107109871456811 0 0.01995466376250531 -0.16856763066597699 0 0.0091962193441852118 -0.18107109871456811 0 0.01995466376250531 -0.16856763066597699 0 0.0067086063528142403 -0.16809244781376179 0 0.0091962193441852118 -0.18107109871456811 0 -0.0015622250741301779 -0.1935745667631632 0 0.0091962193441852118 -0.18107109871456811 0 0.041700188437408421 -0.13409859591225329 0 0.014197789575412951 -0.12328672932727321 0 0.031290738437872938 -0.1201921761368282 0 0.041700188437408421 -0.13409859591225329 0 0.024480650806643651 -0.1375151559245551 0 0.014197789575412951 -0.12328672932727321 0 0.041700188437408421 -0.13409859591225329 0 0.014197789575412951 -0.12328672932727321 0 0.024480650806643651 -0.1375151559245551 0 0.011332123714495041 -0.13546109466502479 0 0.014197789575412951 -0.12328672932727321 0 0.03393783807298914 -0.14093707321474161 0 0.030230252537669321 -0.1566253376229266 0 0.024480650806643651 -0.1375151559245551 0 0.030230252537669321 -0.1566253376229266 0 0.024480650806643651 -0.1375151559245551 0 0.008868239412810253 -0.14987004135808221 0 0.024480650806643651 -0.1375151559245551 0 0.008868239412810253 -0.14987004135808221 0 0.011332123714495041 -0.13546109466502479 0 -0.00221818493688669 -0.13117245205018849 0 -0.0031786103040098569 -0.14705450477373769 0 0.008868239412810253 -0.14987004135808221 0 -0.0031786103040098569 -0.14705450477373769 0 -0.0025999653858941639 -0.16131422913783491 0 0.008868239412810253 -0.14987004135808221 0 -0.00221818493688669 -0.13117245205018849 0 0.008868239412810253 -0.14987004135808221 0 -0.00221818493688669 -0.13117245205018849 0 0.011332123714495041 -0.13546109466502479 0 0.014197789575412951 -0.12328672932727321 0 -0.00221818493688669 -0.13117245205018849 0 0.008868239412810253 -0.14987004135808221 0 0.011332123714495041 -0.13546109466502479 0 -0.013304609286582791 -0.1124748627422944 0 0.014197789575412951 -0.12328672932727321 0 0.014197789575412951 -0.12328672932727321 0 0.020945276257035669 -0.1055296092587116 0 0.0046245275045138064 -0.1076828264142336 0 -0.013304609286582791 -0.1124748627422944 0 0.014197789575412951 -0.12328672932727321 0 0.0046245275045138064 -0.1076828264142336 0 0.014197789575412951 -0.12328672932727321 0 0.020945276257035669 -0.1055296092587116 0 0.031290738437872938 -0.1201921761368282 0 0.020945276257035669 -0.1055296092587116 0 0.031290738437872938 -0.1201921761368282 0 0.040241467446851142 -0.1026788937802551 0 0.020945276257035669 -0.1055296092587116 0 0.028115865357471449 -0.087896533900266943 0 0.040241467446851142 -0.1026788937802551 0 0.020945276257035669 -0.1055296092587116 0 0.0072012692200917657 -0.09144049599341271 0 0.028115865357471449 -0.087896533900266943 0 -0.0070294542012635762 -0.10327829347153671 0 0.0046245275045138064 -0.1076828264142336 0 0.0072012692200917657 -0.09144049599341271 0 0.020945276257035669 -0.1055296092587116 0 0.0046245275045138064 -0.1076828264142336 0 0.0072012692200917657 -0.09144049599341271 0 0.0072012692200917657 -0.09144049599341271 0 0.0054575408194632406 -0.073720759659108445 0 0.018511759797904249 -0.077210571545524964 0 -0.0056293594721457006 -0.082036805430144924 0 0.0072012692200917657 -0.09144049599341271 0 0.0054575408194632406 -0.073720759659108445 0 0.0054575408194632406 -0.073720759659108445 0 0.018354718881549058 -0.065167425818499949 0 0.003426744450576454 -0.054815297075420773 0 -0.0072319765520409062 -0.068818796064575097 0 0.0054575408194632406 -0.073720759659108445 0 0.003426744450576454 -0.054815297075420773 0 0.0054575408194632406 -0.073720759659108445 0 0.018354718881549058 -0.065167425818499949 0 0.018511759797904249 -0.077210571545524964 0 0.018511759797904249 -0.077210571545524964 0 0.028115865357471449 -0.087896533900266943 0 0.033429404710945708 -0.067827642356336801 0 0.018354718881549058 -0.065167425818499949 0 0.018511759797904249 -0.077210571545524964 0 0.033429404710945708 -0.067827642356336801 0 0.0072012692200917657 -0.09144049599341271 0 0.018511759797904249 -0.077210571545524964 0 0.028115865357471449 -0.087896533900266943 0 0.028115865357471449 -0.087896533900266943 0 0.044094628308957058 -0.087651847290754856 0 0.040241467446851142 -0.1026788937802551 0 0.028115865357471449 -0.087896533900266943 0 0.044094628308957058 -0.087651847290754856 0 0.033429404710945708 -0.067827642356336801 0 0.044094628308957058 -0.087651847290754856 0 0.033429404710945708 -0.067827642356336801 0 0.052580487019044733 -0.06457445167855122 0 0.052580487019044733 -0.06457445167855122 0 0.057640786708643768 -0.07951032993234286 0 0.068682665651441266 -0.069637891440837665 0 0.044094628308957058 -0.087651847290754856 0 0.052580487019044733 -0.06457445167855122 0 0.057640786708643768 -0.07951032993234286 0 0.044094628308957058 -0.087651847290754856 0 0.057640786708643768 -0.07951032993234286 0 0.064045145718632748 -0.088800152685812248 0 0.056223070490067702 -0.1049071233711502 0 0.048525659269531229 -0.11802361343548989 0 0.040241467446851142 -0.1026788937802551 0 0.044094628308957058 -0.087651847290754856 0 0.056223070490067702 -0.1049071233711502 0 0.064045145718632748 -0.088800152685812248 0 0.06118566078759103 -0.13005342953014129 0 0.056223070490067702 -0.1049071233711502 0 0.048525659269531229 -0.11802361343548989 0 0.048525659269531229 -0.11802361343548989 0 0.042102756807481732 -0.1247829815156095 0 0.031290738437872938 -0.1201921761368282 0 0.048525659269531229 -0.11802361343548989 0 0.031290738437872938 -0.1201921761368282 0 0.040241467446851142 -0.1026788937802551 0 0.049352038069647858 -0.1295439288512826 0 0.048525659269531229 -0.11802361343548989 0 0.042102756807481732 -0.1247829815156095 0 0.044094628308957058 -0.087651847290754856 0 0.056223070490067702 -0.1049071233711502 0 0.040241467446851142 -0.1026788937802551 0 0.020415517075116841 0.0076517724901667356 0 0.020207185183206099 -0.010785841930981459 0 0.039787151186370009 -0.0039594854922263374 0 0.020207185183206099 -0.010785841930981459 0 0.0047038114401232534 -0.001040937293712483 0 0.0026421611525163911 -0.019923693291100199 0 0.020415517075116841 0.0076517724901667356 0 0.020207185183206099 -0.010785841930981459 0 0.0047038114401232534 -0.001040937293712483 0 0.020207185183206099 -0.010785841930981459 0 0.0026421611525163911 -0.019923693291100199 0 0.018057611388834851 -0.030223969914345401 0 0.0026421611525163911 -0.019923693291100199 0 0.018057611388834851 -0.030223969914345401 0 0.001114662024295677 -0.034644724797188199 0 0.018057611388834851 -0.030223969914345401 0 0.03214982838215158 -0.036550164909951742 0 0.03396684481877061 -0.021771474300517551 0 0.020207185183206099 -0.010785841930981459 0 0.018057611388834851 -0.030223969914345401 0 0.03396684481877061 -0.021771474300517551 0 0.018057611388834851 -0.030223969914345401 0 0.010882918392325341 -0.043546784918672053 0 0.022583515379492949 -0.04946345385366932 0 0.018057611388834851 -0.030223969914345401 0 0.022583515379492949 -0.04946345385366932 0 0.03214982838215158 -0.036550164909951742 0 0.010882918392325341 -0.043546784918672053 0 0.001114662024295677 -0.034644724797188199 0 0.003426744450576454 -0.054815297075420773 0 0.018057611388834851 -0.030223969914345401 0 0.010882918392325341 -0.043546784918672053 0 0.001114662024295677 -0.034644724797188199 0 0.018354718881549058 -0.065167425818499949 0 0.003426744450576454 -0.054815297075420773 0 0.022583515379492949 -0.04946345385366932 0 0.010882918392325341 -0.043546784918672053 0 0.003426744450576454 -0.054815297075420773 0 0.022583515379492949 -0.04946345385366932 0 0.018354718881549058 -0.065167425818499949 0 0.033429404710945708 -0.067827642356336801 0 0.022583515379492949 -0.04946345385366932 0 0.033429404710945708 -0.067827642356336801 0 0.022583515379492949 -0.04946345385366932 0 0.040434423972952403 -0.049093231793294147 0 0.033429404710945708 -0.067827642356336801 0 0.052580487019044733 -0.06457445167855122 0 0.040434423972952403 -0.049093231793294147 0 0.052580487019044733 -0.06457445167855122 0 0.040434423972952403 -0.049093231793294147 0 0.05544232884238081 -0.044875881875575382 0 0.052580487019044733 -0.06457445167855122 0 0.05544232884238081 -0.044875881875575382 0 0.068339170937992105 -0.053424337060716878 0 0.040434423972952403 -0.049093231793294147 0 0.05544232884238081 -0.044875881875575382 0 0.045706746350707102 -0.032198694687932281 0 0.05544232884238081 -0.044875881875575382 0 0.045706746350707102 -0.032198694687932281 0 0.061157621829282929 -0.025231604425866621 0 0.040434423972952403 -0.049093231793294147 0 0.045706746350707102 -0.032198694687932281 0 0.03214982838215158 -0.036550164909951742 0 0.022583515379492949 -0.04946345385366932 0 0.040434423972952403 -0.049093231793294147 0 0.03214982838215158 -0.036550164909951742 0 0.045706746350707102 -0.032198694687932281 0 0.03214982838215158 -0.036550164909951742 0 0.03396684481877061 -0.021771474300517551 0 0.045706746350707102 -0.032198694687932281 0 0.03396684481877061 -0.021771474300517551 0 0.047710046720236987 -0.018368172826886429 0 0.061157621829282929 -0.025231604425866621 0 0.047710046720236987 -0.018368172826886429 0 0.057931869416054299 -0.0086796052278893948 0 0.045706746350707102 -0.032198694687932281 0 0.061157621829282929 -0.025231604425866621 0 0.047710046720236987 -0.018368172826886429 0 0.053306813386582982 0.0056008818424343951 0 0.057931869416054299 -0.0086796052278893948 0 0.039787151186370009 -0.0039594854922263374 0 0.047710046720236987 -0.018368172826886429 0 0.057931869416054299 -0.0086796052278893948 0 0.039787151186370009 -0.0039594854922263374 0 0.053306813386582982 0.0056008818424343951 0 0.065940651683257009 0.0024831850618150888 0 0.057931869416054299 -0.0086796052278893948 0 0.020207185183206099 -0.010785841930981459 0 0.03396684481877061 -0.021771474300517551 0 0.039787151186370009 -0.0039594854922263374 0 0.03396684481877061 -0.021771474300517551 0 0.047710046720236987 -0.018368172826886429 0 0.039787151186370009 -0.0039594854922263374 0 0.07992851590561921 0.0082161523869754144 0 0.085319843464057188 -0.007629982329875426 0 0.074177093133044117 -0.010507922444979889 0 0.07992851590561921 0.0082161523869754144 0 0.085319843464057188 -0.007629982329875426 0 0.09649789417263642 -0.0037639840011086311 0 0.093491186985964037 -0.01472799792969565 0 0.085319843464057188 -0.007629982329875426 0 0.09649789417263642 -0.0037639840011086311 0 0.093491186985964037 -0.01472799792969565 0 0.085319843464057188 -0.007629982329875426 0 0.083581835824733053 -0.016535058395947159 0 0.085319843464057188 -0.007629982329875426 0 0.074177093133044117 -0.010507922444979889 0 0.083581835824733053 -0.016535058395947159 0 0.061157621829282929 -0.025231604425866621 0 0.057931869416054299 -0.0086796052278893948 0 0.074177093133044117 -0.010507922444979889 0 0.065940651683257009 0.0024831850618150888 0 0.057931869416054299 -0.0086796052278893948 0 0.074177093133044117 -0.010507922444979889 0 0.061157621829282929 -0.025231604425866621 0 0.077044537184394621 -0.024954964190685061 0 0.071280738265345076 -0.03811759874850193 0 0.061157621829282929 -0.025231604425866621 0 0.074177093133044117 -0.010507922444979889 0 0.077044537184394621 -0.024954964190685061 0 0.077044537184394621 -0.024954964190685061 0 0.087876518356205288 -0.024854425084499782 0 0.083696735197635597 -0.035074751153617953 0 0.077044537184394621 -0.024954964190685061 0 0.083581835824733053 -0.016535058395947159 0 0.087876518356205288 -0.024854425084499782 0 0.074177093133044117 -0.010507922444979889 0 0.077044537184394621 -0.024954964190685061 0 0.083581835824733053 -0.016535058395947159 0 0.093491186985964037 -0.01472799792969565 0 0.083581835824733053 -0.016535058395947159 0 0.087876518356205288 -0.024854425084499782 0 0.093491186985964037 -0.01472799792969565 0 0.087876518356205288 -0.024854425084499782 0 0.096892307268332672 -0.02266252034611416 0 0.087876518356205288 -0.024854425084499782 0 0.093921030959280866 -0.033511072873054298 0 0.096892307268332672 -0.02266252034611416 0 0.087876518356205288 -0.024854425084499782 0 0.083696735197635597 -0.035074751153617953 0 0.093921030959280866 -0.033511072873054298 0 0.088828324516270887 -0.041348533459236683 0 0.095977453204919599 -0.050472192210401508 0 0.093921030959280866 -0.033511072873054298 0 0.088828324516270887 -0.041348533459236683 0 0.083696735197635597 -0.035074751153617953 0 0.093921030959280866 -0.033511072873054298 0 0.088828324516270887 -0.041348533459236683 0 0.081718078703247488 -0.046336117599872988 0 0.095977453204919599 -0.050472192210401508 0 0.088828324516270887 -0.041348533459236683 0 0.081718078703247488 -0.046336117599872988 0 0.083696735197635597 -0.035074751153617953 0 0.081718078703247488 -0.046336117599872988 0 0.083696735197635597 -0.035074751153617953 0 0.071280738265345076 -0.03811759874850193 0 0.05544232884238081 -0.044875881875575382 0 0.061157621829282929 -0.025231604425866621 0 0.071280738265345076 -0.03811759874850193 0 0.05544232884238081 -0.044875881875575382 0 0.071280738265345076 -0.03811759874850193 0 0.068339170937992105 -0.053424337060716878 0 0.077044537184394621 -0.024954964190685061 0 0.083696735197635597 -0.035074751153617953 0 0.071280738265345076 -0.03811759874850193 0 0.081718078703247488 -0.046336117599872988 0 0.071280738265345076 -0.03811759874850193 0 0.068339170937992105 -0.053424337060716878 0 0.081718078703247488 -0.046336117599872988 0 0.068339170937992105 -0.053424337060716878 0 0.079819511512682115 -0.059373961925762081 0 0.068339170937992105 -0.053424337060716878 0 0.079819511512682115 -0.059373961925762081 0 0.068682665651441266 -0.069637891440837665 0 0.079819511512682115 -0.059373961925762081 0 0.095977453204919599 -0.050472192210401508 0 0.084380189065810102 -0.076999271316981366 0 0.081718078703247488 -0.046336117599872988 0 0.079819511512682115 -0.059373961925762081 0 0.095977453204919599 -0.050472192210401508 0 0.095977453204919599 -0.050472192210401508 0 0.1084893608633546 -0.054995312108922077 0 0.1003826539890946 -0.069656067773248523 0 0.095977453204919599 -0.050472192210401508 0 0.1084893608633546 -0.054995312108922077 0 0.10497618281608501 -0.042163163930312997 0 0.1084893608633546 -0.054995312108922077 0 0.12021542192502691 -0.05736310542253667 0 0.11225492598618329 -0.067700646346746801 0 0.12021542192502691 -0.05736310542253667 0 0.1181844865236701 -0.045884275653046647 0 0.1350650896680477 -0.050994701792827862 0 0.1084893608633546 -0.054995312108922077 0 0.12021542192502691 -0.05736310542253667 0 0.1181844865236701 -0.045884275653046647 0 0.1084893608633546 -0.054995312108922077 0 0.1181844865236701 -0.045884275653046647 0 0.10497618281608501 -0.042163163930312997 0 0.1181844865236701 -0.045884275653046647 0 0.1169603374125384 -0.034526050343312617 0 0.10497618281608501 -0.042163163930312997 0 0.10497618281608501 -0.042163163930312997 0 0.1139069069496291 -0.021464697665753471 0 0.1169603374125384 -0.034526050343312617 0 0.10497618281608501 -0.042163163930312997 0 0.1139069069496291 -0.021464697665753471 0 0.1181844865236701 -0.045884275653046647 0 0.1169603374125384 -0.034526050343312617 0 0.1283586559847627 -0.040725310836502493 0 0.095977453204919599 -0.050472192210401508 0 0.10497618281608501 -0.042163163930312997 0 0.1075747173440291 -0.023945113103821601 0 0.095977453204919599 -0.050472192210401508 0 0.093921030959280866 -0.033511072873054298 0 0.1075747173440291 -0.023945113103821601 0 0.095977453204919599 -0.050472192210401508 0 0.1075747173440291 -0.023945113103821601 0 0.10497618281608501 -0.042163163930312997 0 0.1075747173440291 -0.023945113103821601 0 0.1139069069496291 -0.021464697665753471 0 0.093921030959280866 -0.033511072873054298 0 0.096892307268332672 -0.02266252034611416 0 0.1075747173440291 -0.023945113103821601 0 0.093491186985964037 -0.01472799792969565 0 0.096892307268332672 -0.02266252034611416 0 0.10169828607787421 -0.015923098960230999 0 0.096892307268332672 -0.02266252034611416 0 0.10169828607787421 -0.015923098960230999 0 0.1075747173440291 -0.023945113103821601 0 0.10169828607787421 -0.015923098960230999 0 0.1075747173440291 -0.023945113103821601 0 0.1082483433893755 -0.0084409933366877514 0 0.1169603374125384 -0.034526050343312617 0 0.1213672368215104 -0.025634276355807499 0 0.12969235634276979 -0.031284000123743903 0 0.1169603374125384 -0.034526050343312617 0 0.1213672368215104 -0.025634276355807499 0 0.1139069069496291 -0.021464697665753471 0 0.1213672368215104 -0.025634276355807499 0 0.1139069069496291 -0.021464697665753471 0 0.12490934658110441 -0.01526235729042 0 0.11917198148314 0.002581966002757949 0 0.1075747173440291 -0.023945113103821601 0 0.1139069069496291 -0.021464697665753471 0 0.11917198148314 0.002581966002757949 0 0.1139069069496291 -0.021464697665753471 0 0.1228376310831711 -0.00076623140119310329 0 0.11917198148314 0.002581966002757949 0 0.1075747173440291 -0.023945113103821601 0 0.1082483433893755 -0.0084409933366877514 0 0.1139069069496291 -0.021464697665753471 0 0.12490934658110441 -0.01526235729042 0 0.1228376310831711 -0.00076623140119310329 0 0.1139069069496291 -0.021464697665753471 0 0.1228376310831711 -0.00076623140119310329 0 0.11917198148314 0.002581966002757949 0 0.1075747173440291 -0.023945113103821601 0 0.11917198148314 0.002581966002757949 0 0.1105415625726717 -0.0014271332550589229 0 0.1082483433893755 -0.0084409933366877514 0 0.1078625722471533 0.0022823866337398822 0 0.1105415625726717 -0.0014271332550589229 0 0.1039166904039584 -0.0028966343462391718 0 0.1039166904039584 -0.0028966343462391718 0 0.1082483433893755 -0.0084409933366877514 0 0.10154047648190589 -0.00941290969201335 0 0.1105415625726717 -0.0014271332550589229 0 0.1039166904039584 -0.0028966343462391718 0 0.1082483433893755 -0.0084409933366877514 0 0.10169828607787421 -0.015923098960230999 0 0.1082483433893755 -0.0084409933366877514 0 0.10154047648190589 -0.00941290969201335 0 0.093491186985964037 -0.01472799792969565 0 0.10154047648190589 -0.00941290969201335 0 0.09649789417263642 -0.0037639840011086311 0 0.093491186985964037 -0.01472799792969565 0 0.10169828607787421 -0.015923098960230999 0 0.10154047648190589 -0.00941290969201335 0 0.1039166904039584 -0.0028966343462391718 0 0.10154047648190589 -0.00941290969201335 0 0.09649789417263642 -0.0037639840011086311 0 0.088046088292129038 -0.10430519341125349 0 0.072782924926700548 -0.1035263504235614 0 0.088717560391344957 -0.092993146067331611 0 0.088046088292129038 -0.10430519341125349 0 0.080670658246847674 -0.112136361820053 0 0.072782924926700548 -0.1035263504235614 0 0.088046088292129038 -0.10430519341125349 0 0.088717560391344957 -0.092993146067331611 0 0.100171096126226 -0.096028489315426471 0 0.088046088292129038 -0.10430519341125349 0 0.089116900718008318 -0.11226838151764811 0 0.096817389343646892 -0.1088784313235004 0 0.088046088292129038 -0.10430519341125349 0 0.089116900718008318 -0.11226838151764811 0 0.080670658246847674 -0.112136361820053 0 0.089116900718008318 -0.11226838151764811 0 0.082844213492092533 -0.1195429602861619 0 0.095577299328253623 -0.1174095529111252 0 0.082362828069140165 -0.1319846138898183 0 0.082844213492092533 -0.1195429602861619 0 0.095577299328253623 -0.1174095529111252 0 0.082362828069140165 -0.1319846138898183 0 0.095577299328253623 -0.1174095529111252 0 0.082362828069140165 -0.1319846138898183 0 0.082844213492092533 -0.1195429602861619 0 0.069837722907261313 -0.1199532536492431 0 0.089116900718008318 -0.11226838151764811 0 0.082844213492092533 -0.1195429602861619 0 0.080670658246847674 -0.112136361820053 0 0.080670658246847674 -0.112136361820053 0 0.069837722907261313 -0.1199532536492431 0 0.072782924926700548 -0.1035263504235614 0 0.06118566078759103 -0.13005342953014129 0 0.072782924926700548 -0.1035263504235614 0 0.06118566078759103 -0.13005342953014129 0 0.069837722907261313 -0.1199532536492431 0 0.072782924926700548 -0.1035263504235614 0 0.06118566078759103 -0.13005342953014129 0 0.056223070490067702 -0.1049071233711502 0 0.072782924926700548 -0.1035263504235614 0 0.082844213492092533 -0.1195429602861619 0 0.080670658246847674 -0.112136361820053 0 0.069837722907261313 -0.1199532536492431 0 0.056223070490067702 -0.1049071233711502 0 0.072782924926700548 -0.1035263504235614 0 0.064045145718632748 -0.088800152685812248 0 0.057640786708643768 -0.07951032993234286 0 0.064045145718632748 -0.088800152685812248 0 0.068682665651441266 -0.069637891440837665 0 0.064045145718632748 -0.088800152685812248 0 0.068682665651441266 -0.069637891440837665 0 0.084380189065810102 -0.076999271316981366 0 0.072782924926700548 -0.1035263504235614 0 0.064045145718632748 -0.088800152685812248 0 0.084380189065810102 -0.076999271316981366 0 0.052580487019044733 -0.06457445167855122 0 0.068339170937992105 -0.053424337060716878 0 0.068682665651441266 -0.069637891440837665 0 0.079819511512682115 -0.059373961925762081 0 0.068682665651441266 -0.069637891440837665 0 0.084380189065810102 -0.076999271316981366 0 0.095977453204919599 -0.050472192210401508 0 0.084380189065810102 -0.076999271316981366 0 0.1003826539890946 -0.069656067773248523 0 0.095977453204919599 -0.050472192210401508 0 0.084380189065810102 -0.076999271316981366 0 0.084380189065810102 -0.076999271316981366 0 0.095693843046354268 -0.0841642264331387 0 0.1003826539890946 -0.069656067773248523 0 0.072782924926700548 -0.1035263504235614 0 0.084380189065810102 -0.076999271316981366 0 0.072782924926700548 -0.1035263504235614 0 0.084380189065810102 -0.076999271316981366 0 0.088717560391344957 -0.092993146067331611 0 0.084380189065810102 -0.076999271316981366 0 0.088717560391344957 -0.092993146067331611 0 0.095693843046354268 -0.0841642264331387 0 0.088717560391344957 -0.092993146067331611 0 0.095693843046354268 -0.0841642264331387 0 0.100171096126226 -0.096028489315426471 0 0.095693843046354268 -0.0841642264331387 0 0.1061825878765964 -0.082065358753895937 0 0.100171096126226 -0.096028489315426471 0 0.095693843046354268 -0.0841642264331387 0 0.1061825878765964 -0.082065358753895937 0 0.1003826539890946 -0.069656067773248523 0 0.1061825878765964 -0.082065358753895937 0 0.1152940355071756 -0.093458773729521216 0 0.100171096126226 -0.096028489315426471 0 0.1061825878765964 -0.082065358753895937 0 0.1003826539890946 -0.069656067773248523 0 0.11225492598618329 -0.067700646346746801 0 0.1084893608633546 -0.054995312108922077 0 0.1003826539890946 -0.069656067773248523 0 0.11225492598618329 -0.067700646346746801 0 0.1061825878765964 -0.082065358753895937 0 0.11225492598618329 -0.067700646346746801 0 0.1171317857577618 -0.078667044940758796 0 0.1171317857577618 -0.078667044940758796 0 0.12857779857738699 -0.078718698725873171 0 0.12708324658387871 -0.067240591211139955 0 0.11225492598618329 -0.067700646346746801 0 0.1171317857577618 -0.078667044940758796 0 0.12708324658387871 -0.067240591211139955 0 0.12021542192502691 -0.05736310542253667 0 0.11225492598618329 -0.067700646346746801 0 0.12708324658387871 -0.067240591211139955 0 0.1061825878765964 -0.082065358753895937 0 0.1152940355071756 -0.093458773729521216 0 0.1171317857577618 -0.078667044940758796 0 0.1171317857577618 -0.078667044940758796 0 0.1286838548293292 -0.09135300801218077 0 0.12857779857738699 -0.078718698725873171 0 0.1152940355071756 -0.093458773729521216 0 0.1171317857577618 -0.078667044940758796 0 0.1286838548293292 -0.09135300801218077 0 0.1152940355071756 -0.093458773729521216 0 0.1230450488982011 -0.098166020395255585 0 0.1286838548293292 -0.09135300801218077 0 0.1152940355071756 -0.093458773729521216 0 0.1230450488982011 -0.098166020395255585 0 0.1196469902177196 -0.1061558951397697 0 0.1230450488982011 -0.098166020395255585 0 0.1196469902177196 -0.1061558951397697 0 0.12917406780106669 -0.1036793655145172 0 0.1196469902177196 -0.1061558951397697 0 0.1094725419179296 -0.1044020385603272 0 0.1154331983948798 -0.1174886032934183 0 0.1152940355071756 -0.093458773729521216 0 0.1196469902177196 -0.1061558951397697 0 0.1094725419179296 -0.1044020385603272 0 0.1152940355071756 -0.093458773729521216 0 0.1094725419179296 -0.1044020385603272 0 0.100171096126226 -0.096028489315426471 0 0.1094725419179296 -0.1044020385603272 0 0.096817389343646892 -0.1088784313235004 0 0.100171096126226 -0.096028489315426471 0 0.088046088292129038 -0.10430519341125349 0 0.096817389343646892 -0.1088784313235004 0 0.100171096126226 -0.096028489315426471 0 0.096817389343646892 -0.1088784313235004 0 0.1051359327507693 -0.1227177542784853 0 0.1154331983948798 -0.1174886032934183 0 0.096817389343646892 -0.1088784313235004 0 0.1154331983948798 -0.1174886032934183 0 0.1005807427949069 -0.13366374688330029 0 0.095577299328253623 -0.1174095529111252 0 0.1051359327507693 -0.1227177542784853 0 0.1094725419179296 -0.1044020385603272 0 0.096817389343646892 -0.1088784313235004 0 0.1154331983948798 -0.1174886032934183 0 0.089116900718008318 -0.11226838151764811 0 0.096817389343646892 -0.1088784313235004 0 0.095577299328253623 -0.1174095529111252 0 0.096817389343646892 -0.1088784313235004 0 0.095577299328253623 -0.1174095529111252 0 0.1051359327507693 -0.1227177542784853 0 0.1154331983948798 -0.1174886032934183 0 0.13404900744611239 -0.12609877526333699 0 0.1196469902177196 -0.1061558951397697 0 0.1154331983948798 -0.1174886032934183 0 0.12686113813069899 -0.1114359576666621 0 0.1154331983948798 -0.1174886032934183 0 0.12686113813069899 -0.1114359576666621 0 0.13390982127973511 -0.11942472678041111 0 0.1154331983948798 -0.1174886032934183 0 0.13390982127973511 -0.11942472678041111 0 0.13404900744611239 -0.12609877526333699 0 0.12686113813069899 -0.1114359576666621 0 0.13614161296009411 -0.11043119760519431 0 0.13390982127973511 -0.11942472678041111 0 0.13614161296009411 -0.11043119760519431 0 0.14023431030656019 -0.11642081500581559 0 0.13390982127973511 -0.11942472678041111 0 0.13614161296009411 -0.11043119760519431 0 0.14023431030656019 -0.11642081500581559 0 0.14347338005148061 -0.1082488085161593 0 0.13773130733042549 -0.12113088311922759 0 0.1427320902892944 -0.12257921542734659 0 0.13404900744611239 -0.12609877526333699 0 0.13390982127973511 -0.11942472678041111 0 0.13773130733042549 -0.12113088311922759 0 0.13404900744611239 -0.12609877526333699 0 0.13390982127973511 -0.11942472678041111 0 0.13404900744611239 -0.12609877526333699 0 0.14023431030656019 -0.11642081500581559 0 0.13773130733042549 -0.12113088311922759 0 0.1427320902892944 -0.12257921542734659 0 0.14023431030656019 -0.11642081500581559 0 0.13390982127973511 -0.11942472678041111 0 0.13773130733042549 -0.12113088311922759 0 0.1427320902892944 -0.12257921542734659 0 0.15192118682329561 -0.12273271218809589 0 0.1490682445489844 -0.1279194233146575 0 0.1427320902892944 -0.12257921542734659 0 0.1474293378639818 -0.11515719203513899 0 0.15192118682329561 -0.12273271218809589 0 0.14023431030656019 -0.11642081500581559 0 0.1427320902892944 -0.12257921542734659 0 0.1474293378639818 -0.11515719203513899 0 0.1474293378639818 -0.11515719203513899 0 0.15201290161170181 -0.107226104105896 0 0.14347338005148061 -0.1082488085161593 0 0.14023431030656019 -0.11642081500581559 0 0.1474293378639818 -0.11515719203513899 0 0.14347338005148061 -0.1082488085161593 0 0.1474293378639818 -0.11515719203513899 0 0.15419764536576119 -0.1149677746217292 0 0.15201290161170181 -0.107226104105896 0 0.15419764536576119 -0.1149677746217292 0 0.15201290161170181 -0.107226104105896 0 0.1590985184781393 -0.1107939778183322 0 0.15419764536576119 -0.1149677746217292 0 0.15192118682329561 -0.12273271218809589 0 0.1605262820516872 -0.11892888696118289 0 0.1474293378639818 -0.11515719203513899 0 0.15419764536576119 -0.1149677746217292 0 0.15192118682329561 -0.12273271218809589 0 0.153855148049276 -0.097460838801678593 0 0.15201290161170181 -0.107226104105896 0 0.1462355681673109 -0.099255024001954253 0 0.153855148049276 -0.097460838801678593 0 0.1462355681673109 -0.099255024001954253 0 0.1490737095502995 -0.088653392770718792 0 0.153855148049276 -0.097460838801678593 0 0.15201290161170181 -0.107226104105896 0 0.16008969536972259 -0.10263897543636979 0 0.14347338005148061 -0.1082488085161593 0 0.1462355681673109 -0.099255024001954253 0 0.13800617896953651 -0.1013117005447786 0 0.15201290161170181 -0.107226104105896 0 0.14347338005148061 -0.1082488085161593 0 0.1462355681673109 -0.099255024001954253 0 0.1462355681673109 -0.099255024001954253 0 0.13800617896953651 -0.1013117005447786 0 0.14099209077157121 -0.092629299272494275 0 0.13800617896953651 -0.1013117005447786 0 0.1286838548293292 -0.09135300801218077 0 0.14099209077157121 -0.092629299272494275 0 0.13614161296009411 -0.11043119760519431 0 0.13800617896953651 -0.1013117005447786 0 0.12917406780106669 -0.1036793655145172 0 0.13614161296009411 -0.11043119760519431 0 0.14347338005148061 -0.1082488085161593 0 0.13800617896953651 -0.1013117005447786 0 0.1196469902177196 -0.1061558951397697 0 0.12686113813069899 -0.1114359576666621 0 0.12917406780106669 -0.1036793655145172 0 0.12686113813069899 -0.1114359576666621 0 0.13614161296009411 -0.11043119760519431 0 0.12917406780106669 -0.1036793655145172 0 0.1230450488982011 -0.098166020395255585 0 0.12917406780106669 -0.1036793655145172 0 0.1286838548293292 -0.09135300801218077 0 0.13800617896953651 -0.1013117005447786 0 0.12917406780106669 -0.1036793655145172 0 0.1286838548293292 -0.09135300801218077 0 0.1286838548293292 -0.09135300801218077 0 0.12857779857738699 -0.078718698725873171 0 0.13748132505412469 -0.08396770010957226 0 0.13748132505412469 -0.08396770010957226 0 0.1367334774756912 -0.073531819827653083 0 0.14538989296775451 -0.078880163337803719 0 0.12857779857738699 -0.078718698725873171 0 0.13748132505412469 -0.08396770010957226 0 0.1367334774756912 -0.073531819827653083 0 0.1286838548293292 -0.09135300801218077 0 0.13748132505412469 -0.08396770010957226 0 0.14099209077157121 -0.092629299272494275 0 0.12857779857738699 -0.078718698725873171 0 0.12708324658387871 -0.067240591211139955 0 0.1367334774756912 -0.073531819827653083 0 0.12708324658387871 -0.067240591211139955 0 0.1367334774756912 -0.073531819827653083 0 0.14110971147140131 -0.064913967020147179 0 0.1367334774756912 -0.073531819827653083 0 0.14110971147140131 -0.064913967020147179 0 0.14964674351361701 -0.070099729323911744 0 0.14110971147140131 -0.064913967020147179 0 0.14964674351361701 -0.070099729323911744 0 0.15194569281242609 -0.056105127932606663 0 0.1367334774756912 -0.073531819827653083 0 0.14964674351361701 -0.070099729323911744 0 0.14538989296775451 -0.078880163337803719 0 0.14964674351361701 -0.070099729323911744 0 0.14538989296775451 -0.078880163337803719 0 0.15822082836811369 -0.079982126599630443 0 0.14964674351361701 -0.070099729323911744 0 0.15822082836811369 -0.079982126599630443 0 0.1603896916223197 -0.069044426588861466 0 0.14964674351361701 -0.070099729323911744 0 0.1603896916223197 -0.069044426588861466 0 0.15194569281242609 -0.056105127932606663 0 0.13748132505412469 -0.08396770010957226 0 0.14099209077157121 -0.092629299272494275 0 0.1490737095502995 -0.088653392770718792 0 0.1462355681673109 -0.099255024001954253 0 0.14099209077157121 -0.092629299272494275 0 0.1490737095502995 -0.088653392770718792 0 0.13748132505412469 -0.08396770010957226 0 0.14538989296775451 -0.078880163337803719 0 0.1490737095502995 -0.088653392770718792 0 0.14538989296775451 -0.078880163337803719 0 0.1490737095502995 -0.088653392770718792 0 0.15822082836811369 -0.079982126599630443 0 0.153855148049276 -0.097460838801678593 0 0.1490737095502995 -0.088653392770718792 0 0.1594354292934542 -0.091737259282716963 0 0.1490737095502995 -0.088653392770718792 0 0.1594354292934542 -0.091737259282716963 0 0.15822082836811369 -0.079982126599630443 0 0.1594354292934542 -0.091737259282716963 0 0.15822082836811369 -0.079982126599630443 0 0.1684140015429216 -0.087293140772549349 0 0.15822082836811369 -0.079982126599630443 0 0.1684140015429216 -0.087293140772549349 0 0.1694423915093585 -0.075846288749261012 0 0.1684140015429216 -0.087293140772549349 0 0.1776016981043757 -0.094466756631608209 0 0.16825903644140999 -0.098606158866582916 0 0.1594354292934542 -0.091737259282716963 0 0.1684140015429216 -0.087293140772549349 0 0.16825903644140999 -0.098606158866582916 0 0.15822082836811369 -0.079982126599630443 0 0.1603896916223197 -0.069044426588861466 0 0.1694423915093585 -0.075846288749261012 0 0.1603896916223197 -0.069044426588861466 0 0.1694423915093585 -0.075846288749261012 0 0.17187576892014289 -0.062138750134232333 0 0.17971720707086189 -0.073145871694163048 0 0.17187576892014289 -0.062138750134232333 0 0.19180584502786041 -0.068172372335855602 0 0.17187576892014289 -0.062138750134232333 0 0.19180584502786041 -0.068172372335855602 0 0.1694423915093585 -0.075846288749261012 0 0.17971720707086189 -0.073145871694163048 0 0.17187576892014289 -0.062138750134232333 0 0.1694423915093585 -0.075846288749261012 0 0.17971720707086189 -0.073145871694163048 0 0.17803685153179119 -0.083473416706129469 0 0.17971720707086189 -0.073145871694163048 0 0.18645595400882431 -0.078186102724248294 0 0.19180584502786041 -0.068172372335855602 0 0.1684140015429216 -0.087293140772549349 0 0.17803685153179119 -0.083473416706129469 0 0.1776016981043757 -0.094466756631608209 0 0.1684140015429216 -0.087293140772549349 0 0.1694423915093585 -0.075846288749261012 0 0.17803685153179119 -0.083473416706129469 0 0.17803685153179119 -0.083473416706129469 0 0.18645595400882431 -0.078186102724248294 0 0.18748362772352481 -0.090285751384613616 0 0.17971720707086189 -0.073145871694163048 0 0.17803685153179119 -0.083473416706129469 0 0.18645595400882431 -0.078186102724248294 0 0.17803685153179119 -0.083473416706129469 0 0.18748362772352481 -0.090285751384613616 0 0.1776016981043757 -0.094466756631608209 0 0.1776016981043757 -0.094466756631608209 0 0.1757785255420414 -0.1036637588673371 0 0.18737718651252391 -0.1018645954104864 0 0.18748362772352481 -0.090285751384613616 0 0.1776016981043757 -0.094466756631608209 0 0.18737718651252391 -0.1018645954104864 0 0.1776016981043757 -0.094466756631608209 0 0.1757785255420414 -0.1036637588673371 0 0.16825903644140999 -0.098606158866582916 0 0.1757785255420414 -0.1036637588673371 0 0.17797479248166551 -0.1125427820454727 0 0.16787713834435419 -0.11000951374301229 0 0.1757785255420414 -0.1036637588673371 0 0.18737718651252391 -0.1018645954104864 0 0.17797479248166551 -0.1125427820454727 0 0.18737718651252391 -0.1018645954104864 0 0.18701697985041221 -0.11880972375357141 0 0.17797479248166551 -0.1125427820454727 0 0.18701697985041221 -0.11880972375357141 0 0.173543926957343 -0.1211375462363173 0 0.17990838590865871 -0.12844737664361131 0 0.18701697985041221 -0.11880972375357141 0 0.173543926957343 -0.1211375462363173 0 0.17797479248166551 -0.1125427820454727 0 0.173543926957343 -0.1211375462363173 0 0.17797479248166551 -0.1125427820454727 0 0.16787713834435419 -0.11000951374301229 0 0.173543926957343 -0.1211375462363173 0 0.16787713834435419 -0.11000951374301229 0 0.1605262820516872 -0.11892888696118289 0 0.173543926957343 -0.1211375462363173 0 0.1605262820516872 -0.11892888696118289 0 0.1641162962428066 -0.126449221113482 0 0.15192118682329561 -0.12273271218809589 0 0.1605262820516872 -0.11892888696118289 0 0.1587247560068413 -0.12564209046719049 0 0.1605262820516872 -0.11892888696118289 0 0.1587247560068413 -0.12564209046719049 0 0.1641162962428066 -0.126449221113482 0 0.15419764536576119 -0.1149677746217292 0 0.1605262820516872 -0.11892888696118289 0 0.1590985184781393 -0.1107939778183322 0 0.16787713834435419 -0.11000951374301229 0 0.1605262820516872 -0.11892888696118289 0 0.1590985184781393 -0.1107939778183322 0 0.15201290161170181 -0.107226104105896 0 0.1590985184781393 -0.1107939778183322 0 0.16008969536972259 -0.10263897543636979 0 0.16787713834435419 -0.11000951374301229 0 0.1590985184781393 -0.1107939778183322 0 0.16008969536972259 -0.10263897543636979 0 0.1594354292934542 -0.091737259282716963 0 0.16008969536972259 -0.10263897543636979 0 0.16825903644140999 -0.098606158866582916 0 0.153855148049276 -0.097460838801678593 0 0.1594354292934542 -0.091737259282716963 0 0.16008969536972259 -0.10263897543636979 0 0.1757785255420414 -0.1036637588673371 0 0.16787713834435419 -0.11000951374301229 0 0.16825903644140999 -0.098606158866582916 0 0.16787713834435419 -0.11000951374301229 0 0.16008969536972259 -0.10263897543636979 0 0.16825903644140999 -0.098606158866582916 0 0.1552076984021574 -0.0047487866015848753 0 0.1380919344669613 -0.01469948322874493 0 0.1606476670511833 -0.017066892083396779 0 0.14127976741107601 0.00215554095495248 0 0.1552076984021574 -0.0047487866015848753 0 0.1380919344669613 -0.01469948322874493 0 0.14127976741107601 0.00215554095495248 0 0.1228376310831711 -0.00076623140119310329 0 0.1380919344669613 -0.01469948322874493 0 0.1228376310831711 -0.00076623140119310329 0 0.1380919344669613 -0.01469948322874493 0 0.12490934658110441 -0.01526235729042 0 0.1228376310831711 -0.00076623140119310329 0 0.1380919344669613 -0.01469948322874493 0 0.1380919344669613 -0.01469948322874493 0 0.1415761600091012 -0.038003691908970592 0 0.12969235634276979 -0.031284000123743903 0 0.1213672368215104 -0.025634276355807499 0 0.12490934658110441 -0.01526235729042 0 0.12969235634276979 -0.031284000123743903 0 0.12490934658110441 -0.01526235729042 0 0.1380919344669613 -0.01469948322874493 0 0.12969235634276979 -0.031284000123743903 0 0.1380919344669613 -0.01469948322874493 0 0.15334623785075199 -0.02863273505629621 0 0.1415761600091012 -0.038003691908970592 0 0.1380919344669613 -0.01469948322874493 0 0.15334623785075199 -0.02863273505629621 0 0.1606476670511833 -0.017066892083396779 0 0.1380919344669613 -0.01469948322874493 0 0.15334623785075199 -0.02863273505629621 0 0.15437572795414581 -0.042117567211766717 0 0.1415761600091012 -0.038003691908970592 0 0.15194569281242609 -0.056105127932606663 0 0.15334623785075199 -0.02863273505629621 0 0.15437572795414581 -0.042117567211766717 0 0.1415761600091012 -0.038003691908970592 0 0.1181844865236701 -0.045884275653046647 0 0.1283586559847627 -0.040725310836502493 0 0.1350650896680477 -0.050994701792827862 0 0.1415761600091012 -0.038003691908970592 0 0.12969235634276979 -0.031284000123743903 0 0.1283586559847627 -0.040725310836502493 0 0.1169603374125384 -0.034526050343312617 0 0.12969235634276979 -0.031284000123743903 0 0.1283586559847627 -0.040725310836502493 0 0.1415761600091012 -0.038003691908970592 0 0.1283586559847627 -0.040725310836502493 0 0.1350650896680477 -0.050994701792827862 0 0.1181844865236701 -0.045884275653046647 0 0.1350650896680477 -0.050994701792827862 0 0.12021542192502691 -0.05736310542253667 0 0.12708324658387871 -0.067240591211139955 0 0.1350650896680477 -0.050994701792827862 0 0.12708324658387871 -0.067240591211139955 0 0.14110971147140131 -0.064913967020147179 0 0.1350650896680477 -0.050994701792827862 0 0.14110971147140131 -0.064913967020147179 0 0.15194569281242609 -0.056105127932606663 0 0.1415761600091012 -0.038003691908970592 0 0.1350650896680477 -0.050994701792827862 0 0.15194569281242609 -0.056105127932606663 0 0.1350650896680477 -0.050994701792827862 0 0.15194569281242609 -0.056105127932606663 0 0.14110971147140131 -0.064913967020147179 0 0.1350650896680477 -0.050994701792827862 0 0.15194569281242609 -0.056105127932606663 0 0.15194569281242609 -0.056105127932606663 0 0.16860054123454279 -0.042565986883847551 0 0.15437572795414581 -0.042117567211766717 0 0.15194569281242609 -0.056105127932606663 0 0.16860054123454279 -0.042565986883847551 0 0.1603896916223197 -0.069044426588861466 0 0.15194569281242609 -0.056105127932606663 0 0.17187576892014289 -0.062138750134232333 0 0.15194569281242609 -0.056105127932606663 0 0.165016394264413 -0.053661354003145263 0 0.17187576892014289 -0.062138750134232333 0 0.15194569281242609 -0.056105127932606663 0 0.165016394264413 -0.053661354003145263 0 0.16860054123454279 -0.042565986883847551 0 0.15194569281242609 -0.056105127932606663 0 0.17187576892014289 -0.062138750134232333 0 0.165016394264413 -0.053661354003145263 0 0.17187576892014289 -0.062138750134232333 0 0.18345715790010181 -0.056135992415964377 0 0.165016394264413 -0.053661354003145263 0 0.18345715790010181 -0.056135992415964377 0 0.16860054123454279 -0.042565986883847551 0 0.17187576892014289 -0.062138750134232333 0 0.18345715790010181 -0.056135992415964377 0 0.19180584502786041 -0.068172372335855602 0 0.18345715790010181 -0.056135992415964377 0 0.17385144243116649 -0.043269821226828903 0 0.18595588634396351 -0.043176695624854357 0 0.18345715790010181 -0.056135992415964377 0 0.17385144243116649 -0.043269821226828903 0 0.16860054123454279 -0.042565986883847551 0 0.18345715790010181 -0.056135992415964377 0 0.16860054123454279 -0.042565986883847551 0 0.18595588634396351 -0.043176695624854357 0 0.1782733089797521 -0.034702753096601993 0 0.1941468740000297 -0.021798736782002521 0 0.17385144243116649 -0.043269821226828903 0 0.18595588634396351 -0.043176695624854357 0 0.1782733089797521 -0.034702753096601993 0 0.17385144243116649 -0.043269821226828903 0 0.1782733089797521 -0.034702753096601993 0 0.16860054123454279 -0.042565986883847551 0 0.1782733089797521 -0.034702753096601993 0 0.16860054123454279 -0.042565986883847551 0 0.17385144243116649 -0.043269821226828903 0 0.1782733089797521 -0.034702753096601993 0 0.1782733089797521 -0.034702753096601993 0 0.16860054123454279 -0.042565986883847551 0 0.1670526359884773 -0.02836254214418232 0 0.15334623785075199 -0.02863273505629621 0 0.16860054123454279 -0.042565986883847551 0 0.1670526359884773 -0.02836254214418232 0 0.15334623785075199 -0.02863273505629621 0 0.15437572795414581 -0.042117567211766717 0 0.16860054123454279 -0.042565986883847551 0 0.15334623785075199 -0.02863273505629621 0 0.16860054123454279 -0.042565986883847551 0 0.15334623785075199 -0.02863273505629621 0 0.1606476670511833 -0.017066892083396779 0 0.1670526359884773 -0.02836254214418232 0 0.1606476670511833 -0.017066892083396779 0 0.1670526359884773 -0.02836254214418232 0 0.1743954248261565 -0.018844343600769399 0 0.1782733089797521 -0.034702753096601993 0 0.1743954248261565 -0.018844343600769399 0 0.1918659379284415 -0.0083679514935210662 0 0.1782733089797521 -0.034702753096601993 0 0.1670526359884773 -0.02836254214418232 0 0.1743954248261565 -0.018844343600769399 0 0.1782733089797521 -0.034702753096601993 0 0.1918659379284415 -0.0083679514935210662 0 0.1782733089797521 -0.034702753096601993 0 0.1941468740000297 -0.021798736782002521 0 0.1743954248261565 -0.018844343600769399 0 0.17983697574181159 -0.0080573062328258595 0 0.1918659379284415 -0.0083679514935210662 0 0.1743954248261565 -0.018844343600769399 0 0.17983697574181159 -0.0080573062328258595 0 0.17056947168728639 -0.0076341498549102596 0 0.17983697574181159 -0.0080573062328258595 0 0.18580903226614379 -0.0011502469314075439 0 0.17786282304025339 -0.001583287003114023 0 0.17983697574181159 -0.0080573062328258595 0 0.18580903226614379 -0.0011502469314075439 0 0.1918659379284415 -0.0083679514935210662 0 0.17983697574181159 -0.0080573062328258595 0 0.17786282304025339 -0.001583287003114023 0 0.17056947168728639 -0.0076341498549102596 0 0.17227434920368959 0.00081991249798677823 0 0.17786282304025339 -0.001583287003114023 0 0.17056947168728639 -0.0076341498549102596 0 0.17227434920368959 0.00081991249798677823 0 0.16550177429739321 0.001625335581948511 0 0.17056947168728639 -0.0076341498549102596 0 0.1606476670511833 -0.017066892083396779 0 0.1743954248261565 -0.018844343600769399 0 0.17056947168728639 -0.0076341498549102596 0 0.1552076984021574 -0.0047487866015848753 0 0.1606476670511833 -0.017066892083396779 0 0.17056947168728639 -0.0076341498549102596 0 0.15830422717032419 0.0026668804518291322 0 0.16550177429739321 0.001625335581948511 0 0.1552076984021574 -0.0047487866015848753 0 0.16550177429739321 0.001625335581948511 0 0.1552076984021574 -0.0047487866015848753 0 0.17056947168728639 -0.0076341498549102596 0 0.21653748859829491 -0.0035968485671754561 0 0.20239897911060981 -0.0049616950454924097 0 0.1941468740000297 -0.021798736782002521 0 0.21653748859829491 -0.0035968485671754561 0 0.1941468740000297 -0.021798736782002521 0 0.20955206102217341 -0.019021580532265901 0 0.21653748859829491 -0.0035968485671754561 0 0.20955206102217341 -0.019021580532265901 0 0.22864161374710179 -0.024239001361894639 0 0.21653748859829491 -0.0035968485671754561 0 0.1941468740000297 -0.021798736782002521 0 0.20938161325362409 0.0025060029461209908 0 0.21653748859829491 -0.0035968485671754561 0 0.20239897911060981 -0.0049616950454924097 0 0.19981118715584381 0.0070254328827108366 0 0.20239897911060981 -0.0049616950454924097 0 0.1918659379284415 -0.0083679514935210662 0 0.19981118715584381 0.0070254328827108366 0 0.1918659379284415 -0.0083679514935210662 0 0.20239897911060981 -0.0049616950454924097 0 0.1918659379284415 -0.0083679514935210662 0 0.1941468740000297 -0.021798736782002521 0 0.1894192936343001 0.0060385698470956234 0 0.18580903226614379 -0.0011502469314075439 0 0.1918659379284415 -0.0083679514935210662 0 0.1894192936343001 0.0060385698470956234 0 0.1918659379284415 -0.0083679514935210662 0 0.1918659379284415 -0.0083679514935210662 0 0.1941468740000297 -0.021798736782002521 0 0.1782733089797521 -0.034702753096601993 0 0.1918659379284415 -0.0083679514935210662 0 0.1941468740000297 -0.021798736782002521 0 0.1941468740000297 -0.021798736782002521 0 0.2031559883210855 -0.029985938475911671 0 0.20955206102217341 -0.019021580532265901 0 0.20955206102217341 -0.019021580532265901 0 0.21066165658577479 -0.033085676709690801 0 0.22864161374710179 -0.024239001361894639 0 0.2031559883210855 -0.029985938475911671 0 0.20955206102217341 -0.019021580532265901 0 0.21066165658577479 -0.033085676709690801 0 0.21864271396698939 -0.038649087319523719 0 0.21066165658577479 -0.033085676709690801 0 0.21034122995680221 -0.050048420551560682 0 0.21066165658577479 -0.033085676709690801 0 0.1982633616763636 -0.046037759879686967 0 0.21034122995680221 -0.050048420551560682 0 0.2031559883210855 -0.029985938475911671 0 0.21066165658577479 -0.033085676709690801 0 0.1982633616763636 -0.046037759879686967 0 0.21864271396698939 -0.038649087319523719 0 0.21034122995680221 -0.050048420551560682 0 0.21819242210762169 -0.050823402618315167 0 0.1941468740000297 -0.021798736782002521 0 0.2031559883210855 -0.029985938475911671 0 0.1982633616763636 -0.046037759879686967 0 0.18595588634396351 -0.043176695624854357 0 0.1941468740000297 -0.021798736782002521 0 0.1982633616763636 -0.046037759879686967 0 0.1941468740000297 -0.021798736782002521 0 0.1982633616763636 -0.046037759879686967 0 0.1982633616763636 -0.046037759879686967 0 0.19180584502786041 -0.068172372335855602 0 0.20237984935269879 -0.070276782977371152 0 0.1982633616763636 -0.046037759879686967 0 0.20237984935269879 -0.070276782977371152 0 0.18345715790010181 -0.056135992415964377 0 0.1982633616763636 -0.046037759879686967 0 0.19180584502786041 -0.068172372335855602 0 0.18345715790010181 -0.056135992415964377 0 0.18595588634396351 -0.043176695624854357 0 0.1982633616763636 -0.046037759879686967 0 0.21034122995680221 -0.050048420551560682 0 0.21390737605136481 -0.061417813804776289 0 0.20237984935269879 -0.070276782977371152 0 0.1982633616763636 -0.046037759879686967 0 0.21034122995680221 -0.050048420551560682 0 0.20237984935269879 -0.070276782977371152 0 0.21034122995680221 -0.050048420551560682 0 0.21819242210762169 -0.050823402618315167 0 0.21390737605136481 -0.061417813804776289 0 0.2255736282180465 -0.056882305063223393 0 0.23627526009844421 -0.049694667024589079 0 0.23165324526163639 -0.065502610206523884 0 0.21390737605136481 -0.061417813804776289 0 0.2255736282180465 -0.056882305063223393 0 0.2221192681341374 -0.068345353637844553 0 0.21819242210762169 -0.050823402618315167 0 0.21390737605136481 -0.061417813804776289 0 0.2255736282180465 -0.056882305063223393 0 0.21819242210762169 -0.050823402618315167 0 0.2255736282180465 -0.056882305063223393 0 0.22546512762764079 -0.044057692677509197 0 0.2255736282180465 -0.056882305063223393 0 0.23627526009844421 -0.049694667024589079 0 0.22546512762764079 -0.044057692677509197 0 0.24617004458672351 -0.058202332164817121 0 0.23627526009844421 -0.049694667024589079 0 0.24390890644978661 -0.075150332687283522 0 0.23627526009844421 -0.049694667024589079 0 0.24390890644978661 -0.075150332687283522 0 0.25164978009717781 -0.053061021673298493 0 0.24617004458672351 -0.058202332164817121 0 0.24422464309495209 -0.046986837608536558 0 0.24617004458672351 -0.058202332164817121 0 0.24422464309495209 -0.046986837608536558 0 0.23627526009844421 -0.049694667024589079 0 0.25164978009717781 -0.053061021673298493 0 0.2539732262079259 -0.044675773385505282 0 0.24422464309495209 -0.046986837608536558 0 0.24422464309495209 -0.046986837608536558 0 0.23627526009844421 -0.049694667024589079 0 0.24524507923365879 -0.0330622213940093 0 0.25845033672230949 -0.02738613623275089 0 0.24422464309495209 -0.046986837608536558 0 0.24524507923365879 -0.0330622213940093 0 0.23627526009844421 -0.049694667024589079 0 0.24524507923365879 -0.0330622213940093 0 0.22864161374710179 -0.024239001361894639 0 0.21864271396698939 -0.038649087319523719 0 0.21066165658577479 -0.033085676709690801 0 0.22864161374710179 -0.024239001361894639 0 0.23627526009844421 -0.049694667024589079 0 0.22864161374710179 -0.024239001361894639 0 0.21864271396698939 -0.038649087319523719 0 0.22546512762764079 -0.044057692677509197 0 0.22864161374710179 -0.024239001361894639 0 0.23627526009844421 -0.049694667024589079 0 0.22546512762764079 -0.044057692677509197 0 0.22864161374710179 -0.024239001361894639 0 0.21864271396698939 -0.038649087319523719 0 0.21819242210762169 -0.050823402618315167 0 0.22546512762764079 -0.044057692677509197 0 0.22864161374710179 -0.024239001361894639 0 0.24437070500465241 -0.019757014484825589 0 0.23246643938152739 -0.0092251246746631842 0 0.24524507923365879 -0.0330622213940093 0 0.22864161374710179 -0.024239001361894639 0 0.24437070500465241 -0.019757014484825589 0 0.25013504981522988 -0.025019616072594848 0 0.24524507923365879 -0.0330622213940093 0 0.24437070500465241 -0.019757014484825589 0 0.25247407830029878 -0.019873092178793648 0 0.25006914023697918 -0.01208141302270524 0 0.24437070500465241 -0.019757014484825589 0 0.25013504981522988 -0.025019616072594848 0 0.25247407830029878 -0.019873092178793648 0 0.24437070500465241 -0.019757014484825589 0 0.24437070500465241 -0.019757014484825589 0 0.242989310538931 -0.0092135161021761666 0 0.23246643938152739 -0.0092251246746631842 0 0.25006914023697918 -0.01208141302270524 0 0.242989310538931 -0.0092135161021761666 0 0.2479891295484222 -0.0022684572774312019 0 0.25006914023697918 -0.01208141302270524 0 0.24437070500465241 -0.019757014484825589 0 0.242989310538931 -0.0092135161021761666 0 0.2429424487767215 0.0026164120279975069 0 0.2479891295484222 -0.0022684572774312019 0 0.24005113852307369 -0.0027355710512556022 0 0.242989310538931 -0.0092135161021761666 0 0.2479891295484222 -0.0022684572774312019 0 0.24005113852307369 -0.0027355710512556022 0 0.23517440673197429 0.0051848507458196356 0 0.24005113852307369 -0.0027355710512556022 0 0.23246643938152739 -0.0092251246746631842 0 0.242989310538931 -0.0092135161021761666 0 0.24005113852307369 -0.0027355710512556022 0 0.23246643938152739 -0.0092251246746631842 0 0.22100796739575951 0.001216664300799794 0 0.22864161374710179 -0.024239001361894639 0 0.23246643938152739 -0.0092251246746631842 0 0.23517440673197429 0.0051848507458196356 0 0.22100796739575951 0.001216664300799794 0 0.23246643938152739 -0.0092251246746631842 0 0.22100796739575951 0.001216664300799794 0 0.21653748859829491 -0.0035968485671754561 0 0.22864161374710179 -0.024239001361894639 0 0.22100796739575951 0.001216664300799794 0 0.22864161374710179 -0.024239001361894639 0 0.206496337029034 -0.094515806075055359 0 0.21061282470536921 -0.1187548291727395 0 0.206496337029034 -0.094515806075055359 0 0.22623965631488491 -0.089683688039789988 0 0.22333782165884589 -0.10574313483481231 0 0.206496337029034 -0.094515806075055359 0 0.21061282470536921 -0.1187548291727395 0 0.22333782165884589 -0.10574313483481231 0 0.18737718651252391 -0.1018645954104864 0 0.18701697985041221 -0.11880972375357141 0 0.21061282470536921 -0.1187548291727395 0 0.18701697985041221 -0.11880972375357141 0 0.21061282470536921 -0.1187548291727395 0 0.19260125287660149 -0.13207131947283501 0 0.18748362772352481 -0.090285751384613616 0 0.18737718651252391 -0.1018645954104864 0 0.206496337029034 -0.094515806075055359 0 0.18737718651252391 -0.1018645954104864 0 0.206496337029034 -0.094515806075055359 0 0.21061282470536921 -0.1187548291727395 0 0.18748362772352481 -0.090285751384613616 0 0.206496337029034 -0.094515806075055359 0 0.19448955746265811 -0.082220240722777116 0 0.206496337029034 -0.094515806075055359 0 0.19448955746265811 -0.082220240722777116 0 0.20237984935269879 -0.070276782977371152 0 0.18645595400882431 -0.078186102724248294 0 0.18748362772352481 -0.090285751384613616 0 0.19448955746265811 -0.082220240722777116 0 0.18645595400882431 -0.078186102724248294 0 0.19448955746265811 -0.082220240722777116 0 0.19180584502786041 -0.068172372335855602 0 0.19448955746265811 -0.082220240722777116 0 0.19180584502786041 -0.068172372335855602 0 0.20237984935269879 -0.070276782977371152 0 0.21390737605136481 -0.061417813804776289 0 0.20237984935269879 -0.070276782977371152 0 0.21248527081093549 -0.070330245212121473 0 0.20237984935269879 -0.070276782977371152 0 0.21248527081093549 -0.070330245212121473 0 0.2145783618208984 -0.079628257083024359 0 0.21248527081093549 -0.070330245212121473 0 0.2145783618208984 -0.079628257083024359 0 0.2221192681341374 -0.068345353637844553 0 0.21390737605136481 -0.061417813804776289 0 0.21248527081093549 -0.070330245212121473 0 0.2221192681341374 -0.068345353637844553 0 0.206496337029034 -0.094515806075055359 0 0.20237984935269879 -0.070276782977371152 0 0.2145783618208984 -0.079628257083024359 0 0.206496337029034 -0.094515806075055359 0 0.2145783618208984 -0.079628257083024359 0 0.22623965631488491 -0.089683688039789988 0 0.206496337029034 -0.094515806075055359 0 0.20237984935269879 -0.070276782977371152 0 0.2145783618208984 -0.079628257083024359 0 0.22623965631488491 -0.089683688039789988 0 0.23038916340776741 -0.077440392619678861 0 0.22623965631488491 -0.089683688039789988 0 0.23038916340776741 -0.077440392619678861 0 0.23781669784438761 -0.088769324738514177 0 0.22623965631488491 -0.089683688039789988 0 0.23781669784438761 -0.088769324738514177 0 0.23714180950183539 -0.10160942858925499 0 0.2145783618208984 -0.079628257083024359 0 0.2221192681341374 -0.068345353637844553 0 0.23038916340776741 -0.077440392619678861 0 0.2255736282180465 -0.056882305063223393 0 0.2221192681341374 -0.068345353637844553 0 0.23165324526163639 -0.065502610206523884 0 0.2221192681341374 -0.068345353637844553 0 0.23038916340776741 -0.077440392619678861 0 0.23165324526163639 -0.065502610206523884 0 0.25256726729664603 -0.064532785491330763 0 0.24617004458672351 -0.058202332164817121 0 0.24390890644978661 -0.075150332687283522 0 0.23627526009844421 -0.049694667024589079 0 0.23165324526163639 -0.065502610206523884 0 0.24390890644978661 -0.075150332687283522 0 0.23038916340776741 -0.077440392619678861 0 0.23165324526163639 -0.065502610206523884 0 0.24390890644978661 -0.075150332687283522 0 0.25154255280112903 -0.1006059983499779 0 0.24390890644978661 -0.075150332687283522 0 0.25154255280112903 -0.1006059983499779 0 0.24390890644978661 -0.075150332687283522 0 0.23781669784438761 -0.088769324738514177 0 0.23038916340776741 -0.077440392619678861 0 0.24390890644978661 -0.075150332687283522 0 0.23781669784438761 -0.088769324738514177 0 0.25154255280112903 -0.1006059983499779 0 0.23714180950183539 -0.10160942858925499 0 0.24954668948061209 -0.11284283178631641 0 0.25154255280112903 -0.1006059983499779 0 0.23781669784438761 -0.088769324738514177 0 0.23714180950183539 -0.10160942858925499 0 0.23714180950183539 -0.10160942858925499 0 0.22333782165884589 -0.10574313483481231 0 0.23542538064511609 -0.1194854446592761 0 0.22623965631488491 -0.089683688039789988 0 0.23714180950183539 -0.10160942858925499 0 0.22333782165884589 -0.10574313483481231 0 0.21061282470536921 -0.1187548291727395 0 0.22333782165884589 -0.10574313483481231 0 0.23542538064511609 -0.1194854446592761 0 0.25741251913389712 -0.1305951081492244 0 0.23542538064511609 -0.1194854446592761 0 0.24954668948061209 -0.11284283178631641 0 0.23714180950183539 -0.10160942858925499 0 0.23542538064511609 -0.1194854446592761 0 0.24954668948061209 -0.11284283178631641 0 0.25741251913389712 -0.1305951081492244 0 0.25452239946831973 -0.14829655140993131 0 0.23191914561449989 -0.13726295483178369 0 0.25741251913389712 -0.1305951081492244 0 0.23542538064511609 -0.1194854446592761 0 0.23191914561449989 -0.13726295483178369 0 0.25452239946831973 -0.14829655140993131 0 0.23782434991563151 -0.15439369078169049 0 0.23191914561449989 -0.13726295483178369 0 0.23782434991563151 -0.15439369078169049 0 0.2147293123817042 -0.1429938522704238 0 0.23782434991563151 -0.15439369078169049 0 0.2147293123817042 -0.1429938522704238 0 0.21952864142792899 -0.1712536350637954 0 0.23782434991563151 -0.15439369078169049 0 0.23191914561449989 -0.13726295483178369 0 0.2147293123817042 -0.1429938522704238 0 0.21061282470536921 -0.1187548291727395 0 0.23542538064511609 -0.1194854446592761 0 0.23191914561449989 -0.13726295483178369 0 0.21061282470536921 -0.1187548291727395 0 0.23191914561449989 -0.13726295483178369 0 0.2147293123817042 -0.1429938522704238 0 0.2147293123817042 -0.1429938522704238 0 0.19260125287660149 -0.13207131947283501 0 0.21061282470536921 -0.1187548291727395 0 0.2147293123817042 -0.1429938522704238 0 0.19260125287660149 -0.13207131947283501 0 0.21061282470536921 -0.1187548291727395 0 0.2147293123817042 -0.1429938522704238 0 0.2147293123817042 -0.1429938522704238 0 0.20548350855114439 -0.15623176612928341 0 0.19677556980284089 -0.14597147697610061 0 0.20548350855114439 -0.15623176612928341 0 0.19677556980284089 -0.14597147697610061 0 0.19325106823209409 -0.153061144976989 0 0.19677556980284089 -0.14597147697610061 0 0.19325106823209409 -0.153061144976989 0 0.18786488322971459 -0.15098965934649999 0 0.19325106823209409 -0.153061144976989 0 0.18786488322971459 -0.15098965934649999 0 0.1842505296355367 -0.15589311325690541 0 0.19677556980284089 -0.14597147697610061 0 0.18786488322971459 -0.15098965934649999 0 0.188659048266132 -0.1418371739210742 0 0.2147293123817042 -0.1429938522704238 0 0.19677556980284089 -0.14597147697610061 0 0.19260125287660149 -0.13207131947283501 0 0.19677556980284089 -0.14597147697610061 0 0.188659048266132 -0.1418371739210742 0 0.19260125287660149 -0.13207131947283501 0 0.18830323417204939 -0.1765657128700695 0 0.20313295091115369 -0.1678787213591082 0 0.20600005448239761 -0.18645800734220749 0 0.18830323417204939 -0.1765657128700695 0 0.20600005448239761 -0.18645800734220749 0 0.1956377870383576 -0.1970896374814364 0 0.19325106823209409 -0.153061144976989 0 0.18830323417204939 -0.1765657128700695 0 0.19325106823209409 -0.153061144976989 0 0.18830323417204939 -0.1765657128700695 0 0.20313295091115369 -0.1678787213591082 0 0.19325106823209409 -0.153061144976989 0 0.18830323417204939 -0.1765657128700695 0 0.18144082188941271 -0.16389154531309821 0 0.20548350855114439 -0.15623176612928341 0 0.19325106823209409 -0.153061144976989 0 0.20313295091115369 -0.1678787213591082 0 0.20548350855114439 -0.15623176612928341 0 0.20313295091115369 -0.1678787213591082 0 0.21952864142792899 -0.1712536350637954 0 0.2147293123817042 -0.1429938522704238 0 0.21952864142792899 -0.1712536350637954 0 0.2147293123817042 -0.1429938522704238 0 0.20548350855114439 -0.15623176612928341 0 0.21952864142792899 -0.1712536350637954 0 0.20600005448239761 -0.18645800734220749 0 0.21952864142792899 -0.1712536350637954 0 0.22432797047415351 -0.19951341785716731 0 0.20313295091115369 -0.1678787213591082 0 0.20600005448239761 -0.18645800734220749 0 0.21952864142792899 -0.1712536350637954 0 0.21952864142792899 -0.1712536350637954 0 0.2437278363918948 -0.18195096812212239 0 0.22432797047415351 -0.19951341785716731 0 0.21952864142792899 -0.1712536350637954 0 0.22432797047415351 -0.19951341785716731 0 0.23782434991563151 -0.15439369078169049 0 0.21952864142792899 -0.1712536350637954 0 0.2437278363918948 -0.18195096812212239 0 0.260919387449559 -0.16579352929295721 0 0.23782434991563151 -0.15439369078169049 0 0.260919387449559 -0.16579352929295721 0 0.23782434991563151 -0.15439369078169049 0 0.2437278363918948 -0.18195096812212239 0 0.2437278363918948 -0.18195096812212239 0 0.24314545538918961 -0.20571013864437751 0 0.22432797047415351 -0.19951341785716731 0 0.2593871514889205 -0.19799184377322379 0 0.2437278363918948 -0.18195096812212239 0 0.24314545538918961 -0.20571013864437751 0 0.22432797047415351 -0.19951341785716731 0 0.2342802842193491 -0.2219117808856606 0 0.21564630723174069 -0.21833189921059021 0 0.24314545538918961 -0.20571013864437751 0 0.22432797047415351 -0.19951341785716731 0 0.2342802842193491 -0.2219117808856606 0 0.2462907050713771 -0.25204034373521428 0 0.2499607574480687 -0.24385609709525671 0 0.2374752251495614 -0.24157268794541539 0 0.25134951441318748 -0.22920843539767929 0 0.2499607574480687 -0.24385609709525671 0 0.2374752251495614 -0.24157268794541539 0 0.25134951441318748 -0.22920843539767929 0 0.24314545538918961 -0.20571013864437751 0 0.2342802842193491 -0.2219117808856606 0 0.25134951441318748 -0.22920843539767929 0 0.2374752251495614 -0.24157268794541539 0 0.2342802842193491 -0.2219117808856606 0 0.2374752251495614 -0.24157268794541539 0 0.22060620183210919 -0.232775489656291 0 0.2342802842193491 -0.2219117808856606 0 0.22060620183210919 -0.232775489656291 0 0.2342802842193491 -0.2219117808856606 0 0.21564630723174069 -0.21833189921059021 0 0.22198339683909701 -0.25340717595137879 0 0.2374752251495614 -0.24157268794541539 0 0.22060620183210919 -0.232775489656291 0 0.22198339683909701 -0.25340717595137879 0 0.22060620183210919 -0.232775489656291 0 0.22198339683909701 -0.25340717595137879 0 0.22060620183210919 -0.232775489656291 0 0.20573671357227499 -0.23448295905173899 0 0.22198339683909701 -0.25340717595137879 0 0.20573671357227499 -0.23448295905173899 0 0.19815896102696709 -0.24816545406213189 0 0.22060620183210919 -0.232775489656291 0 0.20573671357227499 -0.23448295905173899 0 0.21564630723174069 -0.21833189921059021 0 0.20573671357227499 -0.23448295905173899 0 0.19801089506944891 -0.22061097325298201 0 0.21564630723174069 -0.21833189921059021 0 0.20573671357227499 -0.23448295905173899 0 0.19801089506944891 -0.22061097325298201 0 0.18862314846194941 -0.23474346369713109 0 0.19801089506944891 -0.22061097325298201 0 0.18862314846194941 -0.23474346369713109 0 0.17884496266341901 -0.22149700646801701 0 0.20573671357227499 -0.23448295905173899 0 0.18862314846194941 -0.23474346369713109 0 0.19815896102696709 -0.24816545406213189 0 0.20600005448239761 -0.18645800734220749 0 0.22432797047415351 -0.19951341785716731 0 0.20571207111442141 -0.20503903284801611 0 0.22432797047415351 -0.19951341785716731 0 0.21564630723174069 -0.21833189921059021 0 0.20571207111442141 -0.20503903284801611 0 0.19801089506944891 -0.22061097325298201 0 0.21564630723174069 -0.21833189921059021 0 0.20571207111442141 -0.20503903284801611 0 0.19801089506944891 -0.22061097325298201 0 0.19227081910603411 -0.2100117569492751 0 0.17884496266341901 -0.22149700646801701 0 0.20571207111442141 -0.20503903284801611 0 0.19227081910603411 -0.2100117569492751 0 0.1956377870383576 -0.1970896374814364 0 0.19801089506944891 -0.22061097325298201 0 0.20571207111442141 -0.20503903284801611 0 0.19227081910603411 -0.2100117569492751 0 0.18830323417204939 -0.1765657128700695 0 0.1956377870383576 -0.1970896374814364 0 0.18335540011200491 -0.20007028076315 0 0.19227081910603411 -0.2100117569492751 0 0.1956377870383576 -0.1970896374814364 0 0.18335540011200491 -0.20007028076315 0 0.1956377870383576 -0.1970896374814364 0 0.18335540011200491 -0.20007028076315 0 0.20600005448239761 -0.18645800734220749 0 0.20571207111442141 -0.20503903284801611 0 0.1956377870383576 -0.1970896374814364 0 0.18830323417204939 -0.1765657128700695 0 0.18335540011200491 -0.20007028076315 0 0.18335540011200491 -0.20007028076315 0 0.16873688803845349 -0.19227854821165941 0 0.17543185729929969 -0.18273889272689711 0 0.19227081910603411 -0.2100117569492751 0 0.18335540011200491 -0.20007028076315 0 0.17884496266341901 -0.22149700646801701 0 0.18335540011200491 -0.20007028076315 0 0.17884496266341901 -0.22149700646801701 0 0.18335540011200491 -0.20007028076315 0 0.16621660047528611 -0.21253283526692829 0 0.17884496266341901 -0.22149700646801701 0 0.16621660047528611 -0.21253283526692829 0 0.1593158439583067 -0.2059041094785751 0 0.15302060169630469 -0.2217977003443504 0 0.18335540011200491 -0.20007028076315 0 0.16621660047528611 -0.21253283526692829 0 0.1593158439583067 -0.2059041094785751 0 0.16621660047528611 -0.21253283526692829 0 0.1593158439583067 -0.2059041094785751 0 0.1593158439583067 -0.2059041094785751 0 0.15759932706250929 -0.18907488386135229 0 0.16873688803845349 -0.19227854821165941 0 0.18335540011200491 -0.20007028076315 0 0.1593158439583067 -0.2059041094785751 0 0.18335540011200491 -0.20007028076315 0 0.1593158439583067 -0.2059041094785751 0 0.16873688803845349 -0.19227854821165941 0 0.18066177981631051 -0.25348299893649828 0 0.19815896102696709 -0.24816545406213189 0 0.17433452521483719 -0.24292373217288479 0 0.19815896102696709 -0.24816545406213189 0 0.17433452521483719 -0.24292373217288479 0 0.18862314846194941 -0.23474346369713109 0 0.19815896102696709 -0.24816545406213189 0 0.17433452521483719 -0.24292373217288479 0 0.18066177981631051 -0.25348299893649828 0 0.17304535898525439 -0.24904788565112909 0 0.17433452521483719 -0.24292373217288479 0 0.17304535898525439 -0.24904788565112909 0 0.17433452521483719 -0.24292373217288479 0 0.18862314846194941 -0.23474346369713109 0 0.17433452521483719 -0.24292373217288479 0 0.17884496266341901 -0.22149700646801701 0 0.17433452521483719 -0.24292373217288479 0 0.17884496266341901 -0.22149700646801701 0 0.17433452521483719 -0.24292373217288479 0 0.17884496266341901 -0.22149700646801701 0 0.16512535944417561 -0.22744738033917331 0 0.16512535944417561 -0.22744738033917331 0 0.15532271566916761 -0.23874085795770611 0 0.15302060169630469 -0.2217977003443504 0 0.16621660047528611 -0.21253283526692829 0 0.17884496266341901 -0.22149700646801701 0 0.16512535944417561 -0.22744738033917331 0 0.16621660047528611 -0.21253283526692829 0 0.16512535944417561 -0.22744738033917331 0 0.15302060169630469 -0.2217977003443504 0 0.17304535898525439 -0.24904788565112909 0 0.17433452521483719 -0.24292373217288479 0 0.15532271566916761 -0.23874085795770611 0 0.15867772839633809 -0.25707915377424612 0 0.17304535898525439 -0.24904788565112909 0 0.15532271566916761 -0.23874085795770611 0 0.17433452521483719 -0.24292373217288479 0 0.16512535944417561 -0.22744738033917331 0 0.15532271566916761 -0.23874085795770611 0 0.17433452521483719 -0.24292373217288479 0 0.15532271566916761 -0.23874085795770611 0 0.15532271566916761 -0.23874085795770611 0 0.1363109061234978 -0.23455798374252809 0 0.13687529418603939 -0.26162068250561471 0 0.15532271566916761 -0.23874085795770611 0 0.1363109061234978 -0.23455798374252809 0 0.15532271566916761 -0.23874085795770611 0 0.15302060169630469 -0.2217977003443504 0 0.1363109061234978 -0.23455798374252809 0 0.15302060169630469 -0.2217977003443504 0 0.1363109061234978 -0.23455798374252809 0 0.13583218450739579 -0.2116030352811932 0 0.12594488917549271 -0.2231145762792166 0 0.1363109061234978 -0.23455798374252809 0 0.13583218450739579 -0.2116030352811932 0 0.1363109061234978 -0.23455798374252809 0 0.13583218450739579 -0.2116030352811932 0 0.13687529418603939 -0.26162068250561471 0 0.1363109061234978 -0.23455798374252809 0 0.13687529418603939 -0.26162068250561471 0 0.1223190960555403 -0.2394332616338683 0 0.1363109061234978 -0.23455798374252809 0 0.1593158439583067 -0.2059041094785751 0 0.15759932706250929 -0.18907488386135229 0 0.14727334507129489 -0.19433633097022029 0 0.14727334507129489 -0.19433633097022029 0 0.13523084618428721 -0.18276855246186111 0 0.1593158439583067 -0.2059041094785751 0 0.14727334507129489 -0.19433633097022029 0 0.1593158439583067 -0.2059041094785751 0 0.14727334507129489 -0.19433633097022029 0 0.13583218450739579 -0.2116030352811932 0 0.1593158439583067 -0.2059041094785751 0 0.13583218450739579 -0.2116030352811932 0 0.1593158439583067 -0.2059041094785751 0 0.15302060169630469 -0.2217977003443504 0 0.13583218450739579 -0.2116030352811932 0 0.1146962174531268 -0.21673223195775559 0 0.12594488917549271 -0.2231145762792166 0 0.13583218450739579 -0.2116030352811932 0 0.1146962174531268 -0.21673223195775559 0 0.13583218450739579 -0.2116030352811932 0 0.13583218450739579 -0.2116030352811932 0 0.13523084618428721 -0.18276855246186111 0 0.1210323504124224 -0.2015702574875764 0 0.13583218450739579 -0.2116030352811932 0 0.13523084618428721 -0.18276855246186111 0 0.14727334507129489 -0.19433633097022029 0 0.13583218450739579 -0.2116030352811932 0 0.13523084618428721 -0.18276855246186111 0 0.13523084618428721 -0.18276855246186111 0 0.13483495552902119 -0.16378539130439421 0 0.13523084618428721 -0.18276855246186111 0 0.14953284821028701 -0.17659781711855899 0 0.13483495552902119 -0.16378539130439421 0 0.12574768761326591 -0.17365922399620121 0 0.13523084618428721 -0.18276855246186111 0 0.13483495552902119 -0.16378539130439421 0 0.12574768761326591 -0.17365922399620121 0 0.13523084618428721 -0.18276855246186111 0 0.15759932706250929 -0.18907488386135229 0 0.14727334507129489 -0.19433633097022029 0 0.14953284821028701 -0.17659781711855899 0 0.14727334507129489 -0.19433633097022029 0 0.13523084618428721 -0.18276855246186111 0 0.14953284821028701 -0.17659781711855899 0 0.15759932706250929 -0.18907488386135229 0 0.14953284821028701 -0.17659781711855899 0 0.16056198994912749 -0.17787080610445691 0 0.14953284821028701 -0.17659781711855899 0 0.15118562361057611 -0.16212531631630639 0 0.13483495552902119 -0.16378539130439421 0 0.15118562361057611 -0.16212531631630639 0 0.13483495552902119 -0.16378539130439421 0 0.15272907190244081 -0.1550331303974728 0 0.15118562361057611 -0.16212531631630639 0 0.15272907190244081 -0.1550331303974728 0 0.15987479688754311 -0.1572750313981319 0 0.14953284821028701 -0.17659781711855899 0 0.15118562361057611 -0.16212531631630639 0 0.1601367247146048 -0.167216461388007 0 0.1232701832726428 -0.15427141090171109 0 0.12574768761326591 -0.17365922399620121 0 0.13483495552902119 -0.16378539130439421 0 0.12574768761326591 -0.17365922399620121 0 0.13483495552902119 -0.16378539130439421 0 0.13483495552902119 -0.16378539130439421 0 0.13444198148756639 -0.1449420832838656 0 0.14315652521050079 -0.14523933820255211 0 0.1232701832726428 -0.15427141090171109 0 0.13483495552902119 -0.16378539130439421 0 0.13444198148756639 -0.1449420832838656 0 0.13483495552902119 -0.16378539130439421 0 0.13444198148756639 -0.1449420832838656 0 0.13444198148756639 -0.1449420832838656 0 0.1434537453928684 -0.13532839273855221 0 0.14315652521050079 -0.14523933820255211 0 0.13444198148756639 -0.1449420832838656 0 0.13404900744611239 -0.12609877526333699 0 0.13444198148756639 -0.1449420832838656 0 0.13404900744611239 -0.12609877526333699 0 0.1434537453928684 -0.13532839273855221 0 0.11727103389215909 -0.1361484369810822 0 0.13444198148756639 -0.1449420832838656 0 0.13404900744611239 -0.12609877526333699 0 0.13404900744611239 -0.12609877526333699 0 0.1490682445489844 -0.1279194233146575 0 0.1609569453379138 -0.13854421730491809 0 0.13404900744611239 -0.12609877526333699 0 0.1609569453379138 -0.13854421730491809 0 0.13404900744611239 -0.12609877526333699 0 0.1434537453928684 -0.13532839273855221 0 0.1609569453379138 -0.13854421730491809 0 0.1434537453928684 -0.13532839273855221 0 0.14993504674019009 -0.14021612160814689 0 0.1609569453379138 -0.13854421730491809 0 0.1427320902892944 -0.12257921542734659 0 0.13404900744611239 -0.12609877526333699 0 0.1490682445489844 -0.1279194233146575 0 0.1434537453928684 -0.13532839273855221 0 0.14993504674019009 -0.14021612160814689 0 0.14315652521050079 -0.14523933820255211 0 0.14993504674019009 -0.14021612160814689 0 0.15469010670848909 -0.14221164189652771 0 0.1609569453379138 -0.13854421730491809 0 0.15568199284830581 -0.1296421963895899 0 0.1490682445489844 -0.1279194233146575 0 0.1609569453379138 -0.13854421730491809 0 0.15192118682329561 -0.12273271218809589 0 0.15568199284830581 -0.1296421963895899 0 0.1587247560068413 -0.12564209046719049 0 0.15192118682329561 -0.12273271218809589 0 0.15568199284830581 -0.1296421963895899 0 0.1490682445489844 -0.1279194233146575 0 0.13483495552902119 -0.16378539130439421 0 0.15469010670848909 -0.14221164189652771 0 0.13483495552902119 -0.16378539130439421 0 0.14315652521050079 -0.14523933820255211 0 0.15469010670848909 -0.14221164189652771 0 0.13483495552902119 -0.16378539130439421 0 0.15469010670848909 -0.14221164189652771 0 0.15272907190244081 -0.1550331303974728 0 0.14993504674019009 -0.14021612160814689 0 0.14315652521050079 -0.14523933820255211 0 0.15469010670848909 -0.14221164189652771 0 0.15272907190244081 -0.1550331303974728 0 0.16278769519534109 -0.1503194818261428 0 0.15987479688754311 -0.1572750313981319 0 0.16278769519534109 -0.1503194818261428 0 0.15987479688754311 -0.1572750313981319 0 0.16866771310860729 -0.15951236945753941 0 0.15469010670848909 -0.14221164189652771 0 0.15272907190244081 -0.1550331303974728 0 0.16278769519534109 -0.1503194818261428 0 0.15469010670848909 -0.14221164189652771 0 0.16278769519534109 -0.1503194818261428 0 0.1609569453379138 -0.13854421730491809 0 0.16278769519534109 -0.1503194818261428 0 0.1609569453379138 -0.13854421730491809 0 0.17433915911560069 -0.15342176620747169 0 0.16278769519534109 -0.1503194818261428 0 0.17433915911560069 -0.15342176620747169 0 0.16866771310860729 -0.15951236945753941 0 0.1609569453379138 -0.13854421730491809 0 0.16898528270356589 -0.1319020538664718 0 0.17739448715537109 -0.13831623988886119 0 0.1587247560068413 -0.12564209046719049 0 0.1613780220681113 -0.13045743568360191 0 0.1641162962428066 -0.126449221113482 0 0.15568199284830581 -0.1296421963895899 0 0.1587247560068413 -0.12564209046719049 0 0.1613780220681113 -0.13045743568360191 0 0.15568199284830581 -0.1296421963895899 0 0.1613780220681113 -0.13045743568360191 0 0.1609569453379138 -0.13854421730491809 0 0.1613780220681113 -0.13045743568360191 0 0.1609569453379138 -0.13854421730491809 0 0.16898528270356589 -0.1319020538664718 0 0.173543926957343 -0.1211375462363173 0 0.16898528270356589 -0.1319020538664718 0 0.1641162962428066 -0.126449221113482 0 0.1613780220681113 -0.13045743568360191 0 0.16898528270356589 -0.1319020538664718 0 0.1641162962428066 -0.126449221113482 0 0.173543926957343 -0.1211375462363173 0 0.16898528270356589 -0.1319020538664718 0 0.17990838590865871 -0.12844737664361131 0 0.16898528270356589 -0.1319020538664718 0 0.17739448715537109 -0.13831623988886119 0 0.17990838590865871 -0.12844737664361131 0 0.188659048266132 -0.1418371739210742 0 0.19260125287660149 -0.13207131947283501 0 0.17739448715537109 -0.13831623988886119 0 0.19260125287660149 -0.13207131947283501 0 0.17739448715537109 -0.13831623988886119 0 0.17990838590865871 -0.12844737664361131 0 0.18701697985041221 -0.11880972375357141 0 0.19260125287660149 -0.13207131947283501 0 0.17990838590865871 -0.12844737664361131 0 0.18786488322971459 -0.15098965934649999 0 0.1609569453379138 -0.13854421730491809 0 0.17433915911560069 -0.15342176620747169 0 0.18786488322971459 -0.15098965934649999 0 0.1609569453379138 -0.13854421730491809 0 0.18786488322971459 -0.15098965934649999 0 0.1609569453379138 -0.13854421730491809 0 0.17739448715537109 -0.13831623988886119 0 0.18786488322971459 -0.15098965934649999 0 0.188659048266132 -0.1418371739210742 0 0.17739448715537109 -0.13831623988886119 0 0.18786488322971459 -0.15098965934649999 0 0.17433915911560069 -0.15342176620747169 0 0.1842505296355367 -0.15589311325690541 0 0.17433915911560069 -0.15342176620747169 0 0.1842505296355367 -0.15589311325690541 0 0.18144082188941271 -0.16389154531309821 0 0.19325106823209409 -0.153061144976989 0 0.1842505296355367 -0.15589311325690541 0 0.18144082188941271 -0.16389154531309821 0 0.18830323417204939 -0.1765657128700695 0 0.18144082188941271 -0.16389154531309821 0 0.17072519494025609 -0.1704686386871877 0 0.17433915911560069 -0.15342176620747169 0 0.18144082188941271 -0.16389154531309821 0 0.16866771310860729 -0.15951236945753941 0 0.18144082188941271 -0.16389154531309821 0 0.16866771310860729 -0.15951236945753941 0 0.17072519494025609 -0.1704686386871877 0 0.18830323417204939 -0.1765657128700695 0 0.18335540011200491 -0.20007028076315 0 0.17543185729929969 -0.18273889272689711 0 0.18830323417204939 -0.1765657128700695 0 0.17543185729929969 -0.18273889272689711 0 0.17072519494025609 -0.1704686386871877 0 0.17543185729929969 -0.18273889272689711 0 0.16056198994912749 -0.17787080610445691 0 0.17072519494025609 -0.1704686386871877 0 0.16873688803845349 -0.19227854821165941 0 0.17543185729929969 -0.18273889272689711 0 0.16056198994912749 -0.17787080610445691 0 0.15759932706250929 -0.18907488386135229 0 0.16873688803845349 -0.19227854821165941 0 0.16056198994912749 -0.17787080610445691 0 0.14953284821028701 -0.17659781711855899 0 0.16056198994912749 -0.17787080610445691 0 0.1601367247146048 -0.167216461388007 0 0.16056198994912749 -0.17787080610445691 0 0.1601367247146048 -0.167216461388007 0 0.17072519494025609 -0.1704686386871877 0 0.1601367247146048 -0.167216461388007 0 0.15987479688754311 -0.1572750313981319 0 0.16866771310860729 -0.15951236945753941 0 0.15118562361057611 -0.16212531631630639 0 0.1601367247146048 -0.167216461388007 0 0.15987479688754311 -0.1572750313981319 0 0.1601367247146048 -0.167216461388007 0 0.16866771310860729 -0.15951236945753941 0 0.17072519494025609 -0.1704686386871877 0 
</DataArray>
</Points>
<Cells>
<DataArray type="UInt32" Name="connectivity" format="ascii">
0 1 2 3 4 5 6 7 8 9 10 11 12 13 14 15 16 17 18 19 20 21 22 23 24 25 26 27 28 29 30 31 32 33 34 35 36 37 38 39 40 41 42 43 44 45 46 47 48 49 50 51 52 53 54 55 56 57 58 59 60 61 62 63 64 65 66 67 68 69 70 71 72 73 74 75 76 77 78 79 80 81 82 83 84 85 86 87 88 89 90 91 92 93 94 95 96 97 98 99 100 101 102 103 104 105 106 107 108 109 110 111 112 113 114 115 116 117 118 119 120 121 122 123 124 125 126 127 128 129 130 131 132 133 134 135 136 137 138 139 140 141 142 143 144 145 146 147 148 149 150 151 152 153 154 155 156 157 158 159 160 161 162 163 164 165 166 167 168 169 170 171 172 173 174 175 176 177 178 179 180 181 182 183 184 185 186 187 188 189 190 191 192 193 194 195 196 197 198 199 200 201 202 203 204 205 206 207 208 209 210 211 212 213 214 215 216 217 218 219 220 221 222 223 224 225 226 227 228 229 230 231 232 233 234 235 236 237 238 239 240 241 242 243 244 245 246 247 248 249 250 251 252 253 254 255 256 257 258 259 260 261 262 263 264 265 266 267 268 269 270 271 272 273 274 275 276 277 278 279 280 281 282 283 284 285 286 287 288 289 290 291 292 293 294 295 296 297 298 299 300 301 302 303 304 305 306 307 308 309 310 311 312 313 314 315 316 317 318 319 320 321 322 323 324 325 326 327 328 329 330 331 332 333 334 335 336 337 338 339 340 341 342 343 344 345 346 347 348 349 350 351 352 353 354 355 356 357 358 359 360 361 362 363 364 365 366 367 368 369 370 371 372 373 374 375 376 377 378 379 380 381 382 383 384 385 386 387 388 389 390 391 392 393 394 395 396 397 398 399 400 401 402 403 404 405 406 407 408 409 410 411 412 413 414 415 416 417 418 419 420 421 422 423 424 425 426 427 428 429 430 431 432 433 434 435 436 437 438 439 440 441 442 443 444 445 446 447 448 449 450 451 452 453 454 455 456 457 458 459 460 461 462 463 464 465 466 467 468 469 470 471 472 473 474 475 476 477 478 479 480 481 482 483 484 485 486 487 488 489 490 491 492 493 494 495 496 497 498 499 500 501 502 503 504 505 506 507 508 509 510 511 512 513 514 515 516 517 518 519 520 521 522 523 524 525 526 527 528 529 530 531 532 533 534 535 536 537 538 539 540 541 542 543 544 545 546 547 548 549 550 551 552 553 554 555 556 557 558 559 560 561 562 563 564 565 566 567 568 569 570 571 572 573 574 575 576 577 578 579 580 581 582 583 584 585 586 587 588 589 590 591 592 593 594 595 596 597 598 599 600 601 602 603 604 605 606 607 608 609 610 611 612 613 614 615 616 617 618 619 620 621 622 623 624 625 626 627 628 629 630 631 632 633 634 635 636 637 638 639 640 641 642 643 644 645 646 647 648 649 650 651 652 653 654 655 656 657 658 659 660 661 662 663 664 665 666 667 668 669 670 671 672 673 674 675 676 677 678 679 680 681 682 683 684 685 686 687 688 689 690 691 692 693 694 695 696 697 698 699 700 701 702 703 704 705 706 707 708 709 710 711 712 713 714 715 716 717 718 719 720 721 722 723 724 725 726 727 728 729 730 731 732 733 734 735 736 737 738 739 740 741 742 743 744 745 746 747 748 749 750 751 752 753 754 755 756 757 758 759 760 761 762 763 764 765 766 767 768 769 770 771 772 773 774 775 776 777 778 779 780 781 782 783 784 785 786 787 788 789 790 791 792 793 794 795 796 797 798 799 800 801 802 803 804 805 806 807 808 809 810 811 812 813 814 815 816 817 818 819 820 821 822 823 824 825 826 827 828 829 830 831 832 833 834 835 836 837 838 839 840 841 842 843 844 845 846 847 848 849 850 851 852 853 854 855 856 857 858 859 860 861 862 863 864 865 866 867 868 869 870 871 872 873 874 875 876 877 878 879 880 881 882 883 884 885 886 887 888 889 890 891 892 893 894 895 896 897 898 899 900 901 902 903 904 905 906 907 908 909 910 911 912 913 914 915 916 917 918 919 920 921 922 923 924 925 926 927 928 929 930 931 932 933 934 935 936 937 938 939 940 941 942 943 944 945 946 947 948 949 950 951 952 953 954 955 956 957 958 959 960 961 962 963 964 965 966 967 968 969 970 971 972 973 974 975 976 977 978 979 980 981 982 983 984 985 986 987 988 989 990 991 992 993 994 995 996 997 998 999 1000 1001 1002 1003 1004 1005 1006 1007 1008 1009 1010 1011 1012 1013 1014 1015 1016 1017 1018 1019 1020 1021 1022 1023 1024 1025 1026 1027 1028 1029 1030 1031 1032 1033 1034 1035 1036 1037 1038 1039 1040 1041 1042 1043 1044 1045 1046 1047 1048 1049 1050 1051 1052 1053 1054 1055 1056 1057 1058 1059 1060 1061 1062 1063 1064 1065 1066 1067 1068 1069 1070 1071 1072 1073 1074 1075 1076 1077 1078 1079 1080 1081 1082 1083 1084 1085 1086 1087 1088 1089 1090 1091 1092 1093 1094 1095 1096 1097 1098 1099 1100 1101 1102 1103 1104 1105 1106 1107 1108 1109 1110 1111 1112 1113 1114 1115 1116 1117 1118 1119 1120 1121 1122 1123 1124 1125 1126 1127 1128 1129 1130 1131 1132 1133 1134 1135 1136 1137 1138 1139 1140 1141 1142 1143 1144 1145 1146 1147 1148 1149 1150 1151 1152 1153 1154 1155 1156 1157 1158 1159 1160 1161 1162 1163 1164 1165 1166 1167 1168 1169 1170 1171 1172 1173 1174 1175 1176 1177 1178 1179 1180 1181 1182 1183 1184 1185 1186 1187 1188 1189 1190 1191 1192 1193 1194 1195 1196 1197 1198 1199 1200 1201 1202 1203 1204 1205 1206 1207 1208 1209 1210 1211 1212 1213 1214 1215 1216 1217 1218 1219 1220 1221 1222 1223 1224 1225 1226 1227 1228 1229 1230 1231 1232 1233 1234 1235 1236 1237 1238 1239 1240 1241 1242 1243 1244 1245 1246 1247 1248 1249 1250 1251 1252 1253 1254 1255 1256 1257 1258 1259 1260 1261 1262 1263 1264 1265 1266 1267 1268 1269 1270 1271 1272 1273 1274 1275 1276 1277 1278 1279 1280 1281 1282 1283 1284 1285 1286 1287 1288 1289 1290 1291 1292 1293 1294 1295 1296 1297 1298 1299 1300 1301 1302 1303 1304 1305 1306 1307 1308 1309 1310 1311 1312 1313 1314 1315 1316 1317 1318 1319 1320 1321 1322 1323 1324 1325 1326 1327 1328 1329 1330 1331 1332 1333 1334 1335 1336 1337 1338 1339 1340 1341 1342 1343 1344 1345 1346 1347 1348 1349 1350 1351 1352 1353 1354 1355 1356 1357 1358 1359 1360 1361 1362 1363 1364 1365 1366 1367 1368 1369 1370 1371 1372 1373 1374 1375 1376 1377 1378 1379 1380 1381 1382 1383 1384 1385 1386 1387 1388 1389 1390 1391 1392 1393 1394 1395 1396 1397 1398 1399 1400 1401 1402 1403 1404 1405 1406 1407 1408 1409 1410 1411 1412 1413 1414 1415 1416 1417 1418 1419 1420 1421 1422 1423 1424 1425 1426 1427 1428 1429 1430 1431 1432 1433 1434 1435 1436 1437 1438 1439 1440 1441 1442 1443 1444 1445 1446 1447 1448 1449 1450 1451 1452 1453 1454 1455 1456 1457 1458 1459 1460 1461 1462 1463 1464 1465 1466 1467 1468 1469 1470 1471 1472 1473 1474 1475 1476 1477 1478 1479 1480 1481 1482 1483 1484 1485 1486 1487 1488 1489 1490 1491 1492 1493 1494 1495 1496 1497 1498 1499 1500 1501 1502 1503 1504 1505 1506 1507 1508 1509 1510 1511 1512 1513 1514 1515 1516 1517 1518 1519 1520 1521 1522 1523 1524 1525 1526 1527 1528 1529 1530 1531 1532 1533 1534 1535 1536 1537 1538 1539 1540 1541 1542 1543 1544 1545 1546 1547 1548 1549 1550 1551 1552 1553 1554 1555 1556 1557 1558 1559 1560 1561 1562 1563 1564 1565 1566 1567 1568 1569 1570 1571 1572 1573 1574 1575 1576 1577 1578 1579 1580 1581 1582 1583 1584 1585 1586 1587 1588 1589 1590 1591 1592 1593 1594 1595 1596 1597 1598 1599 1600 1601 1602 1603 1604 1605 1606 1607 1608 1609 1610 1611 1612 1613 1614 1615 1616 1617 1618 1619 1620 1621 1622 1623 1624 1625 1626 1627 1628 1629 1630 1631 1632 1633 1634 1635 1636 1637 1638 1639 1640 1641 1642 1643 1644 1645 1646 1647 1648 1649 1650 1651 1652 1653 1654 1655 1656 1657 1658 1659 1660 1661 1662 1663 1664 1665 1666 1667 1668 1669 1670 1671 1672 1673 1674 1675 1676 1677 1678 1679 1680 1681 1682 1683 1684 1685 1686 1687 1688 1689 1690 1691 1692 1693 1694 1695 1696 1697 1698 1699 1700 1701 1702 1703 1704 1705 1706 1707 1708 1709 1710 1711 1712 1713 1714 1715 1716 1717 1718 1719 1720 1721 1722 1723 1724 1725 1726 1727 1728 1729 1730 1731 1732 1733 1734 1735 1736 1737 1738 1739 1740 1741 1742 1743 1744 1745 1746 1747 1748 1749 1750 1751 1752 1753 1754 1755 1756 1757 1758 1759 1760 1761 1762 1763 1764 1765 1766 1767 1768 1769 1770 1771 1772 1773 1774 1775 1776 1777 1778 1779 1780 1781 1782 1783 1784 1785 1786 1787 1788 1789 1790 1791 1792 1793 1794 1795 1796 1797 1798 1799 1800 1801 1802 1803 1804 1805 1806 1807 1808 1809 1810 1811 1812 1813 1814 1815 1816 1817 1818 1819 1820 1821 1822 1823 1824 1825 1826 1827 1828 1829 1830 1831 1832 1833 1834 1835 1836 1837 1838 1839 1840 1841 1842 1843 1844 1845 1846 1847 1848 1849 1850 1851 1852 1853 1854 1855 1856 1857 1858 1859 1860 1861 1862 1863 1864 1865 1866 1867 1868 1869 1870 1871 1872 1873 1874 1875 1876 1877 1878 1879 1880 1881 1882 1883 1884 1885 1886 1887 1888 1889 1890 1891 1892 1893 1894 1895 1896 1897 1898 1899 1900 1901 1902 1903 1904 1905 1906 1907 1908 1909 1910 1911 1912 1913 1914 1915 1916 1917 1918 1919 1920 1921 1922 1923 1924 1925 1926 1927 1928 1929 1930 1931 1932 1933 1934 1935 1936 1937 1938 1939 1940 1941 1942 1943 1944 1945 1946 1947 1948 1949 1950 1951 1952 1953 1954 1955 1956 1957 1958 1959 1960 1961 1962 1963 1964 1965 1966 1967 1968 1969 1970 1971 1972 1973 1974 1975 1976 1977 1978 1979 1980 1981 1982 1983 1984 1985 1986 1987 1988 1989 1990 1991 1992 1993 1994 1995 1996 1997 1998 1999 2000 2001 2002 2003 2004 2005 2006 2007 2008 2009 2010 2011 2012 2013 2014 2015 2016 2017 2018 2019 2020 2021 2022 2023 2024 2025 2026 2027 2028 2029 2030 2031 2032 2033 2034 2035 2036 2037 2038 2039 2040 2041 2042 2043 2044 2045 2046 2047 2048 2049 2050 2051 2052 2053 2054 2055 2056 2057 2058 2059 2060 2061 2062 2063 2064 2065 2066 2067 2068 2069 2070 2071 2072 2073 2074 2075 2076 2077 2078 2079 2080 2081 2082 2083 2084 2085 2086 2087 2088 2089 2090 2091 2092 2093 2094 2095 2096 2097 2098 2099 2100 2101 2102 2103 2104 2105 2106 2107 2108 2109 2110 2111 2112 2113 2114 2115 2116 2117 2118 2119 2120 2121 2122 2123 2124 2125 2126 2127 2128 2129 2130 2131 2132 2133 2134 2135 2136 2137 2138 2139 2140 2141 2142 2143 2144 2145 2146 2147 2148 2149 2150 2151 2152 2153 2154 2155 2156 2157 2158 2159 2160 2161 2162 2163 2164 2165 2166 2167 2168 2169 2170 2171 2172 2173 2174 2175 2176 2177 2178 2179 2180 2181 2182 2183 2184 2185 2186 2187 2188 2189 2190 2191 2192 2193 2194 2195 2196 2197 2198 2199 2200 2201 2202 2203 2204 2205 2206 2207 2208 2209 2210 2211 2212 2213 2214 2215 2216 2217 2218 2219 2220 2221 2222 2223 2224 2225 2226 2227 2228 2229 2230 2231 2232 2233 2234 2235 2236 2237 2238 2239 2240 2241 2242 2243 2244 2245 2246 2247 2248 2249 2250 2251 2252 2253 2254 2255 2256 2257 2258 2259 2260 2261 2262 2263 2264 2265 2266 2267 2268 2269 2270 2271 2272 2273 2274 2275 2276 2277 2278 2279 2280 2281 2282 2283 2284 2285 2286 2287 2288 2289 2290 2291 2292 2293 2294 2295 2296 2297 2298 2299 2300 2301 2302 2303 2304 2305 2306 2307 2308 2309 2310 2311 2312 2313 2314 2315 2316 2317 2318 2319 2320 2321 2322 2323 2324 2325 2326 2327 2328 2329 2330 2331 2332 2333 2334 2335 2336 2337 2338 2339 2340 2341 2342 2343 2344 2345 2346 2347 2348 2349 2350 2351 2352 2353 2354 2355 2356 2357 2358 2359 2360 2361 2362 2363 2364 2365 2366 2367 2368 2369 2370 2371 2372 2373 2374 2375 2376 2377 2378 2379 2380 2381 2382 2383 2384 2385 2386 2387 2388 2389 2390 2391 2392 2393 2394 2395 2396 2397 2398 2399 2400 2401 2402 2403 2404 2405 2406 2407 2408 2409 2410 2411 2412 2413 2414 2415 2416 2417 2418 2419 2420 2421 2422 2423 2424 2425 2426 2427 2428 2429 2430 2431 2432 2433 2434 2435 2436 2437 2438 2439 2440 2441 2442 2443 2444 2445 2446 2447 2448 2449 2450 2451 2452 2453 2454 2455 2456 2457 2458 2459 2460 2461 2462 2463 2464 2465 2466 2467 2468 2469 2470 2471 2472 2473 2474 2475 2476 2477 2478 2479 2480 2481 2482 2483 2484 2485 2486 2487 2488 2489 2490 2491 2492 2493 2494 2495 2496 2497 2498 2499 2500 2501 2502 2503 2504 2505 2506 2507 2508 2509 2510 2511 2512 2513 2514 2515 2516 2517 2518 2519 2520 2521 2522 2523 2524 2525 2526 2527 2528 2529 2530 2531 2532 2533 2534 2535 2536 2537 2538 2539 2540 2541 2542 2543 2544 2545 2546 2547 2548 2549 2550 2551 2552 2553 2554 2555 2556 2557 2558 2559 2560 2561 2562 2563 2564 2565 2566 2567 2568 2569 2570 2571 2572 2573 2574 2575 2576 2577 2578 2579 2580 2581 2582 2583 2584 2585 2586 2587 2588 2589 2590 2591 2592 2593 2594 2595 2596 2597 2598 2599 2600 2601 2602 2603 2604 2605 2606 2607 2608 2609 2610 2611 2612 2613 2614 2615 2616 2617 2618 2619 2620 2621 2622 2623 2624 2625 2626 2627 2628 2629 2630 2631 2632 2633 2634 2635 2636 2637 2638 2639 2640 2641 2642 2643 2644 2645 2646 2647 2648 2649 2650 2651 2652 2653 2654 2655 2656 2657 2658 2659 2660 2661 2662 2663 2664 2665 2666 2667 2668 2669 2670 2671 2672 2673 2674 2675 2676 2677 2678 2679 2680 2681 2682 2683 2684 2685 2686 2687 2688 2689 2690 2691 2692 2693 2694 2695 2696 2697 2698 2699 2700 2701 2702 2703 2704 2705 2706 2707 2708 2709 2710 2711 2712 2713 2714 2715 2716 2717 2718 2719 2720 2721 2722 2723 2724 2725 2726 2727 2728 2729 2730 2731 2732 2733 2734 2735 2736 2737 2738 2739 2740 2741 2742 2743 2744 2745 2746 2747 2748 2749 2750 2751 2752 2753 2754 2755 2756 2757 2758 2759 2760 2761 2762 2763 2764 2765 2766 2767 2768 2769 2770 2771 2772 2773 2774 2775 2776 2777 2778 2779 2780 2781 2782 2783 2784 2785 2786 2787 2788 2789 2790 2791 2792 2793 2794 2795 2796 2797 2798 2799 2800 2801 2802 2803 2804 2805 2806 2807 2808 2809 2810 2811 2812 2813 2814 2815 2816 2817 2818 2819 2820 2821 2822 2823 2824 2825 2826 2827 2828 2829 2830 2831 2832 2833 2834 2835 2836 2837 2838 2839 2840 2841 2842 2843 2844 2845 2846 2847 2848 2849 2850 2851 2852 2853 2854 2855 2856 2857 2858 2859 2860 2861 2862 2863 2864 2865 2866 2867 2868 2869 2870 2871 2872 2873 2874 2875 2876 2877 2878 2879 2880 2881 2882 2883 2884 2885 2886 2887 2888 2889 2890 2891 2892 2893 2894 2895 2896 2897 2898 2899 2900 2901 2902 2903 2904 2905 2906 2907 2908 2909 2910 2911 2912 2913 2914 2915 2916 2917 2918 2919 2920 2921 2922 2923 2924 2925 2926 2927 2928 2929 2930 2931 2932 2933 2934 2935 2936 2937 2938 2939 2940 2941 2942 2943 2944 2945 2946 2947 2948 2949 2950 2951 2952 2953 2954 2955 2956 2957 2958 2959 2960 2961 2962 2963 2964 2965 2966 2967 2968 2969 2970 2971 2972 2973 2974 2975 2976 2977 2978 2979 2980 2981 2982 2983 2984 2985 2986 2987 2988 2989 2990 2991 2992 2993 2994 2995 2996 2997 2998 2999 3000 3001 3002 3003 3004 3005 3006 3007 3008 3009 3010 3011 3012 3013 3014 3015 3016 3017 3018 3019 3020 3021 3022 3023 3024 3025 3026 3027 3028 3029 3030 3031 3032 3033 3034 3035 3036 3037 3038 3039 3040 3041 3042 3043 3044 3045 3046 3047 3048 3049 3050 3051 3052 3053 3054 3055 3056 3057 3058 3059 3060 3061 3062 3063 3064 3065 3066 3067 3068 3069 3070 3071 3072 3073 3074 3075 3076 3077 3078 3079 3080 3081 3082 3083 3084 3085 3086 3087 3088 3089 3090 3091 3092 3093 3094 3095 3096 3097 3098 3099 3100 3101 3102 3103 3104 3105 3106 3107 3108 3109 3110 3111 3112 3113 3114 3115 3116 3117 3118 3119 3120 3121 3122 3123 3124 3125 3126 3127 3128 3129 3130 3131 3132 3133 3134 3135 3136 3137 3138 3139 3140 3141 3142 3143 3144 3145 3146 3147 3148 3149 3150 3151 3152 3153 3154 3155 3156 3157 3158 3159 3160 3161 3162 3163 3164 3165 3166 3167 3168 3169 3170 3171 3172 3173 3174 3175 3176 3177 3178 3179 3180 3181 3182 3183 3184 3185 3186 3187 3188 3189 3190 3191 3192 3193 3194 3195 3196 3197 3198 3199 3200 3201 3202 3203 3204 3205 3206 3207 3208 3209 3210 3211 3212 3213 3214 3215 3216 3217 3218 3219 3220 3221 3222 3223 3224 3225 3226 3227 3228 3229 3230 3231 3232 3233 3234 3235 3236 3237 3238 3239 3240 3241 3242 3243 3244 3245 3246 3247 3248 3249 3250 3251 3252 3253 3254 3255 3256 3257 3258 3259 3260 3261 3262 3263 3264 3265 3266 3267 3268 3269 3270 3271 3272 3273 3274 3275 3276 3277 3278 3279 3280 3281 3282 3283 3284 3285 3286 3287 3288 3289 3290 3291 3292 3293 3294 3295 3296 3297 3298 3299 3300 3301 3302 3303 3304 3305 3306 3307 3308 3309 3310 3311 3312 3313 3314 3315 3316 3317 3318 3319 3320 3321 3322 3323 3324 3325 3326 3327 3328 3329 3330 3331 3332 3333 3334 3335 3336 3337 3338 3339 3340 3341 3342 3343 3344 3345 3346 3347 3348 3349 3350 3351 3352 3353 3354 3355 3356 3357 3358 3359 3360 3361 3362 3363 3364 3365 3366 3367 3368 3369 3370 3371 3372 3373 3374 3375 3376 3377 3378 3379 3380 3381 3382 3383 3384 3385 3386 3387 3388 3389 3390 3391 3392 3393 3394 3395 3396 3397 3398 3399 3400 3401 3402 3403 3404 3405 3406 3407 3408 3409 3410 3411 3412 3413 3414 3415 3416 3417 3418 3419 3420 3421 3422 3423 3424 3425 3426 3427 3428 3429 3430 3431 3432 3433 3434 3435 3436 3437 3438 3439 3440 3441 3442 3443 3444 3445 3446 3447 3448 3449 3450 3451 3452 3453 3454 3455 3456 3457 3458 3459 3460 3461 3462 3463 3464 3465 3466 3467 3468 3469 3470 3471 3472 3473 3474 3475 3476 3477 3478 3479 3480 3481 3482 3483 3484 3485 3486 3487 3488 3489 3490 3491 3492 3493 3494 3495 3496 3497 3498 3499 3500 3501 3502 3503 3504 3505 3506 3507 3508 3509 3510 3511 3512 3513 3514 3515 3516 3517 3518 3519 3520 3521 3522 3523 3524 3525 3526 3527 3528 3529 3530 3531 3532 3533 3534 3535 3536 3537 3538 3539 3540 3541 3542 3543 3544 3545 3546 3547 3548 3549 3550 3551 3552 3553 3554 3555 3556 3557 3558 3559 3560 3561 3562 3563 3564 3565 3566 3567 3568 3569 3570 3571 3572 3573 3574 3575 3576 3577 3578 3579 3580 3581 3582 3583 3584 3585 3586 3587 3588 3589 3590 3591 3592 3593 3594 3595 3596 3597 3598 3599 3600 3601 3602 3603 3604 3605 3606 3607 3608 3609 3610 3611 3612 3613 3614 3615 3616 3617 3618 3619 3620 3621 3622 3623 3624 3625 3626 3627 3628 3629 3630 3631 3632 3633 3634 3635 3636 3637 3638 3639 3640 3641 3642 3643 3644 3645 3646 3647 3648 3649 3650 3651 3652 3653 3654 3655 3656 3657 3658 3659 3660 3661 3662 3663 3664 3665 3666 3667 3668 3669 3670 3671 3672 3673 3674 3675 3676 3677 3678 3679 3680 3681 3682 3683 3684 3685 3686 3687 3688 3689 3690 3691 3692 3693 3694 3695 3696 3697 3698 3699 3700 3701 3702 3703 3704 3705 3706 3707 3708 3709 3710 3711 3712 3713 3714 3715 3716 3717 3718 3719 3720 3721 3722 3723 3724 3725 3726 3727 3728 3729 3730 3731 3732 3733 3734 3735 3736 3737 3738 3739 3740 3741 3742 3743 3744 3745 3746 3747 3748 3749 3750 3751 3752 3753 3754 3755 3756 3757 3758 3759 3760 3761 3762 3763 3764 3765 3766 3767 3768 3769 3770 3771 3772 3773 3774 3775 3776 3777 3778 3779 3780 3781 3782 3783 3784 3785 3786 3787 3788 3789 3790 3791 3792 3793 3794 3795 3796 3797 3798 3799 3800 3801 3802 3803 3804 3805 3806 3807 3808 3809 3810 3811 3812 3813 3814 3815 3816 3817 3818 3819 3820 3821 3822 3823 3824 3825 3826 3827 3828 3829 3830 3831 3832 3833 3834 3835 3836 3837 3838 3839 3840 3841 3842 3843 3844 3845 3846 3847 3848 3849 3850 3851 3852 3853 3854 3855 3856 3857 3858 3859 3860 3861 3862 3863 3864 3865 3866 3867 3868 3869 3870 3871 3872 3873 3874 3875 3876 3877 3878 3879 3880 3881 3882 3883 3884 3885 3886 3887 3888 3889 3890 3891 3892 3893 3894 3895 3896 3897 3898 3899 3900 3901 3902 3903 3904 3905 3906 3907 3908 3909 3910 3911 3912 3913 3914 3915 3916 3917 3918 3919 3920 3921 3922 3923 3924 3925 3926 3927 3928 3929 3930 3931 3932 3933 3934 3935 3936 3937 3938 3939 3940 3941 3942 3943 3944 3945 3946 3947 3948 3949 3950 3951 3952 3953 3954 3955 3956 3957 3958 3959 3960 3961 3962 3963 3964 3965 3966 3967 3968 3969 3970 3971 3972 3973 3974 3975 3976 3977 3978 3979 3980 3981 3982 3983 3984 3985 3986 3987 3988 3989 3990 3991 3992 3993 3994 3995 3996 3997 3998 3999 4000 4001 4002 4003 4004 4005 4006 4007 4008 4009 4010 4011 4012 4013 4014 4015 4016 4017 4018 4019 4020 4021 4022 4023 4024 4025 4026 4027 4028 4029 4030 4031 4032 4033 4034 4035 4036 4037 4038 4039 4040 4041 4042 4043 4044 4045 4046 4047 4048 4049 4050 4051 4052 4053 4054 4055 4056 4057 4058 4059 4060 4061 4062 4063 4064 4065 4066 4067 4068 4069 4070 4071 4072 4073 4074 4075 4076 4077 4078 4079 4080 4081 4082 4083 4084 4085 4086 4087 4088 4089 4090 4091 4092 4093 4094 4095 4096 4097 4098 4099 4100 4101 4102 4103 4104 4105 4106 4107 4108 4109 4110 4111 4112 4113 4114 4115 4116 4117 4118 4119 4120 4121 4122 4123 4124 4125 4126 4127 4128 4129 4130 4131 4132 4133 4134 4135 4136 4137 4138 4139 4140 4141 4142 4143 4144 4145 4146 4147 4148 4149 4150 4151 4152 4153 4154 4155 4156 4157 4158 4159 4160 4161 4162 4163 4164 4165 4166 4167 4168 4169 4170 4171 4172 4173 4174 4175 4176 4177 4178 4179 4180 4181 4182 4183 4184 4185 4186 4187 4188 4189 4190 4191 4192 4193 4194 4195 4196 4197 4198 4199 4200 4201 4202 4203 4204 4205 4206 4207 4208 4209 4210 4211 4212 4213 4214 4215 4216 4217 4218 4219 4220 4221 4222 4223 4224 4225 4226 4227 4228 4229 4230 4231 4232 4233 4234 4235 4236 4237 4238 4239 4240 4241 4242 4243 4244 4245 4246 4247 4248 4249 4250 4251 4252 4253 4254 4255 4256 4257 4258 4259 4260 4261 4262 4263 4264 4265 4266 4267 4268 4269 4270 4271 4272 4273 4274 4275 4276 4277 4278 4279 4280 4281 4282 4283 4284 4285 4286 4287 4288 4289 4290 4291 4292 4293 4294 4295 4296 4297 4298 4299 4300 4301 4302 4303 4304 4305 4306 4307 4308 4309 4310 4311 4312 4313 4314 4315 4316 4317 4318 4319 4320 4321 4322 4323 4324 4325 4326 4327 4328 4329 4330 4331 4332 4333 4334 4335 4336 4337 4338 4339 4340 4341 4342 4343 4344 4345 4346 4347 4348 4349 4350 4351 4352 4353 4354 4355 4356 4357 4358 4359 4360 4361 4362 4363 4364 4365 4366 4367 4368 4369 4370 4371 4372 4373 4374 4375 4376 4377 4378 4379 4380 4381 4382 4383 4384 4385 4386 4387 4388 4389 4390 4391 4392 4393 4394 4395 4396 4397 4398 4399 4400 4401 4402 4403 4404 4405 4406 4407 4408 4409 4410 4411 4412 4413 4414 4415 4416 4417 4418 4419 4420 4421 4422 4423 4424 4425 4426 4427 4428 4429 4430 4431 4432 4433 4434 4435 4436 4437 4438 4439 4440 4441 4442 4443 4444 4445 4446 4447 4448 4449 4450 4451 4452 4453 4454 4455 4456 4457 4458 4459 4460 4461 4462 4463 4464 4465 4466 4467 4468 4469 4470 4471 4472 4473 4474 4475 4476 4477 4478 4479 4480 4481 4482 4483 4484 4485 4486 4487 4488 4489 4490 4491 4492 4493 4494 4495 4496 4497 4498 4499 4500 4501 4502 4503 4504 4505 4506 4507 4508 4509 4510 4511 4512 4513 4514 4515 4516 4517 4518 4519 4520 4521 4522 4523 4524 4525 4526 4527 4528 4529 4530 4531 4532 4533 4534 4535 4536 4537 4538 4539 4540 4541 4542 4543 4544 4545 4546 4547 4548 4549 4550 4551 4552 4553 4554 4555 4556 4557 4558 4559 4560 4561 4562 4563 4564 4565 4566 4567 4568 4569 4570 4571 4572 4573 4574 4575 4576 4577 4578 4579 4580 4581 4582 4583 4584 4585 4586 4587 4588 4589 4590 4591 4592 4593 4594 4595 4596 4597 4598 4599 4600 4601 4602 4603 4604 4605 4606 4607 4608 4609 4610 4611 4612 4613 4614 4615 4616 4617 4618 4619 4620 4621 4622 4623 4624 4625 4626 4627 4628 4629 4630 4631 4632 4633 4634 4635 4636 4637 4638 4639 4640 4641 4642 4643 4644 4645 4646 4647 4648 4649 4650 4651 4652 4653 4654 4655 4656 4657 4658 4659 4660 4661 4662 4663 4664 4665 4666 4667 4668 4669 4670 4671 4672 4673 4674 4675 4676 4677 4678 4679 4680 4681 4682 4683 4684 4685 4686 4687 4688 4689 4690 4691 4692 4693 4694 4695 4696 4697 4698 4699 4700 4701 4702 4703 4704 4705 4706 4707 4708 4709 4710 4711 4712 4713 4714 4715 4716 4717 4718 4719 4720 4721 4722 4723 4724 4725 4726 4727 4728 4729 4730 4731 4732 4733 4734 4735 4736 4737 4738 4739 4740 4741 4742 4743 4744 4745 4746 4747 4748 4749 4750 4751 4752 4753 4754 4755 4756 4757 4758 4759 4760 4761 4762 4763 4764 4765 4766 4767 4768 4769 4770 4771 4772 4773 4774 4775 4776 4777 4778 4779 4780 4781 4782 4783 4784 4785 4786 4787 4788 4789 4790 4791 4792 4793 4794 4795 4796 4797 4798 4799 4800 4801 4802 4803 4804 4805 4806 4807 4808 4809 4810 4811 4812 4813 4814 4815 4816 4817 4818 4819 4820 4821 4822 4823 4824 4825 4826 4827 4828 4829 4830 4831 4832 4833 4834 4835 4836 4837 4838 4839 4840 4841 4842 4843 4844 4845 4846 4847 4848 4849 4850 4851 4852 4853 4854 4855 4856 4857 4858 4859 4860 4861 4862 4863 4864 4865 4866 4867 4868 4869 4870 4871 4872 4873 4874 4875 4876 4877 4878 4879 4880 4881 4882 4883 4884 4885 4886 4887 4888 4889 4890 4891 4892 4893 4894 4895 4896 4897 4898 4899 4900 4901 4902 4903 4904 4905 4906 4907 4908 4909 4910 4911 4912 4913 4914 4915 4916 4917 4918 4919 4920 4921 4922 4923 4924 4925 4926 4927 4928 4929 4930 4931 4932 4933 4934 4935 4936 4937 4938 4939 4940 4941 4942 4943 4944 4945 4946 4947 4948 4949 4950 4951 4952 4953 4954 4955 4956 4957 4958 4959 4960 4961 4962 4963 4964 4965 4966 4967 4968 4969 4970 4971 4972 4973 4974 4975 4976 4977 4978 4979 4980 4981 4982 4983 4984 4985 4986 4987 4988 4989 4990 4991 4992 4993 4994 4995 4996 4997 4998 4999 5000 5001 5002 5003 5004 5005 5006 5007 5008 5009 5010 5011 5012 5013 5014 5015 5016 5017 5018 5019 5020 5021 5022 5023 5024 5025 5026 5027 5028 5029 5030 5031 5032 5033 5034 5035 5036 5037 5038 5039 5040 5041 5042 5043 5044 5045 5046 5047 5048 5049 5050 5051 5052 5053 5054 5055 5056 5057 5058 5059 5060 5061 5062 5063 5064 5065 5066 5067 5068 5069 5070 5071 5072 5073 5074 5075 5076 5077 5078 5079 5080 5081 5082 5083 5084 5085 5086 5087 5088 5089 5090 5091 5092 5093 5094 5095 5096 5097 5098 5099 5100 5101 5102 5103 5104 5105 5106 5107 5108 5109 5110 5111 5112 5113 5114 5115 5116 5117 5118 5119 5120 5121 5122 5123 5124 5125 5126 5127 5128 5129 5130 5131 5132 5133 5134 5135 5136 5137 5138 5139 5140 5141 5142 5143 5144 5145 5146 5147 5148 5149 5150 5151 5152 5153 5154 5155 5156 5157 5158 5159 5160 5161 5162 5163 5164 5165 5166 5167 5168 5169 5170 5171 5172 5173 5174 5175 5176 5177 5178 5179 5180 5181 5182 5183 5184 5185 5186 5187 5188 5189 5190 5191 5192 5193 5194 5195 5196 5197 5198 5199 5200 5201 5202 5203 5204 5205 5206 5207 5208 5209 5210 5211 5212 5213 5214 5215 5216 5217 5218 5219 5220 5221 5222 5223 5224 5225 5226 5227 5228 5229 5230 5231 5232 5233 5234 5235 5236 5237 5238 5239 5240 5241 5242 5243 5244 5245 5246 5247 5248 5249 5250 5251 5252 5253 5254 5255 5256 5257 5258 5259 5260 5261 5262 5263 5264 5265 5266 5267 5268 5269 5270 5271 5272 5273 5274 5275 5276 5277 5278 5279 5280 5281 5282 5283 5284 5285 5286 5287 5288 5289 5290 5291 5292 5293 5294 5295 5296 5297 5298 5299 5300 5301 5302 5303 5304 5305 5306 5307 5308 5309 5310 5311 5312 5313 5314 5315 5316 5317 5318 5319 5320 5321 5322 5323 5324 5325 5326 5327 5328 5329 5330 5331 5332 5333 5334 5335 5336 5337 5338 5339 5340 5341 5342 5343 5344 5345 5346 5347 5348 5349 5350 5351 5352 5353 5354 5355 5356 5357 5358 5359 5360 5361 5362 5363 5364 5365 5366 5367 5368 5369 5370 5371 5372 5373 5374 5375 5376 5377 5378 5379 5380 5381 5382 5383 5384 5385 5386 5387 5388 5389 5390 5391 5392 5393 5394 5395 5396 5397 5398 5399 5400 5401 5402 5403 5404 5405 5406 5407 5408 5409 5410 5411 5412 5413 5414 5415 5416 5417 5418 5419 5420 5421 5422 5423 5424 5425 5426 5427 5428 5429 5430 5431 5432 5433 5434 5435 5436 5437 5438 5439 5440 5441 5442 5443 5444 5445 5446 5447 5448 5449 5450 5451 5452 5453 5454 5455 5456 5457 5458 5459 5460 5461 5462 5463 5464 5465 5466 5467 5468 5469 5470 5471 5472 5473 5474 5475 5476 5477 5478 5479 5480 5481 5482 5483 5484 5485 5486 5487 5488 5489 5490 5491 5492 5493 5494 5495 5496 5497 5498 5499 5500 5501 5502 5503 5504 5505 5506 5507 5508 5509 5510 5511 5512 5513 5514 5515 5516 5517 5518 5519 5520 5521 5522 5523 5524 5525 5526 5527 5528 5529 5530 5531 5532 5533 5534 5535 5536 5537 5538 5539 5540 5541 5542 5543 5544 5545 5546 5547 5548 5549 5550 5551 5552 5553 5554 5555 5556 5557 5558 5559 5560 5561 5562 5563 5564 5565 5566 5567 5568 5569 5570 5571 5572 5573 5574 5575 5576 5577 5578 5579 5580 5581 5582 5583 5584 5585 5586 5587 5588 5589 5590 5591 5592 5593 5594 5595 5596 5597 5598 5599 5600 5601 5602 5603 5604 5605 5606 5607 5608 5609 5610 5611 5612 5613 5614 5615 5616 5617 5618 5619 5620 5621 5622 5623 5624 5625 5626 5627 5628 5629 5630 5631 5632 5633 5634 5635 5636 5637 5638 5639 5640 5641 5642 5643 5644 5645 5646 5647 5648 5649 5650 5651 5652 5653 5654 5655 5656 5657 5658 5659 5660 5661 5662 5663 5664 5665 5666 5667 5668 5669 5670 5671 5672 5673 5674 5675 5676 5677 5678 5679 5680 5681 5682 5683 5684 5685 5686 5687 5688 5689 5690 5691 5692 5693 5694 5695 5696 5697 5698 5699 5700 5701 5702 5703 5704 5705 5706 5707 5708 5709 5710 5711 5712 5713 5714 5715 5716 5717 5718 5719 5720 5721 5722 5723 5724 5725 5726 5727 5728 5729 5730 5731 5732 5733 5734 5735 5736 5737 5738 5739 5740 5741 5742 5743 5744 5745 5746 5747 5748 5749 5750 5751 5752 5753 5754 5755 5756 5757 5758 5759 5760 5761 5762 5763 5764 5765 5766 5767 5768 5769 5770 5771 5772 5773 5774 5775 5776 5777 5778 5779 5780 5781 5782 5783 5784 5785 5786 5787 5788 5789 5790 5791 5792 5793 5794 5795 5796 5797 5798 5799 5800 5801 5802 5803 5804 5805 5806 5807 5808 5809 5810 5811 5812 5813 5814 5815 5816 5817 5818 5819 5820 5821 5822 5823 5824 5825 5826 5827 5828 5829 5830 5831 5832 5833 5834 5835 5836 5837 5838 5839 5840 5841 5842 5843 5844 5845 5846 5847 5848 5849 5850 5851 5852 5853 5854 5855 5856 5857 5858 5859 5860 5861 5862 5863 5864 5865 5866 5867 5868 5869 5870 5871 5872 5873 5874 5875 5876 5877 5878 5879 5880 5881 5882 5883 5884 5885 5886 5887 5888 5889 5890 5891 5892 5893 5894 5895 5896 5897 5898 5899 5900 5901 5902 5903 5904 5905 5906 5907 5908 5909 5910 5911 5912 5913 5914 5915 5916 5917 5918 5919 5920 5921 5922 5923 5924 5925 5926 5927 5928 5929 5930 5931 5932 5933 5934 5935 5936 5937 5938 5939 5940 5941 5942 5943 5944 5945 5946 5947 5948 5949 5950 5951 5952 5953 5954 5955 5956 5957 5958 5959 5960 5961 5962 5963 5964 5965 5966 5967 5968 5969 5970 5971 5972 5973 5974 5975 5976 5977 5978 5979 5980 5981 5982 5983 5984 5985 5986 5987 5988 5989 5990 5991 5992 5993 5994 5995 5996 5997 5998 5999 6000 6001 6002 6003 6004 6005 6006 6007 6008 6009 6010 6011 6012 6013 6014 6015 6016 6017 6018 6019 6020 6021 6022 6023 6024 6025 6026 6027 6028 6029 6030 6031 6032 6033 6034 6035 6036 6037 6038 6039 6040 6041 6042 6043 6044 6045 6046 6047 6048 6049 6050 6051 6052 6053 6054 6055 6056 6057 6058 6059 6060 6061 6062 6063 6064 6065 6066 6067 6068 6069 6070 6071 6072 6073 6074 6075 6076 6077 6078 6079 6080 6081 6082 6083 6084 6085 6086 6087 6088 6089 6090 6091 6092 6093 6094 6095 6096 6097 6098 6099 6100 6101 6102 6103 6104 6105 6106 6107 6108 6109 6110 6111 6112 6113 6114 6115 6116 6117 6118 6119 6120 6121 6122 6123 6124 6125 6126 6127 6128 6129 6130 6131 6132 6133 6134 6135 6136 6137 6138 6139 6140 6141 6142 6143 6144 6145 6146 6147 6148 6149 6150 6151 6152 6153 6154 6155 6156 6157 6158 6159 6160 6161 6162 6163 6164 6165 6166 6167 6168 6169 6170 6171 6172 6173 6174 6175 6176 6177 6178 6179 6180 6181 6182 6183 6184 6185 6186 6187 6188 6189 6190 6191 6192 6193 6194 6195 6196 6197 6198 6199 6200 6201 6202 6203 6204 6205 6206 6207 6208 6209 6210 6211 6212 6213 6214 6215 6216 6217 6218 6219 6220 6221 6222 6223 6224 6225 6226 6227 6228 6229 6230 6231 6232 6233 6234 6235 6236 6237 6238 6239 6240 6241 6242 6243 6244 6245 6246 6247 6248 6249 6250 6251 6252 6253 6254 6255 6256 6257 6258 6259 6260 6261 6262 6263 6264 6265 6266 6267 6268 6269 6270 6271 6272 6273 6274 6275 6276 6277 6278 6279 6280 6281 6282 6283 6284 6285 6286 6287 6288 6289 6290 6291 6292 6293 6294 6295 6296 6297 6298 6299 6300 6301 6302 6303 6304 6305 6306 6307 6308 6309 6310 6311 6312 6313 6314 6315 6316 6317 6318 6319 6320 6321 6322 6323 6324 6325 6326 6327 6328 6329 6330 6331 6332 6333 6334 6335 6336 6337 6338 6339 6340 6341 6342 6343 6344 6345 6346 6347 6348 6349 6350 6351 6352 6353 6354 6355 6356 6357 6358 6359 6360 6361 6362 6363 6364 6365 6366 6367 6368 6369 6370 6371 6372 6373 6374 6375 6376 6377 6378 6379 6380 6381 6382 6383 6384 6385 6386 6387 6388 6389 6390 6391 6392 6393 6394 6395 6396 6397 6398 6399 6400 6401 6402 6403 6404 6405 6406 6407 6408 6409 6410 6411 6412 6413 6414 6415 6416 6417 6418 6419 6420 6421 6422 6423 6424 6425 6426 6427 6428 6429 6430 6431 6432 6433 6434 6435 6436 6437 6438 6439 6440 6441 6442 6443 6444 6445 6446 6447 6448 6449 6450 6451 6452 6453 6454 6455 6456 6457 6458 6459 6460 6461 6462 6463 6464 6465 6466 6467 6468 6469 6470 6471 6472 6473 6474 6475 6476 6477 6478 6479 6480 6481 6482 6483 6484 6485 6486 6487 6488 6489 6490 6491 6492 6493 6494 6495 6496 6497 6498 6499 6500 6501 6502 6503 6504 6505 6506 6507 6508 6509 6510 6511 6512 6513 6514 6515 6516 6517 6518 6519 6520 6521 6522 6523 6524 6525 6526 6527 6528 6529 6530 6531 6532 6533 6534 6535 6536 6537 6538 6539 6540 6541 6542 6543 6544 6545 6546 6547 6548 6549 6550 6551 6552 6553 6554 6555 6556 6557 6558 6559 6560 6561 6562 6563 6564 6565 6566 6567 6568 6569 6570 6571 6572 6573 6574 6575 6576 6577 6578 6579 6580 6581 6582 6583 6584 6585 6586 6587 6588 6589 6590 6591 6592 6593 6594 6595 6596 6597 6598 6599 6600 6601 6602 6603 6604 6605 6606 6607 6608 6609 6610 6611 6612 6613 6614 6615 6616 6617 6618 6619 6620 6621 6622 6623 6624 6625 6626 6627 6628 6629 6630 6631 6632 6633 6634 6635 6636 6637 6638 6639 6640 6641 6642 6643 6644 6645 6646 6647 6648 6649 6650 6651 6652 6653 6654 6655 6656 6657 6658 6659 6660 6661 6662 6663 6664 6665 6666 6667 6668 6669 6670 6671 6672 6673 6674 6675 6676 6677 6678 6679 6680 6681 6682 6683 6684 6685 6686 6687 6688 6689 6690 6691 6692 6693 6694 6695 6696 6697 6698 6699 6700 6701 6702 6703 6704 6705 6706 6707 6708 6709 6710 6711 6712 6713 6714 6715 6716 6717 6718 6719 6720 6721 6722 6723 6724 6725 6726 6727 6728 6729 6730 6731 6732 6733 6734 6735 6736 6737 6738 6739 6740 6741 6742 6743 6744 6745 6746 6747 6748 6749 6750 6751 6752 6753 6754 6755 6756 6757 6758 6759 6760 6761 6762 6763 6764 6765 6766 6767 6768 6769 6770 6771 6772 6773 6774 6775 6776 6777 6778 6779 6780 6781 6782 6783 6784 6785 6786 6787 6788 6789 6790 6791 6792 6793 6794 6795 6796 6797 6798 6799 6800 6801 6802 6803 6804 6805 6806 6807 6808 6809 6810 6811 6812 6813 6814 6815 6816 6817 6818 6819 6820 6821 6822 6823 6824 6825 6826 6827 6828 6829 6830 6831 6832 6833 6834 6835 6836 6837 6838 6839 6840 6841 6842 6843 6844 6845 6846 6847 6848 6849 6850 6851 6852 6853 6854 6855 6856 6857 6858 6859 6860 6861 6862 6863 6864 6865 6866 6867 6868 6869 6870 6871 6872 6873 6874 6875 6876 6877 6878 6879 6880 6881 6882 6883 6884 6885 6886 6887 6888 6889 6890 6891 6892 6893 6894 6895 6896 6897 6898 6899 6900 6901 6902 6903 6904 6905 6906 6907 6908 6909 6910 6911 6912 6913 6914 6915 6916 6917 6918 6919 6920 6921 6922 6923 6924 6925 6926 6927 6928 6929 6930 6931 6932 6933 6934 6935 6936 6937 6938 6939 6940 6941 6942 6943 6944 6945 6946 6947 6948 6949 6950 6951 6952 6953 6954 6955 6956 6957 6958 6959 6960 6961 6962 6963 6964 6965 6966 6967 6968 6969 6970 6971 6972 6973 6974 6975 6976 6977 6978 6979 6980 6981 6982 6983 6984 6985 6986 6987 6988 6989 6990 6991 6992 6993 6994 6995 6996 6997 6998 6999 7000 7001 7002 7003 7004 7005 7006 7007 7008 7009 7010 7011 7012 7013 7014 7015 7016 7017 7018 7019 7020 7021 7022 7023 7024 7025 7026 7027 7028 7029 7030 7031 7032 7033 7034 7035 7036 7037 7038 7039 7040 7041 7042 7043 7044 7045 7046 7047 7048 7049 7050 7051 7052 7053 7054 7055 7056 7057 7058 7059 7060 7061 7062 7063 7064 7065 7066 7067 7068 7069 7070 7071 7072 7073 7074 7075 7076 7077 7078 7079 7080 7081 7082 7083 7084 7085 7086 7087 7088 7089 7090 7091 7092 7093 7094 7095 7096 7097 7098 7099 7100 7101 7102 7103 7104 7105 7106 7107 7108 7109 7110 7111 7112 7113 7114 7115 7116 7117 7118 7119 7120 7121 7122 7123 7124 7125 7126 7127 7128 7129 7130 7131 7132 7133 7134 7135 7136 7137 7138 7139 7140 7141 7142 7143 7144 7145 7146 7147 7148 7149 7150 7151 7152 7153 7154 7155 7156 7157 7158 7159 7160 7161 7162 7163 7164 7165 7166 7167 7168 7169 7170 7171 7172 7173 7174 7175 7176 7177 7178 7179 7180 7181 7182 7183 7184 7185 7186 7187 7188 7189 7190 7191 7192 7193 7194 7195 7196 7197 7198 7199 7200 7201 7202 7203 7204 7205 7206 7207 7208 7209 7210 7211 7212 7213 7214 7215 7216 7217 7218 7219 7220 7221 7222 7223 7224 7225 7226 7227 7228 7229 7230 7231 7232 7233 7234 7235 7236 7237 7238 7239 7240 7241 7242 7243 7244 7245 7246 7247 7248 7249 7250 7251 7252 7253 7254 7255 7256 7257 7258 7259 7260 7261 7262 7263 7264 7265 7266 7267 7268 7269 7270 7271 7272 7273 7274 7275 7276 7277 7278 7279 7280 7281 7282 7283 7284 7285 7286 7287 7288 7289 7290 7291 7292 7293 7294 7295 7296 7297 7298 7299 7300 7301 7302 7303 7304 7305 7306 7307 7308 7309 7310 7311 7312 7313 7314 7315 7316 7317 7318 7319 7320 7321 7322 7323 7324 7325 7326 7327 7328 7329 7330 7331 7332 7333 7334 7335 7336 7337 7338 7339 7340 7341 7342 7343 7344 7345 7346 7347 7348 7349 7350 7351 7352 7353 7354 7355 7356 7357 7358 7359 7360 7361 7362 7363 7364 7365 7366 7367 7368 7369 7370 7371 7372 7373 7374 7375 7376 7377 7378 7379 7380 7381 7382 7383 7384 7385 7386 7387 7388 7389 7390 7391 7392 7393 7394 7395 7396 7397 7398 7399 7400 7401 7402 7403 7404 7405 7406 7407 7408 7409 7410 7411 7412 7413 7414 7415 7416 7417 7418 7419 7420 7421 7422 7423 7424 7425 7426 7427 7428 7429 7430 7431 7432 7433 7434 7435 7436 7437 7438 7439 7440 7441 7442 7443 7444 7445 7446 7447 7448 7449 7450 7451 7452 7453 7454 7455 7456 7457 7458 7459 7460 7461 7462 7463 7464 7465 7466 7467 7468 7469 7470 7471 7472 7473 7474 7475 7476 7477 7478 7479 7480 7481 7482 7483 7484 7485 7486 7487 7488 7489 7490 7491 7492 7493 7494 7495 7496 7497 7498 7499 7500 7501 7502 7503 7504 7505 7506 7507 7508 7509 7510 7511 7512 7513 7514 7515 7516 7517 7518 7519 7520 7521 7522 7523 7524 7525 7526 7527 7528 7529 7530 7531 7532 7533 7534 7535 7536 7537 7538 7539 7540 7541 7542 7543 7544 7545 7546 7547 7548 7549 7550 7551 7552 7553 7554 7555 7556 7557 7558 7559 7560 7561 7562 7563 7564 7565 7566 7567 7568 7569 7570 7571 7572 7573 7574 7575 7576 7577 7578 7579 7580 7581 7582 7583 7584 7585 7586 7587 7588 7589 7590 7591 7592 7593 7594 7595 7596 7597 7598 7599 7600 7601 7602 7603 7604 7605 7606 7607 7608 7609 7610 7611 7612 7613 7614 7615 7616 7617 7618 7619 7620 7621 7622 7623 7624 7625 7626 7627 7628 7629 7630 7631 7632 7633 7634 7635 7636 7637 7638 7639 7640 7641 7642 7643 7644 7645 7646 7647 7648 7649 7650 7651 7652 7653 7654 7655 7656 7657 7658 7659 7660 7661 7662 7663 7664 7665 7666 7667 7668 7669 7670 7671 7672 7673 7674 7675 7676 7677 7678 7679 7680 7681 7682 7683 7684 7685 7686 7687 7688 7689 7690 7691 7692 7693 7694 7695 7696 7697 7698 7699 7700 7701 7702 7703 7704 7705 7706 7707 7708 7709 7710 7711 7712 7713 7714 7715 7716 7717 7718 7719 7720 7721 7722 7723 7724 7725 7726 7727 7728 7729 7730 7731 7732 7733 7734 7735 7736 7737 7738 7739 7740 7741 7742 7743 7744 7745 7746 7747 7748 7749 7750 7751 7752 7753 7754 7755 7756 7757 7758 7759 7760 7761 7762 7763 7764 7765 7766 7767 7768 7769 7770 7771 7772 7773 7774 7775 7776 7777 7778 7779 7780 7781 7782 7783 7784 7785 7786 7787 7788 7789 7790 7791 7792 7793 7794 7795 7796 7797 7798 7799 7800 7801 7802 7803 7804 7805 7806 7807 7808 7809 7810 7811 7812 7813 7814 7815 7816 7817 7818 7819 7820 7821 7822 7823 7824 7825 7826 7827 7828 7829 7830 7831 7832 7833 7834 7835 7836 7837 7838 7839 7840 7841 7842 7843 7844 7845 7846 7847 7848 7849 7850 7851 7852 7853 7854 7855 7856 7857 7858 7859 7860 7861 7862 7863 7864 7865 7866 7867 7868 7869 7870 7871 7872 7873 7874 7875 7876 7877 7878 7879 7880 7881 7882 7883 7884 7885 7886 7887 7888 7889 7890 7891 7892 7893 7894 7895 7896 7897 7898 7899 7900 7901 7902 7903 7904 7905 7906 7907 7908 7909 7910 7911 7912 7913 7914 7915 7916 7917 7918 7919 7920 7921 7922 7923 7924 7925 7926 7927 7928 7929 7930 7931 7932 7933 7934 7935 7936 7937 7938 7939 7940 7941 7942 7943 7944 7945 7946 7947 7948 7949 7950 7951 7952 7953 7954 7955 7956 7957 7958 7959 7960 7961 7962 7963 7964 7965 7966 7967 7968 7969 7970 7971 7972 7973 7974 7975 7976 7977 7978 7979 7980 7981 7982 7983 7984 7985 7986 7987 7988 7989 7990 7991 7992 7993 7994 7995 7996 7997 7998 7999 8000 8001 8002 8003 8004 8005 8006 8007 8008 8009 8010 8011 8012 8013 8014 8015 8016 8017 8018 8019 8020 8021 8022 8023 8024 8025 8026 8027 8028 8029 8030 8031 8032 8033 8034 8035 8036 8037 8038 8039 8040 8041 8042 8043 8044 8045 8046 8047 8048 8049 8050 8051 8052 8053 8054 8055 8056 8057 8058 8059 8060 8061 8062 8063 8064 8065 8066 8067 8068 8069 8070 8071 8072 8073 8074 8075 8076 8077 8078 8079 8080 8081 8082 8083 8084 8085 8086 8087 8088 8089 8090 8091 8092 8093 8094 8095 8096 8097 8098 8099 8100 8101 8102 8103 8104 8105 8106 8107 8108 8109 8110 8111 8112 8113 8114 8115 8116 8117 8118 8119 8120 8121 8122 8123 8124 8125 8126 8127 8128 8129 8130 8131 8132 8133 8134 8135 8136 8137 8138 8139 8140 8141 8142 8143 8144 8145 8146 8147 8148 8149 8150 8151 8152 8153 8154 8155 8156 8157 8158 8159 8160 8161 8162 8163 8164 8165 8166 8167 8168 8169 8170 8171 8172 8173 8174 8175 8176 8177 8178 8179 8180 8181 8182 8183 8184 8185 8186 8187 8188 8189 8190 8191 8192 8193 8194 8195 8196 8197 8198 8199 8200 8201 8202 8203 8204 8205 8206 8207 8208 8209 8210 8211 8212 8213 8214 8215 8216 8217 8218 8219 8220 8221 8222 8223 8224 8225 8226 8227 8228 8229 8230 8231 8232 8233 8234 8235 8236 8237 8238 8239 8240 8241 8242 8243 8244 8245 8246 8247 8248 8249 8250 8251 8252 8253 8254 8255 8256 8257 8258 8259 8260 8261 8262 8263 8264 8265 8266 8267 8268 8269 8270 8271 8272 8273 8274 8275 8276 8277 8278 8279 8280 8281 8282 8283 8284 8285 8286 8287 8288 8289 8290 8291 8292 8293 8294 8295 8296 8297 8298 8299 8300 8301 8302 8303 8304 8305 8306 8307 8308 8309 8310 8311 8312 8313 8314 8315 8316 8317 8318 8319 8320 8321 8322 8323 8324 8325 8326 8327 8328 8329 8330 8331 8332 8333 8334 8335 8336 8337 8338 8339 8340 8341 8342 8343 8344 8345 8346 8347 8348 8349 8350 8351 8352 8353 8354 8355 8356 8357 8358 8359 8360 8361 8362 8363 8364 8365 8366 8367 8368 8369 8370 8371 8372 8373 8374 8375 8376 8377 8378 8379 8380 8381 8382 8383 8384 8385 8386 8387 8388 8389 8390 8391 8392 8393 8394 8395 8396 8397 8398 8399 8400 8401 8402 8403 8404 8405 8406 8407 8408 8409 8410 8411 8412 8413 8414 8415 8416 8417 8418 8419 8420 8421 8422 8423 8424 8425 8426 8427 8428 8429 8430 8431 8432 8433 8434 8435 8436 8437 8438 8439 8440 8441 8442 8443 8444 8445 8446 8447 8448 8449 8450 8451 8452 8453 8454 8455 8456 8457 8458 8459 8460 8461 8462 8463 8464 8465 8466 8467 8468 8469 8470 8471 8472 8473 8474 8475 8476 8477 8478 8479 8480 8481 8482 8483 8484 8485 8486 8487 8488 8489 8490 8491 8492 8493 8494 8495 8496 8497 8498 8499 8500 8501 8502 8503 8504 8505 8506 8507 8508 8509 8510 8511 8512 8513 8514 8515 8516 8517 8518 8519 8520 8521 8522 8523 8524 8525 8526 8527 8528 8529 8530 8531 8532 8533 8534 8535 8536 8537 8538 8539 8540 8541 8542 8543 8544 8545 8546 8547 8548 8549 8550 8551 8552 8553 8554 8555 8556 8557 8558 8559 8560 8561 8562 8563 8564 8565 8566 8567 8568 8569 8570 8571 8572 8573 8574 8575 8576 8577 8578 8579 8580 8581 8582 8583 8584 8585 8586 8587 8588 8589 8590 8591 8592 8593 8594 8595 8596 8597 8598 8599 8600 8601 8602 8603 8604 8605 8606 8607 8608 8609 8610 8611 8612 8613 8614 8615 8616 8617 8618 8619 8620 8621 8622 8623 8624 8625 8626 8627 8628 8629 8630 8631 8632 8633 8634 8635 8636 8637 8638 8639 8640 8641 8642 8643 8644 8645 8646 8647 8648 8649 8650 8651 8652 8653 8654 8655 8656 8657 8658 8659 8660 8661 8662 8663 8664 8665 8666 8667 8668 8669 8670 8671 8672 8673 8674 8675 8676 8677 8678 8679 8680 8681 8682 8683 8684 8685 8686 8687 8688 8689 8690 8691 8692 8693 8694 8695 8696 8697 8698 8699 8700 8701 8702 8703 8704 8705 8706 8707 8708 8709 8710 8711 8712 8713 8714 8715 8716 8717 8718 8719 8720 8721 8722 8723 8724 8725 8726 8727 8728 8729 8730 8731 8732 8733 8734 8735 8736 8737 8738 8739 8740 8741 8742 8743 8744 8745 8746 8747 8748 8749 8750 8751 8752 8753 8754 8755 8756 8757 8758 8759 8760 8761 8762 8763 8764 8765 8766 8767 8768 8769 8770 8771 8772 8773 8774 8775 8776 8777 8778 8779 8780 8781 8782 8783 8784 8785 8786 8787 8788 8789 8790 8791 8792 8793 8794 8795 8796 8797 8798 8799 8800 8801 8802 8803 8804 8805 8806 8807 8808 8809 8810 8811 8812 8813 8814 8815 8816 8817 8818 8819 8820 8821 8822 8823 8824 8825 8826 8827 8828 8829 8830 8831 8832 8833 8834 8835 8836 8837 8838 8839 8840 8841 8842 8843 8844 8845 8846 8847 8848 8849 8850 8851 8852 8853 8854 8855 8856 8857 8858 8859 8860 8861 8862 8863 8864 8865 8866 8867 8868 8869 8870 8871 8872 8873 8874 8875 8876 8877 8878 8879 8880 8881 8882 8883 8884 8885 8886 8887 8888 8889 8890 8891 8892 8893 8894 8895 8896 8897 8898 8899 8900 8901 8902 8903 8904 8905 8906 8907 8908 8909 8910 8911 8912 8913 8914 8915 8916 8917 8918 8919 8920 8921 8922 8923 8924 8925 8926 8927 8928 8929 8930 8931 8932 8933 8934 8935 8936 8937 8938 8939 8940 8941 8942 8943 8944 8945 8946 8947 8948 8949 8950 8951 8952 8953 8954 8955 8956 8957 8958 8959 8960 8961 8962 8963 8964 8965 8966 8967 8968 8969 8970 8971 8972 8973 8974 8975 8976 8977 8978 8979 8980 8981 8982 8983 8984 8985 8986 8987 8988 8989 8990 8991 8992 8993 8994 8995 8996 8997 8998 8999 9000 9001 9002 9003 9004 9005 9006 9007 9008 9009 9010 9011 9012 9013 9014 9015 9016 9017 9018 9019 9020 9021 9022 9023 9024 9025 9026 9027 9028 9029 9030 9031 9032 9033 9034 9035 9036 9037 9038 9039 9040 9041 9042 9043 9044 9045 9046 9047 9048 9049 9050 9051 9052 9053 9054 9055 9056 9057 9058 9059 9060 9061 9062 9063 9064 9065 9066 9067 9068 9069 9070 9071 9072 9073 9074 9075 9076 9077 9078 9079 9080 9081 9082 9083 9084 9085 9086 9087 9088 9089 9090 9091 9092 9093 9094 9095 9096 9097 9098 9099 9100 9101 9102 9103 9104 9105 9106 9107 9108 9109 9110 9111 9112 9113 9114 9115 9116 9117 9118 9119 9120 9121 9122 9123 9124 9125 9126 9127 9128 9129 9130 9131 9132 9133 9134 9135 9136 9137 9138 9139 9140 9141 9142 9143 9144 9145 9146 9147 9148 9149 9150 9151 9152 9153 9154 9155 9156 9157 9158 9159 9160 9161 9162 9163 9164 9165 9166 9167 9168 9169 9170 9171 9172 9173 9174 9175 9176 9177 9178 9179 9180 9181 9182 9183 9184 9185 9186 9187 9188 9189 9190 9191 9192 9193 9194 9195 9196 9197 9198 9199 9200 9201 9202 9203 9204 9205 9206 9207 9208 9209 9210 9211 9212 9213 9214 9215 9216 9217 9218 9219 9220 9221 9222 9223 9224 9225 9226 9227 9228 9229 9230 9231 9232 9233 9234 9235 9236 9237 9238 9239 9240 9241 9242 9243 9244 9245 9246 9247 9248 9249 9250 9251 9252 9253 9254 9255 9256 9257 9258 9259 9260 9261 9262 9263 9264 9265 9266 9267 9268 9269 9270 9271 9272 9273 9274 9275 9276 9277 9278 9279 9280 9281 9282 9283 9284 9285 9286 9287 9288 9289 9290 9291 9292 9293 9294 9295 9296 9297 9298 9299 9300 9301 9302 9303 9304 9305 9306 9307 9308 9309 9310 9311 9312 9313 9314 9315 9316 9317 9318 9319 9320 9321 9322 9323 9324 9325 9326 9327 9328 9329 9330 9331 9332 9333 9334 9335 9336 9337 9338 9339 9340 9341 9342 9343 9344 9345 9346 9347 9348 9349 9350 9351 9352 9353 9354 9355 9356 9357 9358 9359 9360 9361 9362 9363 9364 9365 9366 9367 9368 9369 9370 9371 9372 9373 9374 9375 9376 9377 9378 9379 9380 9381 9382 9383 9384 9385 9386 9387 9388 9389 9390 9391 9392 9393 9394 9395 9396 9397 9398 9399 9400 9401 9402 9403 9404 9405 9406 9407 9408 9409 9410 9411 9412 9413 9414 9415 9416 9417 9418 9419 9420 9421 9422 9423 9424 9425 9426 9427 9428 9429 9430 9431 9432 9433 9434 9435 9436 9437 9438 9439 9440 9441 9442 9443 9444 9445 9446 9447 9448 9449 9450 9451 9452 9453 9454 9455 9456 9457 9458 9459 9460 9461 9462 9463 9464 9465 9466 9467 9468 9469 9470 9471 9472 9473 9474 9475 9476 9477 9478 9479 9480 9481 9482 9483 9484 9485 9486 9487 9488 9489 9490 9491 9492 9493 9494 9495 9496 9497 9498 9499 9500 9501 9502 9503 9504 9505 9506 9507 9508 9509 9510 9511 9512 9513 9514 9515 9516 9517 9518 9519 9520 9521 9522 9523 9524 9525 9526 9527 9528 9529 9530 9531 9532 9533 9534 9535 9536 9537 9538 9539 9540 9541 9542 9543 9544 9545 9546 9547 9548 9549 9550 9551 9552 9553 9554 9555 9556 9557 9558 9559 9560 9561 9562 9563 9564 9565 9566 9567 9568 9569 9570 9571 9572 9573 9574 9575 9576 9577 9578 9579 9580 9581 9582 9583 9584 9585 9586 9587 9588 9589 9590 9591 9592 9593 9594 9595 9596 9597 9598 9599 9600 9601 9602 9603 9604 9605 9606 9607 9608 9609 9610 9611 9612 9613 9614 9615 9616 9617 9618 9619 9620 9621 9622 9623 9624 9625 9626 9627 9628 9629 9630 9631 9632 9633 9634 9635 9636 9637 9638 9639 9640 9641 9642 9643 9644 9645 9646 9647 9648 9649 9650 9651 9652 9653 9654 9655 9656 9657 9658 9659 9660 9661 9662 9663 9664 9665 9666 9667 9668 9669 9670 9671 9672 9673 9674 9675 9676 9677 9678 9679 9680 9681 9682 9683 9684 9685 9686 9687 9688 9689 9690 9691 9692 9693 9694 9695 9696 9697 9698 9699 9700 9701 9702 9703 9704 9705 9706 9707 9708 9709 9710 9711 9712 9713 9714 9715 9716 9717 9718 9719 9720 9721 9722 9723 9724 9725 9726 9727 9728 9729 9730 9731 9732 9733 9734 9735 9736 9737 9738 9739 9740 9741 9742 9743 9744 9745 9746 9747 9748 9749 9750 9751 9752 9753 9754 9755 9756 9757 9758 9759 9760 9761 9762 9763 9764 9765 9766 9767 9768 9769 9770 9771 9772 9773 9774 9775 9776 9777 9778 9779 9780 9781 9782 9783 9784 9785 9786 9787 9788 9789 9790 9791 9792 9793 9794 9795 9796 9797 9798 9799 9800 9801 9802 9803 9804 9805 9806 9807 9808 9809 9810 9811 9812 9813 9814 9815 9816 9817 9818 9819 9820 9821 9822 9823 9824 9825 9826 9827 9828 9829 9830 9831 9832 9833 9834 9835 9836 9837 9838 9839 9840 9841 9842 9843 9844 9845 9846 9847 9848 9849 9850 9851 9852 9853 9854 9855 9856 9857 9858 9859 9860 9861 9862 9863 9864 9865 9866 9867 9868 9869 9870 9871 9872 9873 9874 9875 9876 9877 9878 9879 9880 9881 9882 9883 9884 9885 9886 9887 9888 9889 9890 9891 9892 9893 9894 9895 9896 9897 9898 9899 9900 9901 9902 9903 9904 9905 9906 9907 9908 9909 9910 9911 9912 9913 9914 9915 9916 9917 9918 9919 9920 9921 9922 9923 9924 9925 9926 9927 9928 9929 9930 9931 9932 9933 9934 9935 9936 9937 9938 9939 9940 9941 9942 9943 9944 9945 9946 9947 9948 9949 9950 9951 9952 9953 9954 9955 9956 9957 9958 9959 9960 9961 9962 9963 9964 9965 9966 9967 9968 9969 9970 9971 9972 9973 9974 9975 9976 9977 9978 9979 9980 9981 9982 9983 9984 9985 9986 9987 9988 9989 9990 9991 9992 9993 9994 9995 9996 9997 9998 9999 10000 10001 10002 10003 10004 10005 10006 10007 10008 10009 10010 10011 10012 10013 10014 10015 10016 10017 10018 10019 10020 10021 10022 10023 10024 10025 10026 10027 10028 10029 10030 10031 10032 10033 10034 10035 10036 10037 10038 10039 10040 10041 10042 10043 10044 10045 10046 10047 10048 10049 10050 10051 10052 10053 10054 10055 10056 10057 10058 10059 10060 10061 10062 10063 10064 10065 10066 10067 10068 10069 10070 10071 10072 10073 10074 10075 10076 10077 10078 10079 10080 10081 10082 10083 10084 10085 10086 10087 10088 10089 10090 10091 10092 10093 10094 10095 10096 10097 10098 10099 10100 10101 10102 10103 10104 10105 10106 10107 10108 10109 10110 10111 10112 10113 10114 10115 10116 10117 10118 10119 10120 10121 10122 10123 10124 10125 10126 10127 10128 10129 10130 10131 10132 10133 10134 10135 10136 10137 10138 10139 10140 10141 10142 10143 10144 10145 10146 10147 10148 10149 10150 10151 10152 10153 10154 10155 10156 10157 10158 10159 10160 10161 10162 10163 10164 10165 10166 10167 10168 10169 10170 10171 10172 10173 10174 10175 10176 10177 10178 10179 10180 10181 10182 10183 10184 10185 10186 10187 10188 10189 10190 10191 10192 10193 10194 10195 10196 10197 10198 10199 10200 10201 10202 10203 10204 10205 10206 10207 10208 10209 10210 10211 10212 10213 10214 10215 10216 10217 10218 10219 10220 10221 10222 10223 10224 10225 10226 10227 10228 10229 10230 10231 10232 10233 10234 10235 10236 10237 10238 10239 10240 10241 10242 10243 10244 10245 10246 10247 10248 10249 10250 10251 10252 10253 10254 10255 10256 10257 10258 10259 10260 10261 10262 10263 10264 10265 10266 10267 10268 10269 10270 10271 10272 10273 10274 10275 10276 10277 10278 10279 10280 10281 10282 10283 10284 10285 10286 10287 10288 10289 10290 10291 10292 10293 10294 10295 10296 10297 10298 10299 10300 10301 10302 10303 10304 10305 10306 10307 10308 10309 10310 10311 10312 10313 10314 10315 10316 10317 10318 10319 10320 10321 10322 10323 10324 10325 10326 10327 10328 10329 10330 10331 10332 10333 10334 10335 10336 10337 10338 10339 10340 10341 10342 10343 10344 10345 10346 10347 10348 10349 10350 10351 10352 10353 10354 10355 10356 10357 10358 10359 10360 10361 10362 10363 10364 10365 10366 10367 10368 10369 10370 10371 10372 10373 10374 10375 10376 10377 10378 10379 10380 10381 10382 10383 10384 10385 10386 10387 10388 10389 10390 10391 10392 10393 10394 10395 10396 10397 10398 10399 10400 10401 10402 10403 10404 10405 10406 10407 10408 10409 10410 10411 10412 10413 10414 10415 10416 10417 10418 10419 10420 10421 10422 10423 10424 10425 10426 10427 10428 10429 10430 10431 10432 10433 10434 10435 10436 10437 10438 10439 10440 10441 10442 10443 10444 10445 10446 10447 10448 10449 10450 10451 10452 10453 10454 10455 10456 10457 10458 10459 10460 10461 10462 10463 10464 10465 10466 10467 10468 10469 10470 10471 10472 10473 10474 10475 10476 10477 10478 10479 10480 10481 10482 10483 10484 10485 10486 10487 10488 10489 10490 10491 10492 10493 10494 10495 10496 10497 10498 10499 10500 10501 10502 10503 10504 10505 10506 10507 10508 10509 10510 10511 10512 10513 10514 10515 10516 10517 10518 10519 10520 10521 10522 10523 10524 10525 10526 10527 10528 10529 10530 10531 10532 10533 10534 10535 10536 10537 10538 10539 10540 10541 10542 10543 10544 10545 10546 10547 10548 10549 10550 10551 10552 10553 10554 10555 10556 10557 10558 10559 10560 10561 10562 10563 10564 10565 10566 10567 10568 10569 10570 10571 10572 10573 10574 10575 10576 10577 10578 10579 10580 10581 10582 10583 10584 10585 10586 10587 10588 10589 10590 10591 10592 10593 10594 10595 10596 10597 10598 10599 10600 10601 10602 10603 10604 10605 10606 10607 10608 10609 10610 10611 10612 10613 10614 10615 10616 10617 10618 10619 10620 10621 10622 10623 10624 10625 10626 10627 10628 10629 10630 10631 10632 10633 10634 10635 10636 10637 10638 10639 10640 10641 10642 10643 10644 10645 10646 10647 10648 10649 10650 10651 10652 10653 10654 10655 10656 10657 10658 10659 10660 10661 10662 10663 10664 10665 10666 10667 10668 10669 10670 10671 10672 10673 10674 10675 10676 10677 10678 10679 10680 10681 10682 10683 10684 10685 10686 10687 10688 10689 10690 10691 10692 10693 10694 10695 10696 10697 10698 10699 10700 10701 10702 10703 10704 10705 10706 10707 10708 10709 10710 10711 10712 10713 10714 10715 10716 10717 10718 10719 10720 10721 10722 10723 10724 10725 10726 10727 10728 10729 10730 10731 10732 10733 10734 10735 10736 10737 10738 10739 10740 10741 10742 10743 10744 10745 10746 10747 10748 10749 10750 10751 10752 10753 10754 10755 10756 10757 10758 10759 10760 10761 10762 10763 10764 10765 10766 10767 10768 10769 10770 10771 10772 10773 10774 10775 10776 10777 10778 10779 10780 10781 10782 10783 10784 10785 10786 10787 10788 10789 10790 10791 10792 10793 10794 10795 10796 10797 10798 10799 10800 10801 10802 10803 10804 10805 10806 10807 10808 10809 10810 10811 10812 10813 10814 10815 10816 10817 10818 10819 10820 10821 10822 10823 10824 10825 10826 10827 10828 10829 10830 10831 10832 10833 10834 10835 10836 10837 10838 10839 10840 10841 10842 10843 10844 10845 10846 10847 10848 10849 10850 10851 10852 10853 10854 10855 10856 10857 10858 10859 10860 10861 10862 10863 10864 10865 10866 10867 10868 10869 10870 10871 10872 10873 10874 10875 10876 10877 10878 10879 10880 10881 10882 10883 10884 10885 10886 10887 10888 10889 10890 10891 10892 10893 10894 10895 10896 10897 10898 10899 10900 10901 10902 10903 10904 10905 10906 10907 10908 10909 10910 10911 10912 10913 10914 10915 10916 10917 10918 10919 10920 10921 10922 10923 10924 10925 10926 10927 10928 10929 10930 10931 10932 10933 10934 10935 10936 10937 10938 10939 10940 10941 10942 10943 10944 10945 10946 10947 10948 10949 10950 10951 10952 10953 10954 10955 10956 10957 10958 10959 10960 10961 10962 10963 10964 10965 10966 10967 10968 10969 10970 10971 10972 10973 10974 10975 10976 10977 10978 10979 10980 10981 10982 10983 10984 10985 10986 10987 10988 10989 10990 10991 10992 10993 10994 10995 10996 10997 10998 10999 11000 11001 11002 11003 11004 11005 11006 11007 11008 11009 11010 11011 11012 11013 11014 11015 11016 11017 11018 11019 11020 11021 11022 11023 11024 11025 11026 11027 11028 11029 11030 11031 11032 11033 11034 11035 11036 11037 11038 11039 11040 11041 11042 11043 11044 11045 11046 11047 11048 11049 11050 11051 11052 11053 11054 11055 11056 11057 11058 11059 11060 11061 11062 11063 11064 11065 11066 11067 11068 11069 11070 11071 11072 11073 11074 11075 11076 11077 11078 11079 11080 11081 11082 11083 11084 11085 11086 11087 11088 11089 11090 11091 11092 11093 11094 11095 11096 11097 11098 11099 11100 11101 11102 11103 11104 11105 11106 11107 11108 11109 11110 11111 11112 11113 11114 11115 11116 11117 11118 11119 11120 11121 11122 11123 11124 11125 11126 11127 11128 11129 11130 11131 11132 11133 11134 11135 11136 11137 11138 11139 11140 11141 11142 11143 11144 11145 11146 11147 11148 11149 11150 11151 11152 11153 11154 11155 11156 11157 11158 11159 11160 11161 11162 11163 11164 11165 11166 11167 11168 11169 11170 11171 11172 11173 11174 11175 11176 11177 11178 11179 11180 11181 11182 11183 11184 11185 11186 11187 11188 11189 11190 11191 11192 11193 11194 11195 11196 11197 11198 11199 11200 11201 11202 11203 11204 11205 11206 11207 11208 11209 11210 11211 11212 11213 11214 11215 11216 11217 11218 11219 11220 11221 11222 11223 11224 11225 11226 11227 11228 11229 11230 11231 11232 11233 11234 11235 11236 11237 11238 11239 11240 11241 11242 11243 11244 11245 11246 11247 11248 11249 11250 11251 11252 11253 11254 11255 11256 11257 11258 11259 11260 11261 11262 11263 11264 11265 11266 11267 11268 11269 11270 11271 11272 11273 11274 11275 11276 11277 11278 11279 11280 11281 11282 11283 11284 11285 11286 11287 11288 11289 11290 11291 11292 11293 11294 11295 11296 11297 11298 11299 11300 11301 11302 11303 11304 11305 11306 11307 11308 11309 11310 11311 11312 11313 11314 11315 11316 11317 11318 11319 11320 11321 11322 11323 11324 11325 11326 11327 11328 11329 11330 11331 11332 11333 11334 11335 11336 11337 11338 11339 11340 11341 11342 11343 11344 11345 11346 11347 11348 11349 11350 11351 11352 11353 11354 11355 11356 11357 11358 11359 11360 11361 11362 11363 11364 11365 11366 11367 11368 11369 11370 11371 11372 11373 11374 11375 11376 11377 11378 11379 11380 11381 11382 11383 11384 11385 11386 11387 11388 11389 11390 11391 11392 11393 11394 11395 11396 11397 11398 11399 11400 11401 11402 11403 11404 11405 11406 11407 11408 11409 11410 11411 11412 11413 11414 11415 11416 11417 11418 11419 11420 11421 11422 11423 11424 11425 11426 11427 11428 11429 11430 11431 11432 11433 11434 11435 11436 11437 11438 11439 11440 11441 11442 11443 11444 11445 11446 11447 11448 11449 11450 11451 11452 11453 11454 11455 11456 11457 11458 11459 11460 11461 11462 11463 11464 11465 11466 11467 11468 11469 11470 11471 11472 11473 11474 11475 11476 11477 11478 11479 11480 11481 11482 11483 11484 11485 11486 11487 11488 11489 11490 11491 11492 11493 11494 11495 11496 11497 11498 11499 11500 11501 11502 11503 11504 11505 11506 11507 11508 11509 11510 11511 11512 11513 11514 11515 11516 11517 11518 11519 11520 11521 11522 11523 11524 11525 11526 11527 11528 11529 11530 11531 11532 11533 11534 11535 11536 11537 11538 11539 11540 11541 11542 11543 11544 11545 11546 11547 11548 11549 11550 11551 11552 11553 11554 11555 11556 11557 11558 11559 11560 11561 11562 11563 11564 11565 11566 11567 11568 11569 11570 11571 11572 11573 11574 11575 11576 11577 11578 11579 11580 11581 11582 11583 11584 11585 11586 11587 11588 11589 11590 11591 11592 11593 11594 11595 11596 11597 11598 11599 11600 11601 11602 11603 11604 11605 11606 11607 11608 11609 11610 11611 11612 11613 11614 11615 11616 11617 11618 11619 11620 11621 11622 11623 11624 11625 11626 11627 11628 11629 11630 11631 11632 11633 11634 11635 11636 11637 11638 11639 11640 11641 11642 11643 11644 11645 11646 11647 11648 11649 11650 11651 11652 11653 11654 11655 11656 11657 11658 11659 11660 11661 11662 11663 11664 11665 11666 11667 11668 11669 11670 11671 11672 11673 11674 11675 11676 11677 11678 11679 11680 11681 11682 11683 11684 11685 11686 11687 11688 11689 11690 11691 11692 11693 11694 11695 11696 11697 11698 11699 11700 11701 11702 11703 11704 11705 11706 11707 11708 11709 11710 11711 11712 11713 11714 11715 11716 11717 11718 11719 11720 11721 11722 11723 11724 11725 11726 11727 11728 11729 11730 11731 11732 11733 11734 11735 11736 11737 11738 11739 11740 11741 11742 11743 11744 11745 11746 11747 11748 11749 11750 11751 11752 11753 11754 11755 11756 11757 11758 11759 11760 11761 11762 11763 11764 11765 11766 11767 11768 11769 11770 11771 11772 11773 11774 11775 11776 11777 11778 11779 11780 11781 11782 11783 11784 11785 11786 11787 11788 11789 11790 11791 11792 11793 11794 11795 11796 11797 11798 11799 11800 11801 11802 11803 11804 11805 11806 11807 11808 11809 11810 11811 11812 11813 11814 11815 11816 11817 11818 11819 11820 11821 11822 11823 11824 11825 11826 11827 11828 11829 11830 11831 11832 11833 11834 11835 11836 11837 11838 11839 11840 11841 11842 11843 11844 11845 11846 11847 11848 11849 11850 11851 11852 11853 11854 11855 11856 11857 11858 11859 11860 11861 11862 11863 11864 11865 11866 11867 11868 11869 11870 11871 11872 11873 11874 11875 11876 11877 11878 11879 11880 11881 11882 11883 11884 11885 11886 11887 11888 11889 11890 11891 11892 11893 11894 11895 11896 11897 11898 11899 11900 11901 11902 11903 11904 11905 11906 11907 11908 11909 11910 11911 11912 11913 11914 11915 11916 11917 11918 11919 11920 11921 11922 11923 11924 11925 11926 11927 11928 11929 11930 11931 11932 11933 11934 11935 11936 11937 11938 11939 11940 11941 11942 11943 11944 11945 11946 11947 11948 11949 11950 11951 11952 11953 11954 11955 11956 11957 11958 11959 11960 11961 11962 11963 11964 11965 11966 11967 11968 11969 11970 11971 11972 11973 11974 11975 11976 11977 11978 11979 11980 11981 11982 11983 11984 11985 11986 11987 11988 11989 11990 11991 11992 11993 11994 11995 11996 11997 11998 11999 12000 12001 12002 12003 12004 12005 12006 12007 12008 12009 12010 12011 12012 12013 12014 12015 12016 12017 12018 12019 12020 12021 12022 12023 12024 12025 12026 12027 12028 12029 12030 12031 12032 12033 12034 12035 12036 12037 12038 12039 12040 12041 12042 12043 12044 12045 12046 12047 12048 12049 12050 12051 12052 12053 12054 12055 12056 12057 12058 12059 12060 12061 12062 12063 12064 12065 12066 12067 12068 12069 12070 12071 12072 12073 12074 12075 12076 12077 12078 12079 12080 12081 12082 12083 12084 12085 12086 12087 12088 12089 12090 12091 12092 12093 12094 12095 12096 12097 12098 12099 12100 12101 12102 12103 12104 12105 12106 12107 12108 12109 12110 12111 12112 12113 12114 12115 12116 12117 12118 12119 12120 12121 12122 12123 12124 12125 12126 12127 12128 12129 12130 12131 12132 12133 12134 12135 12136 12137 12138 12139 12140 12141 12142 12143 12144 12145 12146 12147 12148 12149 12150 12151 12152 12153 12154 12155 12156 12157 12158 12159 12160 12161 12162 12163 12164 12165 12166 12167 12168 12169 12170 12171 12172 12173 12174 12175 12176 12177 12178 12179 12180 12181 12182 12183 12184 12185 12186 12187 12188 12189 12190 12191 12192 12193 12194 12195 12196 12197 12198 12199 12200 12201 12202 12203 12204 12205 12206 12207 12208 12209 12210 12211 12212 12213 12214 12215 12216 12217 12218 12219 12220 12221 12222 12223 12224 12225 12226 12227 12228 12229 12230 12231 12232 12233 12234 12235 12236 12237 12238 12239 12240 12241 12242 12243 12244 12245 12246 12247 12248 12249 12250 12251 12252 12253 12254 12255 12256 12257 12258 12259 12260 12261 12262 12263 12264 12265 12266 12267 12268 12269 12270 12271 12272 12273 12274 12275 12276 12277 12278 12279 12280 12281 12282 12283 12284 12285 12286 12287 12288 12289 12290 12291 12292 12293 12294 12295 12296 12297 12298 12299 12300 12301 12302 12303 12304 12305 12306 12307 12308 12309 12310 12311 12312 12313 12314 12315 12316 12317 12318 12319 12320 12321 12322 12323 12324 12325 12326 12327 12328 12329 12330 12331 12332 12333 12334 12335 12336 12337 12338 12339 12340 12341 12342 12343 12344 12345 12346 12347 12348 12349 12350 12351 12352 12353 12354 12355 12356 12357 12358 12359 12360 12361 12362 12363 12364 12365 12366 12367 12368 12369 12370 12371 12372 12373 12374 12375 12376 12377 12378 12379 12380 12381 12382 12383 12384 12385 12386 12387 12388 12389 12390 12391 12392 12393 12394 12395 12396 12397 12398 12399 12400 12401 12402 12403 12404 12405 12406 12407 12408 12409 12410 12411 12412 12413 12414 12415 12416 12417 12418 12419 12420 12421 12422 12423 12424 12425 12426 12427 12428 12429 12430 12431 12432 12433 12434 12435 12436 12437 12438 12439 12440 12441 12442 12443 12444 12445 12446 12447 12448 12449 12450 12451 12452 12453 12454 12455 12456 12457 12458 12459 12460 12461 12462 12463 12464 12465 12466 12467 12468 12469 12470 12471 12472 12473 12474 12475 12476 12477 12478 12479 12480 12481 12482 12483 12484 12485 12486 12487 12488 12489 12490 12491 12492 12493 12494 12495 12496 12497 12498 12499 12500 12501 12502 12503 12504 12505 12506 12507 12508 12509 12510 12511 12512 12513 12514 12515 12516 12517 12518 12519 12520 12521 12522 12523 12524 12525 12526 12527 12528 12529 12530 12531 12532 12533 12534 12535 12536 12537 12538 12539 12540 12541 12542 12543 12544 12545 12546 12547 12548 12549 12550 12551 12552 12553 12554 12555 12556 12557 12558 12559 12560 12561 12562 12563 12564 12565 12566 12567 12568 12569 12570 12571 12572 12573 12574 12575 12576 12577 12578 12579 12580 12581 12582 12583 12584 12585 12586 12587 12588 12589 12590 12591 12592 12593 12594 12595 12596 12597 12598 12599 12600 12601 12602 12603 12604 12605 12606 12607 12608 12609 12610 12611 12612 12613 12614 12615 12616 12617 12618 12619 12620 12621 12622 12623 12624 12625 12626 12627 12628 12629 12630 12631 12632 12633 12634 12635 12636 12637 12638 12639 12640 12641 12642 12643 12644 12645 12646 12647 12648 12649 12650 12651 12652 12653 12654 12655 12656 12657 12658 12659 12660 12661 12662 12663 12664 12665 12666 12667 12668 12669 12670 12671 12672 12673 12674 12675 12676 12677 12678 12679 12680 12681 12682 12683 12684 12685 12686 12687 12688 12689 12690 12691 12692 12693 12694 12695 12696 12697 12698 12699 12700 12701 12702 12703 12704 12705 12706 12707 12708 12709 12710 12711 12712 12713 12714 12715 12716 12717 12718 12719 12720 12721 12722 12723 12724 12725 12726 12727 12728 12729 12730 12731 12732 12733 12734 12735 12736 12737 12738 12739 12740 12741 12742 12743 12744 12745 12746 12747 12748 12749 12750 12751 12752 12753 12754 12755 12756 12757 12758 12759 12760 12761 12762 12763 12764 12765 12766 12767 12768 12769 12770 12771 12772 12773 12774 12775 12776 12777 12778 12779 12780 12781 12782 12783 12784 12785 12786 12787 12788 12789 12790 12791 12792 12793 12794 12795 12796 12797 12798 12799 12800 12801 12802 12803 12804 12805 12806 12807 12808 12809 12810 12811 12812 12813 12814 12815 12816 12817 12818 12819 12820 12821 12822 12823 12824 12825 12826 12827 12828 12829 12830 12831 12832 12833 12834 12835 12836 12837 12838 12839 12840 12841 12842 12843 12844 12845 12846 12847 12848 12849 12850 12851 12852 12853 12854 12855 12856 12857 12858 12859 12860 12861 12862 12863 12864 12865 12866 12867 12868 12869 12870 12871 12872 12873 12874 12875 12876 12877 12878 12879 12880 12881 12882 12883 12884 12885 12886 12887 12888 12889 12890 12891 12892 12893 12894 12895 12896 12897 12898 12899 12900 12901 12902 12903 12904 12905 12906 12907 12908 12909 12910 12911 12912 12913 12914 12915 12916 12917 12918 12919 12920 12921 12922 12923 12924 12925 12926 12927 12928 12929 12930 12931 12932 12933 12934 12935 12936 12937 12938 12939 12940 12941 12942 12943 12944 12945 12946 12947 12948 12949 12950 12951 12952 12953 12954 12955 12956 12957 12958 12959 12960 12961 12962 12963 12964 12965 12966 12967 12968 12969 12970 12971 12972 12973 12974 12975 12976 12977 12978 12979 12980 12981 12982 12983 12984 12985 12986 12987 12988 12989 12990 12991 12992 12993 12994 12995 12996 12997 12998 12999 13000 13001 13002 13003 13004 13005 13006 13007 13008 13009 13010 13011 13012 13013 13014 13015 13016 13017 13018 13019 13020 13021 13022 13023 13024 13025 13026 13027 13028 13029 13030 13031 13032 13033 13034 13035 13036 13037 13038 13039 13040 13041 13042 13043 13044 13045 13046 13047 13048 13049 13050 13051 13052 13053 13054 13055 13056 13057 13058 13059 13060 13061 13062 13063 13064 13065 13066 13067 13068 13069 13070 13071 13072 13073 13074 13075 13076 13077 13078 13079 13080 13081 13082 13083 13084 13085 13086 13087 13088 13089 13090 13091 13092 13093 13094 13095 13096 13097 13098 13099 13100 13101 13102 13103 13104 13105 13106 13107 13108 13109 13110 13111 13112 13113 13114 13115 13116 13117 13118 13119 13120 13121 13122 13123 13124 13125 13126 13127 13128 13129 13130 13131 13132 13133 13134 13135 13136 13137 13138 13139 13140 13141 13142 13143 13144 13145 13146 13147 13148 13149 13150 13151 13152 13153 13154 13155 13156 13157 13158 13159 13160 13161 13162 13163 13164 13165 13166 13167 13168 13169 13170 13171 13172 13173 13174 13175 13176 13177 13178 13179 13180 13181 13182 13183 13184 13185 13186 13187 13188 13189 13190 13191 13192 13193 13194 13195 13196 13197 13198 13199 13200 13201 13202 13203 13204 13205 13206 13207 13208 13209 13210 13211 13212 13213 13214 13215 13216 13217 13218 13219 13220 13221 13222 13223 13224 13225 13226 13227 13228 13229 13230 13231 13232 13233 13234 13235 13236 13237 13238 13239 13240 13241 13242 13243 13244 13245 13246 13247 13248 13249 13250 13251 13252 13253 13254 13255 13256 13257 13258 13259 13260 13261 13262 13263 13264 13265 13266 13267 13268 13269 13270 13271 13272 13273 13274 13275 13276 13277 13278 13279 13280 13281 13282 13283 13284 13285 13286 13287 13288 13289 13290 13291 13292 13293 13294 13295 13296 13297 13298 13299 13300 13301 13302 13303 13304 13305 13306 13307 13308 13309 13310 13311 13312 13313 13314 13315 13316 13317 13318 13319 13320 13321 13322 13323 13324 13325 13326 13327 13328 13329 13330 13331 13332 13333 13334 13335 13336 13337 13338 13339 13340 13341 13342 13343 13344 13345 13346 13347 13348 13349 13350 13351 13352 13353 13354 13355 13356 13357 13358 13359 13360 13361 13362 13363 13364 13365 13366 13367 13368 13369 13370 13371 13372 13373 13374 13375 13376 13377 13378 13379 13380 13381 13382 13383 13384 13385 13386 13387 13388 13389 13390 13391 13392 13393 13394 13395 13396 13397 13398 13399 13400 13401 13402 13403 13404 13405 13406 13407 13408 13409 13410 13411 13412 13413 13414 13415 13416 13417 13418 13419 13420 13421 13422 13423 13424 13425 13426 13427 13428 13429 13430 13431 13432 13433 13434 13435 13436 13437 13438 13439 13440 13441 13442 13443 13444 13445 13446 13447 13448 13449 13450 13451 13452 13453 13454 13455 13456 13457 13458 13459 13460 13461 13462 13463 13464 13465 13466 13467 13468 13469 13470 13471 13472 13473 13474 13475 13476 13477 13478 13479 13480 13481 13482 13483 13484 13485 13486 13487 13488 13489 13490 13491 13492 13493 13494 13495 13496 13497 13498 13499 13500 13501 13502 13503 13504 13505 13506 13507 13508 13509 13510 13511 13512 13513 13514 13515 13516 13517 13518 13519 13520 13521 13522 13523 13524 13525 13526 13527 13528 13529 13530 13531 13532 13533 13534 13535 13536 13537 13538 13539 13540 13541 13542 13543 13544 13545 13546 13547 13548 13549 13550 13551 13552 13553 13554 13555 13556 13557 13558 13559 13560 13561 13562 13563 13564 13565 13566 13567 13568 13569 13570 13571 13572 13573 13574 13575 13576 13577 13578 13579 13580 13581 13582 13583 13584 13585 13586 13587 13588 13589 13590 13591 13592 13593 13594 13595 13596 13597 13598 13599 13600 13601 13602 13603 13604 13605 13606 13607 13608 13609 13610 13611 13612 13613 13614 13615 13616 13617 13618 13619 13620 13621 13622 13623 13624 13625 13626 13627 13628 13629 13630 13631 13632 13633 13634 13635 13636 13637 13638 13639 13640 13641 13642 13643 13644 13645 13646 13647 13648 13649 13650 13651 13652 13653 13654 13655 13656 13657 13658 13659 13660 13661 13662 13663 13664 13665 13666 13667 13668 13669 13670 13671 13672 13673 13674 13675 13676 13677 13678 13679 13680 13681 13682 13683 13684 13685 13686 13687 13688 13689 13690 13691 13692 13693 13694 13695 13696 13697 13698 13699 13700 13701 13702 13703 13704 13705 13706 13707 13708 13709 13710 13711 13712 13713 13714 13715 13716 13717 13718 13719 13720 13721 13722 13723 13724 13725 13726 13727 13728 13729 13730 13731 13732 13733 13734 13735 13736 13737 13738 13739 13740 13741 13742 13743 13744 13745 13746 13747 13748 13749 13750 13751 13752 13753 13754 13755 13756 13757 13758 13759 13760 13761 13762 13763 13764 13765 13766 13767 13768 13769 13770 13771 13772 13773 13774 13775 13776 13777 13778 13779 13780 13781 13782 13783 13784 13785 13786 13787 13788 13789 13790 13791 13792 13793 13794 13795 13796 13797 13798 13799 13800 13801 13802 13803 13804 13805 13806 13807 13808 13809 13810 13811 13812 13813 13814 13815 13816 13817 13818 13819 13820 13821 13822 13823 13824 13825 13826 13827 13828 13829 13830 13831 13832 13833 13834 13835 13836 13837 13838 13839 13840 13841 13842 13843 13844 13845 13846 13847 13848 13849 13850 13851 13852 13853 13854 13855 13856 13857 13858 13859 13860 13861 13862 13863 13864 13865 13866 13867 13868 13869 13870 13871 13872 13873 13874 13875 13876 13877 13878 13879 13880 13881 13882 13883 13884 13885 13886 13887 13888 13889 13890 13891 13892 13893 13894 13895 13896 13897 13898 13899 13900 13901 13902 13903 13904 13905 13906 13907 13908 13909 13910 13911 13912 13913 13914 13915 13916 13917 13918 13919 13920 13921 13922 13923 13924 13925 13926 13927 13928 13929 13930 13931 13932 13933 13934 13935 13936 13937 13938 13939 13940 13941 13942 13943 13944 13945 13946 13947 13948 13949 13950 13951 13952 13953 13954 13955 13956 13957 13958 13959 13960 13961 13962 13963 13964 13965 13966 13967 13968 13969 13970 13971 13972 13973 13974 13975 13976 13977 13978 13979 13980 13981 13982 13983 13984 13985 13986 13987 13988 13989 13990 13991 13992 13993 13994 13995 13996 13997 13998 13999 14000 14001 14002 14003 14004 14005 14006 14007 14008 14009 14010 14011 14012 14013 14014 14015 14016 14017 14018 14019 14020 14021 14022 14023 14024 14025 14026 14027 14028 14029 14030 14031 14032 14033 14034 14035 14036 14037 14038 14039 14040 14041 14042 14043 14044 14045 14046 14047 14048 14049 14050 14051 14052 14053 14054 14055 14056 14057 14058 14059 14060 14061 14062 14063 14064 14065 14066 14067 14068 14069 14070 14071 14072 14073 14074 14075 14076 14077 14078 14079 14080 14081 14082 14083 14084 14085 14086 14087 14088 14089 14090 14091 14092 14093 14094 14095 14096 14097 14098 14099 14100 14101 14102 14103 14104 14105 14106 14107 14108 14109 14110 14111 14112 14113 14114 14115 14116 14117 14118 14119 14120 14121 14122 14123 14124 14125 14126 14127 14128 14129 14130 14131 14132 14133 14134 14135 14136 14137 14138 14139 14140 14141 14142 14143 14144 14145 14146 14147 14148 14149 14150 14151 14152 14153 14154 14155 14156 14157 14158 14159 14160 14161 14162 14163 14164 14165 14166 14167 14168 14169 14170 14171 14172 14173 14174 14175 14176 14177 14178 14179 14180 14181 14182 14183 14184 14185 14186 14187 14188 14189 14190 14191 14192 14193 14194 14195 14196 14197 14198 14199 14200 14201 14202 14203 14204 14205 14206 14207 14208 14209 14210 14211 14212 14213 14214 14215 14216 14217 14218 14219 14220 14221 14222 14223 14224 14225 14226 14227 14228 14229 14230 14231 14232 14233 14234 14235 14236 14237 14238 14239 14240 14241 14242 14243 14244 14245 14246 14247 14248 14249 14250 14251 14252 14253 14254 14255 14256 14257 14258 14259 14260 14261 14262 14263 14264 14265 14266 14267 14268 14269 14270 14271 14272 14273 14274 14275 14276 14277 14278 14279 14280 14281 14282 14283 14284 14285 14286 14287 14288 14289 14290 14291 14292 14293 14294 14295 14296 14297 14298 14299 14300 14301 14302 14303 14304 14305 14306 14307 14308 14309 14310 14311 14312 14313 14314 14315 14316 14317 14318 14319 14320 14321 14322 14323 14324 14325 14326 14327 14328 14329 14330 14331 14332 14333 14334 14335 14336 14337 14338 14339 14340 14341 14342 14343 14344 14345 14346 14347 14348 14349 14350 14351 14352 14353 14354 14355 14356 14357 14358 14359 14360 14361 14362 14363 14364 14365 14366 14367 14368 14369 14370 14371 14372 14373 14374 14375 14376 14377 14378 14379 14380 14381 14382 14383 14384 14385 14386 14387 14388 14389 14390 14391 14392 14393 14394 14395 14396 14397 14398 14399 14400 14401 14402 14403 14404 14405 14406 14407 14408 14409 14410 14411 14412 14413 14414 14415 14416 14417 14418 14419 14420 14421 14422 14423 14424 14425 14426 14427 14428 14429 14430 14431 14432 14433 14434 14435 14436 14437 14438 14439 14440 14441 14442 14443 14444 14445 14446 14447 14448 14449 14450 14451 14452 14453 14454 14455 14456 14457 14458 14459 14460 14461 14462 14463 14464 14465 14466 14467 14468 14469 14470 14471 14472 14473 14474 14475 14476 14477 14478 14479 14480 14481 14482 14483 14484 14485 14486 14487 14488 14489 14490 14491 14492 14493 14494 14495 14496 14497 14498 14499 14500 14501 14502 14503 14504 14505 14506 14507 14508 14509 14510 14511 14512 14513 14514 14515 14516 14517 14518 14519 14520 14521 14522 14523 14524 14525 14526 14527 14528 14529 14530 14531 14532 14533 14534 14535 14536 14537 14538 14539 14540 14541 14542 14543 14544 14545 14546 14547 14548 14549 14550 14551 14552 14553 14554 14555 14556 14557 14558 14559 14560 14561 14562 14563 14564 14565 14566 14567 14568 14569 14570 14571 14572 14573 14574 14575 14576 14577 14578 14579 14580 14581 14582 14583 14584 14585 14586 14587 14588 14589 14590 14591 14592 14593 14594 14595 14596 14597 14598 14599 14600 14601 14602 14603 14604 14605 14606 14607 14608 14609 14610 14611 14612 14613 14614 14615 14616 14617 14618 14619 14620 14621 14622 14623 14624 14625 14626 14627 14628 14629 14630 14631 14632 14633 14634 14635 14636 14637 14638 14639 14640 14641 14642 14643 14644 14645 14646 14647 14648 14649 14650 14651 14652 14653 14654 14655 14656 14657 14658 14659 14660 14661 14662 14663 14664 14665 14666 14667 14668 14669 14670 14671 14672 14673 14674 14675 14676 14677 14678 14679 14680 14681 14682 14683 14684 14685 14686 14687 14688 14689 14690 14691 14692 14693 14694 14695 14696 14697 14698 14699 14700 14701 14702 14703 14704 14705 14706 14707 14708 14709 14710 14711 14712 14713 14714 14715 14716 14717 14718 14719 14720 14721 14722 14723 14724 14725 14726 14727 14728 14729 14730 14731 14732 14733 14734 14735 14736 14737 14738 14739 14740 14741 14742 14743 14744 14745 14746 14747 14748 14749 14750 14751 14752 14753 14754 14755 14756 14757 14758 14759 14760 14761 14762 14763 14764 14765 14766 14767 14768 14769 14770 14771 14772 14773 14774 14775 14776 14777 14778 14779 14780 14781 14782 14783 14784 14785 14786 14787 14788 14789 14790 14791 14792 14793 14794 14795 14796 14797 14798 14799 14800 14801 14802 14803 14804 14805 14806 14807 14808 14809 14810 14811 14812 14813 14814 14815 14816 14817 14818 14819 14820 14821 14822 14823 14824 14825 14826 14827 14828 14829 14830 14831 14832 14833 14834 14835 14836 14837 14838 14839 14840 14841 14842 14843 14844 14845 14846 14847 14848 14849 14850 14851 14852 14853 14854 14855 14856 14857 14858 14859 14860 14861 14862 14863 14864 14865 14866 14867 14868 14869 14870 14871 14872 14873 14874 14875 14876 14877 14878 14879 14880 14881 14882 14883 14884 14885 14886 14887 14888 14889 14890 14891 14892 14893 14894 14895 14896 14897 14898 14899 14900 14901 14902 14903 14904 14905 14906 14907 14908 14909 14910 14911 14912 14913 14914 14915 14916 14917 14918 14919 14920 14921 14922 14923 14924 14925 14926 14927 14928 14929 14930 14931 14932 14933 14934 14935 14936 14937 14938 14939 14940 14941 14942 14943 14944 14945 14946 14947 14948 14949 14950 14951 14952 14953 14954 14955 14956 14957 14958 14959 14960 14961 14962 14963 14964 14965 14966 14967 14968 14969 14970 14971 14972 14973 14974 14975 14976 14977 14978 14979 14980 14981 14982 14983 14984 14985 14986 14987 14988 14989 14990 14991 14992 14993 14994 14995 14996 14997 14998 14999 15000 15001 15002 15003 15004 15005 15006 15007 15008 15009 15010 15011 15012 15013 15014 15015 15016 15017 15018 15019 15020 15021 15022 15023 15024 15025 15026 15027 15028 15029 15030 15031 15032 15033 15034 15035 15036 15037 15038 15039 15040 15041 15042 15043 15044 15045 15046 15047 15048 15049 15050 15051 15052 15053 15054 15055 15056 15057 15058 15059 15060 15061 15062 15063 15064 15065 15066 15067 15068 15069 15070 15071 15072 15073 15074 15075 15076 15077 15078 15079 15080 15081 15082 15083 15084 15085 15086 15087 15088 15089 15090 15091 15092 15093 15094 15095 15096 15097 15098 15099 15100 15101 15102 15103 15104 15105 15106 15107 15108 15109 15110 15111 15112 15113 15114 15115 15116 15117 15118 15119 15120 15121 15122 15123 15124 15125 15126 15127 15128 15129 15130 15131 15132 15133 15134 15135 15136 15137 15138 15139 15140 15141 15142 15143 15144 15145 15146 15147 15148 15149 15150 15151 15152 15153 15154 15155 15156 15157 15158 15159 15160 15161 15162 15163 15164 15165 15166 15167 15168 15169 15170 15171 15172 15173 15174 15175 15176 15177 15178 15179 15180 15181 15182 15183 15184 15185 15186 15187 15188 15189 15190 15191 15192 15193 15194 15195 15196 15197 15198 15199 15200 15201 15202 15203 15204 15205 15206 15207 15208 15209 15210 15211 15212 15213 15214 15215 15216 15217 15218 15219 15220 15221 15222 15223 15224 15225 15226 15227 15228 15229 15230 15231 15232 15233 15234 15235 15236 15237 15238 15239 15240 15241 15242 15243 15244 15245 15246 15247 15248 15249 15250 15251 15252 15253 15254 15255 15256 15257 15258 15259 15260 15261 15262 15263 15264 15265 15266 15267 15268 15269 15270 15271 15272 15273 15274 15275 15276 15277 15278 15279 15280 15281 15282 15283 15284 15285 15286 15287 15288 15289 15290 15291 15292 15293 15294 15295 15296 15297 15298 15299 15300 15301 15302 15303 15304 15305 15306 15307 15308 15309 15310 15311 15312 15313 15314 15315 15316 15317 15318 15319 15320 15321 15322 15323 15324 15325 15326 15327 15328 15329 15330 15331 15332 15333 15334 15335 15336 15337 15338 15339 15340 15341 15342 15343 15344 15345 15346 15347 15348 15349 15350 15351 15352 15353 15354 15355 15356 15357 15358 15359 15360 15361 15362 15363 15364 15365 15366 15367 15368 15369 15370 15371 15372 15373 15374 15375 15376 15377 15378 15379 15380 15381 15382 15383 15384 15385 15386 15387 15388 15389 15390 15391 15392 15393 15394 15395 15396 15397 15398 15399 15400 15401 15402 15403 15404 15405 15406 15407 15408 15409 15410 15411 15412 15413 15414 15415 15416 15417 15418 15419 15420 15421 15422 15423 15424 15425 15426 15427 15428 15429 15430 15431 15432 15433 15434 15435 15436 15437 15438 15439 15440 15441 15442 15443 15444 15445 15446 15447 15448 15449 15450 15451 15452 15453 15454 15455 15456 15457 15458 15459 15460 15461 15462 15463 15464 15465 15466 15467 15468 15469 15470 15471 15472 15473 15474 15475 15476 15477 15478 15479 15480 15481 15482 15483 15484 15485 15486 15487 15488 15489 15490 15491 15492 15493 15494 15495 15496 15497 15498 15499 15500 15501 15502 15503 15504 15505 15506 15507 15508 15509 15510 15511 15512 15513 15514 15515 15516 15517 15518 15519 15520 15521 15522 15523 15524 15525 15526 15527 15528 15529 15530 15531 15532 15533 15534 15535 15536 15537 15538 15539 15540 15541 15542 15543 15544 15545 15546 15547 15548 15549 15550 15551 15552 15553 15554 15555 15556 15557 15558 15559 15560 15561 15562 15563 15564 15565 15566 15567 15568 15569 15570 15571 15572 15573 15574 15575 15576 15577 15578 15579 15580 15581 15582 15583 15584 15585 15586 15587 15588 15589 15590 15591 15592 15593 15594 15595 15596 15597 15598 15599 15600 15601 15602 15603 15604 15605 15606 15607 15608 15609 15610 15611 15612 15613 15614 15615 15616 15617 15618 15619 15620 15621 15622 15623 15624 15625 15626 15627 15628 15629 15630 15631 15632 15633 15634 15635 15636 15637 15638 15639 15640 15641 15642 15643 15644 15645 15646 15647 15648 15649 15650 15651 15652 15653 15654 15655 15656 15657 15658 15659 15660 15661 15662 15663 15664 15665 15666 15667 15668 15669 15670 15671 15672 15673 15674 15675 15676 15677 15678 15679 15680 15681 15682 15683 15684 15685 15686 15687 15688 15689 15690 15691 15692 15693 15694 15695 15696 15697 15698 15699 15700 15701 15702 15703 15704 15705 15706 15707 15708 15709 15710 15711 15712 15713 15714 15715 15716 15717 15718 15719 15720 15721 15722 15723 15724 15725 15726 15727 15728 15729 15730 15731 15732 15733 15734 15735 15736 15737 15738 15739 15740 15741 15742 15743 15744 15745 15746 15747 15748 15749 15750 15751 15752 15753 15754 15755 15756 15757 15758 15759 15760 15761 15762 15763 15764 15765 15766 15767 15768 15769 15770 15771 15772 15773 15774 15775 15776 15777 15778 15779 15780 15781 15782 15783 15784 15785 15786 15787 15788 15789 15790 15791 15792 15793 15794 15795 15796 15797 15798 15799 15800 15801 15802 15803 15804 15805 15806 15807 15808 15809 15810 15811 15812 15813 15814 15815 15816 15817 15818 15819 15820 15821 15822 15823 15824 15825 15826 15827 15828 15829 15830 15831 15832 15833 15834 15835 15836 15837 15838 15839 15840 15841 15842 15843 15844 15845 15846 15847 15848 15849 15850 15851 15852 15853 15854 15855 15856 15857 15858 15859 15860 15861 15862 15863 15864 15865 15866 15867 15868 15869 15870 15871 15872 15873 15874 15875 15876 15877 15878 15879 15880 15881 15882 15883 15884 15885 15886 15887 15888 15889 15890 15891 15892 15893 15894 15895 15896 15897 15898 15899 15900 15901 15902 15903 15904 15905 15906 15907 15908 15909 15910 15911 15912 15913 15914 15915 15916 15917 15918 15919 15920 15921 15922 15923 15924 15925 15926 15927 15928 15929 15930 15931 15932 15933 15934 15935 15936 15937 15938 15939 15940 15941 15942 15943 15944 15945 15946 15947 15948 15949 15950 15951 15952 15953 15954 15955 15956 15957 15958 15959 15960 15961 15962 15963 15964 15965 15966 15967 15968 15969 15970 15971 15972 15973 15974 15975 15976 15977 15978 15979 15980 15981 15982 15983 15984 15985 15986 15987 15988 15989 15990 15991 15992 15993 15994 15995 15996 15997 15998 15999 16000 16001 16002 16003 16004 16005 16006 16007 16008 16009 16010 16011 16012 16013 16014 16015 16016 16017 16018 16019 16020 16021 16022 16023 16024 16025 16026 16027 16028 16029 16030 16031 16032 16033 16034 16035 16036 16037 16038 16039 16040 16041 16042 16043 16044 16045 16046 16047 16048 16049 16050 16051 16052 16053 16054 16055 16056 16057 16058 16059 16060 16061 16062 16063 16064 16065 16066 16067 16068 16069 16070 16071 16072 16073 16074 16075 16076 16077 16078 16079 16080 16081 16082 16083 16084 16085 16086 16087 16088 16089 16090 16091 16092 16093 16094 16095 16096 16097 16098 16099 16100 16101 16102 16103 16104 16105 16106 16107 16108 16109 16110 16111 16112 16113 16114 16115 16116 16117 16118 16119 16120 16121 16122 16123 16124 16125 16126 16127 16128 16129 16130 16131 16132 16133 16134 16135 16136 16137 16138 16139 16140 16141 16142 16143 16144 16145 16146 16147 16148 16149 16150 16151 16152 16153 16154 16155 16156 16157 16158 16159 16160 16161 16162 16163 16164 16165 16166 16167 16168 16169 16170 16171 16172 16173 16174 16175 16176 16177 16178 16179 16180 16181 16182 16183 16184 16185 16186 16187 16188 16189 16190 16191 16192 16193 16194 16195 16196 16197 16198 16199 16200 16201 16202 16203 16204 16205 16206 16207 16208 16209 16210 16211 16212 16213 16214 16215 16216 16217 16218 16219 16220 16221 16222 16223 16224 16225 16226 16227 16228 16229 16230 16231 16232 16233 16234 16235 16236 16237 16238 16239 16240 16241 16242 16243 16244 16245 16246 16247 16248 16249 16250 16251 16252 16253 16254 16255 16256 16257 16258 16259 16260 16261 16262 16263 16264 16265 16266 16267 16268 16269 16270 16271 16272 16273 16274 16275 16276 16277 16278 16279 16280 16281 16282 16283 16284 16285 16286 16287 16288 16289 16290 16291 16292 16293 16294 16295 16296 16297 16298 16299 16300 16301 16302 16303 16304 16305 16306 16307 16308 16309 16310 16311 16312 16313 16314 16315 16316 16317 16318 16319 16320 16321 16322 16323 16324 16325 16326 16327 16328 16329 16330 16331 16332 16333 16334 16335 16336 16337 16338 16339 16340 16341 16342 16343 16344 16345 16346 16347 16348 16349 16350 16351 16352 16353 16354 16355 16356 16357 16358 16359 16360 16361 16362 16363 16364 16365 16366 16367 16368 16369 16370 16371 16372 16373 16374 16375 16376 16377 16378 16379 16380 16381 16382 16383 16384 16385 16386 16387 16388 16389 16390 16391 16392 16393 16394 16395 16396 16397 16398 16399 16400 16401 16402 16403 16404 16405 16406 16407 16408 16409 16410 16411 16412 16413 16414 16415 16416 16417 16418 16419 16420 16421 16422 16423 16424 16425 16426 16427 16428 16429 16430 16431 16432 16433 16434 16435 16436 16437 16438 16439 16440 16441 16442 16443 16444 16445 16446 16447 16448 16449 16450 16451 16452 16453 16454 16455 16456 16457 16458 16459 16460 16461 16462 16463 16464 16465 16466 16467 16468 16469 16470 16471 16472 16473 16474 16475 16476 16477 16478 16479 16480 16481 16482 16483 16484 16485 16486 16487 16488 16489 16490 16491 16492 16493 16494 16495 16496 16497 16498 16499 16500 16501 16502 16503 16504 16505 16506 16507 16508 16509 16510 16511 16512 16513 16514 16515 16516 16517 16518 16519 16520 16521 16522 16523 16524 16525 16526 16527 16528 16529 16530 16531 16532 16533 16534 16535 16536 16537 16538 16539 16540 16541 16542 16543 16544 16545 16546 16547 16548 16549 16550 16551 16552 16553 16554 16555 16556 16557 16558 16559 16560 16561 16562 16563 16564 16565 16566 16567 16568 16569 16570 16571 16572 16573 16574 16575 16576 16577 16578 16579 16580 16581 16582 16583 16584 16585 16586 16587 16588 16589 16590 16591 16592 16593 16594 16595 16596 16597 16598 16599 16600 16601 16602 16603 16604 16605 16606 16607 16608 16609 16610 16611 16612 16613 16614 16615 16616 16617 16618 16619 16620 16621 16622 16623 16624 16625 16626 16627 16628 16629 16630 16631 16632 16633 16634 16635 16636 16637 16638 16639 16640 16641 16642 16643 16644 16645 16646 16647 16648 16649 16650 16651 16652 16653 16654 16655 16656 16657 16658 16659 16660 16661 16662 16663 16664 16665 16666 16667 16668 16669 16670 16671 16672 16673 16674 16675 16676 16677 16678 16679 16680 16681 16682 16683 16684 16685 16686 16687 16688 16689 16690 16691 16692 16693 16694 16695 16696 16697 16698 16699 16700 16701 16702 16703 16704 16705 16706 16707 16708 16709 16710 16711 16712 16713 16714 16715 16716 16717 16718 16719 16720 16721 16722 16723 16724 16725 16726 16727 16728 16729 16730 16731 16732 16733 16734 16735 16736 16737 16738 16739 16740 16741 16742 16743 16744 16745 16746 16747 16748 16749 16750 16751 16752 16753 16754 16755 16756 16757 16758 16759 16760 16761 16762 16763 16764 16765 16766 16767 16768 16769 16770 16771 16772 16773 16774 16775 16776 16777 16778 16779 16780 16781 16782 16783 16784 16785 16786 16787 16788 16789 16790 16791 16792 16793 16794 16795 16796 16797 16798 16799 16800 16801 16802 16803 16804 16805 16806 16807 16808 16809 16810 16811 16812 16813 16814 16815 16816 16817 16818 16819 16820 16821 16822 16823 16824 16825 16826 16827 16828 16829 16830 16831 16832 16833 16834 16835 16836 16837 16838 16839 16840 16841 16842 16843 16844 16845 16846 16847 16848 16849 16850 16851 16852 16853 16854 16855 16856 16857 16858 16859 16860 16861 16862 16863 16864 16865 16866 16867 16868 16869 16870 16871 16872 16873 16874 16875 16876 16877 16878 16879 16880 16881 16882 16883 16884 16885 16886 16887 16888 16889 16890 16891 16892 16893 16894 16895 16896 16897 16898 16899 16900 16901 16902 16903 16904 16905 16906 16907 16908 16909 16910 16911 16912 16913 16914 16915 16916 16917 16918 16919 16920 16921 16922 16923 16924 16925 16926 16927 16928 16929 16930 16931 16932 16933 16934 16935 16936 16937 16938 16939 16940 16941 16942 16943 16944 16945 16946 16947 16948 16949 16950 16951 16952 16953 16954 16955 16956 16957 16958 16959 16960 16961 16962 16963 16964 16965 16966 16967 16968 16969 16970 16971 16972 16973 16974 16975 16976 16977 16978 16979 16980 16981 16982 16983 16984 16985 16986 16987 16988 16989 16990 16991 16992 16993 16994 16995 16996 16997 16998 16999 17000 17001 17002 17003 17004 17005 17006 17007 17008 17009 17010 17011 17012 17013 17014 17015 17016 17017 17018 17019 17020 17021 17022 17023 17024 17025 17026 17027 17028 17029 17030 17031 17032 17033 17034 17035 17036 17037 17038 17039 17040 17041 17042 17043 17044 17045 17046 17047 17048 17049 17050 17051 17052 17053 17054 17055 17056 17057 17058 17059 17060 17061 17062 17063 17064 17065 17066 17067 17068 17069 17070 17071 17072 17073 17074 17075 17076 17077 17078 17079 17080 17081 17082 17083 17084 17085 17086 17087 17088 17089 17090 17091 17092 17093 17094 17095 17096 17097 17098 17099 17100 17101 17102 17103 17104 17105 17106 17107 17108 17109 17110 17111 17112 17113 17114 17115 17116 17117 17118 17119 17120 17121 17122 17123 17124 17125 17126 17127 17128 17129 17130 17131 17132 17133 17134 17135 17136 17137 17138 17139 17140 17141 17142 17143 17144 17145 17146 17147 17148 17149 17150 17151 17152 17153 17154 17155 17156 17157 17158 17159 17160 17161 17162 17163 17164 17165 17166 17167 17168 17169 17170 17171 17172 17173 17174 17175 17176 17177 17178 17179 17180 17181 17182 17183 17184 17185 17186 17187 17188 17189 17190 17191 17192 17193 17194 17195 17196 17197 17198 17199 17200 17201 17202 17203 17204 17205 17206 17207 17208 17209 17210 17211 17212 17213 17214 17215 17216 17217 17218 17219 17220 17221 17222 17223 17224 17225 17226 17227 17228 17229 17230 17231 17232 17233 17234 17235 17236 17237 17238 17239 17240 17241 17242 17243 17244 17245 17246 17247 17248 17249 17250 17251 17252 17253 17254 17255 17256 17257 17258 17259 17260 17261 17262 17263 17264 17265 17266 17267 17268 17269 17270 17271 17272 17273 17274 17275 17276 17277 17278 17279 17280 17281 17282 17283 17284 17285 17286 17287 17288 17289 17290 17291 17292 17293 17294 17295 17296 17297 17298 17299 17300 17301 17302 17303 17304 17305 17306 17307 17308 17309 17310 17311 17312 17313 17314 17315 17316 17317 17318 17319 17320 17321 17322 17323 17324 17325 17326 17327 17328 17329 17330 17331 17332 17333 17334 17335 17336 17337 17338 17339 17340 17341 17342 17343 17344 17345 17346 17347 17348 17349 17350 17351 17352 17353 17354 17355 17356 17357 17358 17359 17360 17361 17362 17363 17364 17365 17366 17367 17368 17369 17370 17371 17372 17373 17374 17375 17376 17377 17378 17379 17380 17381 17382 17383 17384 17385 17386 17387 17388 17389 17390 17391 17392 17393 17394 17395 17396 17397 17398 17399 17400 17401 17402 17403 17404 17405 17406 17407 17408 17409 17410 17411 17412 17413 17414 17415 17416 17417 17418 17419 17420 17421 17422 17423 17424 17425 17426 17427 17428 17429 17430 17431 17432 17433 17434 17435 17436 17437 17438 17439 17440 17441 17442 17443 17444 17445 17446 17447 17448 17449 17450 17451 17452 17453 17454 17455 17456 17457 17458 17459 17460 17461 17462 17463 17464 17465 17466 17467 17468 17469 17470 17471 17472 17473 17474 17475 17476 17477 17478 17479 17480 17481 17482 17483 17484 17485 17486 17487 17488 17489 17490 17491 17492 17493 17494 17495 17496 17497 17498 17499 17500 17501 17502 17503 17504 17505 17506 17507 17508 17509 17510 17511 17512 17513 17514 17515 17516 17517 17518 17519 17520 17521 17522 17523 17524 17525 17526 17527 17528 17529 17530 17531 17532 17533 17534 17535 17536 17537 17538 17539 17540 17541 17542 17543 17544 17545 17546 17547 17548 17549 17550 17551 17552 17553 17554 17555 17556 17557 17558 17559 17560 17561 17562 17563 17564 17565 17566 17567 17568 17569 17570 17571 17572 17573 17574 17575 17576 17577 17578 17579 17580 17581 17582 17583 17584 17585 17586 17587 17588 17589 17590 17591 17592 17593 17594 17595 17596 17597 17598 17599 17600 17601 17602 17603 17604 17605 17606 17607 17608 17609 17610 17611 17612 17613 17614 17615 17616 17617 17618 17619 17620 17621 17622 17623 17624 17625 17626 17627 17628 17629 17630 17631 17632 17633 17634 17635 17636 17637 17638 17639 17640 17641 17642 17643 17644 17645 17646 17647 17648 17649 17650 17651 17652 17653 17654 17655 17656 17657 17658 17659 17660 17661 17662 17663 17664 17665 17666 17667 17668 17669 17670 17671 17672 17673 17674 17675 17676 17677 17678 17679 17680 17681 17682 17683 17684 17685 17686 17687 17688 17689 17690 17691 17692 17693 17694 17695 17696 17697 17698 17699 17700 17701 17702 17703 17704 17705 17706 17707 17708 17709 17710 17711 17712 17713 17714 17715 17716 17717 17718 17719 17720 17721 17722 17723 17724 17725 17726 17727 17728 17729 17730 17731 17732 17733 17734 17735 17736 17737 17738 17739 17740 17741 17742 17743 17744 17745 17746 17747 17748 17749 17750 17751 17752 17753 17754 17755 17756 17757 17758 17759 17760 17761 17762 17763 17764 17765 17766 17767 17768 17769 17770 17771 17772 17773 17774 17775 17776 17777 17778 17779 17780 17781 17782 17783 17784 17785 17786 17787 17788 17789 17790 17791 17792 17793 17794 17795 17796 17797 17798 17799 17800 17801 17802 17803 17804 17805 17806 17807 17808 17809 17810 17811 17812 17813 17814 17815 17816 17817 17818 17819 17820 17821 17822 17823 17824 17825 17826 17827 17828 17829 17830 17831 17832 17833 17834 17835 17836 17837 17838 17839 17840 17841 17842 17843 17844 17845 17846 17847 17848 17849 17850 17851 17852 17853 17854 17855 17856 17857 17858 17859 17860 17861 17862 17863 17864 17865 17866 17867 17868 17869 17870 17871 17872 17873 17874 17875 17876 17877 17878 17879 17880 17881 17882 17883 17884 17885 17886 17887 17888 17889 17890 17891 17892 17893 17894 17895 17896 17897 17898 17899 17900 17901 17902 17903 17904 17905 17906 17907 17908 17909 17910 17911 17912 17913 17914 17915 17916 17917 17918 17919 17920 17921 17922 17923 17924 17925 17926 17927 17928 17929 17930 17931 17932 17933 17934 17935 17936 17937 17938 17939 17940 17941 17942 17943 17944 17945 17946 17947 17948 17949 17950 17951 17952 17953 17954 17955 17956 17957 17958 17959 17960 17961 17962 17963 17964 17965 17966 17967 17968 17969 17970 17971 17972 17973 17974 17975 17976 17977 17978 17979 17980 17981 17982 17983 17984 17985 17986 17987 17988 17989 17990 17991 17992 17993 17994 17995 17996 17997 17998 17999 18000 18001 18002 18003 18004 18005 18006 18007 18008 18009 18010 18011 18012 18013 18014 18015 18016 18017 18018 18019 18020 18021 18022 18023 18024 18025 18026 18027 18028 18029 18030 18031 18032 18033 18034 18035 18036 18037 18038 18039 18040 18041 18042 18043 18044 18045 18046 18047 18048 18049 18050 18051 18052 18053 18054 18055 18056 18057 18058 18059 18060 18061 18062 18063 18064 18065 18066 18067 18068 18069 18070 18071 18072 18073 18074 18075 18076 18077 18078 18079 18080 18081 18082 18083 18084 18085 18086 18087 18088 18089 18090 18091 18092 18093 18094 18095 18096 18097 18098 18099 18100 18101 18102 18103 18104 18105 18106 18107 18108 18109 18110 18111 18112 18113 18114 18115 18116 18117 18118 18119 18120 18121 18122 18123 18124 18125 18126 18127 18128 18129 18130 18131 18132 18133 18134 18135 18136 18137 18138 18139 18140 18141 18142 18143 18144 18145 18146 18147 18148 18149 18150 18151 18152 18153 18154 18155 18156 18157 18158 18159 18160 18161 18162 18163 18164 18165 18166 18167 18168 18169 18170 18171 18172 18173 18174 18175 18176 18177 18178 18179 18180 18181 18182 18183 18184 18185 18186 18187 18188 18189 18190 18191 18192 18193 18194 18195 18196 18197 18198 18199 18200 18201 18202 18203 18204 18205 18206 18207 18208 18209 18210 18211 18212 18213 18214 18215 18216 18217 18218 18219 18220 18221 18222 18223 18224 18225 18226 18227 18228 18229 18230 18231 18232 18233 18234 18235 18236 18237 18238 18239 18240 18241 18242 18243 18244 18245 18246 18247 18248 18249 18250 18251 18252 18253 18254 18255 18256 18257 18258 18259 18260 18261 18262 18263 18264 18265 18266 18267 18268 18269 18270 18271 18272 18273 18274 18275 18276 18277 18278 18279 18280 18281 18282 18283 18284 18285 18286 18287 18288 18289 18290 18291 18292 18293 18294 18295 18296 18297 18298 18299 18300 18301 18302 18303 18304 18305 18306 18307 18308 18309 18310 18311 18312 18313 18314 18315 18316 18317 18318 18319 18320 18321 18322 18323 18324 18325 18326 18327 18328 18329 18330 18331 18332 18333 18334 18335 18336 18337 18338 18339 18340 18341 18342 18343 18344 18345 18346 18347 18348 18349 18350 18351 18352 18353 18354 18355 18356 18357 18358 18359 18360 18361 18362 18363 18364 18365 18366 18367 18368 18369 18370 18371 18372 18373 18374 18375 18376 18377 18378 18379 18380 18381 18382 18383 18384 18385 18386 18387 18388 18389 18390 18391 18392 18393 18394 18395 18396 18397 18398 18399 18400 18401 18402 18403 18404 18405 18406 18407 18408 18409 18410 18411 18412 18413 18414 18415 18416 18417 18418 18419 18420 18421 18422 18423 18424 18425 18426 18427 18428 18429 18430 18431 18432 18433 18434 18435 18436 18437 18438 18439 18440 18441 18442 18443 18444 18445 18446 18447 18448 18449 18450 18451 18452 18453 18454 18455 18456 18457 18458 18459 18460 18461 18462 18463 18464 18465 18466 18467 18468 18469 18470 18471 18472 18473 18474 18475 18476 18477 18478 18479 18480 18481 18482 18483 18484 18485 18486 18487 18488 18489 18490 18491 18492 18493 18494 18495 18496 18497 18498 18499 18500 18501 18502 18503 18504 18505 18506 18507 18508 18509 18510 18511 18512 18513 18514 18515 18516 18517 18518 18519 18520 18521 18522 18523 18524 18525 18526 18527 18528 18529 18530 18531 18532 18533 18534 18535 18536 18537 18538 18539 18540 18541 18542 18543 18544 18545 18546 18547 18548 18549 18550 18551 18552 18553 18554 18555 18556 18557 18558 18559 18560 18561 18562 18563 18564 18565 18566 18567 18568 18569 18570 18571 18572 18573 18574 18575 18576 18577 18578 18579 18580 18581 18582 18583 18584 18585 18586 18587 18588 18589 18590 18591 18592 18593 18594 18595 18596 18597 18598 18599 18600 18601 18602 18603 18604 18605 18606 18607 18608 18609 18610 18611 18612 18613 18614 18615 18616 18617 18618 18619 18620 18621 18622 18623 18624 18625 18626 18627 18628 18629 18630 18631 18632 18633 18634 18635 18636 18637 18638 18639 18640 18641 18642 18643 18644 18645 18646 18647 18648 18649 18650 18651 18652 18653 18654 18655 18656 18657 18658 18659 18660 18661 18662 18663 18664 18665 18666 18667 18668 18669 18670 18671 18672 18673 18674 18675 18676 18677 18678 18679 18680 18681 18682 18683 18684 18685 18686 18687 18688 18689 18690 18691 18692 18693 18694 18695 18696 18697 18698 18699 18700 18701 18702 18703 18704 18705 18706 18707 18708 18709 18710 18711 18712 18713 18714 18715 18716 18717 18718 18719 18720 18721 18722 18723 18724 18725 18726 18727 18728 18729 18730 18731 18732 18733 18734 18735 18736 18737 18738 18739 18740 18741 18742 18743 18744 18745 18746 18747 18748 18749 18750 18751 18752 18753 18754 18755 18756 18757 18758 18759 18760 18761 18762 18763 18764 18765 18766 18767 18768 18769 18770 18771 18772 18773 18774 18775 18776 18777 18778 18779 18780 18781 18782 18783 18784 18785 18786 18787 18788 18789 18790 18791 18792 18793 18794 18795 18796 18797 18798 18799 18800 18801 18802 18803 18804 18805 18806 18807 18808 18809 18810 18811 18812 18813 18814 18815 18816 18817 18818 18819 18820 18821 18822 18823 18824 18825 18826 18827 18828 18829 18830 18831 18832 18833 18834 18835 18836 18837 18838 18839 18840 18841 18842 18843 18844 18845 18846 18847 18848 18849 18850 18851 18852 18853 18854 18855 18856 18857 18858 18859 18860 18861 18862 18863 18864 18865 18866 18867 18868 18869 18870 18871 18872 18873 18874 18875 18876 18877 18878 18879 18880 18881 18882 18883 18884 18885 18886 18887 18888 18889 18890 18891 18892 18893 18894 18895 18896 18897 18898 18899 18900 18901 18902 18903 18904 18905 18906 18907 18908 18909 18910 18911 18912 18913 18914 18915 18916 18917 18918 18919 18920 18921 18922 18923 18924 18925 18926 18927 18928 18929 18930 18931 18932 18933 18934 18935 18936 18937 18938 18939 18940 18941 18942 18943 18944 18945 18946 18947 18948 18949 18950 18951 18952 18953 18954 18955 18956 18957 18958 18959 18960 18961 18962 18963 18964 18965 18966 18967 18968 18969 18970 18971 18972 18973 18974 18975 18976 18977 18978 18979 18980 18981 18982 18983 18984 18985 18986 18987 18988 18989 18990 18991 18992 18993 18994 18995 18996 18997 18998 18999 19000 19001 19002 19003 19004 19005 19006 19007 19008 19009 19010 19011 19012 19013 19014 19015 19016 19017 19018 19019 19020 19021 19022 19023 19024 19025 19026 19027 19028 19029 19030 19031 19032 19033 19034 19035 19036 19037 19038 19039 19040 19041 19042 19043 19044 19045 19046 19047 19048 19049 19050 19051 19052 19053 19054 19055 19056 19057 19058 19059 19060 19061 19062 19063 19064 19065 19066 19067 19068 19069 19070 19071 19072 19073 19074 19075 19076 19077 19078 19079 19080 19081 19082 19083 19084 19085 19086 19087 19088 19089 19090 19091 19092 19093 19094 19095 19096 19097 19098 19099 19100 19101 19102 19103 19104 19105 19106 19107 19108 19109 19110 19111 19112 19113 19114 19115 19116 19117 19118 19119 19120 19121 19122 19123 19124 19125 19126 19127 19128 19129 19130 19131 19132 19133 19134 19135 19136 19137 19138 19139 19140 19141 19142 19143 19144 19145 19146 19147 19148 19149 19150 19151 19152 19153 19154 19155 19156 19157 19158 19159 19160 19161 19162 19163 19164 19165 19166 19167 19168 19169 19170 19171 19172 19173 19174 19175 19176 19177 19178 19179 19180 19181 19182 19183 19184 19185 19186 19187 19188 19189 19190 19191 19192 19193 19194 19195 19196 19197 19198 19199 19200 19201 19202 19203 19204 19205 19206 19207 19208 19209 19210 19211 19212 19213 19214 19215 19216 19217 19218 19219 19220 19221 19222 19223 19224 19225 19226 19227 19228 19229 19230 19231 19232 19233 19234 19235 19236 19237 19238 19239 19240 19241 19242 19243 19244 19245 19246 19247 19248 19249 19250 19251 19252 19253 19254 19255 19256 19257 19258 19259 19260 19261 19262 19263 19264 19265 19266 19267 19268 19269 19270 19271 19272 19273 19274 19275 19276 19277 19278 19279 19280 19281 19282 19283 19284 19285 19286 19287 19288 19289 19290 19291 19292 19293 19294 19295 19296 19297 19298 19299 19300 19301 19302 19303 19304 19305 19306 19307 19308 19309 19310 19311 19312 19313 19314 19315 19316 19317 19318 19319 19320 19321 19322 19323 19324 19325 19326 19327 19328 19329 19330 19331 19332 19333 19334 19335 19336 19337 19338 19339 19340 19341 19342 19343 19344 19345 19346 19347 19348 19349 19350 19351 19352 19353 19354 19355 19356 19357 19358 19359 19360 19361 19362 19363 19364 19365 19366 19367 19368 19369 19370 19371 19372 19373 19374 19375 19376 19377 19378 19379 19380 19381 19382 19383 19384 19385 19386 19387 19388 19389 19390 19391 19392 19393 19394 19395 19396 19397 19398 19399 19400 19401 19402 19403 19404 19405 19406 19407 19408 19409 19410 19411 19412 19413 19414 19415 19416 19417 19418 19419 19420 19421 19422 19423 19424 19425 19426 19427 19428 19429 19430 19431 19432 19433 19434 19435 19436 19437 19438 19439 19440 19441 19442 19443 19444 19445 19446 19447 19448 19449 19450 19451 19452 19453 19454 19455 19456 19457 19458 19459 19460 19461 19462 19463 19464 19465 19466 19467 19468 19469 19470 19471 19472 19473 19474 19475 19476 19477 19478 19479 19480 19481 19482 19483 19484 19485 19486 19487 19488 19489 19490 19491 19492 19493 19494 19495 19496 19497 19498 19499 19500 19501 19502 19503 19504 19505 19506 19507 19508 19509 19510 19511 19512 19513 19514 19515 19516 19517 19518 19519 19520 19521 19522 19523 19524 19525 19526 19527 19528 19529 19530 19531 19532 19533 19534 19535 19536 19537 19538 19539 19540 19541 19542 19543 19544 19545 19546 19547 19548 19549 19550 19551 19552 19553 19554 19555 19556 19557 19558 19559 19560 19561 19562 19563 19564 19565 19566 19567 19568 19569 19570 19571 19572 19573 19574 19575 19576 19577 19578 19579 19580 19581 19582 19583 19584 19585 19586 19587 19588 19589 19590 19591 19592 19593 19594 19595 19596 19597 19598 19599 19600 19601 19602 19603 19604 19605 19606 19607 19608 19609 19610 19611 19612 19613 19614 19615 19616 19617 19618 19619 19620 19621 19622 19623 19624 19625 19626 19627 19628 19629 19630 19631 19632 19633 19634 19635 19636 19637 19638 19639 19640 19641 19642 19643 19644 19645 19646 19647 19648 19649 19650 19651 19652 19653 19654 19655 19656 19657 19658 19659 19660 19661 19662 19663 19664 19665 19666 19667 19668 19669 19670 19671 19672 19673 19674 19675 19676 19677 19678 19679 19680 19681 19682 19683 19684 19685 19686 19687 19688 19689 19690 19691 19692 19693 19694 19695 19696 19697 19698 19699 19700 19701 19702 19703 19704 19705 19706 19707 19708 19709 19710 19711 19712 19713 19714 19715 19716 19717 19718 19719 19720 19721 19722 19723 19724 19725 19726 19727 19728 19729 19730 19731 19732 19733 19734 19735 19736 19737 19738 19739 19740 19741 19742 19743 19744 19745 19746 19747 19748 19749 19750 19751 19752 19753 19754 19755 19756 19757 19758 19759 19760 19761 19762 19763 19764 19765 19766 19767 19768 19769 19770 19771 19772 19773 19774 19775 19776 19777 19778 19779 19780 19781 19782 19783 19784 19785 19786 19787 19788 19789 19790 19791 19792 19793 19794 19795 19796 19797 19798 19799 19800 19801 19802 19803 19804 19805 19806 19807 19808 19809 19810 19811 19812 19813 19814 19815 19816 19817 19818 19819 19820 19821 19822 19823 19824 19825 19826 19827 19828 19829 19830 19831 19832 19833 19834 19835 19836 19837 19838 19839 19840 19841 19842 19843 19844 19845 19846 19847 19848 19849 19850 19851 19852 19853 19854 19855 19856 19857 19858 19859 19860 19861 19862 19863 19864 19865 19866 19867 19868 19869 19870 19871 19872 19873 19874 19875 19876 19877 19878 19879 19880 19881 19882 19883 19884 19885 19886 19887 19888 19889 19890 19891 19892 19893 19894 19895 19896 19897 19898 19899 19900 19901 19902 19903 19904 19905 19906 19907 19908 19909 19910 19911 19912 19913 19914 19915 19916 19917 19918 19919 19920 19921 19922 19923 19924 19925 19926 19927 19928 19929 19930 19931 19932 19933 19934 19935 19936 19937 19938 19939 19940 19941 19942 19943 19944 19945 19946 19947 19948 19949 19950 19951 19952 19953 19954 19955 19956 19957 19958 19959 19960 19961 19962 19963 19964 19965 19966 19967 19968 19969 19970 19971 19972 19973 19974 19975 19976 19977 19978 19979 19980 19981 19982 19983 19984 19985 19986 19987 19988 19989 19990 19991 19992 19993 19994 19995 19996 19997 19998 19999 20000 20001 20002 20003 20004 20005 20006 20007 20008 20009 20010 20011 20012 20013 20014 20015 20016 20017 20018 20019 20020 20021 20022 20023 20024 20025 20026 20027 20028 20029 20030 20031 20032 20033 20034 20035 20036 20037 20038 20039 20040 20041 20042 20043 20044 20045 20046 20047 20048 20049 20050 20051 20052 20053 20054 20055 20056 20057 20058 20059 20060 20061 20062 20063 20064 20065 20066 20067 20068 20069 20070 20071 20072 20073 20074 20075 20076 20077 20078 20079 20080 20081 20082 20083 20084 20085 20086 20087 20088 20089 20090 20091 20092 20093 20094 20095 20096 20097 20098 20099 20100 20101 20102 20103 20104 20105 20106 20107 20108 20109 20110 20111 20112 20113 20114 20115 20116 20117 20118 20119 20120 20121 20122 20123 20124 20125 20126 20127 20128 20129 20130 20131 20132 20133 20134 20135 20136 20137 20138 20139 20140 20141 20142 20143 20144 20145 20146 20147 20148 20149 20150 20151 20152 20153 20154 20155 20156 20157 20158 20159 20160 20161 20162 20163 20164 20165 20166 20167 20168 20169 20170 20171 20172 20173 20174 20175 20176 20177 20178 20179 20180 20181 20182 20183 20184 20185 20186 20187 20188 20189 20190 20191 20192 20193 20194 20195 20196 20197 20198 20199 20200 20201 20202 20203 20204 20205 20206 20207 20208 20209 20210 20211 20212 20213 20214 20215 20216 20217 20218 20219 20220 20221 20222 20223 20224 20225 20226 20227 20228 20229 20230 20231 20232 20233 20234 20235 20236 20237 20238 20239 20240 20241 20242 20243 20244 20245 20246 20247 20248 20249 20250 20251 20252 20253 20254 20255 20256 20257 20258 20259 20260 20261 20262 20263 20264 20265 20266 20267 20268 20269 20270 20271 20272 20273 20274 20275 20276 20277 20278 20279 20280 20281 20282 20283 20284 20285 20286 20287 20288 20289 20290 20291 20292 20293 20294 20295 20296 20297 20298 20299 20300 20301 20302 20303 20304 20305 20306 20307 20308 20309 20310 20311 20312 20313 20314 20315 20316 20317 20318 20319 20320 20321 20322 20323 20324 20325 20326 20327 20328 20329 20330 20331 20332 20333 20334 20335 20336 20337 20338 20339 20340 20341 20342 20343 20344 20345 20346 20347 20348 20349 20350 20351 20352 20353 20354 20355 20356 20357 20358 20359 20360 20361 20362 20363 20364 20365 20366 20367 20368 20369 20370 20371 20372 20373 20374 20375 20376 20377 20378 20379 20380 20381 20382 20383 20384 20385 20386 20387 20388 20389 20390 20391 20392 20393 20394 20395 20396 20397 20398 20399 20400 20401 20402 20403 20404 20405 20406 20407 20408 20409 20410 20411 20412 20413 20414 20415 20416 20417 20418 20419 20420 20421 20422 20423 20424 20425 20426 20427 20428 20429 20430 20431 20432 20433 20434 20435 20436 20437 20438 20439 20440 20441 20442 20443 20444 20445 20446 20447 20448 20449 20450 20451 20452 20453 20454 20455 20456 20457 20458 20459 20460 20461 20462 20463 20464 20465 20466 20467 20468 20469 20470 20471 20472 20473 20474 20475 20476 20477 20478 20479 20480 20481 20482 20483 20484 20485 20486 20487 20488 20489 20490 20491 20492 20493 20494 20495 20496 20497 20498 20499 20500 20501 20502 20503 20504 20505 20506 20507 20508 20509 20510 20511 20512 20513 20514 20515 20516 20517 20518 20519 20520 20521 20522 20523 20524 20525 20526 20527 20528 20529 20530 20531 20532 20533 20534 20535 20536 20537 20538 20539 20540 20541 20542 20543 20544 20545 20546 20547 20548 20549 20550 20551 20552 20553 20554 20555 20556 20557 20558 20559 20560 20561 20562 20563 20564 20565 20566 20567 20568 20569 20570 20571 20572 20573 20574 20575 20576 20577 20578 20579 20580 20581 20582 20583 20584 20585 20586 20587 20588 20589 20590 20591 20592 20593 20594 20595 20596 20597 20598 20599 20600 20601 20602 20603 20604 20605 20606 20607 20608 20609 20610 20611 20612 20613 20614 20615 20616 20617 20618 20619 20620 20621 20622 20623 20624 20625 20626 20627 20628 20629 20630 20631 20632 20633 20634 20635 20636 20637 20638 20639 20640 20641 20642 20643 20644 20645 20646 20647 20648 20649 20650 20651 20652 20653 20654 20655 20656 20657 20658 20659 20660 20661 20662 20663 20664 20665 20666 20667 20668 20669 20670 20671 20672 20673 20674 20675 20676 20677 20678 20679 20680 20681 20682 20683 20684 20685 20686 20687 20688 20689 20690 20691 20692 20693 20694 20695 20696 20697 20698 20699 20700 20701 20702 20703 20704 20705 20706 20707 20708 20709 20710 20711 20712 20713 20714 20715 20716 20717 20718 20719 20720 20721 20722 20723 20724 20725 20726 20727 20728 20729 20730 20731 20732 20733 20734 20735 20736 20737 20738 20739 20740 20741 20742 20743 20744 20745 20746 20747 20748 20749 20750 20751 20752 20753 20754 20755 20756 20757 20758 20759 20760 20761 20762 20763 20764 20765 20766 20767 20768 20769 20770 20771 20772 20773 20774 20775 20776 20777 20778 20779 20780 20781 20782 20783 20784 20785 20786 20787 20788 20789 20790 20791 20792 20793 20794 20795 20796 20797 20798 20799 20800 20801 20802 20803 20804 20805 20806 20807 20808 20809 20810 20811 20812 20813 20814 20815 20816 20817 20818 20819 20820 20821 20822 20823 20824 20825 20826 20827 20828 20829 20830 20831 20832 20833 20834 20835 20836 20837 20838 20839 20840 20841 20842 20843 20844 20845 20846 20847 20848 20849 20850 20851 20852 20853 20854 20855 20856 20857 20858 20859 20860 20861 20862 20863 20864 20865 20866 20867 20868 20869 20870 20871 20872 20873 20874 20875 20876 20877 20878 20879 20880 20881 20882 20883 20884 20885 20886 20887 20888 20889 20890 20891 20892 20893 20894 20895 20896 20897 20898 20899 20900 20901 20902 20903 20904 20905 20906 20907 20908 20909 20910 20911 20912 20913 20914 20915 20916 20917 20918 20919 20920 20921 20922 20923 20924 20925 20926 20927 20928 20929 20930 20931 20932 20933 20934 20935 20936 20937 20938 20939 20940 20941 20942 20943 20944 20945 20946 20947 20948 20949 20950 20951 20952 20953 20954 20955 20956 20957 20958 20959 20960 20961 20962 20963 20964 20965 20966 20967 20968 20969 20970 20971 20972 20973 20974 20975 20976 20977 20978 20979 20980 20981 20982 20983 20984 20985 20986 20987 20988 20989 20990 20991 20992 20993 20994 20995 20996 20997 20998 20999 21000 21001 21002 21003 21004 21005 21006 21007 21008 21009 21010 21011 21012 21013 21014 21015 21016 21017 21018 21019 21020 21021 21022 21023 21024 21025 21026 21027 21028 21029 21030 21031 21032 21033 21034 21035 21036 21037 21038 21039 21040 21041 21042 21043 21044 21045 21046 21047 21048 21049 21050 21051 21052 21053 21054 21055 21056 21057 21058 21059 21060 21061 21062 21063 21064 21065 21066 21067 21068 21069 21070 21071 21072 21073 21074 21075 21076 21077 21078 21079 21080 21081 21082 21083 21084 21085 21086 21087 21088 21089 21090 21091 21092 21093 21094 21095 21096 21097 21098 21099 21100 21101 21102 21103 21104 21105 21106 21107 21108 21109 21110 21111 21112 21113 21114 21115 21116 21117 21118 21119 21120 21121 21122 21123 21124 21125 21126 21127 21128 21129 21130 21131 21132 21133 21134 21135 21136 21137 21138 21139 21140 21141 21142 21143 21144 21145 21146 21147 21148 21149 21150 21151 21152 21153 21154 21155 21156 21157 21158 21159 21160 21161 21162 21163 21164 21165 21166 21167 21168 21169 21170 21171 21172 21173 21174 21175 21176 21177 21178 21179 21180 21181 21182 21183 21184 21185 21186 21187 21188 21189 21190 21191 21192 21193 21194 21195 21196 21197 21198 21199 21200 21201 21202 21203 21204 21205 21206 21207 21208 21209 21210 21211 21212 21213 21214 21215 21216 21217 21218 21219 21220 21221 21222 21223 21224 21225 21226 21227 21228 21229 21230 21231 21232 21233 21234 21235 21236 21237 21238 21239 21240 21241 21242 21243 21244 21245 21246 21247 21248 21249 21250 21251 21252 21253 21254 21255 21256 21257 21258 21259 21260 21261 21262 21263 21264 21265 21266 21267 21268 21269 21270 21271 21272 21273 21274 21275 21276 21277 21278 21279 21280 21281 21282 21283 21284 21285 21286 21287 21288 21289 21290 21291 21292 21293 21294 21295 21296 21297 21298 21299 21300 21301 21302 21303 21304 21305 21306 21307 21308 21309 21310 21311 21312 21313 21314 21315 21316 21317 21318 21319 21320 21321 21322 21323 21324 21325 21326 21327 21328 21329 21330 21331 21332 21333 21334 21335 21336 21337 21338 21339 21340 21341 21342 21343 21344 21345 21346 21347 21348 21349 21350 21351 21352 21353 21354 21355 21356 21357 21358 21359 21360 21361 21362 21363 21364 21365 21366 21367 21368 21369 21370 21371 21372 21373 21374 21375 21376 21377 21378 21379 21380 21381 21382 21383 21384 21385 21386 21387 21388 21389 21390 21391 21392 21393 21394 21395 21396 21397 21398 21399 21400 21401 21402 21403 21404 21405 21406 21407 21408 21409 21410 21411 21412 21413 21414 21415 21416 21417 21418 21419 21420 21421 21422 21423 21424 21425 21426 21427 21428 21429 21430 21431 21432 21433 21434 21435 21436 21437 21438 21439 21440 21441 21442 21443 21444 21445 21446 21447 21448 21449 21450 21451 21452 21453 21454 21455 21456 21457 21458 21459 21460 21461 21462 21463 21464 21465 21466 21467 21468 21469 21470 21471 21472 21473 21474 21475 21476 21477 21478 21479 21480 21481 21482 21483 21484 21485 21486 21487 21488 21489 21490 21491 21492 21493 21494 21495 21496 21497 21498 21499 21500 21501 21502 21503 21504 21505 21506 21507 21508 21509 21510 21511 21512 21513 21514 21515 21516 21517 21518 21519 21520 21521 21522 21523 21524 21525 21526 21527 21528 21529 21530 21531 21532 21533 21534 21535 21536 21537 21538 21539 21540 21541 21542 21543 21544 21545 21546 21547 21548 21549 21550 21551 21552 21553 21554 21555 21556 21557 21558 21559 21560 21561 21562 21563 21564 21565 21566 21567 21568 21569 21570 21571 21572 21573 21574 21575 21576 21577 21578 21579 21580 21581 21582 21583 21584 21585 21586 21587 21588 21589 21590 21591 21592 21593 21594 21595 21596 21597 21598 21599 21600 21601 21602 21603 21604 21605 21606 21607 21608 21609 21610 21611 21612 21613 21614 21615 21616 21617 21618 21619 21620 21621 21622 21623 21624 21625 21626 21627 21628 21629 21630 21631 21632 21633 21634 21635 21636 21637 21638 21639 21640 21641 21642 21643 21644 21645 21646 21647 21648 21649 21650 21651 21652 21653 21654 21655 21656 21657 21658 21659 21660 21661 21662 21663 21664 21665 21666 21667 21668 21669 21670 21671 21672 21673 21674 21675 21676 21677 21678 21679 21680 21681 21682 21683 21684 21685 21686 21687 21688 21689 21690 21691 21692 21693 21694 21695 21696 21697 21698 21699 21700 21701 21702 21703 21704 21705 21706 21707 21708 21709 21710 21711 21712 21713 21714 21715 21716 21717 21718 21719 21720 21721 21722 21723 21724 21725 21726 21727 21728 21729 21730 21731 21732 21733 21734 21735 21736 21737 21738 21739 21740 21741 21742 21743 21744 21745 21746 21747 21748 21749 21750 21751 21752 21753 21754 21755 21756 21757 21758 21759 21760 21761 21762 21763 21764 21765 21766 21767 21768 21769 21770 21771 21772 21773 21774 21775 21776 21777 21778 21779 21780 21781 21782 21783 21784 21785 21786 21787 21788 21789 21790 21791 21792 21793 21794 21795 21796 21797 21798 21799 21800 21801 21802 21803 21804 21805 21806 21807 21808 21809 21810 21811 21812 21813 21814 21815 21816 21817 21818 21819 21820 21821 21822 21823 21824 21825 21826 21827 21828 21829 21830 21831 21832 21833 21834 21835 21836 21837 21838 21839 21840 21841 21842 21843 21844 21845 21846 21847 21848 21849 21850 21851 21852 21853 21854 21855 21856 21857 21858 21859 21860 21861 21862 21863 21864 21865 21866 21867 21868 21869 21870 21871 21872 21873 21874 21875 21876 21877 21878 21879 21880 21881 21882 21883 21884 21885 21886 21887 21888 21889 21890 21891 21892 21893 21894 21895 21896 21897 21898 21899 21900 21901 21902 21903 21904 21905 21906 21907 21908 21909 21910 21911 21912 21913 21914 21915 21916 21917 21918 21919 21920 21921 21922 21923 21924 21925 21926 21927 21928 21929 21930 21931 21932 21933 21934 21935 21936 21937 21938 21939 21940 21941 21942 21943 21944 21945 21946 21947 21948 21949 21950 21951 21952 21953 21954 21955 21956 21957 21958 21959 21960 21961 21962 21963 21964 21965 21966 21967 21968 21969 21970 21971 21972 21973 21974 21975 21976 21977 21978 21979 21980 21981 21982 21983 21984 21985 21986 21987 21988 21989 21990 21991 21992 21993 21994 21995 21996 21997 21998 21999 22000 22001 22002 22003 22004 22005 22006 22007 22008 22009 22010 22011 22012 22013 22014 22015 22016 22017 22018 22019 22020 22021 22022 22023 22024 22025 22026 22027 22028 22029 22030 22031 22032 22033 22034 22035 22036 22037 22038 22039 22040 22041 22042 22043 22044 22045 22046 22047 22048 22049 22050 22051 22052 22053 22054 22055 22056 22057 22058 22059 22060 22061 22062 22063 22064 22065 22066 22067 22068 22069 22070 22071 22072 22073 22074 22075 22076 22077 22078 22079 22080 22081 22082 22083 22084 22085 22086 22087 22088 22089 22090 22091 22092 22093 22094 22095 22096 22097 22098 22099 22100 22101 22102 22103 22104 22105 22106 22107 22108 22109 22110 22111 22112 22113 22114 22115 22116 22117 22118 22119 22120 22121 22122 22123 22124 22125 22126 22127 22128 22129 22130 22131 22132 22133 22134 22135 22136 22137 22138 22139 22140 22141 22142 22143 22144 22145 22146 22147 22148 22149 22150 22151 22152 22153 22154 22155 22156 22157 22158 22159 22160 22161 22162 22163 22164 22165 22166 22167 22168 22169 22170 22171 22172 22173 22174 22175 22176 22177 22178 22179 22180 22181 22182 22183 22184 22185 22186 22187 22188 22189 22190 22191 22192 22193 22194 22195 22196 22197 22198 22199 22200 22201 22202 22203 22204 22205 22206 22207 22208 22209 22210 22211 22212 22213 22214 22215 22216 22217 22218 22219 22220 22221 22222 22223 22224 22225 22226 22227 22228 22229 22230 22231 22232 22233 22234 22235 22236 22237 22238 22239 22240 22241 22242 22243 22244 22245 22246 22247 22248 22249 22250 22251 22252 22253 22254 22255 22256 22257 22258 22259 22260 22261 22262 22263 22264 22265 22266 22267 22268 22269 22270 22271 22272 22273 22274 22275 22276 22277 22278 22279 22280 22281 22282 22283 22284 22285 22286 22287 22288 22289 22290 22291 22292 22293 22294 22295 22296 22297 22298 22299 22300 22301 22302 22303 22304 22305 22306 22307 22308 22309 22310 22311 22312 22313 22314 22315 22316 22317 22318 22319 22320 22321 22322 22323 22324 22325 22326 22327 22328 22329 22330 22331 22332 22333 22334 22335 22336 22337 22338 22339 22340 22341 22342 22343 22344 22345 22346 22347 22348 22349 22350 22351 22352 22353 22354 22355 22356 22357 22358 22359 22360 22361 22362 22363 22364 22365 22366 22367 22368 22369 22370 22371 22372 22373 22374 22375 22376 22377 22378 22379 22380 22381 22382 22383 22384 22385 22386 22387 22388 22389 22390 22391 22392 22393 22394 22395 22396 22397 22398 22399 22400 22401 22402 22403 22404 22405 22406 22407 22408 22409 22410 22411 22412 22413 22414 22415 22416 22417 22418 22419 22420 22421 22422 22423 22424 22425 22426 22427 22428 22429 22430 22431 22432 22433 22434 22435 22436 22437 22438 22439 22440 22441 22442 22443 22444 22445 22446 22447 22448 22449 22450 22451 22452 22453 22454 22455 22456 22457 22458 22459 22460 22461 22462 22463 22464 22465 22466 22467 22468 22469 22470 22471 22472 22473 22474 22475 22476 22477 22478 22479 22480 22481 22482 22483 22484 22485 22486 22487 22488 22489 22490 22491 22492 22493 22494 22495 22496 22497 22498 22499 22500 22501 22502 22503 22504 22505 22506 22507 22508 22509 22510 22511 22512 22513 22514 22515 22516 22517 22518 22519 22520 22521 22522 22523 22524 22525 22526 22527 22528 22529 22530 22531 22532 22533 22534 22535 22536 22537 22538 22539 22540 22541 22542 22543 22544 22545 22546 22547 22548 22549 22550 22551 22552 22553 22554 22555 22556 22557 22558 22559 22560 22561 22562 22563 22564 22565 22566 22567 22568 22569 22570 22571 22572 22573 22574 22575 22576 22577 22578 22579 22580 22581 22582 22583 22584 22585 22586 22587 22588 22589 22590 22591 22592 22593 22594 22595 22596 22597 22598 22599 22600 22601 22602 22603 22604 22605 22606 22607 22608 22609 22610 22611 22612 22613 22614 22615 22616 22617 22618 22619 22620 22621 22622 22623 22624 22625 22626 22627 22628 22629 22630 22631 22632 22633 22634 22635 22636 22637 22638 22639 22640 22641 22642 22643 22644 22645 22646 22647 22648 22649 22650 22651 22652 22653 22654 22655 22656 22657 22658 22659 22660 22661 22662 22663 22664 22665 22666 22667 22668 22669 22670 22671 22672 22673 22674 22675 22676 22677 22678 22679 22680 22681 22682 22683 22684 22685 22686 22687 22688 22689 22690 22691 22692 22693 22694 22695 22696 22697 22698 22699 22700 22701 22702 22703 22704 22705 22706 22707 22708 22709 22710 22711 22712 22713 22714 22715 22716 22717 22718 22719 22720 22721 22722 22723 22724 22725 22726 22727 22728 22729 22730 22731 22732 22733 22734 22735 22736 22737 22738 22739 22740 22741 22742 22743 22744 22745 22746 22747 22748 22749 22750 22751 22752 22753 22754 22755 22756 22757 22758 22759 22760 22761 22762 22763 22764 22765 22766 22767 22768 22769 22770 22771 22772 22773 22774 22775 22776 22777 22778 22779 22780 22781 22782 22783 22784 22785 22786 22787 22788 22789 22790 22791 22792 22793 22794 22795 22796 22797 22798 22799 22800 22801 22802 22803 22804 22805 22806 22807 22808 22809 22810 22811 22812 22813 22814 22815 22816 22817 22818 22819 22820 22821 22822 22823 22824 22825 22826 22827 22828 22829 22830 22831 22832 22833 22834 22835 22836 22837 22838 22839 22840 22841 22842 22843 22844 22845 22846 22847 22848 22849 22850 22851 22852 22853 22854 22855 22856 22857 22858 22859 22860 22861 22862 22863 22864 22865 22866 22867 22868 22869 22870 22871 22872 22873 22874 22875 22876 22877 22878 22879 22880 22881 22882 22883 22884 22885 22886 22887 22888 22889 22890 22891 22892 22893 22894 22895 22896 22897 22898 22899 22900 22901 22902 22903 22904 22905 22906 22907 22908 22909 22910 22911 22912 22913 22914 22915 22916 22917 22918 22919 22920 22921 22922 22923 22924 22925 22926 22927 22928 22929 22930 22931 22932 22933 22934 22935 22936 22937 22938 22939 22940 22941 22942 22943 22944 22945 22946 22947 22948 22949 22950 22951 22952 22953 22954 22955 22956 22957 22958 22959 22960 22961 22962 22963 22964 22965 22966 22967 22968 22969 22970 22971 22972 22973 22974 22975 22976 22977 22978 22979 22980 22981 22982 22983 22984 22985 22986 22987 22988 22989 22990 22991 22992 22993 22994 22995 22996 22997 22998 22999 23000 23001 23002 23003 23004 23005 23006 23007 23008 23009 23010 23011 23012 23013 23014 23015 23016 23017 23018 23019 23020 23021 23022 23023 23024 23025 23026 23027 23028 23029 23030 23031 23032 23033 23034 23035 23036 23037 23038 23039 23040 23041 23042 23043 23044 23045 23046 23047 23048 23049 23050 23051 23052 23053 23054 23055 23056 23057 23058 23059 23060 23061 23062 23063 23064 23065 23066 23067 23068 23069 23070 23071 23072 23073 23074 23075 23076 23077 23078 23079 23080 23081 23082 23083 23084 23085 23086 23087 23088 23089 23090 23091 23092 23093 23094 23095 23096 23097 23098 23099 23100 23101 23102 23103 23104 23105 23106 23107 23108 23109 23110 23111 23112 23113 23114 23115 23116 23117 23118 23119 23120 23121 23122 23123 23124 23125 23126 23127 23128 23129 23130 23131 23132 23133 23134 23135 23136 23137 23138 23139 23140 23141 23142 23143 23144 23145 23146 23147 23148 23149 23150 23151 23152 23153 23154 23155 23156 23157 23158 23159 23160 23161 23162 23163 23164 23165 23166 23167 23168 23169 23170 23171 23172 23173 23174 23175 23176 23177 23178 23179 23180 23181 23182 23183 23184 23185 23186 23187 23188 23189 23190 23191 23192 23193 23194 23195 23196 23197 23198 23199 23200 23201 23202 23203 23204 23205 23206 23207 23208 23209 23210 23211 23212 23213 23214 23215 23216 23217 23218 23219 23220 23221 23222 23223 23224 23225 23226 23227 23228 23229 23230 23231 23232 23233 23234 23235 23236 23237 23238 23239 23240 23241 23242 23243 23244 23245 23246 23247 23248 23249 23250 23251 23252 23253 23254 23255 23256 23257 23258 23259 23260 23261 23262 23263 23264 23265 23266 23267 23268 23269 23270 23271 23272 23273 23274 23275 23276 23277 23278 23279 23280 23281 23282 23283 23284 23285 23286 23287 23288 23289 23290 23291 23292 23293 23294 23295 23296 23297 23298 23299 23300 23301 23302 23303 23304 23305 23306 23307 23308 23309 23310 23311 23312 23313 23314 23315 23316 23317 23318 23319 23320 23321 23322 23323 23324 23325 23326 23327 23328 23329 23330 23331 23332 23333 23334 23335 23336 23337 23338 23339 23340 23341 23342 23343 23344 23345 23346 23347 23348 23349 23350 23351 23352 23353 23354 23355 23356 23357 23358 23359 23360 23361 23362 23363 23364 23365 23366 23367 23368 23369 23370 23371 23372 23373 23374 23375 23376 23377 23378 23379 23380 23381 23382 23383 23384 23385 23386 23387 23388 23389 23390 23391 23392 23393 23394 23395 23396 23397 23398 23399 23400 23401 23402 23403 23404 23405 23406 23407 23408 23409 23410 23411 23412 23413 23414 23415 23416 23417 23418 23419 23420 23421 23422 23423 23424 23425 23426 23427 23428 23429 23430 23431 23432 23433 23434 23435 23436 23437 23438 23439 23440 23441 23442 23443 23444 23445 23446 23447 23448 23449 23450 23451 23452 23453 23454 23455 23456 23457 23458 23459 23460 23461 23462 23463 23464 23465 23466 23467 23468 23469 23470 23471 23472 23473 23474 23475 23476 23477 23478 23479 23480 23481 23482 23483 23484 23485 23486 23487 23488 23489 23490 23491 23492 23493 23494 23495 23496 23497 23498 23499 23500 23501 23502 23503 23504 23505 23506 23507 23508 23509 23510 23511 23512 23513 23514 23515 23516 23517 23518 23519 23520 23521 23522 23523 23524 23525 23526 23527 23528 23529 23530 23531 23532 23533 23534 23535 23536 23537 23538 23539 23540 23541 23542 23543 23544 23545 23546 23547 23548 23549 23550 23551 23552 23553 23554 23555 23556 23557 23558 23559 23560 23561 23562 23563 23564 23565 23566 23567 23568 23569 23570 23571 23572 23573 23574 23575 23576 23577 23578 23579 23580 23581 23582 23583 23584 23585 23586 23587 23588 23589 23590 23591 23592 23593 23594 23595 23596 23597 23598 23599 23600 23601 23602 23603 23604 23605 23606 23607 23608 23609 23610 23611 23612 23613 23614 23615 23616 23617 23618 23619 23620 23621 23622 23623 23624 23625 23626 23627 23628 23629 23630 23631 23632 23633 23634 23635 23636 23637 23638 23639 23640 23641 23642 23643 23644 23645 23646 23647 23648 23649 23650 23651 23652 23653 23654 23655 23656 23657 23658 23659 23660 23661 23662 23663 23664 23665 23666 23667 23668 23669 23670 23671 23672 23673 23674 23675 23676 23677 23678 23679 23680 23681 23682 23683 23684 23685 23686 23687 23688 23689 23690 23691 23692 23693 23694 23695 23696 23697 23698 23699 23700 23701 23702 23703 23704 23705 23706 23707 23708 23709 23710 23711 23712 23713 23714 23715 23716 23717 23718 23719 23720 23721 23722 23723 23724 23725 23726 23727 23728 23729 23730 23731 23732 23733 23734 23735 23736 23737 23738 23739 23740 23741 23742 23743 23744 23745 23746 23747 23748 23749 23750 23751 23752 23753 23754 23755 23756 23757 23758 23759 23760 23761 23762 23763 23764 23765 23766 23767 23768 23769 23770 23771 23772 23773 23774 23775 23776 23777 23778 23779 23780 23781 23782 23783 23784 23785 23786 23787 23788 23789 23790 23791 23792 23793 23794 23795 23796 23797 23798 23799 23800 23801 23802 23803 23804 23805 23806 23807 23808 23809 23810 23811 23812 23813 23814 23815 23816 23817 23818 23819 23820 23821 23822 23823 23824 23825 23826 23827 23828 23829 23830 23831 23832 23833 23834 23835 23836 23837 23838 23839 23840 23841 23842 23843 23844 23845 23846 23847 23848 23849 23850 23851 23852 23853 23854 23855 23856 23857 23858 23859 23860 23861 23862 23863 23864 23865 23866 23867 23868 23869 23870 23871 23872 23873 23874 23875 23876 23877 23878 23879 23880 23881 23882 23883 23884 23885 23886 23887 23888 23889 23890 23891 23892 23893 23894 23895 23896 23897 23898 23899 23900 23901 23902 23903 23904 23905 23906 23907 23908 23909 23910 23911 23912 23913 23914 23915 23916 23917 23918 23919 23920 23921 23922 23923 23924 23925 23926 23927 23928 23929 23930 23931 23932 23933 23934 23935 23936 23937 23938 23939 23940 23941 23942 23943 23944 23945 23946 23947 23948 23949 23950 23951 23952 23953 23954 23955 23956 23957 23958 23959 23960 23961 23962 23963 23964 23965 23966 23967 23968 23969 23970 23971 23972 23973 23974 23975 23976 23977 23978 23979 23980 23981 23982 23983 23984 23985 23986 23987 23988 23989 23990 23991 23992 23993 23994 23995 23996 23997 23998 23999 24000 24001 24002 24003 24004 24005 24006 24007 24008 24009 24010 24011 24012 24013 24014 24015 24016 24017 24018 24019 24020 24021 24022 24023 24024 24025 24026 24027 24028 24029 24030 24031 24032 24033 24034 24035 24036 24037 24038 24039 24040 24041 24042 24043 24044 24045 24046 24047 24048 24049 24050 24051 24052 24053 24054 24055 24056 24057 24058 24059 24060 24061 24062 24063 24064 24065 24066 24067 24068 24069 24070 24071 24072 24073 24074 24075 24076 24077 24078 24079 24080 24081 24082 24083 24084 24085 24086 24087 24088 24089 24090 24091 24092 24093 24094 24095 24096 24097 24098 24099 24100 24101 24102 24103 24104 24105 24106 24107 24108 24109 24110 24111 24112 24113 24114 24115 24116 24117 24118 24119 24120 24121 24122 24123 24124 24125 24126 24127 24128 24129 24130 24131 24132 24133 24134 24135 24136 24137 24138 24139 24140 24141 24142 24143 24144 24145 24146 24147 24148 24149 24150 24151 24152 24153 24154 24155 24156 24157 24158 24159 24160 24161 24162 24163 24164 24165 24166 24167 24168 24169 24170 24171 24172 24173 24174 24175 24176 24177 24178 24179 24180 24181 24182 24183 24184 24185 24186 24187 24188 24189 24190 24191 24192 24193 24194 24195 24196 24197 24198 24199 24200 24201 24202 24203 24204 24205 24206 24207 24208 24209 24210 24211 24212 24213 24214 24215 24216 24217 24218 24219 24220 24221 24222 24223 24224 24225 24226 24227 24228 24229 24230 24231 24232 24233 24234 24235 24236 24237 24238 24239 24240 24241 24242 24243 24244 24245 24246 24247 24248 24249 24250 24251 24252 24253 24254 24255 24256 24257 24258 24259 24260 24261 24262 24263 24264 24265 24266 24267 24268 24269 24270 24271 24272 24273 24274 24275 24276 24277 24278 24279 24280 24281 24282 24283 24284 24285 24286 24287 24288 24289 24290 24291 24292 24293 24294 24295 24296 24297 24298 24299 24300 24301 24302 24303 24304 24305 24306 24307 24308 24309 24310 24311 24312 24313 24314 24315 24316 24317 24318 24319 24320 24321 24322 24323 24324 24325 24326 24327 24328 24329 24330 24331 24332 24333 24334 24335 24336 24337 24338 24339 24340 24341 24342 24343 24344 24345 24346 24347 24348 24349 24350 24351 24352 24353 24354 24355 24356 24357 24358 24359 24360 24361 24362 24363 24364 24365 24366 24367 24368 24369 24370 24371 24372 24373 24374 24375 24376 24377 24378 24379 24380 24381 24382 24383 24384 24385 24386 24387 24388 24389 24390 24391 24392 24393 24394 24395 24396 24397 24398 24399 24400 24401 24402 24403 24404 24405 24406 24407 24408 24409 24410 24411 24412 24413 24414 24415 24416 24417 24418 24419 24420 24421 24422 24423 24424 24425 24426 24427 24428 24429 24430 24431 24432 24433 24434 24435 24436 24437 24438 24439 24440 24441 24442 24443 24444 24445 24446 24447 24448 24449 24450 24451 24452 24453 24454 24455 24456 24457 24458 24459 24460 24461 24462 24463 24464 24465 24466 24467 24468 24469 24470 24471 24472 24473 24474 24475 24476 24477 24478 24479 24480 24481 24482 24483 24484 24485 24486 24487 24488 24489 24490 24491 24492 24493 24494 24495 24496 24497 24498 24499 24500 24501 24502 24503 24504 24505 24506 24507 24508 24509 24510 24511 24512 24513 24514 24515 24516 24517 24518 24519 24520 24521 24522 24523 24524 24525 24526 24527 24528 24529 24530 24531 24532 24533 24534 24535 24536 24537 24538 24539 24540 24541 24542 24543 24544 24545 24546 24547 24548 24549 24550 24551 24552 24553 24554 24555 24556 24557 24558 24559 24560 24561 24562 24563 24564 24565 24566 24567 24568 24569 24570 24571 24572 24573 24574 24575 24576 24577 24578 24579 24580 24581 24582 24583 24584 24585 24586 24587 24588 24589 24590 24591 24592 24593 24594 24595 24596 24597 24598 24599 24600 24601 24602 24603 24604 24605 24606 24607 24608 24609 24610 24611 24612 24613 24614 24615 24616 24617 24618 24619 24620 24621 24622 24623 24624 24625 24626 24627 24628 24629 24630 24631 24632 24633 24634 24635 24636 24637 24638 24639 24640 24641 24642 24643 24644 24645 24646 24647 24648 24649 24650 24651 24652 24653 24654 24655 24656 24657 24658 24659 24660 24661 24662 24663 24664 24665 24666 24667 24668 24669 24670 24671 24672 24673 24674 24675 24676 24677 24678 24679 24680 24681 24682 24683 24684 24685 24686 24687 24688 24689 24690 24691 24692 24693 24694 24695 24696 24697 24698 24699 24700 24701 24702 24703 24704 24705 24706 24707 24708 24709 24710 24711 24712 24713 24714 24715 24716 24717 24718 24719 24720 24721 24722 24723 24724 24725 24726 24727 24728 24729 24730 24731 24732 24733 24734 24735 24736 24737 24738 24739 24740 24741 24742 24743 24744 24745 24746 24747 24748 24749 24750 24751 24752 24753 24754 24755 24756 24757 24758 24759 24760 24761 24762 24763 24764 24765 24766 24767 24768 24769 24770 24771 24772 24773 24774 24775 24776 24777 24778 24779 24780 24781 24782 24783 24784 24785 24786 24787 24788 24789 24790 24791 24792 24793 24794 24795 24796 24797 24798 24799 24800 24801 24802 24803 24804 24805 24806 24807 24808 24809 24810 24811 24812 24813 24814 24815 24816 24817 24818 24819 24820 24821 24822 24823 24824 24825 24826 24827 24828 24829 24830 24831 24832 24833 24834 24835 24836 24837 24838 24839 24840 24841 24842 24843 24844 24845 24846 24847 24848 24849 24850 24851 24852 24853 24854 24855 24856 24857 24858 24859 24860 24861 24862 24863 24864 24865 24866 24867 24868 24869 24870 24871 24872 24873 24874 24875 24876 24877 24878 24879 24880 24881 24882 24883 24884 24885 24886 24887 24888 24889 24890 24891 24892 24893 24894 24895 24896 24897 24898 24899 24900 24901 24902 24903 24904 24905 24906 24907 24908 24909 24910 24911 24912 24913 24914 24915 24916 24917 24918 24919 24920 24921 24922 24923 24924 24925 24926 24927 24928 24929 24930 24931 24932 24933 24934 24935 24936 24937 24938 24939 24940 24941 24942 24943 24944 24945 24946 24947 24948 24949 24950 24951 24952 24953 24954 24955 24956 24957 24958 24959 24960 24961 24962 24963 24964 24965 24966 24967 24968 24969 24970 24971 24972 24973 24974 24975 24976 24977 24978 24979 24980 24981 24982 24983 24984 24985 24986 24987 24988 24989 24990 24991 24992 24993 24994 24995 24996 24997 24998 24999 25000 25001 25002 25003 25004 25005 25006 25007 25008 25009 25010 25011 25012 25013 25014 25015 25016 25017 25018 25019 25020 25021 25022 25023 25024 25025 25026 25027 25028 25029 25030 25031 25032 25033 25034 25035 25036 25037 25038 25039 25040 25041 25042 25043 25044 25045 25046 25047 25048 25049 25050 25051 25052 25053 25054 25055 25056 25057 25058 25059 25060 25061 25062 25063 25064 25065 25066 25067 25068 25069 25070 25071 25072 25073 25074 25075 25076 25077 25078 25079 25080 25081 25082 25083 25084 25085 25086 25087 25088 25089 25090 25091 25092 25093 25094 25095 25096 25097 25098 25099 25100 25101 25102 25103 25104 25105 25106 25107 25108 25109 25110 25111 25112 25113 25114 25115 25116 25117 25118 25119 25120 25121 25122 25123 25124 25125 25126 25127 25128 25129 25130 25131 25132 25133 25134 25135 25136 25137 25138 25139 25140 25141 25142 25143 25144 25145 25146 25147 25148 25149 25150 25151 25152 25153 25154 25155 25156 25157 25158 25159 25160 25161 25162 25163 25164 25165 25166 25167 25168 25169 25170 25171 25172 25173 25174 25175 25176 25177 25178 25179 25180 25181 25182 25183 25184 25185 25186 25187 25188 25189 25190 25191 25192 25193 25194 25195 25196 25197 25198 25199 25200 25201 25202 25203 25204 25205 25206 25207 25208 25209 25210 25211 25212 25213 25214 25215 25216 25217 25218 25219 25220 25221 25222 25223 25224 25225 25226 25227 25228 25229 25230 25231 25232 25233 25234 25235 25236 25237 25238 25239 25240 25241 25242 25243 25244 25245 25246 25247 25248 25249 25250 25251 25252 25253 25254 25255 25256 25257 25258 25259 25260 25261 25262 25263 25264 25265 25266 25267 25268 25269 25270 25271 25272 25273 25274 25275 25276 25277 25278 25279 25280 25281 25282 25283 25284 25285 25286 25287 25288 25289 25290 25291 25292 25293 25294 25295 25296 25297 25298 25299 25300 25301 25302 25303 25304 25305 25306 25307 25308 25309 25310 25311 25312 25313 25314 25315 25316 25317 25318 25319 25320 25321 25322 25323 25324 25325 25326 25327 25328 25329 25330 25331 25332 25333 25334 25335 25336 25337 25338 25339 25340 25341 25342 25343 25344 25345 25346 25347 25348 25349 25350 25351 25352 25353 25354 25355 25356 25357 25358 25359 25360 25361 25362 25363 25364 25365 25366 25367 25368 25369 25370 25371 25372 25373 25374 25375 25376 25377 25378 25379 25380 25381 25382 25383 25384 25385 25386 25387 25388 25389 25390 25391 25392 25393 25394 25395 25396 25397 25398 25399 25400 25401 25402 25403 25404 25405 25406 25407 25408 25409 25410 25411 25412 25413 25414 25415 25416 25417 25418 25419 25420 25421 25422 25423 25424 25425 25426 25427 25428 25429 25430 25431 25432 25433 25434 25435 25436 25437 25438 25439 25440 25441 25442 25443 25444 25445 25446 25447 25448 25449 25450 25451 25452 25453 25454 25455 25456 25457 25458 25459 25460 25461 25462 25463 25464 25465 25466 25467 25468 25469 25470 25471 25472 25473 25474 25475 25476 25477 25478 25479 25480 25481 25482 25483 25484 25485 25486 25487 25488 25489 25490 25491 25492 25493 25494 25495 25496 25497 25498 25499 25500 25501 25502 25503 25504 25505 25506 25507 25508 25509 25510 25511 25512 25513 25514 25515 25516 25517 25518 25519 25520 25521 25522 25523 25524 25525 25526 25527 25528 25529 25530 25531 25532 25533 25534 25535 25536 25537 25538 25539 25540 25541 25542 25543 25544 25545 25546 25547 25548 25549 25550 25551 25552 25553 25554 25555 25556 25557 25558 25559 25560 25561 25562 25563 25564 25565 25566 25567 25568 25569 25570 25571 25572 25573 25574 25575 25576 25577 25578 25579 25580 25581 25582 25583 25584 25585 25586 25587 25588 25589 25590 25591 25592 25593 25594 25595 25596 25597 25598 25599 25600 25601 25602 25603 25604 25605 25606 25607 25608 25609 25610 25611 25612 25613 25614 25615 25616 25617 25618 25619 25620 25621 25622 25623 25624 25625 25626 25627 25628 25629 25630 25631 25632 25633 25634 25635 25636 25637 25638 25639 25640 25641 25642 25643 25644 25645 25646 25647 25648 25649 25650 25651 25652 25653 25654 25655 25656 25657 25658 25659 25660 25661 25662 25663 25664 25665 25666 25667 25668 25669 25670 25671 25672 25673 25674 25675 25676 25677 25678 25679 25680 25681 25682 25683 25684 25685 25686 25687 25688 25689 25690 25691 25692 25693 25694 25695 25696 25697 25698 25699 25700 25701 25702 25703 25704 25705 25706 25707 25708 25709 25710 25711 25712 25713 25714 25715 25716 25717 25718 25719 25720 25721 25722 25723 25724 25725 25726 25727 25728 25729 25730 25731 25732 25733 25734 25735 25736 25737 25738 25739 25740 25741 25742 25743 25744 25745 25746 25747 25748 25749 25750 25751 25752 25753 25754 25755 25756 25757 25758 25759 25760 25761 25762 25763 25764 25765 25766 25767 25768 25769 25770 25771 25772 25773 25774 25775 25776 25777 25778 25779 25780 25781 25782 25783 25784 25785 25786 25787 25788 25789 25790 25791 25792 25793 25794 25795 25796 25797 25798 25799 25800 25801 25802 25803 25804 25805 25806 25807 25808 25809 25810 25811 25812 25813 25814 25815 25816 25817 25818 25819 25820 25821 25822 25823 25824 25825 25826 25827 25828 25829 25830 25831 25832 25833 25834 25835 25836 25837 25838 25839 25840 25841 25842 25843 25844 25845 25846 25847 25848 25849 25850 25851 25852 25853 25854 25855 25856 25857 25858 25859 25860 25861 25862 25863 25864 25865 25866 25867 25868 25869 25870 25871 25872 25873 25874 25875 25876 25877 25878 25879 25880 25881 25882 25883 25884 25885 25886 25887 25888 25889 25890 25891 25892 25893 25894 25895 25896 25897 25898 25899 25900 25901 25902 25903 25904 25905 25906 25907 25908 25909 25910 25911 25912 25913 25914 25915 25916 25917 25918 25919 25920 25921 25922 25923 25924 25925 25926 25927 25928 25929 25930 25931 25932 25933 25934 25935 25936 25937 25938 25939 25940 25941 25942 25943 25944 25945 25946 25947 25948 25949 25950 25951 25952 25953 25954 25955 25956 25957 25958 25959 25960 25961 25962 25963 25964 25965 25966 25967 25968 25969 25970 25971 25972 25973 25974 25975 25976 25977 25978 25979 25980 25981 25982 25983 25984 25985 25986 25987 25988 25989 25990 25991 25992 25993 25994 25995 25996 25997 25998 25999 26000 26001 26002 26003 26004 26005 26006 26007 26008 26009 26010 26011 26012 26013 26014 26015 26016 26017 26018 26019 26020 26021 26022 26023 26024 26025 26026 26027 26028 26029 26030 26031 26032 26033 26034 26035 26036 26037 26038 26039 26040 26041 26042 26043 26044 26045 26046 26047 26048 26049 26050 26051 26052 26053 26054 26055 26056 26057 26058 26059 26060 26061 26062 26063 26064 26065 26066 26067 26068 26069 26070 26071 26072 26073 26074 26075 26076 26077 26078 26079 26080 26081 26082 26083 26084 26085 26086 26087 26088 26089 26090 26091 26092 26093 26094 26095 26096 26097 26098 26099 26100 26101 26102 26103 26104 26105 26106 26107 26108 26109 26110 26111 26112 26113 26114 26115 26116 26117 26118 26119 26120 26121 26122 26123 26124 26125 26126 26127 26128 26129 26130 26131 26132 26133 26134 26135 26136 26137 26138 26139 26140 26141 26142 26143 26144 26145 26146 26147 26148 26149 26150 26151 26152 26153 26154 26155 26156 26157 26158 26159 26160 26161 26162 26163 26164 26165 26166 26167 26168 26169 26170 26171 26172 26173 26174 26175 26176 26177 26178 26179 26180 26181 26182 26183 26184 26185 26186 26187 26188 26189 26190 26191 26192 26193 26194 26195 26196 26197 26198 26199 26200 26201 26202 26203 26204 26205 26206 26207 26208 26209 26210 26211 26212 26213 26214 26215 26216 26217 26218 26219 26220 26221 26222 26223 26224 26225 26226 26227 26228 26229 26230 26231 26232 26233 26234 26235 26236 26237 26238 26239 26240 26241 26242 26243 26244 26245 26246 26247 26248 26249 26250 26251 26252 26253 26254 26255 26256 26257 26258 26259 26260 26261 26262 26263 26264 26265 26266 26267 26268 26269 26270 26271 26272 26273 26274 26275 26276 26277 26278 26279 26280 26281 26282 26283 26284 26285 26286 26287 26288 26289 26290 26291 26292 26293 26294 26295 26296 26297 26298 26299 26300 26301 26302 26303 26304 26305 26306 26307 26308 26309 26310 26311 26312 26313 26314 26315 26316 26317 26318 26319 26320 26321 26322 26323 26324 26325 26326 26327 26328 26329 26330 26331 26332 26333 26334 26335 26336 26337 26338 26339 26340 26341 26342 26343 26344 26345 26346 26347 26348 26349 26350 26351 26352 26353 26354 26355 26356 26357 26358 26359 26360 26361 26362 26363 26364 26365 26366 26367 26368 26369 26370 26371 26372 26373 26374 26375 26376 26377 26378 26379 26380 26381 26382 26383 26384 26385 26386 26387 26388 26389 26390 26391 26392 26393 26394 26395 26396 26397 26398 26399 26400 26401 26402 26403 26404 26405 26406 26407 26408 26409 26410 26411 26412 26413 26414 26415 26416 26417 26418 26419 26420 26421 26422 26423 26424 26425 26426 26427 26428 26429 26430 26431 26432 26433 26434 26435 26436 26437 26438 26439 26440 26441 26442 26443 26444 26445 26446 26447 26448 26449 26450 26451 26452 26453 26454 26455 26456 26457 26458 26459 26460 26461 26462 26463 26464 26465 26466 26467 26468 26469 26470 26471 26472 26473 26474 26475 26476 26477 26478 26479 26480 26481 26482 26483 26484 26485 26486 26487 26488 26489 26490 26491 26492 26493 26494 26495 26496 26497 26498 26499 26500 26501 26502 26503 26504 26505 26506 26507 26508 26509 26510 26511 26512 26513 26514 26515 26516 26517 26518 26519 26520 26521 26522 26523 26524 26525 26526 26527 26528 26529 26530 26531 26532 26533 26534 26535 26536 26537 26538 26539 26540 26541 26542 26543 26544 26545 26546 26547 26548 26549 26550 26551 26552 26553 26554 26555 26556 26557 26558 26559 26560 26561 26562 26563 26564 26565 26566 26567 26568 26569 26570 26571 26572 26573 26574 26575 26576 26577 26578 26579 26580 26581 26582 26583 26584 26585 26586 26587 26588 26589 26590 26591 26592 26593 26594 26595 26596 26597 26598 26599 26600 26601 26602 26603 26604 26605 26606 26607 26608 26609 26610 26611 26612 26613 26614 26615 26616 26617 26618 26619 26620 26621 26622 26623 26624 26625 26626 26627 26628 26629 26630 26631 26632 26633 26634 26635 26636 26637 26638 26639 26640 26641 26642 26643 26644 26645 26646 26647 26648 26649 26650 26651 26652 26653 26654 26655 26656 26657 26658 26659 26660 26661 26662 26663 26664 26665 26666 26667 26668 26669 26670 26671 26672 26673 26674 26675 26676 26677 26678 26679 26680 26681 26682 26683 26684 26685 26686 26687 26688 26689 26690 26691 26692 26693 26694 26695 26696 26697 26698 26699 26700 26701 26702 26703 26704 26705 26706 26707 26708 26709 26710 26711 26712 26713 26714 26715 26716 26717 26718 26719 26720 26721 26722 26723 26724 26725 26726 26727 26728 26729 26730 26731 26732 26733 26734 26735 26736 26737 26738 26739 26740 26741 26742 26743 26744 26745 26746 26747 26748 26749 26750 26751 26752 26753 26754 26755 26756 26757 26758 26759 26760 26761 26762 26763 26764 26765 26766 26767 26768 26769 26770 26771 26772 26773 26774 26775 26776 26777 26778 26779 26780 26781 26782 26783 26784 26785 26786 26787 26788 26789 26790 26791 26792 26793 26794 26795 26796 26797 26798 26799 26800 26801 26802 26803 26804 26805 26806 26807 26808 26809 26810 26811 26812 26813 26814 26815 26816 26817 26818 26819 26820 26821 26822 26823 26824 26825 26826 26827 26828 26829 26830 26831 26832 26833 26834 26835 26836 26837 26838 26839 26840 26841 26842 26843 26844 26845 26846 26847 26848 26849 26850 26851 26852 26853 26854 26855 26856 26857 26858 26859 26860 26861 26862 26863 26864 26865 26866 26867 26868 26869 26870 26871 26872 26873 26874 26875 26876 26877 26878 26879 26880 26881 26882 26883 26884 26885 26886 26887 26888 26889 26890 26891 26892 26893 26894 26895 26896 26897 26898 26899 26900 26901 26902 26903 26904 26905 26906 26907 26908 26909 26910 26911 26912 26913 26914 26915 26916 26917 26918 26919 26920 26921 26922 26923 26924 26925 26926 26927 26928 26929 26930 26931 26932 26933 26934 26935 26936 26937 26938 26939 26940 26941 26942 26943 26944 26945 26946 26947 26948 26949 26950 26951 26952 26953 26954 26955 26956 26957 26958 26959 26960 26961 26962 26963 26964 26965 26966 26967 26968 26969 26970 26971 26972 26973 26974 26975 26976 26977 26978 26979 26980 26981 26982 26983 26984 26985 26986 26987 26988 26989 26990 26991 26992 26993 26994 26995 26996 26997 26998 26999 27000 27001 27002 27003 27004 27005 27006 27007 27008 27009 27010 27011 27012 27013 27014 27015 27016 27017 27018 27019 27020 27021 27022 27023 27024 27025 27026 27027 27028 27029 27030 27031 27032 27033 27034 27035 27036 27037 27038 27039 27040 27041 27042 27043 27044 27045 27046 27047 27048 27049 27050 27051 27052 27053 27054 27055 27056 27057 27058 27059 27060 27061 27062 27063 27064 27065 27066 27067 27068 27069 27070 27071 27072 27073 27074 27075 27076 27077 27078 27079 27080 27081 27082 27083 27084 27085 27086 27087 27088 27089 27090 27091 27092 27093 27094 27095 27096 27097 27098 27099 27100 27101 27102 27103 27104 27105 27106 27107 27108 27109 27110 27111 27112 27113 27114 27115 27116 27117 27118 27119 27120 27121 27122 27123 27124 27125 27126 27127 27128 27129 27130 27131 27132 27133 27134 27135 27136 27137 27138 27139 27140 27141 27142 27143 27144 27145 27146 27147 27148 27149 27150 27151 27152 27153 27154 27155 27156 27157 27158 27159 27160 27161 27162 27163 27164 27165 27166 27167 27168 27169 27170 27171 27172 27173 27174 27175 27176 27177 27178 27179 27180 27181 27182 27183 27184 27185 27186 27187 27188 27189 27190 27191 27192 27193 27194 27195 27196 27197 27198 27199 27200 27201 27202 27203 27204 27205 27206 27207 27208 27209 27210 27211 27212 27213 27214 27215 27216 27217 27218 27219 27220 27221 27222 27223 27224 27225 27226 27227 27228 27229 27230 27231 27232 27233 27234 27235 27236 27237 27238 27239 27240 27241 27242 27243 27244 27245 27246 27247 27248 27249 27250 27251 27252 27253 27254 27255 27256 27257 27258 27259 27260 27261 27262 27263 27264 27265 27266 27267 27268 27269 27270 27271 27272 27273 27274 27275 27276 27277 27278 27279 27280 27281 27282 27283 27284 27285 27286 27287 27288 27289 27290 27291 27292 27293 27294 27295 27296 27297 27298 27299 27300 27301 27302 27303 27304 27305 27306 27307 27308 27309 27310 27311 27312 27313 27314 27315 27316 27317 27318 27319 27320 27321 27322 27323 27324 27325 27326 27327 27328 27329 27330 27331 27332 27333 27334 27335 27336 27337 27338 27339 27340 27341 27342 27343 27344 27345 27346 27347 27348 27349 27350 27351 27352 27353 27354 27355 27356 27357 27358 27359 27360 27361 27362 27363 27364 27365 27366 27367 27368 27369 27370 27371 27372 27373 27374 27375 27376 27377 27378 27379 27380 27381 27382 27383 27384 27385 27386 27387 27388 27389 27390 27391 27392 27393 27394 27395 27396 27397 27398 27399 27400 27401 27402 27403 27404 27405 27406 27407 27408 27409 27410 27411 27412 27413 27414 27415 27416 27417 27418 27419 27420 27421 27422 27423 27424 27425 27426 27427 27428 27429 27430 27431 27432 27433 27434 27435 27436 27437 27438 27439 27440 27441 27442 27443 27444 27445 27446 27447 27448 27449 27450 27451 27452 27453 27454 27455 27456 27457 27458 27459 27460 27461 27462 27463 27464 27465 27466 27467 27468 27469 27470 27471 27472 27473 27474 27475 27476 27477 27478 27479 27480 27481 27482 27483 27484 27485 27486 27487 27488 27489 27490 27491 27492 27493 27494 27495 27496 27497 27498 27499 27500 27501 27502 27503 27504 27505 27506 27507 27508 27509 27510 27511 27512 27513 27514 27515 27516 27517 27518 27519 27520 27521 27522 27523 27524 27525 27526 27527 27528 27529 27530 27531 27532 27533 27534 27535 27536 27537 27538 27539 27540 27541 27542 27543 27544 27545 27546 27547 27548 27549 27550 27551 27552 27553 27554 27555 27556 27557 27558 27559 27560 27561 27562 27563 27564 27565 27566 27567 27568 27569 27570 27571 27572 27573 27574 27575 27576 27577 27578 27579 27580 27581 27582 27583 27584 27585 27586 27587 27588 27589 27590 27591 27592 27593 27594 27595 27596 27597 27598 27599 27600 27601 27602 27603 27604 27605 27606 27607 27608 27609 27610 27611 27612 27613 27614 27615 27616 27617 27618 27619 27620 27621 27622 27623 27624 27625 27626 27627 27628 27629 27630 27631 27632 27633 27634 27635 27636 27637 27638 27639 27640 27641 27642 27643 27644 27645 27646 27647 27648 27649 27650 27651 27652 27653 27654 27655 27656 27657 27658 27659 27660 27661 27662 27663 27664 27665 27666 27667 27668 27669 27670 27671 27672 27673 27674 27675 27676 27677 27678 27679 27680 27681 27682 27683 27684 27685 27686 27687 27688 27689 27690 27691 27692 27693 27694 27695 27696 27697 27698 27699 27700 27701 27702 27703 27704 27705 27706 27707 27708 27709 27710 27711 27712 27713 27714 27715 27716 27717 27718 27719 27720 27721 27722 27723 27724 27725 27726 27727 27728 27729 27730 27731 27732 27733 27734 27735 27736 27737 27738 27739 27740 27741 27742 27743 27744 27745 27746 27747 27748 27749 27750 27751 27752 27753 27754 27755 27756 27757 27758 27759 27760 27761 27762 27763 27764 27765 27766 27767 27768 27769 27770 27771 27772 27773 27774 27775 27776 27777 27778 27779 27780 27781 27782 27783 27784 27785 27786 27787 27788 27789 27790 27791 27792 27793 27794 27795 27796 27797 27798 27799 27800 27801 27802 27803 27804 27805 27806 27807 27808 27809 27810 27811 27812 27813 27814 27815 27816 27817 27818 27819 27820 27821 27822 27823 27824 27825 27826 27827 27828 27829 27830 27831 27832 27833 27834 27835 27836 27837 27838 27839 27840 27841 27842 27843 27844 27845 27846 27847 27848 27849 27850 27851 27852 27853 27854 27855 27856 27857 27858 27859 27860 27861 27862 27863 27864 27865 27866 27867 27868 27869 27870 27871 27872 27873 27874 27875 27876 27877 27878 27879 27880 27881 27882 27883 27884 27885 27886 27887 27888 27889 27890 27891 27892 27893 27894 27895 27896 27897 27898 27899 27900 27901 27902 27903 27904 27905 27906 27907 27908 27909 27910 27911 27912 27913 27914 27915 27916 27917 27918 27919 27920 27921 27922 27923 27924 27925 27926 27927 27928 27929 27930 27931 27932 27933 27934 27935 27936 27937 27938 27939 27940 27941 27942 27943 27944 27945 27946 27947 27948 27949 27950 27951 27952 27953 27954 27955 27956 27957 27958 27959 27960 27961 27962 27963 27964 27965 27966 27967 27968 27969 27970 27971 27972 27973 27974 27975 27976 27977 27978 27979 27980 27981 27982 27983 27984 27985 27986 27987 27988 27989 27990 27991 27992 27993 27994 27995 27996 27997 27998 27999 28000 28001 28002 28003 28004 28005 28006 28007 28008 28009 28010 28011 28012 28013 28014 28015 28016 28017 28018 28019 28020 28021 28022 28023 28024 28025 28026 28027 28028 28029 28030 28031 28032 28033 28034 28035 28036 28037 28038 28039 28040 28041 28042 28043 28044 28045 28046 28047 28048 28049 28050 28051 28052 28053 28054 28055 28056 28057 28058 28059 28060 28061 28062 28063 28064 28065 28066 28067 28068 28069 28070 28071 28072 28073 28074 28075 28076 28077 28078 28079 28080 28081 28082 28083 28084 28085 28086 28087 28088 28089 28090 28091 28092 28093 28094 28095 28096 28097 28098 28099 28100 28101 28102 28103 28104 28105 28106 28107 28108 28109 28110 28111 28112 28113 28114 28115 28116 28117 28118 28119 28120 28121 28122 28123 28124 28125 28126 28127 28128 28129 28130 28131 28132 28133 28134 28135 28136 28137 28138 28139 28140 28141 28142 28143 28144 28145 28146 28147 28148 28149 28150 28151 28152 28153 28154 28155 28156 28157 28158 28159 28160 28161 28162 28163 28164 28165 28166 28167 28168 28169 28170 28171 28172 28173 28174 28175 28176 28177 28178 28179 28180 28181 28182 28183 28184 28185 28186 28187 28188 28189 28190 28191 28192 28193 28194 28195 28196 28197 28198 28199 28200 28201 28202 28203 28204 28205 28206 28207 28208 28209 28210 28211 28212 28213 28214 28215 28216 28217 28218 28219 28220 28221 28222 28223 28224 28225 28226 28227 28228 28229 28230 28231 28232 28233 28234 28235 28236 28237 28238 28239 28240 28241 28242 28243 28244 28245 28246 28247 28248 28249 28250 28251 28252 28253 28254 28255 28256 28257 28258 28259 28260 28261 28262 28263 28264 28265 28266 28267 28268 28269 28270 28271 28272 28273 28274 28275 28276 28277 28278 28279 28280 28281 28282 28283 28284 28285 28286 28287 28288 28289 28290 28291 28292 28293 28294 28295 28296 28297 28298 28299 28300 28301 28302 28303 28304 28305 28306 28307 28308 28309 28310 28311 28312 28313 28314 28315 28316 28317 28318 28319 28320 28321 28322 28323 28324 28325 28326 28327 28328 28329 28330 28331 28332 28333 28334 28335 28336 28337 28338 28339 28340 28341 28342 28343 28344 28345 28346 28347 28348 28349 28350 28351 28352 28353 28354 28355 28356 28357 28358 28359 28360 28361 28362 28363 28364 28365 28366 28367 28368 28369 28370 28371 28372 28373 28374 28375 28376 28377 28378 28379 28380 28381 28382 28383 28384 28385 28386 28387 28388 28389 28390 28391 28392 28393 28394 28395 28396 28397 28398 28399 28400 28401 28402 28403 28404 28405 28406 28407 28408 28409 28410 28411 28412 28413 28414 28415 28416 28417 28418 28419 28420 28421 28422 28423 28424 28425 28426 28427 28428 28429 28430 28431 28432 28433 28434 28435 28436 28437 28438 28439 28440 28441 28442 28443 28444 28445 28446 28447 28448 28449 28450 28451 28452 28453 28454 28455 28456 28457 28458 28459 28460 28461 28462 28463 28464 28465 28466 28467 28468 28469 28470 28471 28472 28473 28474 28475 28476 28477 28478 28479 28480 28481 28482 28483 28484 28485 28486 28487 28488 28489 28490 28491 28492 28493 28494 28495 28496 28497 28498 28499 28500 28501 28502 28503 28504 28505 28506 28507 28508 28509 28510 28511 28512 28513 28514 28515 28516 28517 28518 28519 28520 28521 28522 28523 28524 28525 28526 28527 28528 28529 28530 28531 28532 28533 28534 28535 28536 28537 28538 28539 28540 28541 28542 28543 28544 28545 28546 28547 28548 28549 28550 28551 28552 28553 28554 28555 28556 28557 28558 28559 28560 28561 28562 28563 28564 28565 28566 28567 28568 28569 28570 28571 28572 28573 28574 28575 28576 28577 28578 28579 28580 28581 28582 28583 28584 28585 28586 28587 28588 28589 28590 28591 28592 28593 28594 28595 28596 28597 28598 28599 28600 28601 28602 28603 28604 28605 28606 28607 28608 28609 28610 28611 28612 28613 28614 28615 28616 28617 28618 28619 28620 28621 28622 28623 28624 28625 28626 28627 28628 28629 28630 28631 28632 28633 28634 28635 28636 28637 28638 28639 28640 28641 28642 28643 28644 28645 28646 28647 28648 28649 28650 28651 28652 28653 28654 28655 28656 28657 28658 28659 28660 28661 28662 28663 28664 28665 28666 28667 28668 28669 28670 28671 28672 28673 28674 28675 28676 28677 28678 28679 28680 28681 28682 28683 28684 28685 28686 28687 28688 28689 28690 28691 28692 28693 28694 28695 28696 28697 28698 28699 28700 28701 28702 28703 28704 28705 28706 28707 28708 28709 28710 28711 28712 28713 28714 28715 28716 28717 28718 28719 28720 28721 28722 28723 28724 28725 28726 28727 28728 28729 28730 28731 28732 28733 28734 28735 28736 28737 28738 28739 28740 28741 28742 28743 28744 28745 28746 28747 28748 28749 28750 28751 28752 28753 28754 28755 28756 28757 28758 28759 28760 28761 28762 28763 28764 28765 28766 28767 28768 28769 28770 28771 28772 28773 28774 28775 28776 28777 28778 28779 28780 28781 28782 28783 28784 28785 28786 28787 28788 28789 28790 28791 28792 28793 28794 28795 28796 28797 28798 28799 28800 28801 28802 28803 28804 28805 28806 28807 28808 28809 28810 28811 28812 28813 28814 28815 28816 28817 28818 28819 28820 28821 28822 28823 28824 28825 28826 28827 28828 28829 28830 28831 28832 28833 28834 28835 28836 28837 28838 28839 28840 28841 28842 28843 28844 28845 28846 28847 28848 28849 28850 28851 28852 28853 28854 28855 28856 28857 28858 28859 28860 28861 28862 28863 28864 28865 28866 28867 28868 28869 28870 28871 28872 28873 28874 28875 28876 28877 28878 28879 28880 28881 28882 28883 28884 28885 28886 28887 28888 28889 28890 28891 28892 28893 28894 28895 28896 28897 28898 28899 28900 28901 28902 28903 28904 28905 28906 28907 28908 28909 28910 28911 28912 28913 28914 28915 28916 28917 28918 28919 28920 28921 28922 28923 28924 28925 28926 28927 28928 28929 28930 28931 28932 28933 28934 28935 28936 28937 28938 28939 28940 28941 28942 28943 28944 28945 28946 28947 28948 28949 28950 28951 28952 28953 28954 28955 28956 28957 28958 28959 28960 28961 28962 28963 28964 28965 28966 28967 28968 28969 28970 28971 28972 28973 28974 28975 28976 28977 28978 28979 28980 28981 28982 28983 28984 28985 28986 28987 28988 28989 28990 28991 28992 28993 28994 28995 28996 28997 28998 28999 29000 29001 29002 29003 29004 29005 29006 29007 29008 29009 29010 29011 29012 29013 29014 29015 29016 29017 29018 29019 29020 29021 29022 29023 29024 29025 29026 29027 29028 29029 29030 29031 29032 29033 29034 29035 29036 29037 29038 29039 29040 29041 29042 29043 29044 29045 29046 29047 29048 29049 29050 29051 29052 29053 29054 29055 29056 29057 29058 29059 29060 29061 29062 29063 29064 29065 29066 29067 29068 29069 29070 29071 29072 29073 29074 29075 29076 29077 29078 29079 29080 29081 29082 29083 29084 29085 29086 29087 29088 29089 29090 29091 29092 29093 29094 29095 29096 29097 29098 29099 29100 29101 29102 29103 29104 29105 29106 29107 29108 29109 29110 29111 29112 29113 29114 29115 29116 29117 29118 29119 29120 29121 29122 29123 29124 29125 29126 29127 29128 29129 29130 29131 29132 29133 29134 29135 29136 29137 29138 29139 29140 29141 29142 29143 29144 29145 29146 29147 29148 29149 29150 29151 29152 29153 29154 29155 29156 29157 29158 29159 29160 29161 29162 29163 29164 29165 29166 29167 29168 29169 29170 29171 29172 29173 29174 29175 29176 29177 29178 29179 29180 29181 29182 29183 29184 29185 29186 29187 29188 29189 29190 29191 29192 29193 29194 29195 29196 29197 29198 29199 29200 29201 29202 29203 29204 29205 29206 29207 29208 29209 29210 29211 29212 29213 29214 29215 29216 29217 29218 29219 29220 29221 29222 29223 29224 29225 29226 29227 29228 29229 29230 29231 29232 29233 29234 29235 29236 29237 29238 29239 29240 29241 29242 29243 29244 29245 29246 29247 29248 29249 29250 29251 29252 29253 29254 29255 29256 29257 29258 29259 29260 29261 29262 29263 29264 29265 29266 29267 29268 29269 29270 29271 29272 29273 29274 29275 29276 29277 29278 29279 29280 29281 29282 29283 29284 29285 29286 29287 29288 29289 29290 29291 29292 29293 29294 29295 29296 29297 29298 29299 29300 29301 29302 29303 29304 29305 29306 29307 29308 29309 29310 29311 29312 29313 29314 29315 29316 29317 29318 29319 29320 29321 29322 29323 29324 29325 29326 29327 29328 29329 29330 29331 29332 29333 29334 29335 29336 29337 29338 29339 29340 29341 29342 29343 29344 29345 29346 29347 29348 29349 29350 29351 29352 29353 29354 29355 29356 29357 29358 29359 29360 29361 29362 29363 29364 29365 29366 29367 29368 29369 29370 29371 29372 29373 29374 29375 29376 29377 29378 29379 29380 29381 29382 29383 29384 29385 29386 29387 29388 29389 29390 29391 29392 29393 29394 29395 29396 29397 29398 29399 29400 29401 29402 29403 29404 29405 29406 29407 29408 29409 29410 29411 29412 29413 29414 29415 29416 29417 29418 29419 29420 29421 29422 29423 29424 29425 29426 29427 29428 29429 29430 29431 29432 29433 29434 29435 29436 29437 29438 29439 29440 29441 29442 29443 29444 29445 29446 29447 29448 29449 29450 29451 29452 29453 29454 29455 29456 29457 29458 29459 29460 29461 29462 29463 29464 29465 29466 29467 29468 29469 29470 29471 29472 29473 29474 29475 29476 29477 29478 29479 29480 29481 29482 29483 29484 29485 29486 29487 29488 29489 29490 29491 29492 29493 29494 29495 29496 29497 29498 29499 29500 29501 29502 29503 29504 29505 29506 29507 29508 29509 29510 29511 29512 29513 29514 29515 29516 29517 29518 29519 29520 29521 29522 29523 29524 29525 29526 29527 29528 29529 29530 29531 29532 29533 29534 29535 29536 29537 29538 29539 29540 29541 29542 29543 29544 29545 29546 29547 29548 29549 29550 29551 29552 29553 29554 29555 29556 29557 29558 29559 29560 29561 29562 29563 29564 29565 29566 29567 29568 29569 29570 29571 29572 29573 29574 29575 29576 29577 29578 29579 29580 29581 29582 29583 29584 29585 29586 29587 29588 29589 29590 29591 29592 29593 29594 29595 29596 29597 29598 29599 29600 29601 29602 29603 29604 29605 29606 29607 29608 29609 29610 29611 29612 29613 29614 29615 29616 29617 29618 29619 29620 29621 29622 29623 29624 29625 29626 29627 29628 29629 29630 29631 29632 29633 29634 29635 29636 29637 29638 29639 29640 29641 29642 29643 29644 29645 29646 29647 29648 29649 29650 29651 29652 29653 29654 29655 29656 29657 29658 29659 29660 29661 29662 29663 29664 29665 29666 29667 29668 29669 29670 29671 29672 29673 29674 29675 29676 29677 29678 29679 29680 29681 29682 29683 29684 29685 29686 29687 29688 29689 29690 29691 29692 29693 29694 29695 29696 29697 29698 29699 29700 29701 29702 29703 29704 29705 29706 29707 29708 29709 29710 29711 29712 29713 29714 29715 29716 29717 29718 29719 29720 29721 29722 29723 29724 29725 29726 29727 29728 29729 29730 29731 29732 29733 29734 29735 29736 29737 29738 29739 29740 29741 29742 29743 29744 29745 29746 29747 29748 29749 29750 29751 29752 29753 29754 29755 29756 29757 29758 29759 29760 29761 29762 29763 29764 29765 29766 29767 29768 29769 29770 29771 29772 29773 29774 29775 29776 29777 29778 29779 29780 29781 29782 29783 29784 29785 29786 29787 29788 29789 29790 29791 29792 29793 29794 29795 29796 29797 29798 29799 29800 29801 29802 29803 29804 29805 29806 29807 29808 29809 29810 29811 29812 29813 29814 29815 29816 29817 29818 29819 29820 29821 29822 29823 29824 29825 29826 29827 29828 29829 29830 29831 29832 29833 29834 29835 29836 29837 29838 29839 29840 29841 29842 29843 29844 29845 29846 29847 29848 29849 29850 29851 29852 29853 29854 29855 29856 29857 29858 29859 29860 29861 29862 29863 29864 29865 29866 29867 29868 29869 29870 29871 29872 29873 29874 29875 29876 29877 29878 29879 29880 29881 29882 29883 29884 29885 29886 29887 29888 29889 29890 29891 29892 29893 29894 29895 29896 29897 29898 29899 29900 29901 29902 29903 29904 29905 29906 29907 29908 29909 29910 29911 29912 29913 29914 29915 29916 29917 29918 29919 29920 29921 29922 29923 29924 29925 29926 29927 29928 29929 29930 29931 29932 29933 29934 29935 29936 29937 29938 29939 29940 29941 29942 29943 29944 29945 29946 29947 29948 29949 29950 29951 29952 29953 29954 29955 29956 29957 29958 29959 29960 29961 29962 29963 29964 29965 29966 29967 29968 29969 29970 29971 29972 29973 29974 29975 29976 29977 29978 29979 29980 29981 29982 29983 29984 29985 29986 29987 29988 29989 29990 29991 29992 29993 29994 29995 29996 29997 29998 29999 30000 30001 30002 30003 30004 30005 30006 30007 30008 30009 30010 30011 30012 30013 30014 30015 30016 30017 30018 30019 30020 30021 30022 30023 30024 30025 30026 30027 30028 30029 30030 30031 30032 30033 30034 30035 30036 30037 30038 30039 30040 30041 30042 30043 30044 30045 30046 30047 30048 30049 30050 30051 30052 30053 30054 30055 30056 30057 30058 30059 30060 30061 30062 30063 30064 30065 30066 30067 30068 30069 30070 30071 30072 30073 30074 30075 30076 30077 30078 30079 30080 30081 30082 30083 30084 30085 30086 30087 30088 30089 30090 30091 30092 30093 30094 30095 30096 30097 30098 30099 30100 30101 30102 30103 30104 30105 30106 30107 30108 30109 30110 30111 30112 30113 30114 30115 30116 30117 30118 30119 30120 30121 30122 30123 30124 30125 30126 30127 30128 30129 30130 30131 30132 30133 30134 30135 30136 30137 30138 30139 30140 30141 30142 30143 30144 30145 30146 30147 30148 30149 30150 30151 30152 30153 30154 30155 30156 30157 30158 30159 30160 30161 30162 30163 30164 30165 30166 30167 30168 30169 30170 30171 30172 30173 30174 30175 30176 30177 30178 30179 30180 30181 30182 30183 30184 30185 30186 30187 30188 30189 30190 30191 30192 30193 30194 30195 30196 30197 30198 30199 30200 30201 30202 30203 30204 30205 30206 30207 30208 30209 30210 30211 30212 30213 30214 30215 30216 30217 30218 30219 30220 30221 30222 30223 30224 30225 30226 30227 30228 30229 30230 30231 30232 30233 30234 30235 30236 30237 30238 30239 30240 30241 30242 30243 30244 30245 30246 30247 30248 30249 30250 30251 30252 30253 30254 30255 30256 30257 30258 30259 30260 30261 30262 30263 30264 30265 30266 30267 30268 30269 30270 30271 30272 30273 30274 30275 30276 30277 30278 30279 30280 30281 30282 30283 30284 30285 30286 30287 30288 30289 30290 30291 30292 30293 30294 30295 30296 30297 30298 30299 30300 30301 30302 30303 30304 30305 30306 30307 30308 30309 30310 30311 30312 30313 30314 30315 30316 30317 30318 30319 30320 30321 30322 30323 30324 30325 30326 30327 30328 30329 30330 30331 30332 30333 30334 30335 30336 30337 30338 30339 30340 30341 30342 30343 30344 30345 30346 30347 30348 30349 30350 30351 30352 30353 30354 30355 30356 30357 30358 30359 30360 30361 30362 30363 30364 30365 30366 30367 30368 30369 30370 30371 30372 30373 30374 30375 30376 30377 30378 30379 30380 30381 30382 30383 30384 30385 30386 30387 30388 30389 30390 30391 30392 30393 30394 30395 30396 30397 30398 30399 30400 30401 30402 30403 30404 30405 30406 30407 30408 30409 30410 30411 30412 30413 30414 30415 30416 30417 30418 30419 30420 30421 30422 30423 30424 30425 30426 30427 30428 30429 30430 30431 30432 30433 30434 30435 30436 30437 30438 30439 30440 30441 30442 30443 30444 30445 30446 30447 30448 30449 30450 30451 30452 30453 30454 30455 30456 30457 30458 30459 30460 30461 30462 30463 30464 30465 30466 30467 30468 30469 30470 30471 30472 30473 30474 30475 30476 30477 30478 30479 30480 30481 30482 30483 30484 30485 30486 30487 30488 30489 30490 30491 30492 30493 30494 30495 30496 30497 30498 30499 30500 30501 30502 30503 30504 30505 30506 30507 30508 30509 30510 30511 30512 30513 30514 30515 30516 30517 30518 30519 30520 30521 30522 30523 30524 30525 30526 30527 30528 30529 30530 30531 30532 30533 30534 30535 30536 30537 30538 30539 30540 30541 30542 30543 30544 30545 30546 30547 30548 30549 30550 30551 30552 30553 30554 30555 30556 30557 30558 30559 30560 30561 30562 30563 30564 30565 30566 30567 30568 30569 30570 30571 30572 30573 30574 30575 30576 30577 
</DataArray>
<DataArray type="UInt32" Name="offsets" format="ascii">
3 6 9 12 15 18 20 23 26 29 31 34 37 40 42 45 48 51 54 57 60 62 64 67 70 73 76 78 80 83 85 87 90 92 95 98 101 103 106 109 111 114 117 120 123 126 129 132 134 137 140 143 146 149 152 155 158 160 163 166 168 171 173 176 178 181 183 186 189 192 195 198 201 204 207 210 213 216 219 222 225 228 231 233 236 239 242 245 248 251 254 257 259 262 265 267 269 272 275 278 281 284 287 290 293 296 299 302 305 307 310 313 316 319 322 324 327 330 332 335 338 341 344 347 350 353 356 359 362 365 368 371 374 377 380 383 386 389 391 394 397 400 403 406 408 411 414 417 420 423 426 429 432 435 438 441 444 447 450 453 456 459 462 465 468 471 474 477 480 482 485 487 490 493 496 498 501 504 507 509 512 515 518 520 522 525 528 530 533 536 539 542 544 547 550 553 556 559 561 564 567 570 573 575 578 580 583 586 588 591 594 597 599 602 605 607 610 613 616 619 622 625 628 631 634 637 639 642 645 647 650 653 656 659 662 665 668 670 673 676 679 682 685 688 691 694 697 700 703 706 709 712 715 718 721 724 727 730 733 735 738 740 743 746 749 752 755 757 760 763 766 769 772 775 778 781 783 786 789 792 794 797 800 802 805 808 811 814 816 819 822 824 827 830 833 836 839 841 844 846 849 852 855 858 861 864 867 870 873 876 879 882 885 888 891 894 897 900 902 905 908 911 914 917 919 921 924 927 930 933 936 939 942 945 948 951 953 956 959 962 965 968 971 974 977 980 982 985 988 990 992 995 998 1001 1003 1006 1009 1011 1014 1017 1020 1023 1026 1029 1032 1035 1038 1041 1044 1047 1050 1053 1056 1058 1061 1064 1067 1070 1073 1076 1079 1082 1084 1087 1090 1092 1095 1098 1101 1104 1106 1109 1112 1115 1118 1121 1124 1127 1130 1133 1136 1139 1142 1145 1148 1150 1152 1155 1158 1160 1162 1165 1167 1170 1172 1175 1177 1180 1183 1185 1188 1191 1194 1197 1200 1203 1206 1209 1212 1214 1216 1219 1222 1224 1227 1230 1233 1236 1239 1241 1244 1247 1249 1252 1255 1258 1261 1263 1266 1269 1272 1274 1277 1280 1283 1285 1288 1290 1293 1296 1298 1301 1304 1307 1310 1313 1316 1319 1322 1325 1328 1331 1333 1336 1339 1342 1345 1348 1351 1353 1356 1359 1362 1364 1367 1370 1373 1376 1379 1382 1385 1387 1390 1393 1396 1399 1402 1404 1407 1409 1412 1415 1418 1421 1424 1426 1428 1431 1434 1437 1439 1441 1444 1446 1449 1452 1455 1458 1461 1464 1467 1469 1472 1475 1478 1481 1484 1487 1490 1493 1496 1499 1502 1505 1508 1511 1513 1516 1519 1521 1524 1526 1529 1532 1535 1538 1541 1544 1547 1550 1553 1556 1559 1562 1565 1568 1570 1573 1576 1579 1582 1585 1588 1591 1594 1597 1600 1603 1606 1609 1612 1615 1618 1620 1623 1626 1629 1632 1635 1638 1641 1644 1647 1650 1653 1655 1657 1660 1663 1666 1669 1672 1675 1678 1681 1684 1687 1690 1693 1696 1699 1702 1705 1707 1710 1713 1716 1719 1722 1725 1728 1730 1733 1736 1739 1742 1745 1748 1751 1754 1756 1759 1762 1765 1767 1770 1773 1776 1779 1782 1785 1788 1791 1794 1797 1800 1803 1806 1809 1812 1815 1818 1821 1824 1827 1830 1833 1836 1839 1842 1845 1848 1851 1853 1856 1858 1861 1864 1867 1870 1873 1876 1879 1882 1885 1888 1891 1894 1897 1899 1902 1905 1908 1910 1913 1916 1919 1922 1925 1928 1931 1934 1937 1940 1943 1946 1949 1951 1953 1956 1959 1962 1965 1968 1971 1974 1976 1979 1982 1985 1988 1991 1994 1997 2000 2003 2006 2009 2011 2014 2017 2020 2023 2026 2029 2032 2034 2037 2040 2043 2046 2049 2052 2055 2058 2061 2064 2067 2070 2073 2076 2079 2082 2085 2087 2090 2093 2096 2099 2102 2105 2108 2111 2114 2117 2119 2122 2125 2128 2131 2134 2136 2139 2142 2145 2147 2150 2153 2156 2159 2161 2164 2167 2170 2173 2176 2179 2182 2184 2187 2189 2192 2195 2197 2200 2202 2205 2208 2211 2214 2217 2220 2223 2226 2229 2232 2235 2238 2241 2244 2247 2250 2253 2256 2259 2262 2265 2268 2271 2274 2277 2280 2283 2286 2289 2292 2295 2298 2301 2304 2307 2309 2312 2314 2316 2319 2322 2325 2328 2331 2334 2337 2340 2343 2346 2349 2351 2354 2357 2360 2363 2366 2369 2372 2374 2377 2379 2382 2384 2387 2390 2393 2396 2399 2402 2404 2407 2409 2411 2414 2417 2420 2423 2426 2429 2432 2435 2438 2441 2444 2447 2450 2453 2456 2459 2462 2464 2467 2470 2473 2476 2479 2482 2485 2488 2491 2494 2497 2500 2503 2506 2508 2511 2514 2517 2520 2523 2526 2529 2532 2535 2538 2541 2544 2547 2549 2552 2555 2558 2561 2564 2567 2570 2573 2576 2578 2581 2584 2587 2590 2593 2595 2597 2600 2603 2606 2609 2611 2613 2616 2619 2622 2625 2628 2631 2634 2637 2640 2643 2646 2648 2651 2654 2657 2660 2662 2665 2668 2671 2674 2677 2680 2682 2685 2688 2690 2693 2695 2698 2701 2704 2706 2709 2712 2715 2718 2721 2724 2727 2729 2732 2735 2738 2741 2743 2745 2748 2751 2753 2756 2759 2762 2764 2766 2768 2770 2773 2776 2778 2781 2784 2787 2790 2793 2796 2799 2802 2804 2806 2809 2812 2815 2818 2821 2824 2826 2829 2831 2834 2837 2840 2842 2845 2848 2851 2854 2857 2860 2863 2866 2869 2872 2875 2878 2881 2884 2887 2890 2893 2896 2899 2902 2905 2908 2911 2914 2917 2920 2923 2926 2928 2931 2934 2937 2940 2943 2946 2949 2952 2955 2958 2961 2964 2967 2970 2973 2976 2979 2982 2985 2988 2991 2993 2996 2999 3002 3005 3008 3011 3014 3017 3020 3022 3025 3028 3031 3034 3037 3040 3042 3045 3048 3051 3054 3057 3059 3062 3065 3068 3071 3074 3076 3079 3082 3085 3088 3091 3094 3097 3100 3103 3106 3108 3111 3114 3117 3120 3122 3124 3127 3130 3132 3135 3138 3141 3144 3146 3149 3152 3154 3157 3160 3163 3166 3169 3171 3173 3176 3179 3182 3185 3188 3191 3193 3196 3199 3202 3205 3208 3211 3214 3216 3218 3221 3224 3227 3229 3232 3235 3238 3240 3243 3246 3248 3251 3253 3256 3259 3262 3264 3267 3270 3272 3274 3277 3280 3283 3286 3289 3292 3294 3297 3299 3302 3304 3307 3310 3313 3315 3317 3320 3322 3325 3328 3331 3334 3337 3340 3343 3346 3349 3352 3355 3358 3361 3364 3367 3370 3372 3375 3378 3381 3384 3387 3390 3393 3395 3398 3401 3404 3407 3410 3412 3415 3418 3421 3423 3426 3429 3432 3435 3437 3440 3442 3445 3447 3450 3453 3456 3459 3461 3464 3467 3469 3472 3475 3478 3481 3484 3487 3490 3493 3496 3499 3502 3504 3507 3510 3513 3516 3518 3521 3524 3527 3530 3532 3535 3538 3541 3544 3547 3550 3552 3555 3558 3561 3563 3566 3568 3570 3573 3576 3579 3582 3585 3588 3591 3594 3597 3600 3603 3606 3609 3612 3615 3618 3621 3624 3627 3630 3633 3636 3639 3642 3645 3648 3651 3654 3656 3659 3662 3664 3666 3669 3671 3674 3677 3680 3683 3685 3688 3691 3693 3696 3699 3702 3705 3708 3711 3714 3717 3720 3723 3726 3729 3732 3735 3738 3741 3744 3747 3750 3753 3756 3759 3762 3765 3768 3771 3774 3777 3779 3782 3785 3788 3791 3794 3797 3800 3803 3805 3808 3811 3814 3817 3820 3823 3826 3828 3831 3833 3836 3839 3842 3844 3847 3850 3853 3856 3859 3862 3865 3867 3870 3872 3875 3878 3881 3884 3887 3889 3892 3895 3898 3901 3904 3907 3910 3913 3916 3919 3922 3925 3928 3931 3934 3937 3940 3943 3946 3949 3952 3955 3958 3961 3964 3967 3970 3973 3976 3979 3982 3985 3988 3991 3994 3997 4000 4003 4006 4008 4010 4013 4016 4018 4021 4024 4027 4029 4032 4035 4038 4040 4042 4045 4048 4050 4053 4056 4059 4062 4065 4068 4071 4074 4077 4080 4083 4086 4089 4092 4095 4098 4101 4104 4107 4110 4113 4115 4118 4120 4123 4126 4129 4132 4135 4138 4141 4144 4147 4150 4153 4156 4159 4162 4165 4168 4171 4174 4177 4180 4183 4186 4189 4192 4195 4198 4201 4204 4207 4210 4213 4216 4219 4222 4225 4228 4231 4234 4237 4240 4243 4246 4249 4252 4255 4257 4260 4262 4265 4267 4270 4273 4275 4278 4281 4284 4287 4290 4293 4296 4299 4302 4305 4308 4311 4314 4317 4320 4323 4326 4329 4332 4335 4338 4341 4344 4347 4350 4353 4356 4358 4361 4364 4367 4370 4373 4376 4379 4382 4385 4388 4391 4394 4397 4400 4403 4406 4409 4412 4415 4418 4421 4424 4427 4430 4433 4436 4439 4442 4445 4448 4451 4454 4457 4460 4463 4466 4469 4472 4475 4478 4481 4484 4487 4490 4493 4496 4499 4502 4505 4507 4510 4513 4516 4519 4521 4524 4527 4530 4533 4536 4539 4542 4545 4547 4550 4553 4556 4559 4562 4564 4566 4568 4571 4574 4577 4580 4582 4584 4587 4590 4592 4595 4598 4601 4604 4607 4610 4613 4616 4619 4622 4625 4628 4631 4634 4636 4638 4641 4643 4646 4649 4652 4655 4658 4661 4664 4667 4670 4673 4676 4679 4682 4685 4688 4691 4694 4697 4699 4702 4705 4708 4711 4714 4717 4719 4722 4725 4728 4731 4734 4737 4740 4743 4746 4749 4752 4755 4758 4761 4764 4767 4770 4773 4775 4778 4781 4784 4787 4790 4793 4796 4799 4802 4804 4807 4810 4812 4815 4818 4821 4824 4827 4830 4833 4836 4839 4842 4845 4848 4851 4854 4857 4860 4862 4865 4867 4870 4873 4876 4879 4881 4884 4886 4889 4892 4894 4896 4899 4902 4904 4907 4910 4913 4915 4918 4921 4924 4927 4930 4933 4935 4938 4941 4944 4946 4949 4952 4955 4958 4960 4963 4966 4969 4972 4975 4978 4981 4983 4986 4989 4992 4995 4998 5000 5003 5006 5008 5011 5014 5017 5020 5023 5026 5029 5031 5034 5037 5040 5042 5044 5047 5050 5053 5055 5058 5061 5064 5067 5070 5072 5074 5076 5079 5082 5085 5088 5091 5094 5097 5100 5103 5105 5107 5110 5112 5115 5118 5121 5124 5127 5129 5132 5135 5137 5140 5142 5145 5148 5151 5153 5156 5159 5161 5164 5167 5170 5173 5176 5179 5182 5184 5187 5190 5192 5194 5197 5200 5202 5205 5207 5210 5213 5215 5218 5221 5223 5226 5228 5231 5234 5237 5239 5242 5245 5247 5250 5252 5255 5258 5260 5263 5265 5268 5271 5274 5277 5279 5281 5284 5287 5290 5293 5296 5299 5302 5305 5308 5310 5313 5316 5319 5322 5325 5328 5331 5334 5337 5340 5343 5346 5349 5352 5355 5358 5361 5364 5366 5368 5371 5374 5377 5379 5382 5385 5388 5391 5393 5396 5399 5401 5404 5407 5410 5412 5415 5418 5420 5423 5426 5429 5432 5434 5437 5440 5443 5446 5449 5451 5454 5457 5460 5462 5464 5467 5470 5472 5475 5478 5481 5484 5487 5489 5491 5494 5497 5500 5503 5505 5508 5511 5514 5517 5519 5522 5525 5528 5531 5534 5537 5540 5543 5546 5549 5552 5555 5558 5561 5564 5567 5570 5573 5576 5579 5582 5585 5588 5591 5594 5597 5600 5603 5605 5608 5611 5614 5617 5620 5623 5626 5629 5632 5635 5638 5640 5643 5646 5649 5652 5654 5657 5660 5663 5665 5668 5671 5673 5676 5679 5682 5685 5688 5690 5693 5696 5699 5702 5705 5708 5711 5714 5717 5720 5723 5726 5729 5732 5735 5738 5741 5744 5747 5750 5752 5755 5758 5761 5764 5767 5769 5772 5775 5778 5781 5784 5787 5790 5792 5795 5798 5801 5804 5807 5810 5813 5816 5819 5822 5825 5828 5831 5833 5836 5839 5842 5845 5848 5850 5852 5855 5858 5861 5864 5866 5869 5871 5874 5877 5880 5882 5884 5887 5890 5892 5895 5898 5901 5903 5906 5909 5912 5915 5917 5920 5923 5925 5927 5930 5933 5936 5939 5942 5945 5947 5950 5953 5955 5958 5961 5964 5967 5969 5972 5975 5978 5981 5984 5987 5990 5993 5996 5999 6002 6005 6008 6011 6014 6017 6020 6023 6026 6028 6031 6033 6036 6039 6042 6044 6047 6049 6052 6054 6057 6060 6062 6065 6068 6070 6072 6074 6077 6080 6083 6085 6088 6091 6094 6097 6100 6103 6105 6108 6111 6114 6117 6120 6123 6126 6128 6131 6133 6136 6139 6142 6145 6148 6151 6154 6156 6159 6162 6165 6168 6171 6174 6177 6180 6183 6186 6189 6191 6194 6197 6199 6202 6205 6208 6211 6214 6217 6220 6223 6226 6229 6232 6235 6238 6241 6244 6247 6249 6252 6255 6258 6261 6264 6267 6270 6273 6276 6279 6282 6285 6288 6291 6294 6297 6300 6303 6306 6309 6312 6314 6317 6320 6323 6325 6328 6331 6334 6337 6340 6343 6346 6349 6352 6355 6357 6360 6363 6366 6369 6372 6375 6378 6381 6384 6387 6389 6392 6395 6398 6401 6404 6407 6409 6412 6415 6418 6420 6423 6426 6429 6432 6435 6438 6441 6444 6447 6450 6453 6456 6459 6462 6465 6468 6471 6474 6477 6480 6483 6485 6488 6491 6494 6497 6500 6502 6505 6508 6510 6513 6516 6519 6522 6525 6528 6530 6533 6536 6539 6542 6544 6547 6550 6553 6556 6559 6562 6565 6568 6571 6574 6577 6580 6583 6586 6589 6592 6595 6598 6600 6603 6606 6609 6612 6615 6617 6620 6623 6626 6628 6631 6633 6636 6639 6642 6645 6648 6651 6654 6656 6659 6662 6665 6667 6669 6672 6675 6678 6681 6684 6686 6689 6692 6695 6697 6700 6703 6706 6709 6712 6715 6718 6721 6724 6727 6730 6733 6736 6739 6742 6744 6747 6750 6753 6756 6759 6762 6764 6767 6770 6773 6776 6779 6782 6785 6788 6791 6794 6797 6799 6802 6805 6808 6811 6814 6817 6820 6823 6826 6828 6831 6834 6837 6840 6842 6844 6847 6850 6853 6856 6859 6862 6865 6868 6870 6872 6875 6877 6880 6883 6886 6889 6892 6894 6897 6900 6903 6906 6909 6912 6914 6917 6919 6922 6925 6928 6931 6934 6937 6940 6943 6946 6949 6951 6954 6957 6960 6963 6966 6969 6971 6974 6977 6980 6983 6986 6989 6992 6995 6997 7000 7003 7006 7009 7012 7014 7017 7020 7022 7025 7028 7031 7034 7037 7040 7042 7045 7048 7051 7054 7057 7060 7063 7066 7068 7071 7074 7077 7080 7082 7085 7088 7091 7094 7097 7100 7103 7106 7109 7112 7114 7117 7120 7123 7126 7129 7132 7135 7138 7141 7143 7146 7149 7152 7155 7157 7160 7163 7166 7169 7172 7175 7178 7181 7183 7186 7188 7191 7194 7197 7199 7202 7205 7208 7211 7214 7217 7220 7223 7225 7228 7231 7234 7236 7239 7242 7245 7247 7250 7253 7255 7258 7261 7264 7267 7270 7273 7276 7279 7282 7285 7288 7291 7294 7297 7300 7303 7306 7309 7312 7315 7318 7321 7324 7327 7330 7333 7336 7339 7342 7345 7348 7351 7354 7357 7360 7363 7366 7369 7372 7375 7378 7381 7384 7387 7390 7393 7396 7399 7402 7405 7408 7411 7414 7416 7419 7422 7425 7427 7430 7433 7436 7439 7442 7445 7447 7450 7452 7455 7458 7461 7464 7466 7468 7471 7474 7477 7480 7483 7486 7489 7492 7495 7498 7501 7504 7507 7510 7513 7516 7519 7522 7525 7528 7531 7534 7536 7539 7542 7544 7547 7550 7553 7555 7558 7561 7564 7567 7570 7573 7576 7579 7582 7585 7588 7591 7594 7597 7599 7602 7604 7607 7609 7612 7615 7618 7621 7624 7627 7630 7633 7636 7639 7642 7645 7648 7651 7654 7657 7660 7662 7665 7668 7671 7674 7677 7680 7683 7686 7689 7692 7695 7698 7701 7704 7707 7710 7713 7716 7719 7722 7725 7728 7731 7734 7737 7740 7743 7746 7749 7752 7755 7758 7761 7763 7766 7769 7772 7775 7778 7781 7783 7786 7789 7791 7794 7796 7799 7802 7804 7807 7810 7813 7815 7818 7821 7824 7827 7830 7833 7836 7839 7842 7845 7848 7851 7854 7857 7860 7863 7866 7869 7872 7875 7878 7881 7884 7887 7890 7892 7895 7898 7901 7904 7906 7909 7912 7914 7917 7920 7923 7926 7929 7932 7935 7938 7941 7944 7947 7950 7953 7956 7959 7962 7965 7968 7971 7974 7977 7980 7983 7986 7989 7992 7995 7998 8001 8004 8006 8009 8012 8015 8017 8020 8023 8026 8029 8031 8034 8037 8040 8043 8046 8048 8051 8054 8057 8060 8062 8065 8068 8071 8074 8077 8080 8083 8086 8089 8092 8095 8098 8101 8104 8106 8108 8111 8113 8116 8118 8121 8124 8127 8130 8133 8136 8139 8142 8145 8148 8151 8154 8157 8160 8163 8166 8169 8172 8175 8178 8181 8184 8187 8190 8193 8195 8197 8200 8203 8205 8208 8211 8213 8216 8219 8222 8225 8228 8231 8234 8237 8240 8243 8246 8248 8251 8254 8256 8259 8262 8265 8268 8271 8274 8277 8280 8283 8286 8289 8292 8295 8298 8300 8302 8305 8307 8309 8312 8315 8318 8321 8323 8326 8329 8332 8334 8336 8339 8342 8345 8348 8351 8354 8357 8359 8362 8365 8368 8371 8374 8377 8380 8383 8386 8389 8392 8395 8398 8401 8404 8407 8409 8412 8415 8418 8421 8423 8426 8429 8432 8435 8438 8441 8444 8446 8449 8452 8455 8458 8461 8464 8467 8469 8472 8475 8477 8480 8483 8486 8489 8492 8495 8498 8501 8504 8507 8510 8513 8516 8519 8522 8524 8527 8530 8533 8536 8539 8542 8545 8548 8550 8553 8556 8559 8562 8565 8568 8571 8573 8576 8579 8582 8585 8588 8590 8593 8596 8599 8602 8604 8607 8610 8613 8616 8619 8622 8625 8628 8631 8634 8637 8640 8642 8645 8648 8651 8654 8657 8660 8663 8666 8669 8672 8675 8678 8681 8684 8686 8689 8692 8695 8698 8701 8704 8707 8710 8713 8716 8719 8722 8725 8727 8729 8732 8735 8737 8740 8743 8746 8749 8751 8754 8757 8760 8762 8765 8768 8770 8773 8776 8779 8782 8784 8787 8790 8793 8796 8799 8802 8805 8808 8811 8814 8817 8820 8823 8826 8829 8832 8835 8838 8841 8844 8847 8850 8853 8856 8859 8862 8865 8868 8871 8874 8877 8880 8883 8886 8888 8891 8894 8897 8899 8902 8904 8907 8910 8913 8916 8919 8922 8925 8928 8931 8934 8937 8940 8943 8946 8948 8951 8954 8957 8960 8963 8966 8969 8972 8974 8977 8980 8983 8985 8988 8991 8994 8997 9000 9003 9006 9008 9011 9013 9016 9019 9022 9025 9028 9031 9034 9037 9040 9043 9046 9049 9052 9055 9057 9060 9063 9065 9068 9071 9074 9077 9080 9083 9086 9088 9091 9094 9097 9100 9103 9106 9109 9112 9115 9118 9121 9124 9127 9130 9133 9136 9139 9142 9145 9148 9151 9154 9157 9160 9163 9166 9169 9171 9174 9177 9179 9182 9185 9188 9190 9193 9196 9198 9201 9204 9207 9210 9213 9216 9219 9222 9225 9228 9231 9234 9237 9240 9243 9246 9249 9252 9255 9257 9260 9263 9266 9269 9272 9275 9278 9281 9284 9287 9290 9293 9296 9298 9301 9304 9307 9310 9313 9316 9319 9322 9325 9328 9331 9334 9337 9340 9343 9346 9349 9352 9355 9357 9360 9363 9366 9369 9372 9375 9378 9381 9384 9387 9390 9393 9396 9399 9402 9405 9407 9410 9413 9415 9418 9421 9424 9426 9429 9432 9434 9437 9440 9443 9446 9449 9452 9455 9458 9461 9464 9467 9470 9473 9476 9478 9481 9484 9486 9489 9492 9495 9498 9501 9504 9507 9510 9513 9516 9519 9522 9525 9528 9531 9534 9537 9540 9543 9546 9549 9552 9555 9558 9561 9564 9567 9570 9573 9576 9579 9582 9585 9588 9591 9594 9596 9599 9602 9605 9608 9610 9613 9616 9619 9622 9625 9628 9631 9634 9637 9640 9643 9646 9649 9652 9655 9657 9660 9662 9664 9667 9670 9672 9675 9677 9680 9683 9686 9689 9692 9695 9698 9701 9703 9706 9709 9711 9714 9717 9720 9723 9725 9727 9730 9732 9735 9738 9741 9744 9747 9750 9753 9756 9759 9762 9765 9768 9771 9774 9777 9780 9783 9786 9789 9792 9795 9797 9800 9803 9806 9809 9812 9815 9818 9821 9824 9827 9830 9833 9836 9839 9842 9845 9848 9851 9854 9857 9860 9863 9866 9869 9872 9874 9877 9880 9883 9886 9889 9891 9894 9897 9900 9903 9906 9909 9912 9915 9918 9920 9923 9926 9929 9932 9935 9938 9941 9944 9947 9950 9953 9956 9959 9962 9965 9968 9971 9973 9975 9978 9981 9983 9986 9989 9992 9994 9997 10000 10003 10006 10009 10012 10015 10018 10021 10024 10026 10029 10032 10034 10037 10039 10042 10045 10048 10051 10053 10056 10059 10062 10064 10067 10070 10073 10076 10079 10082 10084 10087 10090 10093 10096 10099 10102 10104 10107 10110 10113 10116 10119 10122 10125 10128 10131 10134 10137 10140 10143 10146 10148 10151 10154 10156 10159 10162 10165 10167 10169 10172 10175 10178 10181 10184 10187 10190 10193 10196 10199 10201 10204 10207 10210 10212 10215 10218 10221 10224 10226 10229 10232 10235 10238 10241 10244 10247 10250 10252 10255 10258 10261 10264 10267 10269 10271 10274 10277 10280 10282 10285 10287 10289 10292 10295 10298 10301 10304 10306 10309 10312 10315 10318 10321 10324 10326 10329 10332 10335 10338 10341 10344 10347 10349 10352 10355 10357 10360 10363 10365 10368 10371 10374 10377 10380 10383 10386 10389 10392 10395 10398 10401 10404 10407 10409 10412 10415 10418 10420 10423 10426 10428 10431 10434 10437 10440 10442 10445 10448 10451 10454 10457 10460 10463 10466 10468 10471 10474 10477 10480 10482 10485 10488 10491 10494 10497 10500 10503 10506 10508 10511 10514 10517 10520 10523 10526 10529 10532 10535 10537 10540 10543 10546 10548 10551 10554 10556 10559 10562 10564 10567 10570 10573 10576 10579 10582 10585 10588 10591 10593 10596 10599 10602 10605 10608 10611 10614 10617 10620 10623 10626 10629 10632 10635 10638 10641 10643 10646 10649 10652 10655 10658 10661 10664 10667 10670 10673 10676 10679 10682 10685 10688 10691 10694 10697 10700 10703 10706 10709 10712 10715 10718 10721 10723 10726 10728 10731 10734 10737 10740 10743 10746 10749 10752 10755 10758 10760 10763 10766 10768 10771 10774 10777 10780 10783 10786 10789 10792 10795 10798 10801 10804 10807 10810 10813 10816 10819 10822 10825 10828 10831 10833 10836 10839 10842 10845 10848 10851 10854 10857 10860 10862 10865 10867 10870 10873 10876 10879 10882 10885 10888 10890 10893 10895 10898 10901 10904 10907 10910 10913 10916 10919 10922 10925 10928 10930 10933 10936 10939 10942 10944 10947 10949 10952 10955 10958 10961 10964 10967 10969 10972 10975 10977 10980 10983 10985 10988 10991 10994 10996 10998 11000 11003 11006 11009 11012 11015 11018 11021 11024 11027 11030 11033 11036 11039 11041 11044 11047 11050 11053 11056 11059 11062 11064 11067 11069 11072 11074 11077 11080 11082 11084 11087 11090 11093 11096 11099 11102 11104 11107 11110 11113 11116 11118 11121 11123 11126 11128 11131 11133 11136 11139 11142 11145 11147 11150 11153 11156 11159 11162 11164 11167 11170 11173 11176 11179 11182 11185 11188 11191 11194 11197 11200 11203 11206 11208 11211 11214 11217 11220 11223 11225 11228 11231 11234 11236 11239 11242 11245 11248 11251 11254 11257 11260 11263 11266 11269 11272 11275 11278 11281 11284 11287 11289 11292 11295 11298 11301 11303 11306 11309 11312 11315 11318 11321 11323 11326 11329 11332 11335 11338 11341 11344 11347 11350 11353 11355 11358 11361 11363 11366 11368 11371 11374 11377 11380 11383 11386 11389 11392 11395 11398 11401 11403 11406 11409 11412 11415 11418 11421 11423 11426 11428 11430 11433 11435 11438 11441 11444 11447 11450 11453 11456 11458 11461 11464 11467 11470 11473 11476 11479 11482 11485 11488 11491 11494 11497 11500 11503 11506 11508 11511 11514 11517 11520 11523 11526 11529 11532 11535 11538 11540 11543 11546 11549 11552 11555 11558 11561 11564 11567 11570 11572 11575 11578 11581 11584 11586 11589 11592 11595 11598 11601 11603 11606 11609 11612 11615 11617 11620 11623 11626 11629 11632 11635 11638 11641 11644 11647 11650 11653 11656 11659 11662 11665 11668 11671 11673 11676 11679 11682 11685 11688 11691 11694 11697 11699 11702 11704 11706 11709 11712 11715 11718 11721 11723 11726 11729 11732 11735 11738 11741 11744 11747 11750 11753 11756 11759 11762 11765 11767 11770 11773 11775 11778 11780 11782 11785 11788 11791 11794 11797 11800 11802 11805 11808 11811 11814 11816 11819 11821 11824 11827 11829 11832 11835 11838 11841 11844 11847 11849 11851 11854 11857 11860 11863 11866 11869 11872 11875 11878 11881 11884 11887 11890 11893 11896 11898 11901 11904 11907 11910 11913 11916 11919 11921 11924 11926 11929 11932 11935 11937 11940 11942 11945 11948 11951 11954 11957 11960 11963 11966 11968 11971 11974 11977 11980 11983 11985 11988 11990 11993 11996 11999 12002 12004 12007 12010 12013 12016 12019 12021 12024 12027 12030 12033 12036 12039 12042 12045 12048 12051 12054 12057 12060 12063 12066 12069 12072 12075 12078 12081 12084 12087 12090 12093 12095 12098 12101 12104 12106 12109 12111 12114 12117 12120 12122 12125 12128 12131 12134 12137 12140 12143 12146 12149 12152 12155 12158 12161 12164 12167 12170 12173 12175 12177 12179 12181 12184 12187 12190 12193 12196 12199 12201 12204 12207 12210 12212 12215 12218 12221 12224 12227 12230 12233 12236 12239 12242 12244 12246 12248 12251 12254 12256 12258 12261 12264 12267 12270 12273 12276 12279 12282 12285 12287 12290 12293 12296 12299 12302 12305 12308 12311 12313 12315 12318 12321 12324 12326 12329 12332 12335 12338 12341 12344 12347 12350 12353 12356 12359 12361 12364 12366 12369 12372 12375 12378 12381 12383 12385 12388 12391 12393 12395 12398 12401 12404 12407 12410 12413 12416 12419 12422 12425 12428 12431 12434 12437 12440 12443 12446 12449 12452 12455 12458 12461 12464 12467 12470 12473 12476 12479 12482 12485 12488 12491 12494 12497 12500 12503 12506 12509 12512 12515 12518 12521 12523 12525 12528 12531 12534 12537 12540 12543 12546 12549 12552 12555 12558 12561 12564 12567 12570 12573 12576 12579 12582 12585 12587 12590 12593 12596 12599 12602 12605 12608 12611 12614 12617 12620 12623 12626 12629 12632 12635 12637 12640 12642 12645 12648 12651 12654 12657 12660 12663 12666 12668 12671 12674 12677 12680 12683 12686 12689 12692 12695 12698 12701 12703 12706 12709 12711 12714 12717 12719 12722 12725 12728 12731 12733 12736 12739 12742 12745 12747 12750 12753 12755 12758 12760 12763 12766 12769 12772 12775 12777 12780 12783 12786 12789 12792 12795 12798 12800 12803 12806 12809 12812 12815 12818 12821 12824 12827 12830 12833 12836 12839 12842 12845 12848 12851 12854 12857 12860 12863 12866 12869 12872 12874 12877 12880 12883 12885 12888 12891 12893 12896 12899 12902 12904 12907 12910 12913 12916 12918 12921 12923 12926 12929 12932 12935 12938 12941 12944 12947 12949 12952 12955 12958 12961 12964 12967 12970 12973 12976 12979 12981 12984 12987 12989 12992 12995 12997 13000 13003 13005 13007 13010 13013 13016 13019 13022 13025 13028 13030 13032 13035 13038 13041 13043 13046 13049 13051 13053 13056 13059 13062 13064 13066 13069 13071 13074 13077 13079 13082 13085 13088 13091 13093 13096 13098 13100 13103 13106 13109 13111 13114 13116 13118 13121 13123 13125 13127 13129 13132 13134 13137 13139 13142 13144 13147 13150 13153 13155 13158 13161 13163 13166 13168 13170 13173 13176 13179 13182 13184 13187 13189 13191 13194 13197 13200 13202 13204 13207 13210 13212 13214 13217 13220 13223 13226 13228 13231 13234 13237 13240 13242 13245 13248 13251 13254 13256 13259 13261 13264 13266 13269 13271 13274 13276 13279 13281 13284 13287 13290 13293 13296 13298 13301 13304 13306 13308 13310 13313 13316 13318 13320 13323 13325 13328 13331 13333 13336 13339 13342 13345 13348 13351 13353 13356 13359 13361 13364 13366 13369 13372 13375 13378 13380 13383 13385 13388 13390 13393 13396 13399 13401 13404 13407 13409 13412 13414 13417 13419 13422 13425 13428 13431 13434 13436 13439 13442 13445 13448 13451 13454 13457 13460 13463 13466 13468 13471 13474 13477 13480 13482 13485 13488 13490 13493 13496 13499 13502 13505 13507 13510 13513 13515 13518 13521 13524 13526 13529 13531 13534 13537 13540 13542 13545 13548 13551 13554 13556 13559 13562 13565 13568 13570 13572 13575 13578 13581 13584 13587 13590 13592 13595 13598 13600 13603 13606 13609 13612 13615 13618 13621 13624 13627 13630 13633 13636 13639 13642 13645 13648 13651 13654 13657 13660 13663 13666 13669 13672 13675 13678 13681 13684 13687 13690 13693 13696 13699 13702 13705 13708 13711 13714 13717 13720 13723 13726 13729 13732 13735 13738 13741 13744 13747 13750 13753 13756 13759 13762 13765 13768 13771 13774 13776 13779 13782 13785 13788 13791 13794 13797 13800 13803 13806 13809 13812 13814 13817 13820 13822 13825 13828 13831 13833 13836 13839 13842 13845 13848 13851 13854 13857 13860 13863 13866 13869 13872 13875 13878 13880 13883 13886 13889 13892 13895 13898 13901 13904 13907 13910 13913 13916 13919 13922 13925 13928 13930 13933 13936 13939 13942 13945 13948 13951 13954 13957 13960 13963 13966 13969 13971 13974 13977 13979 13982 13985 13987 13990 13992 13995 13998 14001 14004 14007 14010 14013 14015 14018 14021 14024 14027 14030 14033 14036 14039 14042 14045 14048 14051 14053 14056 14059 14062 14064 14067 14070 14073 14076 14079 14082 14085 14088 14091 14093 14096 14099 14102 14105 14108 14111 14113 14116 14119 14122 14125 14128 14131 14133 14136 14139 14142 14144 14147 14150 14153 14156 14159 14162 14165 14167 14170 14173 14176 14179 14182 14185 14188 14191 14194 14197 14199 14202 14205 14208 14211 14214 14217 14220 14223 14226 14229 14232 14235 14238 14241 14244 14247 14249 14252 14254 14257 14260 14263 14266 14269 14272 14275 14278 14281 14284 14286 14289 14291 14294 14297 14300 14303 14306 14309 14312 14315 14318 14321 14324 14326 14329 14332 14335 14338 14341 14344 14347 14350 14353 14356 14359 14361 14364 14367 14370 14373 14376 14379 14382 14384 14387 14390 14393 14396 14399 14402 14405 14407 14410 14413 14416 14419 14422 14425 14428 14431 14434 14437 14440 14442 14445 14448 14451 14454 14457 14460 14463 14466 14468 14471 14473 14476 14479 14482 14485 14488 14491 14494 14497 14500 14503 14505 14508 14511 14514 14516 14519 14522 14525 14528 14531 14534 14537 14540 14543 14545 14548 14551 14554 14557 14560 14563 14566 14569 14572 14575 14578 14581 14584 14587 14590 14593 14595 14598 14601 14604 14607 14610 14613 14616 14619 14622 14625 14628 14631 14634 14637 14640 14643 14646 14649 14651 14654 14657 14659 14662 14665 14667 14670 14673 14676 14679 14682 14684 14687 14690 14693 14696 14699 14702 14705 14708 14711 14714 14717 14720 14723 14726 14729 14732 14735 14738 14741 14744 14747 14750 14753 14756 14759 14762 14765 14768 14771 14774 14777 14780 14783 14786 14789 14792 14795 14798 14801 14804 14807 14810 14813 14816 14819 14822 14825 14828 14831 14834 14837 14840 14843 14846 14849 14852 14855 14858 14861 14863 14866 14869 14871 14874 14877 14880 14883 14886 14889 14892 14895 14898 14901 14904 14907 14910 14913 14916 14919 14922 14925 14928 14931 14934 14937 14940 14943 14945 14947 14950 14953 14956 14959 14962 14965 14968 14971 14974 14977 14980 14983 14986 14989 14992 14995 14997 14999 15002 15005 15008 15011 15014 15017 15020 15022 15025 15027 15030 15033 15035 15037 15040 15043 15046 15049 15052 15055 15058 15061 15064 15067 15070 15072 15075 15077 15080 15083 15086 15088 15091 15094 15097 15099 15102 15104 15107 15110 15113 15116 15119 15121 15123 15126 15129 15132 15135 15138 15141 15144 15147 15150 15153 15156 15159 15162 15165 15168 15171 15174 15177 15180 15183 15186 15189 15192 15195 15198 15201 15204 15207 15210 15213 15216 15219 15222 15225 15228 15231 15234 15237 15240 15243 15246 15249 15252 15255 15258 15261 15264 15267 15270 15273 15276 15279 15282 15285 15288 15291 15294 15297 15300 15303 15306 15309 15312 15315 15318 15321 15324 15327 15330 15333 15336 15339 15342 15345 15348 15351 15354 15357 15360 15363 15366 15369 15372 15375 15378 15381 15384 15387 15390 15393 15396 15399 15402 15405 15408 15411 15414 15417 15420 15423 15426 15429 15432 15435 15437 15439 15442 15444 15447 15449 15452 15455 15457 15460 15463 15466 15469 15471 15474 15477 15480 15483 15486 15489 15492 15494 15496 15498 15501 15504 15507 15510 15513 15515 15517 15520 15523 15526 15529 15532 15535 15538 15541 15544 15547 15550 15553 15556 15559 15562 15565 15568 15571 15574 15577 15580 15583 15586 15589 15592 15595 15598 15601 15604 15607 15610 15613 15616 15619 15621 15624 15627 15629 15632 15635 15638 15641 15644 15647 15650 15653 15656 15659 15662 15664 15667 15670 15673 15676 15679 15682 15685 15687 15690 15693 15696 15699 15702 15705 15708 15711 15714 15717 15720 15723 15726 15729 15732 15735 15737 15740 15743 15745 15748 15751 15754 15757 15760 15763 15766 15769 15772 15775 15778 15781 15784 15787 15790 15793 15796 15799 15802 15805 15808 15811 15814 15816 15819 15822 15824 15827 15830 15832 15835 15838 15841 15844 15847 15850 15853 15855 15858 15861 15864 15867 15870 15873 15875 15878 15881 15883 15886 15889 15892 15895 15897 15900 15902 15905 15908 15910 15913 15916 15919 15922 15924 15927 15929 15932 15935 15937 15940 15943 15946 15949 15952 15955 15958 15961 15964 15967 15970 15973 15975 15978 15981 15984 15986 15989 15992 15994 15997 16000 16003 16006 16008 16011 16014 16017 16020 16023 16026 16029 16032 16035 16038 16040 16043 16046 16049 16052 16055 16058 16061 16064 16067 16070 16072 16075 16078 16081 16084 16087 16090 16093 16096 16099 16102 16105 16108 16110 16113 16116 16118 16121 16124 16127 16130 16133 16136 16139 16142 16145 16148 16150 16153 16156 16159 16162 16165 16167 16170 16172 16174 16177 16180 16182 16185 16188 16191 16194 16197 16200 16203 16206 16209 16211 16213 16216 16219 16222 16225 16228 16231 16233 16236 16239 16242 16245 16248 16251 16254 16257 16260 16263 16266 16269 16272 16275 16278 16281 16284 16287 16290 16293 16296 16299 16302 16305 16308 16310 16313 16316 16319 16322 16325 16328 16331 16334 16337 16340 16343 16346 16349 16352 16355 16358 16361 16364 16367 16370 16373 16376 16379 16382 16385 16388 16391 16394 16397 16400 16403 16406 16409 16412 16415 16418 16421 16424 16427 16430 16432 16435 16438 16441 16444 16447 16450 16453 16456 16459 16462 16464 16467 16470 16473 16475 16478 16480 16483 16486 16489 16491 16494 16497 16500 16502 16505 16507 16510 16512 16515 16517 16519 16522 16525 16527 16530 16533 16536 16538 16541 16544 16547 16550 16553 16555 16558 16561 16564 16567 16569 16572 16575 16578 16580 16583 16586 16589 16592 16594 16597 16599 16602 16605 16608 16611 16614 16617 16620 16623 16626 16629 16632 16635 16638 16641 16643 16646 16649 16652 16655 16657 16660 16663 16665 16668 16671 16673 16675 16678 16681 16683 16686 16688 16691 16694 16697 16699 16701 16703 16705 16708 16711 16713 16716 16719 16722 16725 16727 16730 16732 16735 16738 16740 16742 16744 16747 16749 16752 16755 16757 16759 16761 16764 16767 16770 16773 16776 16779 16782 16785 16788 16790 16792 16795 16798 16801 16804 16806 16808 16811 16814 16817 16819 16822 16824 16827 16830 16833 16836 16839 16842 16845 16848 16851 16854 16857 16859 16862 16865 16868 16871 16874 16877 16880 16883 16886 16889 16892 16895 16898 16901 16904 16907 16910 16913 16916 16919 16922 16925 16928 16930 16933 16936 16939 16942 16945 16948 16951 16954 16957 16960 16963 16966 16969 16972 16975 16978 16980 16983 16986 16988 16991 16994 16997 17000 17003 17006 17009 17012 17015 17017 17020 17023 17026 17028 17030 17033 17036 17038 17041 17044 17047 17050 17053 17055 17058 17060 17063 17066 17069 17071 17074 17077 17080 17083 17086 17089 17092 17094 17097 17100 17102 17105 17108 17111 17114 17116 17119 17122 17125 17127 17129 17132 17135 17137 17140 17143 17146 17148 17151 17154 17157 17160 17163 17166 17169 17171 17174 17177 17179 17182 17184 17186 17188 17191 17193 17196 17198 17200 17203 17206 17209 17212 17215 17218 17220 17223 17226 17228 17231 17234 17237 17240 17243 17246 17249 17252 17255 17258 17261 17264 17267 17270 17273 17276 17279 17282 17285 17288 17291 17294 17297 17300 17303 17306 17309 17312 17315 17318 17321 17324 17327 17330 17333 17335 17337 17340 17343 17346 17349 17352 17355 17358 17361 17363 17365 17367 17369 17372 17375 17377 17380 17383 17386 17389 17392 17395 17398 17401 17403 17406 17409 17411 17414 17417 17420 17422 17425 17428 17431 17434 17436 17439 17442 17445 17448 17451 17454 17457 17460 17463 17466 17469 17472 17475 17478 17480 17483 17486 17489 17492 17495 17497 17500 17503 17506 17509 17512 17515 17518 17521 17523 17526 17529 17532 17534 17536 17539 17542 17544 17546 17549 17552 17555 17558 17561 17563 17566 17569 17572 17575 17578 17581 17583 17586 17588 17591 17594 17597 17600 17603 17606 17609 17612 17614 17616 17619 17621 17623 17625 17628 17630 17633 17636 17639 17642 17645 17648 17650 17653 17656 17659 17662 17665 17668 17671 17673 17676 17679 17682 17685 17688 17691 17694 17697 17700 17703 17706 17709 17712 17715 17718 17721 17724 17727 17730 17733 17736 17739 17742 17745 17748 17751 17754 17757 17760 17763 17766 17769 17772 17775 17778 17781 17784 17787 17790 17793 17796 17799 17802 17805 17808 17811 17814 17817 17820 17823 17826 17829 17832 17835 17838 17841 17844 17846 17849 17852 17855 17858 17861 17864 17867 17869 17872 17875 17877 17880 17883 17886 17888 17891 17893 17896 17899 17901 17904 17907 17910 17913 17916 17919 17922 17924 17927 17930 17933 17935 17938 17941 17944 17947 17950 17953 17956 17958 17961 17963 17966 17969 17972 17975 17978 17981 17984 17987 17990 17993 17996 17999 18002 18005 18008 18011 18014 18017 18020 18023 18026 18029 18032 18035 18038 18040 18042 18045 18047 18050 18053 18056 18059 18062 18065 18068 18070 18073 18075 18078 18080 18082 18084 18087 18090 18092 18095 18098 18100 18103 18106 18109 18111 18114 18117 18120 18123 18126 18129 18132 18134 18136 18139 18142 18144 18147 18150 18153 18155 18158 18161 18164 18167 18169 18172 18174 18177 18180 18183 18186 18189 18192 18194 18197 18199 18202 18205 18208 18211 18214 18216 18219 18222 18224 18227 18230 18233 18236 18239 18242 18245 18248 18251 18254 18257 18260 18263 18266 18269 18272 18274 18277 18280 18282 18284 18287 18289 18292 18295 18298 18301 18304 18307 18310 18313 18315 18318 18321 18324 18327 18330 18333 18336 18339 18342 18345 18348 18351 18354 18357 18360 18363 18365 18368 18371 18374 18376 18379 18382 18384 18387 18390 18393 18396 18399 18402 18404 18407 18410 18413 18416 18419 18422 18425 18428 18431 18434 18437 18440 18443 18446 18449 18452 18455 18458 18461 18463 18465 18468 18471 18474 18477 18480 18483 18486 18488 18491 18494 18497 18499 18502 18505 18507 18510 18512 18515 18518 18520 18523 18525 18527 18530 18532 18535 18537 18540 18542 18545 18548 18551 18554 18557 18560 18563 18566 18569 18572 18575 18578 18581 18584 18587 18589 18591 18594 18597 18600 18603 18606 18609 18612 18614 18617 18620 18623 18626 18629 18632 18635 18638 18641 18644 18647 18650 18653 18656 18659 18661 18664 18666 18669 18672 18675 18678 18681 18684 18686 18689 18692 18695 18697 18700 18703 18706 18708 18711 18714 18717 18720 18723 18726 18729 18732 18735 18738 18741 18744 18747 18750 18753 18756 18759 18762 18765 18768 18771 18773 18776 18779 18782 18785 18787 18790 18793 18796 18799 18802 18804 18807 18810 18813 18815 18818 18821 18824 18827 18830 18833 18836 18839 18842 18845 18848 18851 18853 18856 18859 18862 18865 18867 18870 18873 18876 18879 18882 18885 18888 18891 18893 18896 18899 18902 18905 18908 18911 18914 18916 18919 18922 18925 18928 18930 18933 18936 18939 18942 18945 18948 18951 18954 18956 18959 18962 18965 18968 18971 18974 18977 18980 18983 18985 18988 18991 18994 18997 19000 19003 19006 19009 19012 19015 19018 19021 19024 19027 19030 19033 19036 19039 19042 19045 19048 19051 19054 19057 19060 19063 19066 19069 19071 19074 19077 19080 19083 19086 19089 19092 19094 19097 19100 19103 19106 19109 19112 19115 19118 19121 19124 19127 19130 19133 19136 19139 19142 19145 19148 19151 19154 19157 19160 19163 19166 19169 19172 19175 19178 19181 19183 19186 19189 19192 19195 19198 19201 19204 19207 19210 19213 19216 19219 19222 19225 19228 19231 19234 19237 19240 19243 19246 19249 19252 19255 19258 19261 19264 19267 19270 19273 19276 19279 19281 19284 19287 19289 19292 19295 19298 19301 19303 19306 19309 19311 19314 19317 19320 19323 19325 19328 19331 19334 19336 19339 19342 19345 19347 19350 19353 19356 19359 19362 19365 19368 19371 19374 19377 19379 19382 19385 19387 19390 19393 19396 19399 19402 19405 19407 19410 19413 19416 19419 19422 19424 19427 19430 19433 19436 19438 19441 19444 19447 19450 19453 19456 19459 19462 19465 19468 19470 19473 19476 19479 19482 19485 19488 19491 19494 19497 19499 19502 19505 19508 19511 19514 19517 19520 19523 19526 19529 19532 19535 19538 19540 19543 19546 19549 19552 19555 19558 19561 19563 19566 19569 19572 19575 19578 19580 19583 19586 19589 19592 19595 19598 19601 19604 19607 19610 19613 19616 19619 19622 19624 19627 19630 19633 19636 19639 19642 19645 19648 19650 19653 19656 19659 19662 19665 19668 19671 19674 19677 19680 19683 19686 19689 19692 19695 19698 19701 19704 19707 19710 19713 19716 19719 19722 19725 19728 19731 19734 19737 19740 19743 19746 19749 19751 19754 19757 19760 19763 19765 19767 19770 19773 19775 19778 19781 19783 19786 19789 19791 19794 19797 19800 19803 19806 19809 19812 19815 19818 19821 19824 19827 19830 19833 19836 19839 19842 19845 19848 19850 19853 19856 19859 19862 19864 19867 19870 19873 19876 19879 19882 19885 19888 19891 19894 19897 19900 19903 19906 19909 19912 19915 19918 19921 19924 19927 19930 19933 19936 19939 19942 19945 19948 19951 19954 19957 19960 19963 19966 19969 19972 19975 19978 19981 19984 19987 19990 19993 19996 19999 20002 20005 20008 20011 20014 20017 20020 20023 20026 20029 20032 20035 20038 20041 20044 20047 20050 20053 20056 20059 20062 20065 20068 20071 20074 20077 20079 20082 20085 20088 20091 20093 20096 20098 20101 20104 20106 20109 20112 20115 20118 20120 20123 20126 20128 20131 20134 20137 20140 20143 20146 20149 20152 20155 20158 20161 20164 20167 20170 20173 20176 20179 20182 20185 20188 20191 20194 20197 20200 20203 20206 20209 20212 20215 20218 20221 20224 20227 20230 20233 20236 20239 20242 20245 20248 20251 20254 20257 20260 20263 20266 20269 20272 20275 20278 20281 20284 20287 20290 20293 20296 20299 20302 20305 20308 20310 20313 20316 20319 20322 20325 20328 20331 20334 20337 20339 20342 20345 20348 20351 20354 20357 20360 20362 20365 20368 20371 20374 20377 20380 20383 20386 20389 20392 20395 20398 20401 20404 20407 20410 20413 20416 20419 20421 20423 20426 20429 20431 20434 20436 20439 20442 20445 20448 20451 20454 20457 20460 20463 20466 20469 20472 20475 20478 20481 20484 20487 20490 20493 20496 20499 20502 20505 20508 20511 20514 20517 20520 20523 20526 20529 20532 20535 20538 20541 20544 20547 20550 20553 20556 20559 20562 20565 20568 20571 20574 20577 20580 20583 20586 20589 20592 20595 20598 20601 20603 20605 20608 20611 20614 20617 20620 20623 20626 20629 20632 20635 20638 20641 20644 20647 20650 20653 20656 20659 20662 20665 20667 20670 20673 20676 20679 20682 20685 20688 20691 20694 20697 20699 20702 20705 20708 20710 20713 20716 20719 20722 20725 20728 20730 20733 20736 20739 20742 20745 20748 20751 20754 20757 20760 20763 20766 20769 20771 20774 20777 20780 20783 20786 20789 20791 20793 20796 20798 20801 20804 20806 20809 20812 20815 20817 20820 20823 20826 20828 20831 20834 20837 20840 20843 20845 20848 20850 20853 20856 20859 20862 20864 20867 20870 20873 20876 20878 20881 20883 20886 20889 20891 20893 20896 20899 20902 20905 20908 20910 20913 20916 20919 20922 20925 20927 20929 20931 20934 20936 20939 20941 20944 20947 20950 20953 20956 20958 20961 20964 20967 20970 20973 20976 20979 20982 20984 20986 20989 20992 20994 20997 21000 21003 21006 21008 21011 21014 21016 21019 21022 21024 21027 21030 21033 21036 21039 21042 21045 21048 21051 21053 21056 21059 21062 21065 21068 21071 21074 21077 21079 21082 21085 21088 21091 21094 21097 21100 21103 21106 21108 21110 21113 21116 21119 21122 21125 21128 21131 21134 21137 21140 21143 21146 21149 21152 21155 21158 21161 21164 21167 21170 21173 21176 21179 21182 21185 21188 21191 21194 21197 21200 21203 21206 21209 21212 21215 21217 21220 21223 21226 21229 21231 21234 21237 21240 21243 21246 21249 21252 21255 21258 21261 21264 21267 21270 21273 21276 21279 21281 21283 21286 21289 21292 21295 21298 21301 21304 21307 21310 21312 21315 21318 21321 21324 21326 21329 21332 21334 21337 21340 21343 21346 21349 21352 21355 21358 21361 21364 21367 21370 21373 21375 21378 21381 21384 21387 21390 21393 21396 21399 21402 21405 21408 21411 21414 21417 21420 21423 21426 21429 21432 21435 21438 21441 21444 21447 21450 21452 21455 21458 21461 21464 21467 21469 21472 21475 21478 21480 21483 21486 21489 21491 21493 21496 21499 21502 21505 21508 21511 21514 21517 21520 21523 21526 21529 21532 21535 21537 21540 21543 21546 21548 21551 21554 21557 21560 21562 21564 21567 21570 21573 21576 21579 21582 21585 21588 21591 21594 21597 21600 21603 21606 21609 21612 21615 21618 21621 21624 21627 21630 21633 21635 21638 21641 21644 21647 21650 21653 21656 21659 21662 21664 21667 21670 21673 21676 21678 21681 21683 21686 21689 21692 21695 21697 21700 21703 21706 21709 21712 21715 21718 21721 21724 21727 21730 21733 21736 21739 21742 21744 21747 21750 21752 21755 21758 21761 21764 21767 21770 21773 21776 21779 21782 21784 21786 21789 21792 21795 21798 21800 21803 21806 21809 21811 21814 21817 21820 21823 21825 21827 21830 21832 21835 21837 21840 21842 21845 21848 21850 21853 21856 21858 21861 21864 21866 21869 21872 21875 21877 21880 21883 21885 21888 21890 21893 21895 21898 21901 21903 21906 21909 21912 21915 21918 21921 21924 21927 21930 21933 21936 21939 21942 21944 21947 21950 21953 21956 21959 21962 21965 21968 21971 21974 21977 21980 21983 21986 21989 21992 21994 21996 21999 22002 22005 22008 22011 22013 22016 22019 22022 22025 22027 22030 22033 22035 22038 22041 22044 22047 22049 22052 22055 22058 22061 22064 22067 22070 22073 22076 22079 22082 22085 22088 22091 22094 22097 22100 22103 22106 22109 22112 22115 22118 22121 22124 22127 22130 22133 22136 22139 22142 22145 22148 22151 22154 22157 22160 22163 22165 22168 22171 22174 22177 22180 22183 22186 22189 22192 22195 22198 22201 22204 22206 22209 22211 22214 22217 22220 22223 22225 22228 22231 22234 22237 22240 22243 22246 22249 22252 22255 22258 22261 22264 22267 22270 22273 22276 22279 22281 22284 22286 22289 22292 22294 22297 22300 22303 22305 22308 22311 22314 22317 22320 22323 22326 22329 22332 22335 22338 22341 22344 22347 22350 22353 22356 22359 22362 22365 22368 22371 22374 22377 22380 22383 22386 22388 22391 22394 22396 22399 22402 22405 22408 22411 22414 22417 22420 22423 22426 22429 22432 22435 22438 22441 22444 22447 22450 22453 22456 22459 22462 22465 22468 22471 22474 22477 22480 22483 22486 22489 22492 22495 22498 22501 22503 22506 22508 22511 22514 22517 22520 22523 22526 22529 22532 22535 22538 22541 22544 22547 22550 22553 22556 22559 22561 22563 22566 22569 22572 22575 22578 22580 22583 22586 22589 22592 22594 22597 22600 22603 22606 22608 22611 22614 22617 22620 22623 22626 22629 22632 22635 22638 22641 22644 22647 22650 22653 22656 22659 22662 22664 22667 22670 22673 22676 22679 22682 22684 22687 22690 22692 22695 22698 22701 22704 22707 22710 22713 22716 22719 22722 22725 22728 22730 22733 22736 22738 22741 22744 22747 22750 22753 22756 22759 22762 22764 22767 22770 22773 22776 22779 22782 22784 22787 22790 22792 22795 22798 22801 22804 22807 22810 22813 22816 22819 22822 22825 22828 22831 22834 22837 22840 22843 22846 22849 22852 22855 22858 22861 22864 22867 22870 22873 22876 22879 22882 22885 22888 22891 22894 22897 22900 22902 22905 22908 22911 22913 22916 22919 22921 22924 22927 22930 22933 22936 22939 22941 22944 22947 22950 22953 22956 22958 22961 22964 22967 22970 22973 22976 22978 22981 22984 22987 22990 22992 22995 22997 23000 23003 23005 23008 23011 23014 23016 23019 23022 23025 23028 23031 23034 23037 23040 23043 23046 23049 23052 23055 23057 23060 23063 23066 23069 23072 23075 23078 23081 23084 23087 23090 23093 23096 23099 23102 23105 23108 23111 23114 23117 23120 23123 23126 23129 23131 23134 23136 23139 23141 23144 23146 23149 23152 23155 23158 23160 23163 23166 23169 23172 23174 23177 23180 23183 23186 23189 23192 23195 23198 23201 23204 23207 23210 23213 23216 23218 23221 23224 23227 23229 23232 23235 23238 23240 23243 23246 23248 23251 23254 23257 23259 23262 23265 23268 23271 23273 23276 23279 23282 23285 23287 23290 23293 23296 23299 23302 23305 23308 23311 23314 23317 23319 23322 23325 23328 23331 23334 23336 23339 23341 23344 23347 23350 23353 23356 23358 23360 23363 23366 23368 23371 23373 23376 23379 23381 23384 23387 23390 23393 23396 23399 23402 23405 23408 23411 23414 23417 23420 23422 23425 23428 23431 23434 23437 23439 23442 23445 23448 23451 23454 23457 23460 23463 23466 23469 23471 23474 23476 23479 23482 23484 23487 23490 23492 23495 23497 23500 23502 23505 23508 23511 23514 23517 23519 23521 23524 23527 23530 23533 23536 23539 23542 23545 23548 23551 23554 23556 23559 23562 23565 23568 23571 23573 23576 23579 23582 23584 23587 23589 23592 23595 23598 23601 23604 23607 23610 23613 23616 23619 23622 23625 23628 23631 23634 23636 23639 23642 23645 23648 23650 23653 23656 23659 23662 23665 23668 23671 23674 23677 23680 23683 23686 23689 23692 23695 23698 23701 23704 23707 23710 23713 23716 23719 23721 23724 23727 23729 23732 23735 23738 23741 23744 23747 23750 23752 23755 23758 23760 23763 23765 23768 23771 23774 23777 23780 23783 23786 23789 23792 23794 23797 23800 23802 23805 23808 23811 23813 23816 23819 23822 23825 23828 23831 23834 23836 23839 23842 23845 23848 23850 23852 23855 23858 23861 23864 23867 23870 23873 23876 23879 23881 23884 23887 23890 23893 23896 23899 23902 23905 23908 23911 23914 23917 23920 23923 23926 23929 23931 23934 23936 23939 23942 23945 23947 23950 23953 23956 23959 23962 23965 23968 23971 23974 23977 23980 23983 23986 23988 23991 23994 23997 24000 24003 24005 24008 24011 24014 24016 24018 24021 24024 24027 24029 24032 24035 24037 24040 24043 24046 24049 24051 24053 24056 24059 24062 24064 24067 24070 24072 24075 24078 24081 24084 24086 24089 24091 24094 24097 24100 24102 24105 24108 24111 24114 24117 24120 24123 24126 24129 24132 24135 24138 24141 24144 24147 24150 24153 24156 24159 24162 24165 24167 24170 24173 24176 24179 24182 24185 24188 24191 24194 24196 24199 24202 24205 24207 24210 24212 24215 24218 24221 24224 24227 24230 24233 24236 24239 24242 24245 24247 24250 24253 24256 24259 24262 24264 24267 24270 24273 24276 24279 24281 24284 24287 24290 24293 24296 24299 24302 24305 24308 24311 24314 24317 24320 24323 24326 24329 24331 24334 24337 24340 24343 24346 24349 24352 24355 24358 24360 24363 24366 24369 24372 24375 24378 24381 24384 24387 24390 24393 24396 24399 24402 24405 24407 24410 24413 24416 24419 24422 24425 24428 24431 24434 24437 24440 24443 24446 24449 24452 24455 24458 24461 24464 24467 24470 24473 24476 24479 24482 24485 24488 24491 24494 24496 24499 24502 24505 24508 24510 24513 24515 24517 24520 24523 24526 24529 24532 24535 24537 24540 24542 24545 24548 24551 24553 24556 24559 24561 24564 24567 24570 24573 24576 24579 24581 24584 24587 24590 24593 24596 24599 24602 24604 24607 24610 24613 24616 24618 24621 24624 24627 24630 24633 24636 24638 24641 24644 24647 24650 24653 24656 24659 24662 24665 24668 24671 24674 24676 24679 24681 24684 24687 24690 24693 24696 24699 24702 24704 24706 24709 24712 24715 24718 24721 24724 24727 24730 24732 24735 24738 24741 24743 24746 24749 24751 24754 24757 24760 24763 24766 24769 24772 24775 24778 24781 24784 24787 24790 24793 24796 24799 24802 24805 24808 24811 24814 24817 24820 24823 24826 24828 24831 24834 24836 24839 24842 24845 24848 24851 24853 24856 24859 24861 24864 24866 24869 24872 24875 24877 24880 24883 24886 24889 24891 24894 24897 24899 24901 24904 24907 24910 24913 24916 24918 24921 24924 24926 24929 24932 24935 24938 24941 24943 24946 24949 24952 24955 24958 24961 24964 24967 24970 24972 24975 24978 24981 24984 24986 24989 24992 24995 24998 25001 25004 25006 25009 25011 25014 25017 25020 25022 25025 25027 25030 25033 25035 25038 25040 25043 25046 25049 25051 25054 25057 25060 25063 25066 25069 25072 25075 25078 25081 25084 25087 25090 25092 25095 25098 25101 25104 25106 25109 25112 25115 25118 25121 25124 25126 25129 25132 25135 25138 25141 25144 25147 25149 25152 25155 25158 25161 25164 25167 25169 25172 25175 25178 25181 25184 25187 25190 25192 25195 25198 25200 25203 25206 25209 25212 25215 25218 25221 25224 25227 25229 25231 25234 25237 25240 25243 25246 25249 25252 25255 25258 25261 25264 25267 25269 25272 25275 25278 25281 25284 25287 25290 25292 25295 25298 25301 25303 25306 25308 25311 25314 25316 25319 25322 25325 25328 25331 25333 25336 25339 25342 25344 25347 25350 25353 25356 25358 25361 25364 25367 25369 25372 25375 25378 25381 25384 25387 25390 25392 25395 25398 25400 25403 25406 25409 25411 25414 25417 25420 25422 25425 25428 25431 25434 25436 25439 25442 25445 25447 25450 25453 25456 25459 25462 25465 25468 25471 25474 25476 25479 25482 25485 25488 25491 25494 25497 25500 25503 25505 25508 25511 25514 25517 25519 25522 25525 25527 25530 25533 25536 25539 25542 25545 25548 25551 25554 25557 25560 25563 25566 25569 25572 25575 25578 25581 25584 25587 25590 25593 25596 25599 25602 25605 25607 25610 25613 25616 25619 25622 25625 25628 25631 25634 25637 25640 25642 25645 25648 25651 25653 25656 25659 25662 25665 25668 25671 25673 25676 25679 25682 25685 25688 25691 25694 25697 25700 25703 25706 25709 25712 25715 25718 25721 25724 25727 25730 25733 25736 25739 25742 25745 25748 25751 25753 25756 25758 25761 25764 25766 25768 25771 25774 25777 25780 25783 25786 25789 25792 25795 25798 25801 25804 25807 25810 25813 25816 25819 25821 25824 25827 25830 25833 25836 25839 25842 25845 25848 25851 25854 25857 25860 25863 25866 25869 25872 25875 25878 25881 25884 25887 25890 25893 25896 25899 25902 25905 25908 25911 25914 25917 25920 25923 25926 25929 25932 25935 25938 25941 25944 25947 25950 25953 25956 25959 25962 25965 25968 25971 25974 25977 25980 25983 25986 25989 25992 25995 25998 26001 26004 26006 26009 26012 26014 26017 26020 26023 26026 26028 26031 26034 26037 26040 26043 26046 26049 26052 26055 26058 26060 26063 26065 26068 26071 26074 26076 26079 26082 26085 26087 26090 26092 26095 26098 26101 26103 26106 26108 26111 26113 26116 26119 26122 26124 26127 26130 26133 26136 26138 26141 26143 26146 26149 26152 26155 26158 26160 26163 26165 26167 26170 26173 26176 26179 26182 26185 26187 26190 26193 26196 26198 26201 26204 26207 26210 26213 26216 26219 26222 26225 26228 26231 26234 26237 26240 26243 26246 26249 26252 26255 26257 26260 26263 26266 26268 26270 26273 26276 26279 26282 26285 26287 26290 26293 26296 26299 26302 26305 26308 26311 26314 26317 26320 26323 26326 26329 26331 26334 26337 26339 26342 26344 26347 26350 26353 26355 26358 26360 26363 26366 26368 26371 26374 26377 26380 26383 26386 26389 26392 26395 26398 26401 26403 26406 26409 26412 26415 26418 26421 26424 26427 26430 26433 26435 26437 26440 26443 26446 26449 26452 26455 26458 26460 26463 26466 26469 26472 26475 26478 26481 26484 26487 26490 26493 26496 26499 26502 26504 26507 26510 26513 26516 26519 26522 26525 26528 26531 26534 26536 26539 26542 26545 26547 26550 26552 26554 26557 26560 26563 26566 26569 26572 26575 26578 26580 26583 26586 26589 26592 26595 26598 26601 26604 26607 26609 26612 26614 26617 26619 26622 26625 26628 26631 26634 26637 26640 26643 26645 26648 26650 26653 26656 26659 26662 26665 26668 26670 26673 26676 26678 26681 26683 26686 26689 26692 26695 26698 26701 26704 26707 26710 26713 26716 26719 26722 26725 26727 26730 26733 26736 26739 26742 26745 26748 26751 26754 26757 26759 26762 26765 26768 26771 26774 26777 26779 26782 26785 26788 26791 26794 26797 26800 26803 26806 26809 26812 26815 26818 26821 26824 26827 26830 26833 26836 26839 26842 26845 26848 26851 26854 26856 26859 26862 26865 26868 26871 26873 26876 26879 26882 26885 26888 26891 26894 26897 26900 26903 26906 26908 26911 26914 26917 26920 26922 26925 26928 26931 26934 26937 26939 26942 26945 26948 26951 26954 26956 26959 26962 26964 26967 26970 26973 26976 26979 26982 26985 26988 26991 26994 26997 27000 27003 27006 27009 27012 27015 27018 27021 27024 27027 27030 27033 27036 27039 27042 27044 27047 27050 27052 27055 27058 27061 27064 27067 27070 27073 27076 27079 27082 27085 27088 27091 27094 27097 27099 27102 27105 27108 27111 27114 27117 27120 27123 27126 27128 27131 27134 27137 27140 27143 27146 27149 27151 27154 27157 27160 27163 27166 27168 27171 27174 27177 27180 27183 27186 27188 27191 27194 27197 27200 27202 27205 27208 27211 27214 27217 27220 27223 27225 27228 27231 27233 27236 27239 27241 27244 27247 27250 27253 27255 27258 27261 27264 27267 27270 27273 27276 27279 27281 27284 27287 27289 27292 27295 27298 27301 27304 27307 27310 27313 27316 27318 27321 27324 27327 27330 27333 27335 27338 27341 27344 27347 27349 27352 27355 27358 27360 27363 27366 27369 27372 27375 27378 27381 27384 27387 27390 27393 27395 27397 27400 27403 27406 27409 27412 27415 27418 27421 27424 27427 27430 27432 27435 27438 27441 27444 27447 27449 27452 27454 27456 27459 27461 27463 27466 27469 27471 27474 27477 27480 27483 27486 27489 27491 27494 27496 27498 27501 27504 27507 27510 27513 27515 27518 27521 27524 27527 27530 27533 27536 27539 27541 27544 27547 27550 27553 27555 27558 27561 27564 27567 27570 27572 27575 27578 27580 27583 27586 27589 27592 27595 27598 27601 27603 27606 27608 27611 27614 27617 27620 27623 27626 27629 27631 27633 27636 27639 27642 27645 27648 27651 27654 27656 27659 27662 27665 27668 27671 27674 27676 27679 27682 27685 27688 27691 27694 27697 27700 27703 27706 27709 27712 27715 27718 27720 27723 27726 27728 27731 27734 27737 27740 27742 27745 27748 27751 27754 27756 27759 27762 27765 27768 27771 27774 27776 27779 27782 27785 27788 27791 27794 27797 27799 27802 27805 27808 27810 27813 27816 27819 27822 27824 27827 27830 27832 27835 27838 27841 27844 27847 27850 27853 27855 27858 27861 27864 27867 27869 27872 27874 27877 27880 27883 27886 27889 27892 27895 27898 27901 27904 27907 27910 27913 27916 27918 27921 27924 27927 27930 27933 27936 27939 27941 27944 27947 27949 27952 27955 27957 27960 27963 27966 27969 27972 27975 27978 27981 27984 27986 27989 27992 27995 27997 28000 28003 28006 28009 28012 28015 28018 28021 28024 28026 28029 28032 28035 28038 28041 28044 28047 28050 28053 28056 28059 28061 28064 28067 28070 28072 28075 28078 28081 28084 28087 28090 28093 28096 28099 28102 28105 28107 28110 28113 28116 28119 28122 28125 28128 28131 28134 28137 28139 28142 28145 28148 28151 28154 28156 28159 28162 28165 28168 28171 28174 28177 28180 28182 28185 28188 28190 28193 28196 28198 28201 28204 28207 28210 28212 28214 28217 28220 28223 28226 28228 28231 28234 28237 28240 28242 28245 28248 28250 28253 28256 28259 28262 28264 28267 28270 28272 28275 28278 28281 28284 28287 28289 28292 28295 28298 28301 28304 28307 28310 28313 28315 28318 28320 28323 28326 28329 28332 28335 28338 28341 28344 28347 28349 28351 28354 28357 28360 28363 28366 28369 28371 28374 28377 28379 28382 28385 28387 28390 28392 28395 28398 28401 28403 28406 28409 28411 28414 28417 28420 28423 28426 28429 28432 28435 28437 28439 28442 28445 28447 28449 28452 28455 28458 28461 28463 28466 28469 28472 28474 28477 28479 28482 28484 28486 28488 28491 28493 28496 28499 28502 28504 28507 28510 28513 28516 28519 28522 28525 28528 28531 28533 28536 28539 28541 28544 28547 28550 28553 28556 28559 28561 28564 28567 28570 28573 28576 28579 28581 28583 28585 28588 28591 28594 28597 28600 28603 28606 28609 28612 28615 28618 28620 28623 28626 28629 28632 28634 28637 28640 28643 28646 28649 28652 28655 28658 28660 28663 28666 28668 28671 28674 28677 28679 28682 28685 28688 28691 28694 28697 28700 28703 28706 28708 28711 28714 28717 28720 28723 28726 28729 28732 28734 28737 28740 28743 28745 28748 28751 28753 28756 28759 28762 28764 28767 28769 28772 28775 28777 28780 28782 28785 28788 28790 28793 28796 28799 28802 28805 28808 28810 28813 28816 28818 28821 28824 28827 28830 28833 28836 28839 28842 28845 28848 28851 28854 28857 28860 28863 28866 28869 28872 28875 28878 28881 28884 28887 28890 28893 28896 28899 28902 28905 28908 28911 28914 28917 28920 28923 28926 28929 28932 28935 28938 28941 28944 28947 28950 28953 28956 28959 28962 28965 28968 28971 28974 28977 28980 28983 28986 28989 28992 28995 28998 29001 29004 29007 29010 29013 29016 29019 29022 29025 29028 29031 29034 29037 29040 29043 29046 29049 29052 29055 29058 29061 29064 29067 29070 29073 29076 29079 29082 29085 29088 29091 29094 29097 29100 29103 29106 29108 29111 29114 29117 29120 29122 29125 29128 29131 29134 29137 29140 29143 29146 29149 29152 29155 29158 29160 29162 29165 29168 29171 29174 29177 29180 29183 29186 29189 29192 29195 29198 29201 29204 29207 29209 29212 29215 29218 29220 29223 29226 29229 29232 29235 29238 29241 29244 29247 29250 29252 29255 29257 29260 29263 29266 29269 29272 29275 29278 29281 29284 29287 29290 29293 29296 29299 29302 29305 29308 29311 29314 29317 29320 29323 29326 29329 29331 29334 29337 29340 29343 29345 29348 29351 29354 29357 29360 29363 29366 29369 29371 29374 29377 29380 29383 29386 29389 29392 29395 29398 29401 29404 29407 29410 29413 29416 29419 29422 29425 29428 29431 29434 29437 29440 29443 29446 29449 29452 29455 29458 29461 29464 29467 29470 29473 29476 29479 29482 29485 29488 29491 29494 29497 29500 29503 29506 29509 29512 29515 29518 29520 29523 29526 29529 29532 29535 29538 29541 29544 29547 29550 29553 29556 29559 29562 29565 29568 29571 29574 29577 29580 29583 29586 29589 29592 29595 29598 29601 29604 29607 29610 29613 29616 29618 29621 29624 29627 29630 29633 29636 29638 29641 29644 29647 29650 29653 29656 29658 29661 29664 29666 29669 29671 29674 29676 29679 29682 29685 29688 29690 29693 29696 29699 29702 29705 29707 29710 29713 29716 29718 29720 29723 29726 29729 29731 29734 29737 29740 29743 29745 29747 29750 29753 29756 29759 29762 29765 29768 29771 29774 29777 29780 29783 29786 29789 29791 29794 29797 29799 29802 29805 29807 29809 29812 29815 29818 29821 29824 29827 29830 29833 29836 29839 29841 29844 29846 29849 29852 29855 29858 29861 29864 29867 29870 29873 29876 29879 29881 29884 29887 29890 29893 29896 29899 29902 29904 29907 29910 29913 29916 29919 29922 29925 29928 29931 29934 29937 29940 29943 29946 29949 29952 29955 29958 29960 29962 29965 29968 29971 29974 29977 29980 29983 29986 29989 29992 29995 29998 30001 30004 30007 30010 30013 30015 30018 30021 30024 30027 30030 30033 30036 30039 30042 30044 30047 30050 30053 30056 30059 30062 30065 30068 30071 30074 30077 30080 30082 30085 30088 30091 30094 30096 30099 30101 30104 30107 30110 30113 30116 30119 30122 30125 30128 30130 30133 30136 30139 30142 30144 30147 30150 30153 30156 30158 30161 30163 30166 30169 30172 30175 30178 30181 30184 30187 30190 30193 30196 30199 30201 30204 30207 30210 30213 30216 30219 30222 30225 30228 30231 30234 30237 30240 30243 30246 30248 30251 30253 30256 30259 30261 30264 30267 30270 30272 30275 30277 30280 30283 30285 30288 30291 30293 30296 30298 30301 30304 30307 30310 30313 30316 30319 30321 30323 30326 30329 30332 30335 30337 30339 30342 30345 30347 30349 30352 30354 30357 30360 30362 30364 30367 30370 30372 30375 30378 30380 30383 30386 30389 30392 30395 30398 30401 30404 30406 30409 30412 30414 30417 30419 30422 30425 30428 30430 30433 30436 30439 30442 30445 30448 30451 30454 30456 30459 30462 30465 30468 30471 30474 30477 30480 30483 30486 30489 30492 30495 30498 30501 30504 30507 30510 30513 30516 30519 30522 30524 30527 30530 30533 30536 30539 30542 30545 30548 30551 30554 30557 30560 30563 30566 30569 30572 30575 30578 
</DataArray>
<DataArray type="UInt32" Name="types" format="ascii">
5 5 5 5 5 5 3 5 5 5 3 5 5 5 3 5 5 5 5 5 5 3 3 5 5 5 5 3 3 5 3 3 5 3 5 5 5 3 5 5 3 5 5 5 5 5 5 5 3 5 5 5 5 5 5 5 5 3 5 5 3 5 3 5 3 5 3 5 5 5 5 5 5 5 5 5 5 5 5 5 5 5 5 3 5 5 5 5 5 5 5 5 3 5 5 3 3 5 5 5 5 5 5 5 5 5 5 5 5 3 5 5 5 5 5 3 5 5 3 5 5 5 5 5 5 5 5 5 5 5 5 5 5 5 5 5 5 5 3 5 5 5 5 5 3 5 5 5 5 5 5 5 5 5 5 5 5 5 5 5 5 5 5 5 5 5 5 5 5 3 5 3 5 5 5 3 5 5 5 3 5 5 5 3 3 5 5 3 5 5 5 5 3 5 5 5 5 5 3 5 5 5 5 3 5 3 5 5 3 5 5 5 3 5 5 3 5 5 5 5 5 5 5 5 5 5 3 5 5 3 5 5 5 5 5 5 5 3 5 5 5 5 5 5 5 5 5 5 5 5 5 5 5 5 5 5 5 5 5 3 5 3 5 5 5 5 5 3 5 5 5 5 5 5 5 5 3 5 5 5 3 5 5 3 5 5 5 5 3 5 5 3 5 5 5 5 5 3 5 3 5 5 5 5 5 5 5 5 5 5 5 5 5 5 5 5 5 5 3 5 5 5 5 5 3 3 5 5 5 5 5 5 5 5 5 5 3 5 5 5 5 5 5 5 5 5 3 5 5 3 3 5 5 5 3 5 5 3 5 5 5 5 5 5 5 5 5 5 5 5 5 5 5 3 5 5 5 5 5 5 5 5 3 5 5 3 5 5 5 5 3 5 5 5 5 5 5 5 5 5 5 5 5 5 5 3 3 5 5 3 3 5 3 5 3 5 3 5 5 3 5 5 5 5 5 5 5 5 5 3 3 5 5 3 5 5 5 5 5 3 5 5 3 5 5 5 5 3 5 5 5 3 5 5 5 3 5 3 5 5 3 5 5 5 5 5 5 5 5 5 5 5 3 5 5 5 5 5 5 3 5 5 5 3 5 5 5 5 5 5 5 3 5 5 5 5 5 3 5 3 5 5 5 5 5 3 3 5 5 5 3 3 5 3 5 5 5 5 5 5 5 3 5 5 5 5 5 5 5 5 5 5 5 5 5 5 3 5 5 3 5 3 5 5 5 5 5 5 5 5 5 5 5 5 5 5 3 5 5 5 5 5 5 5 5 5 5 5 5 5 5 5 5 3 5 5 5 5 5 5 5 5 5 5 5 3 3 5 5 5 5 5 5 5 5 5 5 5 5 5 5 5 5 3 5 5 5 5 5 5 5 3 5 5 5 5 5 5 5 5 3 5 5 5 3 5 5 5 5 5 5 5 5 5 5 5 5 5 5 5 5 5 5 5 5 5 5 5 5 5 5 5 5 3 5 3 5 5 5 5 5 5 5 5 5 5 5 5 5 3 5 5 5 3 5 5 5 5 5 5 5 5 5 5 5 5 5 3 3 5 5 5 5 5 5 5 3 5 5 5 5 5 5 5 5 5 5 5 3 5 5 5 5 5 5 5 3 5 5 5 5 5 5 5 5 5 5 5 5 5 5 5 5 5 3 5 5 5 5 5 5 5 5 5 5 3 5 5 5 5 5 3 5 5 5 3 5 5 5 5 3 5 5 5 5 5 5 5 3 5 3 5 5 3 5 3 5 5 5 5 5 5 5 5 5 5 5 5 5 5 5 5 5 5 5 5 5 5 5 5 5 5 5 5 5 5 5 5 5 5 5 3 5 3 3 5 5 5 5 5 5 5 5 5 5 5 3 5 5 5 5 5 5 5 3 5 3 5 3 5 5 5 5 5 5 3 5 3 3 5 5 5 5 5 5 5 5 5 5 5 5 5 5 5 5 5 3 5 5 5 5 5 5 5 5 5 5 5 5 5 5 3 5 5 5 5 5 5 5 5 5 5 5 5 5 3 5 5 5 5 5 5 5 5 5 3 5 5 5 5 5 3 3 5 5 5 5 3 3 5 5 5 5 5 5 5 5 5 5 5 3 5 5 5 5 3 5 5 5 5 5 5 3 5 5 3 5 3 5 5 5 3 5 5 5 5 5 5 5 3 5 5 5 5 3 3 5 5 3 5 5 5 3 3 3 3 5 5 3 5 5 5 5 5 5 5 5 3 3 5 5 5 5 5 5 3 5 3 5 5 5 3 5 5 5 5 5 5 5 5 5 5 5 5 5 5 5 5 5 5 5 5 5 5 5 5 5 5 5 5 3 5 5 5 5 5 5 5 5 5 5 5 5 5 5 5 5 5 5 5 5 5 3 5 5 5 5 5 5 5 5 5 3 5 5 5 5 5 5 3 5 5 5 5 5 3 5 5 5 5 5 3 5 5 5 5 5 5 5 5 5 5 3 5 5 5 5 3 3 5 5 3 5 5 5 5 3 5 5 3 5 5 5 5 5 3 3 5 5 5 5 5 5 3 5 5 5 5 5 5 5 3 3 5 5 5 3 5 5 5 3 5 5 3 5 3 5 5 5 3 5 5 3 3 5 5 5 5 5 5 3 5 3 5 3 5 5 5 3 3 5 3 5 5 5 5 5 5 5 5 5 5 5 5 5 5 5 5 3 5 5 5 5 5 5 5 3 5 5 5 5 5 3 5 5 5 3 5 5 5 5 3 5 3 5 3 5 5 5 5 3 5 5 3 5 5 5 5 5 5 5 5 5 5 5 3 5 5 5 5 3 5 5 5 5 3 5 5 5 5 5 5 3 5 5 5 3 5 3 3 5 5 5 5 5 5 5 5 5 5 5 5 5 5 5 5 5 5 5 5 5 5 5 5 5 5 5 5 3 5 5 3 3 5 3 5 5 5 5 3 5 5 3 5 5 5 5 5 5 5 5 5 5 5 5 5 5 5 5 5 5 5 5 5 5 5 5 5 5 5 5 3 5 5 5 5 5 5 5 5 3 5 5 5 5 5 5 5 3 5 3 5 5 5 3 5 5 5 5 5 5 5 3 5 3 5 5 5 5 5 3 5 5 5 5 5 5 5 5 5 5 5 5 5 5 5 5 5 5 5 5 5 5 5 5 5 5 5 5 5 5 5 5 5 5 5 5 5 5 5 3 3 5 5 3 5 5 5 3 5 5 5 3 3 5 5 3 5 5 5 5 5 5 5 5 5 5 5 5 5 5 5 5 5 5 5 5 5 3 5 3 5 5 5 5 5 5 5 5 5 5 5 5 5 5 5 5 5 5 5 5 5 5 5 5 5 5 5 5 5 5 5 5 5 5 5 5 5 5 5 5 5 5 5 5 5 3 5 3 5 3 5 5 3 5 5 5 5 5 5 5 5 5 5 5 5 5 5 5 5 5 5 5 5 5 5 5 5 5 5 5 3 5 5 5 5 5 5 5 5 5 5 5 5 5 5 5 5 5 5 5 5 5 5 5 5 5 5 5 5 5 5 5 5 5 5 5 5 5 5 5 5 5 5 5 5 5 5 5 5 5 3 5 5 5 5 3 5 5 5 5 5 5 5 5 3 5 5 5 5 5 3 3 3 5 5 5 5 3 3 5 5 3 5 5 5 5 5 5 5 5 5 5 5 5 5 5 3 3 5 3 5 5 5 5 5 5 5 5 5 5 5 5 5 5 5 5 5 5 3 5 5 5 5 5 5 3 5 5 5 5 5 5 5 5 5 5 5 5 5 5 5 5 5 5 3 5 5 5 5 5 5 5 5 5 3 5 5 3 5 5 5 5 5 5 5 5 5 5 5 5 5 5 5 5 3 5 3 5 5 5 5 3 5 3 5 5 3 3 5 5 3 5 5 5 3 5 5 5 5 5 5 3 5 5 5 3 5 5 5 5 3 5 5 5 5 5 5 5 3 5 5 5 5 5 3 5 5 3 5 5 5 5 5 5 5 3 5 5 5 3 3 5 5 5 3 5 5 5 5 5 3 3 3 5 5 5 5 5 5 5 5 5 3 3 5 3 5 5 5 5 5 3 5 5 3 5 3 5 5 5 3 5 5 3 5 5 5 5 5 5 5 3 5 5 3 3 5 5 3 5 3 5 5 3 5 5 3 5 3 5 5 5 3 5 5 3 5 3 5 5 3 5 3 5 5 5 5 3 3 5 5 5 5 5 5 5 5 5 3 5 5 5 5 5 5 5 5 5 5 5 5 5 5 5 5 5 5 3 3 5 5 5 3 5 5 5 5 3 5 5 3 5 5 5 3 5 5 3 5 5 5 5 3 5 5 5 5 5 3 5 5 5 3 3 5 5 3 5 5 5 5 5 3 3 5 5 5 5 3 5 5 5 5 3 5 5 5 5 5 5 5 5 5 5 5 5 5 5 5 5 5 5 5 5 5 5 5 5 5 5 5 5 3 5 5 5 5 5 5 5 5 5 5 5 3 5 5 5 5 3 5 5 5 3 5 5 3 5 5 5 5 5 3 5 5 5 5 5 5 5 5 5 5 5 5 5 5 5 5 5 5 5 5 3 5 5 5 5 5 3 5 5 5 5 5 5 5 3 5 5 5 5 5 5 5 5 5 5 5 5 5 3 5 5 5 5 5 3 3 5 5 5 5 3 5 3 5 5 5 3 3 5 5 3 5 5 5 3 5 5 5 5 3 5 5 3 3 5 5 5 5 5 5 3 5 5 3 5 5 5 5 3 5 5 5 5 5 5 5 5 5 5 5 5 5 5 5 5 5 5 5 3 5 3 5 5 5 3 5 3 5 3 5 5 3 5 5 3 3 3 5 5 5 3 5 5 5 5 5 5 3 5 5 5 5 5 5 5 3 5 3 5 5 5 5 5 5 5 3 5 5 5 5 5 5 5 5 5 5 5 3 5 5 3 5 5 5 5 5 5 5 5 5 5 5 5 5 5 5 5 3 5 5 5 5 5 5 5 5 5 5 5 5 5 5 5 5 5 5 5 5 5 3 5 5 5 3 5 5 5 5 5 5 5 5 5 5 3 5 5 5 5 5 5 5 5 5 5 3 5 5 5 5 5 5 3 5 5 5 3 5 5 5 5 5 5 5 5 5 5 5 5 5 5 5 5 5 5 5 5 5 3 5 5 5 5 5 3 5 5 3 5 5 5 5 5 5 3 5 5 5 5 3 5 5 5 5 5 5 5 5 5 5 5 5 5 5 5 5 5 5 3 5 5 5 5 5 3 5 5 5 3 5 3 5 5 5 5 5 5 5 3 5 5 5 3 3 5 5 5 5 5 3 5 5 5 3 5 5 5 5 5 5 5 5 5 5 5 5 5 5 5 3 5 5 5 5 5 5 3 5 5 5 5 5 5 5 5 5 5 5 3 5 5 5 5 5 5 5 5 5 3 5 5 5 5 3 3 5 5 5 5 5 5 5 5 3 3 5 3 5 5 5 5 5 3 5 5 5 5 5 5 3 5 3 5 5 5 5 5 5 5 5 5 5 3 5 5 5 5 5 5 3 5 5 5 5 5 5 5 5 3 5 5 5 5 5 3 5 5 3 5 5 5 5 5 5 3 5 5 5 5 5 5 5 5 3 5 5 5 5 3 5 5 5 5 5 5 5 5 5 5 3 5 5 5 5 5 5 5 5 5 3 5 5 5 5 3 5 5 5 5 5 5 5 5 3 5 3 5 5 5 3 5 5 5 5 5 5 5 5 3 5 5 5 3 5 5 5 3 5 5 3 5 5 5 5 5 5 5 5 5 5 5 5 5 5 5 5 5 5 5 5 5 5 5 5 5 5 5 5 5 5 5 5 5 5 5 5 5 5 5 5 5 5 5 5 5 5 5 5 5 5 5 5 5 3 5 5 5 3 5 5 5 5 5 5 3 5 3 5 5 5 5 3 3 5 5 5 5 5 5 5 5 5 5 5 5 5 5 5 5 5 5 5 5 5 5 3 5 5 3 5 5 5 3 5 5 5 5 5 5 5 5 5 5 5 5 5 5 3 5 3 5 3 5 5 5 5 5 5 5 5 5 5 5 5 5 5 5 5 5 3 5 5 5 5 5 5 5 5 5 5 5 5 5 5 5 5 5 5 5 5 5 5 5 5 5 5 5 5 5 5 5 5 5 3 5 5 5 5 5 5 3 5 5 3 5 3 5 5 3 5 5 5 3 5 5 5 5 5 5 5 5 5 5 5 5 5 5 5 5 5 5 5 5 5 5 5 5 5 3 5 5 5 5 3 5 5 3 5 5 5 5 5 5 5 5 5 5 5 5 5 5 5 5 5 5 5 5 5 5 5 5 5 5 5 5 5 5 3 5 5 5 3 5 5 5 5 3 5 5 5 5 5 3 5 5 5 5 3 5 5 5 5 5 5 5 5 5 5 5 5 5 5 3 3 5 3 5 3 5 5 5 5 5 5 5 5 5 5 5 5 5 5 5 5 5 5 5 5 5 5 5 5 5 3 3 5 5 3 5 5 3 5 5 5 5 5 5 5 5 5 5 5 3 5 5 3 5 5 5 5 5 5 5 5 5 5 5 5 5 5 3 3 5 3 3 5 5 5 5 3 5 5 5 3 3 5 5 5 5 5 5 5 3 5 5 5 5 5 5 5 5 5 5 5 5 5 5 5 5 3 5 5 5 5 3 5 5 5 5 5 5 5 3 5 5 5 5 5 5 5 3 5 5 3 5 5 5 5 5 5 5 5 5 5 5 5 5 5 5 3 5 5 5 5 5 5 5 5 3 5 5 5 5 5 5 5 3 5 5 5 5 5 3 5 5 5 5 3 5 5 5 5 5 5 5 5 5 5 5 5 3 5 5 5 5 5 5 5 5 5 5 5 5 5 5 3 5 5 5 5 5 5 5 5 5 5 5 5 5 3 3 5 5 3 5 5 5 5 3 5 5 5 3 5 5 3 5 5 5 5 3 5 5 5 5 5 5 5 5 5 5 5 5 5 5 5 5 5 5 5 5 5 5 5 5 5 5 5 5 5 5 5 5 5 5 3 5 5 5 3 5 3 5 5 5 5 5 5 5 5 5 5 5 5 5 5 3 5 5 5 5 5 5 5 5 3 5 5 5 3 5 5 5 5 5 5 5 3 5 3 5 5 5 5 5 5 5 5 5 5 5 5 5 5 3 5 5 3 5 5 5 5 5 5 5 3 5 5 5 5 5 5 5 5 5 5 5 5 5 5 5 5 5 5 5 5 5 5 5 5 5 5 5 3 5 5 3 5 5 5 3 5 5 3 5 5 5 5 5 5 5 5 5 5 5 5 5 5 5 5 5 5 5 3 5 5 5 5 5 5 5 5 5 5 5 5 5 3 5 5 5 5 5 5 5 5 5 5 5 5 5 5 5 5 5 5 5 3 5 5 5 5 5 5 5 5 5 5 5 5 5 5 5 5 3 5 5 3 5 5 5 3 5 5 3 5 5 5 5 5 5 5 5 5 5 5 5 5 5 3 5 5 3 5 5 5 5 5 5 5 5 5 5 5 5 5 5 5 5 5 5 5 5 5 5 5 5 5 5 5 5 5 5 5 5 5 5 5 5 3 5 5 5 5 3 5 5 5 5 5 5 5 5 5 5 5 5 5 5 5 3 5 3 3 5 5 3 5 3 5 5 5 5 5 5 5 5 3 5 5 3 5 5 5 5 3 3 5 3 5 5 5 5 5 5 5 5 5 5 5 5 5 5 5 5 5 5 5 5 5 3 5 5 5 5 5 5 5 5 5 5 5 5 5 5 5 5 5 5 5 5 5 5 5 5 5 3 5 5 5 5 5 3 5 5 5 5 5 5 5 5 5 3 5 5 5 5 5 5 5 5 5 5 5 5 5 5 5 5 5 3 3 5 5 3 5 5 5 3 5 5 5 5 5 5 5 5 5 5 3 5 5 3 5 3 5 5 5 5 3 5 5 5 3 5 5 5 5 5 5 3 5 5 5 5 5 5 3 5 5 5 5 5 5 5 5 5 5 5 5 5 5 3 5 5 3 5 5 5 3 3 5 5 5 5 5 5 5 5 5 5 3 5 5 5 3 5 5 5 5 3 5 5 5 5 5 5 5 5 3 5 5 5 5 5 3 3 5 5 5 3 5 3 3 5 5 5 5 5 3 5 5 5 5 5 5 3 5 5 5 5 5 5 5 3 5 5 3 5 5 3 5 5 5 5 5 5 5 5 5 5 5 5 5 5 3 5 5 5 3 5 5 3 5 5 5 5 3 5 5 5 5 5 5 5 5 3 5 5 5 5 3 5 5 5 5 5 5 5 5 3 5 5 5 5 5 5 5 5 5 3 5 5 5 3 5 5 3 5 5 3 5 5 5 5 5 5 5 5 5 3 5 5 5 5 5 5 5 5 5 5 5 5 5 5 5 5 3 5 5 5 5 5 5 5 5 5 5 5 5 5 5 5 5 5 5 5 5 5 5 5 5 5 5 3 5 3 5 5 5 5 5 5 5 5 5 5 3 5 5 3 5 5 5 5 5 5 5 5 5 5 5 5 5 5 5 5 5 5 5 5 5 3 5 5 5 5 5 5 5 5 5 3 5 3 5 5 5 5 5 5 5 3 5 3 5 5 5 5 5 5 5 5 5 5 5 3 5 5 5 5 3 5 3 5 5 5 5 5 5 3 5 5 3 5 5 3 5 5 5 3 3 3 5 5 5 5 5 5 5 5 5 5 5 5 5 3 5 5 5 5 5 5 5 3 5 3 5 3 5 5 3 3 5 5 5 5 5 5 3 5 5 5 5 3 5 3 5 3 5 3 5 5 5 5 3 5 5 5 5 5 3 5 5 5 5 5 5 5 5 5 5 5 5 5 5 3 5 5 5 5 5 3 5 5 5 3 5 5 5 5 5 5 5 5 5 5 5 5 5 5 5 5 5 3 5 5 5 5 3 5 5 5 5 5 5 3 5 5 5 5 5 5 5 5 5 5 3 5 5 3 5 3 5 5 5 5 5 5 5 5 5 5 5 3 5 5 5 5 5 5 3 5 3 3 5 3 5 5 5 5 5 5 5 3 5 5 5 5 5 5 5 5 5 5 5 5 5 5 5 5 3 5 5 5 5 5 5 5 5 5 5 3 5 5 5 5 5 5 5 5 5 5 3 5 5 5 5 3 5 5 5 5 5 3 5 5 5 5 3 5 5 5 5 5 5 5 5 5 5 5 5 5 5 5 5 5 5 3 5 5 5 5 5 5 5 5 3 5 3 3 5 5 5 5 5 3 5 5 5 5 5 5 5 5 5 5 5 5 5 5 3 5 5 3 5 3 3 5 5 5 5 5 5 3 5 5 5 5 3 5 3 5 5 3 5 5 5 5 5 5 3 3 5 5 5 5 5 5 5 5 5 5 5 5 5 5 5 3 5 5 5 5 5 5 5 3 5 3 5 5 5 3 5 3 5 5 5 5 5 5 5 5 3 5 5 5 5 5 3 5 3 5 5 5 5 3 5 5 5 5 5 3 5 5 5 5 5 5 5 5 5 5 5 5 5 5 5 5 5 5 5 5 5 5 5 5 3 5 5 5 3 5 3 5 5 5 3 5 5 5 5 5 5 5 5 5 5 5 5 5 5 5 5 5 3 3 3 3 5 5 5 5 5 5 3 5 5 5 3 5 5 5 5 5 5 5 5 5 5 3 3 3 5 5 3 3 5 5 5 5 5 5 5 5 5 3 5 5 5 5 5 5 5 5 3 3 5 5 5 3 5 5 5 5 5 5 5 5 5 5 5 3 5 3 5 5 5 5 5 3 3 5 5 3 3 5 5 5 5 5 5 5 5 5 5 5 5 5 5 5 5 5 5 5 5 5 5 5 5 5 5 5 5 5 5 5 5 5 5 5 5 5 5 5 5 5 5 3 3 5 5 5 5 5 5 5 5 5 5 5 5 5 5 5 5 5 5 5 5 3 5 5 5 5 5 5 5 5 5 5 5 5 5 5 5 5 3 5 3 5 5 5 5 5 5 5 5 3 5 5 5 5 5 5 5 5 5 5 5 3 5 5 3 5 5 3 5 5 5 5 3 5 5 5 5 3 5 5 3 5 3 5 5 5 5 5 3 5 5 5 5 5 5 5 3 5 5 5 5 5 5 5 5 5 5 5 5 5 5 5 5 5 5 5 5 5 5 5 5 3 5 5 5 3 5 5 3 5 5 5 3 5 5 5 5 3 5 3 5 5 5 5 5 5 5 5 3 5 5 5 5 5 5 5 5 5 5 3 5 5 3 5 5 3 5 5 3 3 5 5 5 5 5 5 5 3 3 5 5 5 3 5 5 3 3 5 5 5 3 3 5 3 5 5 3 5 5 5 5 3 5 3 3 5 5 5 3 5 3 3 5 3 3 3 3 5 3 5 3 5 3 5 5 5 3 5 5 3 5 3 3 5 5 5 5 3 5 3 3 5 5 5 3 3 5 5 3 3 5 5 5 5 3 5 5 5 5 3 5 5 5 5 3 5 3 5 3 5 3 5 3 5 3 5 5 5 5 5 3 5 5 3 3 3 5 5 3 3 5 3 5 5 3 5 5 5 5 5 5 3 5 5 3 5 3 5 5 5 5 3 5 3 5 3 5 5 5 3 5 5 3 5 3 5 3 5 5 5 5 5 3 5 5 5 5 5 5 5 5 5 5 3 5 5 5 5 3 5 5 3 5 5 5 5 5 3 5 5 3 5 5 5 3 5 3 5 5 5 3 5 5 5 5 3 5 5 5 5 3 3 5 5 5 5 5 5 3 5 5 3 5 5 5 5 5 5 5 5 5 5 5 5 5 5 5 5 5 5 5 5 5 5 5 5 5 5 5 5 5 5 5 5 5 5 5 5 5 5 5 5 5 5 5 5 5 5 5 5 5 5 5 5 5 5 5 5 5 5 3 5 5 5 5 5 5 5 5 5 5 5 5 3 5 5 3 5 5 5 3 5 5 5 5 5 5 5 5 5 5 5 5 5 5 5 3 5 5 5 5 5 5 5 5 5 5 5 5 5 5 5 5 3 5 5 5 5 5 5 5 5 5 5 5 5 5 3 5 5 3 5 5 3 5 3 5 5 5 5 5 5 5 3 5 5 5 5 5 5 5 5 5 5 5 5 3 5 5 5 3 5 5 5 5 5 5 5 5 5 3 5 5 5 5 5 5 3 5 5 5 5 5 5 3 5 5 5 3 5 5 5 5 5 5 5 3 5 5 5 5 5 5 5 5 5 5 3 5 5 5 5 5 5 5 5 5 5 5 5 5 5 5 5 3 5 3 5 5 5 5 5 5 5 5 5 5 3 5 3 5 5 5 5 5 5 5 5 5 5 5 3 5 5 5 5 5 5 5 5 5 5 5 3 5 5 5 5 5 5 5 3 5 5 5 5 5 5 5 3 5 5 5 5 5 5 5 5 5 5 5 3 5 5 5 5 5 5 5 5 3 5 3 5 5 5 5 5 5 5 5 5 5 3 5 5 5 3 5 5 5 5 5 5 5 5 5 3 5 5 5 5 5 5 5 5 5 5 5 5 5 5 5 5 3 5 5 5 5 5 5 5 5 5 5 5 5 5 5 5 5 5 5 3 5 5 3 5 5 3 5 5 5 5 5 3 5 5 5 5 5 5 5 5 5 5 5 5 5 5 5 5 5 5 5 5 5 5 5 5 5 5 5 5 5 5 5 5 5 5 5 5 5 5 5 5 5 5 5 5 5 5 5 5 5 5 5 5 5 5 5 5 5 5 5 3 5 5 3 5 5 5 5 5 5 5 5 5 5 5 5 5 5 5 5 5 5 5 5 5 5 5 5 3 3 5 5 5 5 5 5 5 5 5 5 5 5 5 5 5 5 3 3 5 5 5 5 5 5 5 3 5 3 5 5 3 3 5 5 5 5 5 5 5 5 5 5 5 3 5 3 5 5 5 3 5 5 5 3 5 3 5 5 5 5 5 3 3 5 5 5 5 5 5 5 5 5 5 5 5 5 5 5 5 5 5 5 5 5 5 5 5 5 5 5 5 5 5 5 5 5 5 5 5 5 5 5 5 5 5 5 5 5 5 5 5 5 5 5 5 5 5 5 5 5 5 5 5 5 5 5 5 5 5 5 5 5 5 5 5 5 5 5 5 5 5 5 5 5 5 5 5 5 5 5 5 5 5 5 5 5 5 5 5 5 5 5 5 5 5 5 5 3 3 5 3 5 3 5 5 3 5 5 5 5 3 5 5 5 5 5 5 5 3 3 3 5 5 5 5 5 3 3 5 5 5 5 5 5 5 5 5 5 5 5 5 5 5 5 5 5 5 5 5 5 5 5 5 5 5 5 5 5 5 5 5 5 3 5 5 3 5 5 5 5 5 5 5 5 5 5 5 3 5 5 5 5 5 5 5 3 5 5 5 5 5 5 5 5 5 5 5 5 5 5 5 5 3 5 5 3 5 5 5 5 5 5 5 5 5 5 5 5 5 5 5 5 5 5 5 5 5 5 5 3 5 5 3 5 5 3 5 5 5 5 5 5 5 3 5 5 5 5 5 5 3 5 5 3 5 5 5 5 3 5 3 5 5 3 5 5 5 5 3 5 3 5 5 3 5 5 5 5 5 5 5 5 5 5 5 5 3 5 5 5 3 5 5 3 5 5 5 5 3 5 5 5 5 5 5 5 5 5 5 3 5 5 5 5 5 5 5 5 5 5 3 5 5 5 5 5 5 5 5 5 5 5 5 3 5 5 3 5 5 5 5 5 5 5 5 5 5 3 5 5 5 5 5 3 5 3 3 5 5 3 5 5 5 5 5 5 5 5 5 3 3 5 5 5 5 5 5 3 5 5 5 5 5 5 5 5 5 5 5 5 5 5 5 5 5 5 5 5 5 5 5 5 5 3 5 5 5 5 5 5 5 5 5 5 5 5 5 5 5 5 5 5 5 5 5 5 5 5 5 5 5 5 5 5 5 5 5 5 5 5 5 5 5 5 3 5 5 5 5 5 5 5 5 5 5 3 5 5 5 3 5 3 5 5 5 3 5 5 5 3 5 3 5 3 5 3 3 5 5 3 5 5 5 3 5 5 5 5 5 3 5 5 5 5 3 5 5 5 3 5 5 5 5 3 5 3 5 5 5 5 5 5 5 5 5 5 5 5 5 5 3 5 5 5 5 3 5 5 3 5 5 3 3 5 5 3 5 3 5 5 5 3 3 3 3 5 5 3 5 5 5 5 3 5 3 5 5 3 3 3 5 3 5 5 3 3 3 5 5 5 5 5 5 5 5 5 3 3 5 5 5 5 3 3 5 5 5 3 5 3 5 5 5 5 5 5 5 5 5 5 5 3 5 5 5 5 5 5 5 5 5 5 5 5 5 5 5 5 5 5 5 5 5 5 5 3 5 5 5 5 5 5 5 5 5 5 5 5 5 5 5 5 3 5 5 3 5 5 5 5 5 5 5 5 5 3 5 5 5 3 3 5 5 3 5 5 5 5 5 3 5 3 5 5 5 3 5 5 5 5 5 5 5 3 5 5 3 5 5 5 5 3 5 5 5 3 3 5 5 3 5 5 5 3 5 5 5 5 5 5 5 3 5 5 3 5 3 3 3 5 3 5 3 3 5 5 5 5 5 5 3 5 5 3 5 5 5 5 5 5 5 5 5 5 5 5 5 5 5 5 5 5 5 5 5 5 5 5 5 5 5 5 5 5 5 5 5 5 5 3 3 5 5 5 5 5 5 5 5 3 3 3 3 5 5 3 5 5 5 5 5 5 5 5 3 5 5 3 5 5 5 3 5 5 5 5 3 5 5 5 5 5 5 5 5 5 5 5 5 5 5 3 5 5 5 5 5 3 5 5 5 5 5 5 5 5 3 5 5 5 3 3 5 5 3 3 5 5 5 5 5 3 5 5 5 5 5 5 3 5 3 5 5 5 5 5 5 5 5 3 3 5 3 3 3 5 3 5 5 5 5 5 5 3 5 5 5 5 5 5 5 3 5 5 5 5 5 5 5 5 5 5 5 5 5 5 5 5 5 5 5 5 5 5 5 5 5 5 5 5 5 5 5 5 5 5 5 5 5 5 5 5 5 5 5 5 5 5 5 5 5 5 5 5 5 5 5 5 5 3 5 5 5 5 5 5 5 3 5 5 3 5 5 5 3 5 3 5 5 3 5 5 5 5 5 5 5 3 5 5 5 3 5 5 5 5 5 5 5 3 5 3 5 5 5 5 5 5 5 5 5 5 5 5 5 5 5 5 5 5 5 5 5 5 5 5 5 3 3 5 3 5 5 5 5 5 5 5 3 5 3 5 3 3 3 5 5 3 5 5 3 5 5 5 3 5 5 5 5 5 5 5 3 3 5 5 3 5 5 5 3 5 5 5 5 3 5 3 5 5 5 5 5 5 3 5 3 5 5 5 5 5 3 5 5 3 5 5 5 5 5 5 5 5 5 5 5 5 5 5 5 5 3 5 5 3 3 5 3 5 5 5 5 5 5 5 5 3 5 5 5 5 5 5 5 5 5 5 5 5 5 5 5 5 3 5 5 5 3 5 5 3 5 5 5 5 5 5 3 5 5 5 5 5 5 5 5 5 5 5 5 5 5 5 5 5 5 5 3 3 5 5 5 5 5 5 5 3 5 5 5 3 5 5 3 5 3 5 5 3 5 3 3 5 3 5 3 5 3 5 5 5 5 5 5 5 5 5 5 5 5 5 5 5 3 3 5 5 5 5 5 5 5 3 5 5 5 5 5 5 5 5 5 5 5 5 5 5 5 3 5 3 5 5 5 5 5 5 3 5 5 5 3 5 5 5 3 5 5 5 5 5 5 5 5 5 5 5 5 5 5 5 5 5 5 5 5 5 3 5 5 5 5 3 5 5 5 5 5 3 5 5 5 3 5 5 5 5 5 5 5 5 5 5 5 5 3 5 5 5 5 3 5 5 5 5 5 5 5 5 3 5 5 5 5 5 5 5 3 5 5 5 5 3 5 5 5 5 5 5 5 5 3 5 5 5 5 5 5 5 5 5 3 5 5 5 5 5 5 5 5 5 5 5 5 5 5 5 5 5 5 5 5 5 5 5 5 5 5 5 5 3 5 5 5 5 5 5 5 3 5 5 5 5 5 5 5 5 5 5 5 5 5 5 5 5 5 5 5 5 5 5 5 5 5 5 5 5 5 3 5 5 5 5 5 5 5 5 5 5 5 5 5 5 5 5 5 5 5 5 5 5 5 5 5 5 5 5 5 5 5 5 3 5 5 3 5 5 5 5 3 5 5 3 5 5 5 5 3 5 5 5 3 5 5 5 3 5 5 5 5 5 5 5 5 5 5 3 5 5 3 5 5 5 5 5 5 3 5 5 5 5 5 3 5 5 5 5 3 5 5 5 5 5 5 5 5 5 5 3 5 5 5 5 5 5 5 5 5 3 5 5 5 5 5 5 5 5 5 5 5 5 5 3 5 5 5 5 5 5 5 3 5 5 5 5 5 3 5 5 5 5 5 5 5 5 5 5 5 5 5 5 3 5 5 5 5 5 5 5 5 3 5 5 5 5 5 5 5 5 5 5 5 5 5 5 5 5 5 5 5 5 5 5 5 5 5 5 5 5 5 5 5 5 5 3 5 5 5 5 3 3 5 5 3 5 5 3 5 5 3 5 5 5 5 5 5 5 5 5 5 5 5 5 5 5 5 5 5 5 3 5 5 5 5 3 5 5 5 5 5 5 5 5 5 5 5 5 5 5 5 5 5 5 5 5 5 5 5 5 5 5 5 5 5 5 5 5 5 5 5 5 5 5 5 5 5 5 5 5 5 5 5 5 5 5 5 5 5 5 5 5 5 5 5 5 5 5 5 5 5 5 5 5 5 5 5 3 5 5 5 5 3 5 3 5 5 3 5 5 5 5 3 5 5 3 5 5 5 5 5 5 5 5 5 5 5 5 5 5 5 5 5 5 5 5 5 5 5 5 5 5 5 5 5 5 5 5 5 5 5 5 5 5 5 5 5 5 5 5 5 5 5 5 5 5 5 5 5 5 5 5 5 5 5 5 3 5 5 5 5 5 5 5 5 5 3 5 5 5 5 5 5 5 3 5 5 5 5 5 5 5 5 5 5 5 5 5 5 5 5 5 5 5 3 3 5 5 3 5 3 5 5 5 5 5 5 5 5 5 5 5 5 5 5 5 5 5 5 5 5 5 5 5 5 5 5 5 5 5 5 5 5 5 5 5 5 5 5 5 5 5 5 5 5 5 5 5 5 5 5 5 5 5 5 5 3 3 5 5 5 5 5 5 5 5 5 5 5 5 5 5 5 5 5 5 5 5 3 5 5 5 5 5 5 5 5 5 5 3 5 5 5 3 5 5 5 5 5 5 3 5 5 5 5 5 5 5 5 5 5 5 5 5 3 5 5 5 5 5 5 3 3 5 3 5 5 3 5 5 5 3 5 5 5 3 5 5 5 5 5 3 5 3 5 5 5 5 3 5 5 5 5 3 5 3 5 5 3 3 5 5 5 5 5 3 5 5 5 5 5 3 3 3 5 3 5 3 5 5 5 5 5 3 5 5 5 5 5 5 5 5 3 3 5 5 3 5 5 5 5 3 5 5 3 5 5 3 5 5 5 5 5 5 5 5 5 3 5 5 5 5 5 5 5 5 3 5 5 5 5 5 5 5 5 5 3 3 5 5 5 5 5 5 5 5 5 5 5 5 5 5 5 5 5 5 5 5 5 5 5 5 5 5 5 5 5 5 5 5 5 5 5 3 5 5 5 5 3 5 5 5 5 5 5 5 5 5 5 5 5 5 5 5 5 3 3 5 5 5 5 5 5 5 5 5 3 5 5 5 5 3 5 5 3 5 5 5 5 5 5 5 5 5 5 5 5 5 3 5 5 5 5 5 5 5 5 5 5 5 5 5 5 5 5 5 5 5 5 5 5 5 5 5 3 5 5 5 5 5 3 5 5 5 3 5 5 5 3 3 5 5 5 5 5 5 5 5 5 5 5 5 5 5 3 5 5 5 3 5 5 5 5 3 3 5 5 5 5 5 5 5 5 5 5 5 5 5 5 5 5 5 5 5 5 5 5 5 3 5 5 5 5 5 5 5 5 5 3 5 5 5 5 3 5 3 5 5 5 5 3 5 5 5 5 5 5 5 5 5 5 5 5 5 5 5 3 5 5 3 5 5 5 5 5 5 5 5 5 5 3 3 5 5 5 5 3 5 5 5 3 5 5 5 5 3 3 5 3 5 3 5 3 5 5 3 5 5 3 5 5 3 5 5 5 3 5 5 3 5 3 5 3 5 5 3 5 5 5 5 5 5 5 5 5 5 5 5 5 3 5 5 5 5 5 5 5 5 5 5 5 5 5 5 5 5 3 3 5 5 5 5 5 3 5 5 5 5 3 5 5 3 5 5 5 5 3 5 5 5 5 5 5 5 5 5 5 5 5 5 5 5 5 5 5 5 5 5 5 5 5 5 5 5 5 5 5 5 5 5 5 5 5 5 5 3 5 5 5 5 5 5 5 5 5 5 5 5 5 3 5 3 5 5 5 5 3 5 5 5 5 5 5 5 5 5 5 5 5 5 5 5 5 5 5 3 5 3 5 5 3 5 5 5 3 5 5 5 5 5 5 5 5 5 5 5 5 5 5 5 5 5 5 5 5 5 5 5 5 5 5 5 3 5 5 3 5 5 5 5 5 5 5 5 5 5 5 5 5 5 5 5 5 5 5 5 5 5 5 5 5 5 5 5 5 5 5 5 5 5 5 3 5 3 5 5 5 5 5 5 5 5 5 5 5 5 5 5 5 5 5 3 3 5 5 5 5 5 3 5 5 5 5 3 5 5 5 5 3 5 5 5 5 5 5 5 5 5 5 5 5 5 5 5 5 5 5 3 5 5 5 5 5 5 3 5 5 3 5 5 5 5 5 5 5 5 5 5 5 5 3 5 5 3 5 5 5 5 5 5 5 5 3 5 5 5 5 5 5 3 5 5 3 5 5 5 5 5 5 5 5 5 5 5 5 5 5 5 5 5 5 5 5 5 5 5 5 5 5 5 5 5 5 5 5 5 5 5 5 3 5 5 5 3 5 5 3 5 5 5 5 5 5 3 5 5 5 5 5 3 5 5 5 5 5 5 3 5 5 5 5 3 5 3 5 5 3 5 5 5 3 5 5 5 5 5 5 5 5 5 5 5 5 5 3 5 5 5 5 5 5 5 5 5 5 5 5 5 5 5 5 5 5 5 5 5 5 5 5 3 5 3 5 3 5 3 5 5 5 5 3 5 5 5 5 3 5 5 5 5 5 5 5 5 5 5 5 5 5 5 3 5 5 5 3 5 5 5 3 5 5 3 5 5 5 3 5 5 5 5 3 5 5 5 5 3 5 5 5 5 5 5 5 5 5 5 3 5 5 5 5 5 3 5 3 5 5 5 5 5 3 3 5 5 3 5 3 5 5 3 5 5 5 5 5 5 5 5 5 5 5 5 5 3 5 5 5 5 5 3 5 5 5 5 5 5 5 5 5 5 3 5 3 5 5 3 5 5 3 5 3 5 3 5 5 5 5 5 3 3 5 5 5 5 5 5 5 5 5 5 5 3 5 5 5 5 5 3 5 5 5 3 5 3 5 5 5 5 5 5 5 5 5 5 5 5 5 5 5 3 5 5 5 5 3 5 5 5 5 5 5 5 5 5 5 5 5 5 5 5 5 5 5 5 5 5 5 5 3 5 5 3 5 5 5 5 5 5 5 3 5 5 3 5 3 5 5 5 5 5 5 5 5 5 3 5 5 3 5 5 5 3 5 5 5 5 5 5 5 3 5 5 5 5 3 3 5 5 5 5 5 5 5 5 5 3 5 5 5 5 5 5 5 5 5 5 5 5 5 5 5 5 3 5 3 5 5 5 3 5 5 5 5 5 5 5 5 5 5 5 5 5 3 5 5 5 5 5 3 5 5 5 3 3 5 5 5 3 5 5 3 5 5 5 5 3 3 5 5 5 3 5 5 3 5 5 5 5 3 5 3 5 5 5 3 5 5 5 5 5 5 5 5 5 5 5 5 5 5 5 5 5 5 5 5 5 3 5 5 5 5 5 5 5 5 5 3 5 5 5 3 5 3 5 5 5 5 5 5 5 5 5 5 5 3 5 5 5 5 5 3 5 5 5 5 5 3 5 5 5 5 5 5 5 5 5 5 5 5 5 5 5 5 3 5 5 5 5 5 5 5 5 5 3 5 5 5 5 5 5 5 5 5 5 5 5 5 5 5 3 5 5 5 5 5 5 5 5 5 5 5 5 5 5 5 5 5 5 5 5 5 5 5 5 5 5 5 5 5 3 5 5 5 5 3 5 3 3 5 5 5 5 5 5 3 5 3 5 5 5 3 5 5 3 5 5 5 5 5 5 3 5 5 5 5 5 5 5 3 5 5 5 5 3 5 5 5 5 5 5 3 5 5 5 5 5 5 5 5 5 5 5 5 3 5 3 5 5 5 5 5 5 5 3 3 5 5 5 5 5 5 5 5 3 5 5 5 3 5 5 3 5 5 5 5 5 5 5 5 5 5 5 5 5 5 5 5 5 5 5 5 5 5 5 5 5 3 5 5 3 5 5 5 5 5 3 5 5 3 5 3 5 5 5 3 5 5 5 5 3 5 5 3 3 5 5 5 5 5 3 5 5 3 5 5 5 5 5 3 5 5 5 5 5 5 5 5 5 3 5 5 5 5 3 5 5 5 5 5 5 3 5 3 5 5 5 3 5 3 5 5 3 5 3 5 5 5 3 5 5 5 5 5 5 5 5 5 5 5 5 5 3 5 5 5 5 3 5 5 5 5 5 5 3 5 5 5 5 5 5 5 3 5 5 5 5 5 5 3 5 5 5 5 5 5 5 3 5 5 3 5 5 5 5 5 5 5 5 5 3 3 5 5 5 5 5 5 5 5 5 5 5 5 3 5 5 5 5 5 5 5 3 5 5 5 3 5 3 5 5 3 5 5 5 5 5 3 5 5 5 3 5 5 5 5 3 5 5 5 3 5 5 5 5 5 5 5 3 5 5 3 5 5 5 3 5 5 5 3 5 5 5 5 3 5 5 5 3 5 5 5 5 5 5 5 5 5 3 5 5 5 5 5 5 5 5 5 3 5 5 5 5 3 5 5 3 5 5 5 5 5 5 5 5 5 5 5 5 5 5 5 5 5 5 5 5 5 5 5 5 5 5 3 5 5 5 5 5 5 5 5 5 5 5 3 5 5 5 3 5 5 5 5 5 5 3 5 5 5 5 5 5 5 5 5 5 5 5 5 5 5 5 5 5 5 5 5 5 5 5 5 5 3 5 3 5 5 3 3 5 5 5 5 5 5 5 5 5 5 5 5 5 5 5 5 5 3 5 5 5 5 5 5 5 5 5 5 5 5 5 5 5 5 5 5 5 5 5 5 5 5 5 5 5 5 5 5 5 5 5 5 5 5 5 5 5 5 5 5 5 5 5 5 5 5 5 5 5 5 5 5 5 5 5 5 5 5 5 3 5 5 3 5 5 5 5 3 5 5 5 5 5 5 5 5 5 5 3 5 3 5 5 5 3 5 5 5 3 5 3 5 5 5 3 5 3 5 3 5 5 5 3 5 5 5 5 3 5 3 5 5 5 5 5 3 5 3 3 5 5 5 5 5 5 3 5 5 5 3 5 5 5 5 5 5 5 5 5 5 5 5 5 5 5 5 5 5 5 3 5 5 5 3 3 5 5 5 5 5 3 5 5 5 5 5 5 5 5 5 5 5 5 5 5 3 5 5 3 5 3 5 5 5 3 5 3 5 5 3 5 5 5 5 5 5 5 5 5 5 5 3 5 5 5 5 5 5 5 5 5 5 3 3 5 5 5 5 5 5 5 3 5 5 5 5 5 5 5 5 5 5 5 5 5 5 3 5 5 5 5 5 5 5 5 5 5 3 5 5 5 3 5 3 3 5 5 5 5 5 5 5 5 3 5 5 5 5 5 5 5 5 5 3 5 3 5 3 5 5 5 5 5 5 5 5 3 5 3 5 5 5 5 5 5 3 5 5 3 5 3 5 5 5 5 5 5 5 5 5 5 5 5 5 5 3 5 5 5 5 5 5 5 5 5 5 3 5 5 5 5 5 5 3 5 5 5 5 5 5 5 5 5 5 5 5 5 5 5 5 5 5 5 5 5 5 5 5 5 3 5 5 5 5 5 3 5 5 5 5 5 5 5 5 5 5 5 3 5 5 5 5 3 5 5 5 5 5 3 5 5 5 5 5 3 5 5 3 5 5 5 5 5 5 5 5 5 5 5 5 5 5 5 5 5 5 5 5 5 5 5 5 5 5 3 5 5 3 5 5 5 5 5 5 5 5 5 5 5 5 5 5 5 3 5 5 5 5 5 5 5 5 5 3 5 5 5 5 5 5 5 3 5 5 5 5 5 3 5 5 5 5 5 5 3 5 5 5 5 3 5 5 5 5 5 5 5 3 5 5 3 5 5 3 5 5 5 5 3 5 5 5 5 5 5 5 5 3 5 5 3 5 5 5 5 5 5 5 5 5 3 5 5 5 5 5 3 5 5 5 5 3 5 5 5 3 5 5 5 5 5 5 5 5 5 5 5 3 3 5 5 5 5 5 5 5 5 5 5 5 3 5 5 5 5 5 3 5 3 3 5 3 3 5 5 3 5 5 5 5 5 5 3 5 3 3 5 5 5 5 5 3 5 5 5 5 5 5 5 5 3 5 5 5 5 3 5 5 5 5 5 3 5 5 3 5 5 5 5 5 5 5 3 5 3 5 5 5 5 5 5 5 3 3 5 5 5 5 5 5 5 3 5 5 5 5 5 5 3 5 5 5 5 5 5 5 5 5 5 5 5 5 5 3 5 5 3 5 5 5 5 3 5 5 5 5 3 5 5 5 5 5 5 3 5 5 5 5 5 5 5 3 5 5 5 3 5 5 5 5 3 5 5 3 5 5 5 5 5 5 5 3 5 5 5 5 3 5 3 5 5 5 5 5 5 5 5 5 5 5 5 5 5 3 5 5 5 5 5 5 5 3 5 5 3 5 5 3 5 5 5 5 5 5 5 5 5 3 5 5 5 3 5 5 5 5 5 5 5 5 5 3 5 5 5 5 5 5 5 5 5 5 5 3 5 5 5 3 5 5 5 5 5 5 5 5 5 5 5 3 5 5 5 5 5 5 5 5 5 5 3 5 5 5 5 5 3 5 5 5 5 5 5 5 5 3 5 5 3 5 5 3 5 5 5 5 3 3 5 5 5 5 3 5 5 5 5 3 5 5 3 5 5 5 5 3 5 5 3 5 5 5 5 5 3 5 5 5 5 5 5 5 5 3 5 3 5 5 5 5 5 5 5 5 5 3 3 5 5 5 5 5 5 3 5 5 3 5 5 3 5 3 5 5 5 3 5 5 3 5 5 5 5 5 5 5 5 3 3 5 5 3 3 5 5 5 5 3 5 5 5 3 5 3 5 3 3 3 5 3 5 5 5 3 5 5 5 5 5 5 5 5 5 3 5 5 3 5 5 5 5 5 5 3 5 5 5 5 5 5 3 3 3 5 5 5 5 5 5 5 5 5 5 5 3 5 5 5 5 3 5 5 5 5 5 5 5 5 3 5 5 3 5 5 5 3 5 5 5 5 5 5 5 5 5 3 5 5 5 5 5 5 5 5 3 5 5 5 3 5 5 3 5 5 5 3 5 3 5 5 3 5 3 5 5 3 5 5 5 5 5 5 3 5 5 3 5 5 5 5 5 5 5 5 5 5 5 5 5 5 5 5 5 5 5 5 5 5 5 5 5 5 5 5 5 5 5 5 5 5 5 5 5 5 5 5 5 5 5 5 5 5 5 5 5 5 5 5 5 5 5 5 5 5 5 5 5 5 5 5 5 5 5 5 5 5 5 5 5 5 5 5 5 5 5 5 5 5 5 5 5 5 5 5 5 5 5 5 5 5 5 5 3 5 5 5 5 3 5 5 5 5 5 5 5 5 5 5 5 5 3 3 5 5 5 5 5 5 5 5 5 5 5 5 5 5 5 3 5 5 5 3 5 5 5 5 5 5 5 5 5 5 3 5 3 5 5 5 5 5 5 5 5 5 5 5 5 5 5 5 5 5 5 5 5 5 5 5 5 3 5 5 5 5 3 5 5 5 5 5 5 5 5 3 5 5 5 5 5 5 5 5 5 5 5 5 5 5 5 5 5 5 5 5 5 5 5 5 5 5 5 5 5 5 5 5 5 5 5 5 5 5 5 5 5 5 5 5 5 5 5 5 5 3 5 5 5 5 5 5 5 5 5 5 5 5 5 5 5 5 5 5 5 5 5 5 5 5 5 5 5 5 5 5 5 5 3 5 5 5 5 5 5 3 5 5 5 5 5 5 3 5 5 3 5 3 5 3 5 5 5 5 3 5 5 5 5 5 3 5 5 5 3 3 5 5 5 3 5 5 5 5 3 3 5 5 5 5 5 5 5 5 5 5 5 5 5 5 3 5 5 3 5 5 3 3 5 5 5 5 5 5 5 5 5 5 3 5 3 5 5 5 5 5 5 5 5 5 5 5 3 5 5 5 5 5 5 5 3 5 5 5 5 5 5 5 5 5 5 5 5 5 5 5 5 5 5 3 3 5 5 5 5 5 5 5 5 5 5 5 5 5 5 5 5 5 3 5 5 5 5 5 5 5 5 5 3 5 5 5 5 5 5 5 5 5 5 5 5 3 5 5 5 5 3 5 3 5 5 5 5 5 5 5 5 5 3 5 5 5 5 3 5 5 5 5 3 5 3 5 5 5 5 5 5 5 5 5 5 5 5 3 5 5 5 5 5 5 5 5 5 5 5 5 5 5 5 3 5 3 5 5 3 5 5 5 3 5 3 5 5 3 5 5 3 5 3 5 5 5 5 5 5 5 3 3 5 5 5 5 3 3 5 5 3 3 5 3 5 5 3 3 5 5 3 5 5 3 5 5 5 5 5 5 5 5 3 5 5 3 5 3 5 5 5 3 5 5 5 5 5 5 5 5 3 5 5 5 5 5 5 5 5 5 5 5 5 5 5 5 5 5 5 5 5 5 5 3 5 5 5 5 5 5 5 5 5 5 5 5 5 5 5 5 5 5 
</DataArray>
</Cells>
<PointData Scalars="" Vectors="displacement," Tensors="">
<DataArray type="Float64" Name="displacement" NumberOfComponents="3" format="ascii">
-0.04499651996591663 -1.4375505991823874e-06 0 -0.043692293140789019 -0.00021400685665329098 0 -0.044998753911531894 2.2026377890042292e-08 0 -0.04499651996591663 -1.4375505991823874e-06 0 -0.043692293140789019 -0.00021400685665329098 0 -0.039340328121856685 2.5779602876226621e-06 0 -0.043692293140789019 -0.00021400685665329098 0 -0.042950182960582464 2.2860690451816697e-05 0 -0.039340328121856685 2.5779602876226621e-06 0 -0.043692293140789019 -0.00021400685665329098 0 -0.042950182960582464 2.2860690451816697e-05 0 -0.043899436280840351 -3.7062745018522025e-05 0 -0.042950182960582464 2.2860690451816697e-05 0 -0.043389994500551234 0.00071412761515868099 0 -0.043899436280840351 -3.7062745018522025e-05 0 -0.042950182960582464 2.2860690451816697e-05 0 -0.043389994500551234 0.00071412761515868099 0 -0.039340328121856685 2.5779602876226621e-06 0 -0.041007599084605287 0.00017544907617861739 0 -0.039332904920534574 1.2202372995621251e-07 0 -0.040297525158340106 -0.00073418481986305541 0 -0.040699750133055969 0.00015946878596340863 0 -0.039545330143342682 0.00015377793641252775 0 -0.043389994500551234 0.00071412761515868099 0 -0.043937731340200292 -0.00029283018296858787 0 -0.043899436280840351 -3.7062745018522025e-05 0 -0.038564360321129913 -0.00016125178185114516 0 -0.040297525158340106 -0.00073418481986305541 0 -0.039545330143342682 0.00015377793641252775 0 -0.041007599084605287 0.00017544907617861739 0 -0.042044187792714342 -0.00044080670489062511 0 -0.043899436280840351 -3.7062745018522025e-05 0 -0.044310294354925492 0.00013393592126268158 0 -0.043700095940451864 -3.5457502839587449e-05 0 -0.043937731340200292 -0.00029283018296858787 0 -0.043899436280840351 -3.7062745018522025e-05 0 -0.043700095940451864 -3.5457502839587449e-05 0 -0.044310294354925492 0.00013393592126268158 0 -0.043154830424784893 0.00055834140972946017 0 -0.043700095940451864 -3.5457502839587449e-05 0 -0.044305567815254493 0.00017403067772501382 0 -0.043936621042100402 0.00031628611403368152 0 -0.043692293140789019 -0.00021400685665329098 0 -0.044310294354925492 0.00013393592126268158 0 -0.044998753911531894 2.2026377890042292e-08 0 -0.043692293140789019 -0.00021400685665329098 0 -0.043899436280840351 -3.7062745018522025e-05 0 -0.044310294354925492 0.00013393592126268158 0 -0.044310294354925492 0.00013393592126268158 0 -0.044998753911531894 2.2026377890042292e-08 0 -0.044882204739653334 9.0860591181744882e-05 0 -0.044998753911531894 2.2026377890042292e-08 0 -0.044991497671272238 3.6888133541549313e-06 0 -0.044882204739653334 9.0860591181744882e-05 0 -0.044998753911531894 2.2026377890042292e-08 0 -0.044991497671272238 3.6888133541549313e-06 0 -0.045000522591914553 8.9830148510952871e-09 0 -0.044991497671272238 3.6888133541549313e-06 0 -0.045022373853612248 7.893971469571576e-05 0 -0.044882204739653334 9.0860591181744882e-05 0 -0.045263742191062731 0.00015751110585579759 0 -0.043917731954247738 8.3033435060735765e-06 0 -0.043917731954247738 8.3033435060735765e-06 0 -0.043936621042100402 0.00031628611403368152 0 -0.042080461529784549 0.00049460997908914734 0 -0.043154830424784893 0.00055834140972946017 0 -0.04215196308955136 -0.00050020872022362947 0 -0.044991497671272238 3.6888133541549313e-06 0 -0.044989982550890255 4.5370916325962064e-06 0 -0.045000522591914553 8.9830148510952871e-09 0 -0.045000029573003468 -1.8848011864606523e-08 0 -0.045006490973728185 -1.4661321279022862e-05 0 -0.044998241938145785 -1.4967207798264067e-05 0 -0.044989982550890255 4.5370916325962064e-06 0 -0.045000522591914553 8.9830148510952871e-09 0 -0.0449963123684263 3.2036324858631568e-06 0 -0.044850521153958822 -0.00013475963173896965 0 -0.04504989753520925 -2.634807474340356e-05 0 -0.04499997105694533 4.257668887639834e-08 0 -0.044850521153958822 -0.00013475963173896965 0 -0.043863088241974796 -0.00015116340494382929 0 -0.044076897144044162 -0.00018392959868163071 0 -0.044002717136740359 -4.826292877436051e-06 0 -0.043917731954247738 8.3033435060735765e-06 0 -0.044850521153958822 -0.00013475963173896965 0 -0.043917731954247738 8.3033435060735765e-06 0 -0.043140025998036687 -0.00019198764349333654 0 -0.045042796190957725 -2.8069551489304024e-05 0 -0.045027814040781967 -6.6987848346666164e-05 0 -0.045059507306251356 -8.8004485486223481e-05 0 -0.044850521153958822 -0.00013475963173896965 0 -0.043140025998036687 -0.00019198764349333654 0 -0.045042796190957725 -2.8069551489304024e-05 0 -0.045027814040781967 -6.6987848346666164e-05 0 -0.044998241938145785 -1.4967207798264067e-05 0 -0.042269766759899824 -0.0004670449566652756 0 -0.04227103354327106 -0.00030970888600161394 0 -0.042367753711819216 -0.00032233219133115924 0 -0.045027814040781967 -6.6987848346666164e-05 0 -0.045059507306251356 -8.8004485486223481e-05 0 -0.045022282413596883 -0.00014245596665902436 0 -0.043140025998036687 -0.00019198764349333654 0 -0.043912006117573288 -5.3408131751828368e-05 0 -0.042080461529784549 0.00049460997908914734 0 -0.041762950611281456 -0.00018406721829081337 0 -0.04215196308955136 -0.00050020872022362947 0 -0.041762950611281456 -0.00018406721829081337 0 -0.042118586602511499 -0.00026691136590657874 0 -0.04215196308955136 -0.00050020872022362947 0 -0.043140025998036687 -0.00019198764349333654 0 -0.041836880453455565 -0.00022530985144373519 0 -0.042269766759899824 -0.0004670449566652756 0 -0.042118586602511499 -0.00026691136590657874 0 -0.04227103354327106 -0.00030970888600161394 0 -0.042118586602511499 -0.00026691136590657874 0 -0.042247240823326621 -0.00021031860432185734 0 -0.04227103354327106 -0.00030970888600161394 0 -0.042315241016831803 -0.00025087065255305672 0 -0.042367753711819216 -0.00032233219133115924 0 -0.04244811057497215 -0.00022367552958834714 0 -0.04227103354327106 -0.00030970888600161394 0 -0.042315241016831803 -0.00025087065255305672 0 -0.042367753711819216 -0.00032233219133115924 0 -0.042247240823326621 -0.00021031860432185734 0 -0.042315241016831803 -0.00025087065255305672 0 -0.042269907341462402 -0.00017647537757261672 0 -0.042247240823326621 -0.00021031860432185734 0 -0.04227103354327106 -0.00030970888600161394 0 -0.042315241016831803 -0.00025087065255305672 0 -0.043154830424784893 0.00055834140972946017 0 -0.043700095940451864 -3.5457502839587449e-05 0 -0.04215196308955136 -0.00050020872022362947 0 -0.042044187792714342 -0.00044080670489062511 0 -0.04210961420906726 -0.00050895289869991788 0 -0.043937731340200292 -0.00029283018296858787 0 -0.043700095940451864 -3.5457502839587449e-05 0 -0.04215196308955136 -0.00050020872022362947 0 -0.042118586602511499 -0.00026691136590657874 0 -0.04215196308955136 -0.00050020872022362947 0 -0.041528266398241594 -0.00013747549869652198 0 -0.040297525158340106 -0.00073418481986305541 0 -0.04215196308955136 -0.00050020872022362947 0 -0.041528266398241594 -0.00013747549869652198 0 -0.040297525158340106 -0.00073418481986305541 0 -0.041528266398241594 -0.00013747549869652198 0 -0.040699750133055969 0.00015946878596340863 0 -0.040699750133055969 0.00015946878596340863 0 -0.041676676995881727 0.0005318162144125145 0 -0.040302195001862363 0.0010057405842943581 0 -0.041528266398241594 -0.00013747549869652198 0 -0.040699750133055969 0.00015946878596340863 0 -0.041676676995881727 0.0005318162144125145 0 -0.042118586602511499 -0.00026691136590657874 0 -0.041528266398241594 -0.00013747549869652198 0 -0.041676676995881727 0.0005318162144125145 0 -0.029461979842156781 -0.0027350472274742248 0 -0.029827589943366734 -0.0024785945621331983 0 -0.02933885639257747 -0.0022553653538533716 0 -0.035336609473429516 -0.00098556441076447796 0 -0.03451881836590226 -0.00085960051227497534 0 -0.029461979842156781 -0.0027350472274742248 0 -0.02933885639257747 -0.0022553653538533716 0 -0.028899852869054013 -0.002543824378829657 0 -0.042315241016831803 -0.00025087065255305672 0 -0.042269907341462402 -0.00017647537757261672 0 -0.04244811057497215 -0.00022367552958834714 0 -0.037313812785457409 -0.0019971696936444921 0 -0.042737718007713574 -0.00096938968531919969 0 -0.042247240823326621 -0.00021031860432185734 0 -0.041676676995881727 0.0005318162144125145 0 -0.042464400538226907 0.0001353072256061425 0 -0.035336609473429516 -0.00098556441076447796 0 -0.037313812785457409 -0.0019971696936444921 0 -0.042118586602511499 -0.00026691136590657874 0 -0.042247240823326621 -0.00021031860432185734 0 -0.041676676995881727 0.0005318162144125145 0 -0.04226110813546604 0.0010082294953872727 0 -0.037313812785457409 -0.0019971696936444921 0 -0.029461979842156781 -0.0027350472274742248 0 -0.03005725236245849 -0.0028897364966182031 0 -0.029827589943366734 -0.0024785945621331983 0 -0.037313812785457409 -0.0019971696936444921 0 -0.033936389980628666 -0.002168065181827856 0 -0.03005725236245849 -0.0028897364966182031 0 -0.029827589943366734 -0.0024785945621331983 0 -0.030349066607251146 -0.0024332490050161795 0 -0.029827589943366734 -0.0024785945621331983 0 -0.030153528814025679 -0.0021034442530863903 0 -0.030349066607251146 -0.0024332490050161795 0 -0.029827589943366734 -0.0024785945621331983 0 -0.030153528814025679 -0.0021034442530863903 0 -0.029757088823216701 -0.0021339150089609744 0 -0.029827589943366734 -0.0024785945621331983 0 -0.029757088823216701 -0.0021339150089609744 0 -0.02933885639257747 -0.0022553653538533716 0 -0.029757088823216701 -0.0021339150089609744 0 -0.029470396576791451 -0.0018857906891385262 0 -0.029855466980283751 -0.0015995254782910273 0 -0.030153528814025679 -0.0021034442530863903 0 -0.03028776154737034 -0.0017602861200506966 0 -0.029855466980283751 -0.0015995254782910273 0 -0.030153528814025679 -0.0021034442530863903 0 -0.029757088823216701 -0.0021339150089609744 0 -0.029855466980283751 -0.0015995254782910273 0 -0.02933885639257747 -0.0022553653538533716 0 -0.028879748515484364 -0.0021108289153009261 0 -0.028899852869054013 -0.002543824378829657 0 -0.02933885639257747 -0.0022553653538533716 0 -0.029128570459767064 -0.0018474651545200239 0 -0.028879748515484364 -0.0021108289153009261 0 -0.029757088823216701 -0.0021339150089609744 0 -0.02933885639257747 -0.0022553653538533716 0 -0.029470396576791451 -0.0018857906891385262 0 -0.02933885639257747 -0.0022553653538533716 0 -0.029470396576791451 -0.0018857906891385262 0 -0.029128570459767064 -0.0018474651545200239 0 -0.029470396576791451 -0.0018857906891385262 0 -0.029128570459767064 -0.0018474651545200239 0 -0.029301904324058312 -0.0015828000000488399 0 -0.029128570459767064 -0.0018474651545200239 0 -0.028879748515484364 -0.0021108289153009261 0 -0.028791915989984596 -0.0016636241920931279 0 -0.028879748515484364 -0.0021108289153009261 0 -0.028506784386044811 -0.0018727413848324409 0 -0.028791915989984596 -0.0016636241920931279 0 -0.028678680252080872 -0.0022235395741655407 0 -0.028879748515484364 -0.0021108289153009261 0 -0.028506784386044811 -0.0018727413848324409 0 -0.028678680252080872 -0.0022235395741655407 0 -0.028879748515484364 -0.0021108289153009261 0 -0.028899852869054013 -0.002543824378829657 0 -0.028542622889640188 -0.0011363772227782052 0 -0.034274383045981321 0.00010142177472825733 0 -0.029993687961790742 -7.3697264470339477e-05 0 -0.031748272523572631 0.00083766793735036611 0 -0.031215787310997799 0.0023787919491012541 0 -0.028678680252080872 -0.0022235395741655407 0 -0.028506784386044811 -0.0018727413848324409 0 -0.028434683590353713 -0.0023684942993953675 0 -0.029993687961790742 -7.3697264470339477e-05 0 -0.031437104717478785 -1.106803052323526e-05 0 -0.031748272523572631 0.00083766793735036611 0 -0.031437104717478785 -1.106803052323526e-05 0 -0.033221138787427065 0.00012251170031978115 0 -0.031879833036838112 -0.00022906538261483112 0 -0.031437104717478785 -1.106803052323526e-05 0 -0.033221138787427065 0.00012251170031978115 0 -0.031748272523572631 0.00083766793735036611 0 -0.033749945191072828 -1.6533659291023177e-06 0 -0.033221138787427065 0.00012251170031978115 0 -0.036121808669547291 4.7924335828703197e-06 0 -0.033749945191072828 -1.6533659291023177e-06 0 -0.033221138787427065 0.00012251170031978115 0 -0.031879833036838112 -0.00022906538261483112 0 -0.033221138787427065 0.00012251170031978115 0 -0.036121808669547291 4.7924335828703197e-06 0 -0.033071582993065334 0.0018379187839041161 0 -0.036125876507743564 5.5145549714002795e-07 0 -0.035484975750081228 0.00084948365831368096 0 -0.033071582993065334 0.0018379187839041161 0 -0.031748272523572631 0.00083766793735036611 0 -0.031215787310997799 0.0023787919491012541 0 -0.033221138787427065 0.00012251170031978115 0 -0.033071582993065334 0.0018379187839041161 0 -0.031748272523572631 0.00083766793735036611 0 -0.035484975750081228 0.00084948365831368096 0 -0.034274383045981321 0.00010142177472825733 0 -0.03886441421897531 0.00071691029920487297 0 -0.034274383045981321 0.00010142177472825733 0 -0.038275379947544014 -5.5884760526432753e-05 0 -0.03840938356129709 7.0242347677893646e-05 0 -0.038279416141046588 6.6449244239538859e-05 0 -0.037954862409684403 0.00014367730634328883 0 -0.038275379947544014 -5.5884760526432753e-05 0 -0.038279416141046588 6.6449244239538859e-05 0 -0.037954862409684403 0.00014367730634328883 0 -0.038275379947544014 -5.5884760526432753e-05 0 -0.037729754070419681 -9.0096164110653505e-07 0 -0.036128901007701525 1.7142946298962576e-06 0 -0.037954862409684403 0.00014367730634328883 0 -0.037729754070419681 -9.0096164110653505e-07 0 -0.038275379947544014 -5.5884760526432753e-05 0 -0.037729754070419681 -9.0096164110653505e-07 0 -0.039328525222370472 2.8668459687976094e-07 0 -0.038275379947544014 -5.5884760526432753e-05 0 -0.039328525222370472 2.8668459687976094e-07 0 -0.03840938356129709 7.0242347677893646e-05 0 -0.038564360321129913 -0.00016125178185114516 0 -0.039328525222370472 2.8668459687976094e-07 0 -0.03840938356129709 7.0242347677893646e-05 0 -0.03840938356129709 7.0242347677893646e-05 0 -0.039257280481568152 0.00064323158129427744 0 -0.039545330143342682 0.00015377793641252775 0 -0.038564360321129913 -0.00016125178185114516 0 -0.03840938356129709 7.0242347677893646e-05 0 -0.039545330143342682 0.00015377793641252775 0 -0.040699750133055969 0.00015946878596340863 0 -0.039545330143342682 0.00015377793641252775 0 -0.040302195001862363 0.0010057405842943581 0 -0.039257280481568152 0.00064323158129427744 0 -0.039545330143342682 0.00015377793641252775 0 -0.040302195001862363 0.0010057405842943581 0 -0.039257280481568152 0.00064323158129427744 0 -0.040302195001862363 0.0010057405842943581 0 -0.038719672336680541 0.0013557430938995099 0 -0.03451881836590226 -0.00085960051227497534 0 -0.034274383045981321 0.00010142177472825733 0 -0.028678680252080872 -0.0022235395741655407 0 -0.028899852869054013 -0.002543824378829657 0 -0.028434683590353713 -0.0023684942993953675 0 -0.03840938356129709 7.0242347677893646e-05 0 -0.039257280481568152 0.00064323158129427744 0 -0.038719672336680541 0.0013557430938995099 0 -0.044632054633669746 0.00017873863836552901 0 -0.044682698403466135 0.00045119657952740611 0 -0.044822846848143458 0.00020187334683731815 0 -0.044409969084359985 0.00040565246139244112 0 -0.044632054633669746 0.00017873863836552901 0 -0.044682698403466135 0.00045119657952740611 0 -0.044915988436418634 0.00019519341890319178 0 -0.044902401257036574 6.8827236485517567e-05 0 -0.044989240952848258 6.0219362015867777e-05 0 -0.044630369706564414 0.00031322841923222427 0 -0.044813500444919399 0.00012135943574375914 0 -0.044902401257036574 6.8827236485517567e-05 0 -0.044971786620507895 2.9306330967509961e-06 0 -0.044885533948009655 1.4495223351481735e-05 0 -0.044902401257036574 6.8827236485517567e-05 0 -0.044989240952848258 6.0219362015867777e-05 0 -0.044971786620507895 2.9306330967509961e-06 0 -0.044813500444919399 0.00012135943574375914 0 -0.044921052124687909 2.2325702172457982e-05 0 -0.044989240952848258 6.0219362015867777e-05 0 -0.044971786620507895 2.9306330967509961e-06 0 -0.045007013380180219 8.0177712352863374e-06 0 -0.04499258825089842 -8.3820562395846229e-07 0 -0.044971786620507895 2.9306330967509961e-06 0 -0.045007013380180219 8.0177712352863374e-06 0 -0.04499258825089842 -8.3820562395846229e-07 0 -0.0450000001640413 1.5385338885112108e-08 0 -0.044999943162264147 -2.3788096524093743e-08 0 -0.04499258825089842 -8.3820562395846229e-07 0 -0.0450000001640413 1.5385338885112108e-08 0 -0.044999848171588509 4.7181644036983116e-07 0 -0.04499258825089842 -8.3820562395846229e-07 0 -0.044999943162264147 -2.3788096524093743e-08 0 -0.044971786620507895 2.9306330967509961e-06 0 -0.044999943162264147 -2.3788096524093743e-08 0 -0.044971786620507895 2.9306330967509961e-06 0 -0.044949789856705842 -6.8526128181499824e-06 0 -0.044971786620507895 2.9306330967509961e-06 0 -0.044885533948009655 1.4495223351481735e-05 0 -0.044949789856705842 -6.8526128181499824e-06 0 -0.044885533948009655 1.4495223351481735e-05 0 -0.044949789856705842 -6.8526128181499824e-06 0 -0.044892276737017782 -9.6895425711550321e-06 0 -0.044999943162264147 -2.3788096524093743e-08 0 -0.044949789856705842 -6.8526128181499824e-06 0 -0.044999852302948631 -1.6803773467183742e-08 0 -0.044949789856705842 -6.8526128181499824e-06 0 -0.044999852302948631 -1.6803773467183742e-08 0 -0.044892276737017782 -9.6895425711550321e-06 0 -0.044999852302948631 -1.6803773467183742e-08 0 -0.044892276737017782 -9.6895425711550321e-06 0 -0.044999839819531567 1.0642445487320307e-08 0 -0.044885533948009655 1.4495223351481735e-05 0 -0.044892276737017782 -9.6895425711550321e-06 0 -0.044743915036946177 5.4975022297663188e-05 0 -0.044892276737017782 -9.6895425711550321e-06 0 -0.044743915036946177 5.4975022297663188e-05 0 -0.044846257643221678 -2.0011179334619029e-05 0 -0.044902401257036574 6.8827236485517567e-05 0 -0.044885533948009655 1.4495223351481735e-05 0 -0.044743915036946177 5.4975022297663188e-05 0 -0.044902401257036574 6.8827236485517567e-05 0 -0.044743915036946177 5.4975022297663188e-05 0 -0.044697015758555135 0.0001796506639823682 0 -0.044915988436418634 0.00019519341890319178 0 -0.044902401257036574 6.8827236485517567e-05 0 -0.044697015758555135 0.0001796506639823682 0 -0.044743915036946177 5.4975022297663188e-05 0 -0.044697015758555135 0.0001796506639823682 0 -0.04451984566365657 0.00019903465481319114 0 -0.04451984566365657 0.00019903465481319114 0 -0.044567201372290852 0.00010905593518237259 0 -0.044380098804704435 0.00030597681490017323 0 -0.044743915036946177 5.4975022297663188e-05 0 -0.04451984566365657 0.00019903465481319114 0 -0.044567201372290852 0.00010905593518237259 0 -0.0446922551293394 -6.6637562397073663e-06 0 -0.044609232331759237 2.479625972012448e-05 0 -0.044807300999961275 -0.00014448453109877497 0 -0.044861999383665321 -0.00019609682242010182 0 -0.044890469775578527 -0.00010020012743372715 0 -0.044861999383665321 -0.00019609682242010182 0 -0.044890469775578527 -0.00010020012743372715 0 -0.04491928171465346 -0.00014953536998738831 0 -0.044807300999961275 -0.00014448453109877497 0 -0.044861999383665321 -0.00019609682242010182 0 -0.044775957097811347 -0.00026954894929412561 0 -0.044743915036946177 5.4975022297663188e-05 0 -0.044567201372290852 0.00010905593518237259 0 -0.044846257643221678 -2.0011179334619029e-05 0 -0.044807300999961275 -0.00014448453109877497 0 -0.044890469775578527 -0.00010020012743372715 0 -0.044846257643221678 -2.0011179334619029e-05 0 -0.0446922551293394 -6.6637562397073663e-06 0 -0.044812303071573627 -8.4110643493552846e-06 0 -0.044892276737017782 -9.6895425711550321e-06 0 -0.044846257643221678 -2.0011179334619029e-05 0 -0.044999839819531567 1.0642445487320307e-08 0 -0.044846257643221678 -2.0011179334619029e-05 0 -0.044999839819531567 1.0642445487320307e-08 0 -0.044944486831020806 -2.0008876471444388e-05 0 -0.044999839819531567 1.0642445487320307e-08 0 -0.044944486831020806 -2.0008876471444388e-05 0 -0.044999970863324024 -4.390297763280607e-09 0 -0.044890469775578527 -0.00010020012743372715 0 -0.044944486831020806 -2.0008876471444388e-05 0 -0.044946718746890976 -8.4076974128104067e-05 0 -0.044890469775578527 -0.00010020012743372715 0 -0.044846257643221678 -2.0011179334619029e-05 0 -0.044944486831020806 -2.0008876471444388e-05 0 -0.044944486831020806 -2.0008876471444388e-05 0 -0.044974916085160133 -3.1199744786775016e-05 0 -0.044946718746890976 -8.4076974128104067e-05 0 -0.044974916085160133 -3.1199744786775016e-05 0 -0.044991490039349352 -7.8846773655062022e-05 0 -0.044946718746890976 -8.4076974128104067e-05 0 -0.044974916085160133 -3.1199744786775016e-05 0 -0.044999970863324024 -4.390297763280607e-09 0 -0.044998241938145785 -1.4967207798264067e-05 0 -0.044944486831020806 -2.0008876471444388e-05 0 -0.044974916085160133 -3.1199744786775016e-05 0 -0.044999970863324024 -4.390297763280607e-09 0 -0.045000029573003468 -1.8848011864606523e-08 0 -0.044999970863324024 -4.390297763280607e-09 0 -0.044998241938145785 -1.4967207798264067e-05 0 -0.045027814040781967 -6.6987848346666164e-05 0 -0.044998241938145785 -1.4967207798264067e-05 0 -0.044991490039349352 -7.8846773655062022e-05 0 -0.044974916085160133 -3.1199744786775016e-05 0 -0.044998241938145785 -1.4967207798264067e-05 0 -0.044991490039349352 -7.8846773655062022e-05 0 -0.045022282413596883 -0.00014245596665902436 0 -0.044991490039349352 -7.8846773655062022e-05 0 -0.044969484050846664 -0.00014297352845797198 0 -0.045027814040781967 -6.6987848346666164e-05 0 -0.045022282413596883 -0.00014245596665902436 0 -0.044991490039349352 -7.8846773655062022e-05 0 -0.044991490039349352 -7.8846773655062022e-05 0 -0.044946718746890976 -8.4076974128104067e-05 0 -0.044969484050846664 -0.00014297352845797198 0 -0.044890469775578527 -0.00010020012743372715 0 -0.044946718746890976 -8.4076974128104067e-05 0 -0.04491928171465346 -0.00014953536998738831 0 -0.044946718746890976 -8.4076974128104067e-05 0 -0.04491928171465346 -0.00014953536998738831 0 -0.044969484050846664 -0.00014297352845797198 0 -0.044939562043627798 -0.00017461234420904491 0 -0.04491928171465346 -0.00014953536998738831 0 -0.044969484050846664 -0.00014297352845797198 0 -0.044939562043627798 -0.00017461234420904491 0 -0.04491928171465346 -0.00014953536998738831 0 -0.044908138897386082 -0.00019497688351336712 0 -0.044861999383665321 -0.00019609682242010182 0 -0.044908138897386082 -0.00019497688351336712 0 -0.044887343815847205 -0.00023962859570402013 0 -0.044908138897386082 -0.00019497688351336712 0 -0.044936670664247537 -0.00021411776179193609 0 -0.044887343815847205 -0.00023962859570402013 0 -0.044861999383665321 -0.00019609682242010182 0 -0.04491928171465346 -0.00014953536998738831 0 -0.044908138897386082 -0.00019497688351336712 0 -0.044939562043627798 -0.00017461234420904491 0 -0.044908138897386082 -0.00019497688351336712 0 -0.044936670664247537 -0.00021411776179193609 0 -0.044939562043627798 -0.00017461234420904491 0 -0.044936670664247537 -0.00021411776179193609 0 -0.044966193017418603 -0.00021861831349175798 0 -0.044555331401157562 -0.00090406142659783036 0 -0.042737718007713574 -0.00096938968531919969 0 -0.044939562043627798 -0.00017461234420904491 0 -0.044969484050846664 -0.00014297352845797198 0 -0.044966193017418603 -0.00021861831349175798 0 -0.043912006117573288 -5.3408131751828368e-05 0 -0.042737718007713574 -0.00096938968531919969 0 -0.045022282413596883 -0.00014245596665902436 0 -0.044969484050846664 -0.00014297352845797198 0 -0.044966193017418603 -0.00021861831349175798 0 -0.037854621465244924 -0.0027061992264187499 0 -0.039364389747587741 -0.0030907525384727195 0 -0.038813348383066631 -0.0013502564205897136 0 -0.044936670664247537 -0.00021411776179193609 0 -0.044964226944409054 -0.00022554335636921919 0 -0.044884192288863721 -0.00032428845638748959 0 -0.042737718007713574 -0.00096938968531919969 0 -0.042447750893221496 -0.0013726242682793898 0 -0.044936670664247537 -0.00021411776179193609 0 -0.044887343815847205 -0.00023962859570402013 0 -0.044884192288863721 -0.00032428845638748959 0 -0.040409553693461643 -0.0020212972085220065 0 -0.038813348383066631 -0.0013502564205897136 0 -0.03986637748952862 -0.00095480751537160358 0 -0.039364389747587741 -0.0030907525384727195 0 -0.040409553693461643 -0.0020212972085220065 0 -0.038813348383066631 -0.0013502564205897136 0 -0.033936389980628666 -0.002168065181827856 0 -0.035884718837032363 -0.0011751945655490677 0 -0.038813348383066631 -0.0013502564205897136 0 -0.039782606273427015 3.3091690490268605e-05 0 -0.03986637748952862 -0.00095480751537160358 0 -0.030153528814025679 -0.0021034442530863903 0 -0.030349066607251146 -0.0024332490050161795 0 -0.030707159190201647 -0.0019612045067097282 0 -0.030153528814025679 -0.0021034442530863903 0 -0.03028776154737034 -0.0017602861200506966 0 -0.030707159190201647 -0.0019612045067097282 0 -0.029603936602479057 -0.0015896700391163682 0 -0.035884718837032363 -0.0011751945655490677 0 -0.035884718837032363 -0.0011751945655490677 0 -0.037931713905885144 -0.00083896005892733624 0 -0.043318699068147511 -0.00046907332709866773 0 -0.04348948364060911 -0.0005386515231984517 0 -0.043630255912527803 -0.00039922888090518881 0 -0.043318699068147511 -0.00046907332709866773 0 -0.043630255912527803 -0.00039922888090518881 0 -0.043505496690993642 -0.00032469848862052067 0 -0.035884718837032363 -0.0011751945655490677 0 -0.042487372522865816 -0.0008762282051816752 0 -0.040409553693461643 -0.0020212972085220065 0 -0.03986637748952862 -0.00095480751537160358 0 -0.040640154564364733 -0.00044531842028393119 0 -0.039782606273427015 3.3091690490268605e-05 0 -0.03986637748952862 -0.00095480751537160358 0 -0.040640154564364733 -0.00044531842028393119 0 -0.040409553693461643 -0.0020212972085220065 0 -0.041487907030162793 -0.00092854021124136863 0 -0.040640154564364733 -0.00044531842028393119 0 -0.043678045953420529 -0.0006522471873918386 0 -0.043678121345588634 -0.00047942829773786415 0 -0.04348948364060911 -0.0005386515231984517 0 -0.04354752297572774 -0.000408195592301271 0 -0.042487372522865816 -0.0008762282051816752 0 -0.043678121345588634 -0.00047942829773786415 0 -0.04348948364060911 -0.0005386515231984517 0 -0.043630255912527803 -0.00039922888090518881 0 -0.043630255912527803 -0.00039922888090518881 0 -0.043875043503176565 -0.00038648568311038493 0 -0.043703168947392346 -0.00037592171993986535 0 -0.043875043503176565 -0.00038648568311038493 0 -0.043731476254083725 -0.00036882491230170046 0 -0.043703168947392346 -0.00037592171993986535 0 -0.043678121345588634 -0.00047942829773786415 0 -0.043630255912527803 -0.00039922888090518881 0 -0.043875043503176565 -0.00038648568311038493 0 -0.043875043503176565 -0.00038648568311038493 0 -0.04407593884944154 -0.00011921271407725246 0 -0.043868403980851942 -0.00024745200242033059 0 -0.04354752297572774 -0.000408195592301271 0 -0.043983131914702198 -0.00030975761445919655 0 -0.044341984775895293 -0.00011633376530589157 0 -0.043875043503176565 -0.00038648568311038493 0 -0.044189295853268182 -0.00015090823211702756 0 -0.043875043503176565 -0.00038648568311038493 0 -0.044189295853268182 -0.00015090823211702756 0 -0.04407593884944154 -0.00011921271407725246 0 -0.043678045953420529 -0.0006522471873918386 0 -0.043678121345588634 -0.00047942829773786415 0 -0.043875043503176565 -0.00038648568311038493 0 -0.044341984775895293 -0.00011633376530589157 0 -0.044189295853268182 -0.00015090823211702756 0 -0.044186587954308673 -1.2896526154798924e-05 0 -0.044234993089160977 -0.00019313044577838135 0 -0.044246371135833532 -0.00027353144129291555 0 -0.044189295853268182 -0.00015090823211702756 0 -0.044196145510279887 -7.7089844497853856e-05 0 -0.04407593884944154 -0.00011921271407725246 0 -0.04354752297572774 -0.000408195592301271 0 -0.044246371135833532 -0.00027353144129291555 0 -0.04407593884944154 -0.00011921271407725246 0 -0.044166960490292784 3.7295689326838782e-05 0 -0.043969700282010221 -5.2504783079563017e-05 0 -0.044196145510279887 -7.7089844497853856e-05 0 -0.04407593884944154 -0.00011921271407725246 0 -0.044166960490292784 3.7295689326838782e-05 0 -0.044246371135833532 -0.00027353144129291555 0 -0.044609232331759237 2.479625972012448e-05 0 -0.044166960490292784 3.7295689326838782e-05 0 -0.044380098804704435 0.00030597681490017323 0 -0.044165689369967967 0.00015605923312204877 0 -0.044291657884714376 -3.9158987506381151e-05 0 -0.044166960490292784 3.7295689326838782e-05 0 -0.044380098804704435 0.00030597681490017323 0 -0.044759935927662468 -0.00040945249371123366 0 -0.0448096322781412 -0.00033968937766240288 0 -0.044775957097811347 -0.00026954894929412561 0 -0.044246371135833532 -0.00027353144129291555 0 -0.044125599451910101 -6.0272236833111914e-05 0 -0.044784916019545644 -0.00042572644985930359 0 -0.044759935927662468 -0.00040945249371123366 0 -0.0448096322781412 -0.00033968937766240288 0 -0.044884192288863721 -0.00032428845638748959 0 -0.044784916019545644 -0.00042572644985930359 0 -0.0448096322781412 -0.00033968937766240288 0 -0.042447750893221496 -0.0013726242682793898 0 -0.04354752297572774 -0.000408195592301271 0 -0.044884192288863721 -0.00032428845638748959 0 -0.0448096322781412 -0.00033968937766240288 0 -0.044845126656655555 -0.00027330599690543987 0 -0.0448096322781412 -0.00033968937766240288 0 -0.044845126656655555 -0.00027330599690543987 0 -0.044775957097811347 -0.00026954894929412561 0 -0.044887343815847205 -0.00023962859570402013 0 -0.044884192288863721 -0.00032428845638748959 0 -0.044845126656655555 -0.00027330599690543987 0 -0.044861999383665321 -0.00019609682242010182 0 -0.044887343815847205 -0.00023962859570402013 0 -0.044845126656655555 -0.00027330599690543987 0 -0.044861999383665321 -0.00019609682242010182 0 -0.044845126656655555 -0.00027330599690543987 0 -0.044775957097811347 -0.00026954894929412561 0 -0.04451984566365657 0.00019903465481319114 0 -0.044380098804704435 0.00030597681490017323 0 -0.044293357135703711 0.0003165172246437771 0 -0.044380098804704435 0.00030597681490017323 0 -0.044293357135703711 0.0003165172246437771 0 -0.044165689369967967 0.00015605923312204877 0 -0.044697015758555135 0.0001796506639823682 0 -0.044293357135703711 0.0003165172246437771 0 -0.044731276365067858 0.0004459990454105619 0 -0.044697015758555135 0.0001796506639823682 0 -0.04451984566365657 0.00019903465481319114 0 -0.044293357135703711 0.0003165172246437771 0 -0.044915988436418634 0.00019519341890319178 0 -0.044697015758555135 0.0001796506639823682 0 -0.044731276365067858 0.0004459990454105619 0 -0.044630369706564414 0.00031322841923222427 0 -0.044689862989747878 0.0005600602142053347 0 -0.043614960333449464 0.00020991761573943535 0 -0.043566879054467204 0.00017312124136252316 0 -0.043605773010070861 8.9144189359238263e-05 0 -0.043579048146153772 0.00025601487038125231 0 -0.043614960333449464 0.00020991761573943535 0 -0.043566879054467204 0.00017312124136252316 0 -0.044689862989747878 0.0005600602142053347 0 -0.0445364783901658 0.00059918820669264917 0 -0.043579048146153772 0.00025601487038125231 0 -0.043566879054467204 0.00017312124136252316 0 -0.043469842315542719 0.00013088649269159784 0 -0.043469842315542719 0.00013088649269159784 0 -0.043520960270247197 -1.4300125983674649e-05 0 -0.043351614189998805 -4.3692611834361056e-05 0 -0.043566879054467204 0.00017312124136252316 0 -0.043469842315542719 0.00013088649269159784 0 -0.043605773010070861 8.9144189359238263e-05 0 -0.043469842315542719 0.00013088649269159784 0 -0.043520960270247197 -1.4300125983674649e-05 0 -0.043605773010070861 8.9144189359238263e-05 0 -0.043614960333449464 0.00020991761573943535 0 -0.043605773010070861 8.9144189359238263e-05 0 -0.043818649990043104 0.00010167507323335659 0 -0.043520960270247197 -1.4300125983674649e-05 0 -0.043605773010070861 8.9144189359238263e-05 0 -0.043658388695789904 -4.8955205758670296e-05 0 -0.043605773010070861 8.9144189359238263e-05 0 -0.043818649990043104 0.00010167507323335659 0 -0.043658388695789904 -4.8955205758670296e-05 0 -0.044055787479729359 0.00028007107011148878 0 -0.044689862989747878 0.0005600602142053347 0 -0.044293357135703711 0.0003165172246437771 0 -0.043614960333449464 0.00020991761573943535 0 -0.043818649990043104 0.00010167507323335659 0 -0.044293357135703711 0.0003165172246437771 0 -0.043549004596870805 0.00030148488675278516 0 -0.043614960333449464 0.00020991761573943535 0 -0.043828919870245134 -1.8083956156745684e-05 0 -0.043818649990043104 0.00010167507323335659 0 -0.043658388695789904 -4.8955205758670296e-05 0 -0.043828919870245134 -1.8083956156745684e-05 0 -0.043818649990043104 0.00010167507323335659 0 -0.043999187465509126 9.5873041168413969e-05 0 -0.044293357135703711 0.0003165172246437771 0 -0.043818649990043104 0.00010167507323335659 0 -0.043999187465509126 9.5873041168413969e-05 0 -0.044293357135703711 0.0003165172246437771 0 -0.044165689369967967 0.00015605923312204877 0 -0.043999187465509126 9.5873041168413969e-05 0 -0.044166960490292784 3.7295689326838782e-05 0 -0.044165689369967967 0.00015605923312204877 0 -0.043969700282010221 -5.2504783079563017e-05 0 -0.044165689369967967 0.00015605923312204877 0 -0.043999187465509126 9.5873041168413969e-05 0 -0.043969700282010221 -5.2504783079563017e-05 0 -0.043828919870245134 -1.8083956156745684e-05 0 -0.043999187465509126 9.5873041168413969e-05 0 -0.043969700282010221 -5.2504783079563017e-05 0 -0.04407593884944154 -0.00011921271407725246 0 -0.043969700282010221 -5.2504783079563017e-05 0 -0.043868403980851942 -0.00024745200242033059 0 -0.043969700282010221 -5.2504783079563017e-05 0 -0.043748280638494681 -0.00018801401081241904 0 -0.043868403980851942 -0.00024745200242033059 0 -0.043828919870245134 -1.8083956156745684e-05 0 -0.043969700282010221 -5.2504783079563017e-05 0 -0.043748280638494681 -0.00018801401081241904 0 -0.043828919870245134 -1.8083956156745684e-05 0 -0.043748280638494681 -0.00018801401081241904 0 -0.043658388695789904 -4.8955205758670296e-05 0 -0.043748280638494681 -0.00018801401081241904 0 -0.043868403980851942 -0.00024745200242033059 0 -0.043731476254083725 -0.00036882491230170046 0 -0.043875043503176565 -0.00038648568311038493 0 -0.043868403980851942 -0.00024745200242033059 0 -0.043731476254083725 -0.00036882491230170046 0 -0.043731476254083725 -0.00036882491230170046 0 -0.043533591232681509 -0.0002179443810293893 0 -0.043437261169672357 -0.00046451347394057814 0 -0.043748280638494681 -0.00018801401081241904 0 -0.043731476254083725 -0.00036882491230170046 0 -0.043533591232681509 -0.0002179443810293893 0 -0.043748280638494681 -0.00018801401081241904 0 -0.043533591232681509 -0.0002179443810293893 0 -0.043658388695789904 -4.8955205758670296e-05 0 -0.043520960270247197 -1.4300125983674649e-05 0 -0.043533591232681509 -0.0002179443810293893 0 -0.043658388695789904 -4.8955205758670296e-05 0 -0.043520960270247197 -1.4300125983674649e-05 0 -0.043533591232681509 -0.0002179443810293893 0 -0.043351614189998805 -4.3692611834361056e-05 0 -0.043351614189998805 -4.3692611834361056e-05 0 -0.043237964514992608 -0.00023319892649707421 0 -0.043021453102392575 0.00013155984791567203 0 -0.036002807599607951 -0.00086074172904640706 0 -0.040404819597189126 -9.723085176972935e-05 0 -0.043533591232681509 -0.0002179443810293893 0 -0.043351614189998805 -4.3692611834361056e-05 0 -0.043237964514992608 -0.00023319892649707421 0 -0.036002807599607951 -0.00086074172904640706 0 -0.034651432903943062 -0.0021106930020952912 0 -0.043533591232681509 -0.0002179443810293893 0 -0.043237964514992608 -0.00023319892649707421 0 -0.043437261169672357 -0.00046451347394057814 0 -0.029229015744657322 -0.0018350534667794418 0 -0.029164671187863134 -0.0016590239621980759 0 -0.029133989710557383 -0.0016372267941036764 0 -0.029229015744657322 -0.0018350534667794418 0 -0.029227317279198327 -0.0016504975403980632 0 -0.029288422134388221 -0.0017327948622913524 0 -0.029229015744657322 -0.0018350534667794418 0 -0.029227317279198327 -0.0016504975403980632 0 -0.029164671187863134 -0.0016590239621980759 0 -0.029227317279198327 -0.0016504975403980632 0 -0.029164671187863134 -0.0016590239621980759 0 -0.029179860849658876 -0.001620148769376221 0 -0.032156938269012329 -0.0011904973683228598 0 -0.034651432903943062 -0.0021106930020952912 0 -0.029288422134388221 -0.0017327948622913524 0 -0.029295500151752581 -0.0016235057648820717 0 -0.02936024073533677 -0.0017306944178385171 0 -0.029227317279198327 -0.0016504975403980632 0 -0.029288422134388221 -0.0017327948622913524 0 -0.029295500151752581 -0.0016235057648820717 0 -0.029288422134388221 -0.0017327948622913524 0 -0.029342927493551114 -0.001856426113443966 0 -0.02936024073533677 -0.0017306944178385171 0 -0.029342927493551114 -0.001856426113443966 0 -0.029440457300203351 -0.0018684673547184564 0 -0.02936024073533677 -0.0017306944178385171 0 -0.029229015744657322 -0.0018350534667794418 0 -0.029342927493551114 -0.001856426113443966 0 -0.02937405017500324 -0.0020148337889842128 0 -0.029342927493551114 -0.001856426113443966 0 -0.02937405017500324 -0.0020148337889842128 0 -0.02950785463748936 -0.0020163490857185284 0 -0.029229015744657322 -0.0018350534667794418 0 -0.029288422134388221 -0.0017327948622913524 0 -0.029342927493551114 -0.001856426113443966 0 -0.045584210809014293 -0.0016457392776375423 0 -0.044713844502674217 -0.00046598530305715715 0 -0.043916146936935838 -0.0021775855270851816 0 -0.040404819597189126 -9.723085176972935e-05 0 -0.03614092493284652 -0.0022993645692003977 0 -0.043579048146153772 0.00025601487038125231 0 -0.043469842315542719 0.00013088649269159784 0 -0.043021453102392575 0.00013155984791567203 0 -0.043469842315542719 0.00013088649269159784 0 -0.043351614189998805 -4.3692611834361056e-05 0 -0.043021453102392575 0.00013155984791567203 0 -0.044213835838625266 0.00064633785030983857 0 -0.04452500393803268 0.00071729131309431827 0 -0.044437886283539479 0.00056736292785611829 0 -0.044689862989747878 0.0005600602142053347 0 -0.040404819597189126 -9.723085176972935e-05 0 -0.044409969084359985 0.00040565246139244112 0 -0.044437886283539479 0.00056736292785611829 0 -0.044682698403466135 0.00045119657952740611 0 -0.044409969084359985 0.00040565246139244112 0 -0.044213835838625266 0.00064633785030983857 0 -0.044437886283539479 0.00056736292785611829 0 -0.040404819597189126 -9.723085176972935e-05 0 -0.045335720576761523 -0.00020490598326012172 0 -0.04452500393803268 0.00071729131309431827 0 -0.044437886283539479 0.00056736292785611829 0 -0.044682698403466135 0.00045119657952740611 0 -0.045584210809014293 -0.0016457392776375423 0 -0.044855083787742382 -0.00025124821400764763 0 -0.044713844502674217 -0.00046598530305715715 0 -0.027623332102339426 -0.00053514461134670426 0 -0.02721767570137287 -0.00076533076811317977 0 -0.027501505587207958 -1.8876081779854617e-05 0 -0.027623332102339426 -0.00053514461134670426 0 -0.02721767570137287 -0.00076533076811317977 0 -0.027853830681460318 -0.00086227201873432526 0 -0.027918284957656726 -0.00098758654960014094 0 -0.02625966493949522 0.00011316029282758536 0 -0.027623332102339426 -0.00053514461134670426 0 -0.027853830681460318 -0.00086227201873432526 0 -0.027998457784372002 -0.00048879387612769801 0 -0.027623332102339426 -0.00053514461134670426 0 -0.027501505587207958 -1.8876081779854617e-05 0 -0.027998457784372002 -0.00048879387612769801 0 -0.02625966493949522 0.00011316029282758536 0 -0.027725113347632873 -0.0002114619356811736 0 -0.02736183699336216 0.00062145202114838533 0 -0.026719887891942181 0.00075494700558327013 0 -0.027412179406674436 0.00011553711628596633 0 -0.026061794463636358 -0.00024647489729864565 0 -0.026179728468146344 -0.00048122294622495132 0 -0.026288491613643331 -0.00017078568227411227 0 -0.026061794463636358 -0.00024647489729864565 0 -0.026179728468146344 -0.00048122294622495132 0 -0.025765213495433165 -0.0004172567606601074 0 -0.029181401272943865 -0.0013075010982622867 0 -0.029216857864238284 -0.0013504655661237595 0 -0.029150637297913059 -0.0013835979393225463 0 -0.029220207829751172 -0.0011686572425775735 0 -0.029169394459139738 -0.0013299449693296801 0 -0.029094544691886614 -0.0012068446504421584 0 -0.027918284957656726 -0.00098758654960014094 0 -0.029161420670804482 -0.0013191524891219479 0 -0.029169394459139738 -0.0013299449693296801 0 -0.029076580844583446 -0.0013310791153282652 0 -0.029094544691886614 -0.0012068446504421584 0 -0.027918284957656726 -0.00098758654960014094 0 -0.028649692226844995 -0.0011068362428231125 0 -0.029181401272943865 -0.0013075010982622867 0 -0.029216857864238284 -0.0013504655661237595 0 -0.02925113326825006 -0.0013322937368921521 0 -0.029216857864238284 -0.0013504655661237595 0 -0.02923198426242939 -0.001399863360181894 0 -0.029265579996213837 -0.0013467507938051929 0 -0.029216857864238284 -0.0013504655661237595 0 -0.02925113326825006 -0.0013322937368921521 0 -0.029265579996213837 -0.0013467507938051929 0 -0.02923198426242939 -0.001399863360181894 0 -0.029270787383145421 -0.0013878723778148402 0 -0.029265579996213837 -0.0013467507938051929 0 -0.02923198426242939 -0.001399863360181894 0 -0.029252738399996297 -0.0014517110714567488 0 -0.029198907007974759 -0.0014673305150646517 0 -0.02923198426242939 -0.001399863360181894 0 -0.029252738399996297 -0.0014517110714567488 0 -0.029270787383145421 -0.0013878723778148402 0 -0.029252738399996297 -0.0014517110714567488 0 -0.029295623487555697 -0.0014947037448062694 0 -0.029270787383145421 -0.0013878723778148402 0 -0.029252738399996297 -0.0014517110714567488 0 -0.029242291232758077 -0.0015364402570464059 0 -0.029295623487555697 -0.0014947037448062694 0 -0.029252738399996297 -0.0014517110714567488 0 -0.029242291232758077 -0.0015364402570464059 0 -0.029198907007974759 -0.0014673305150646517 0 -0.029227317279198327 -0.0016504975403980632 0 -0.029242291232758077 -0.0015364402570464059 0 -0.029295500151752581 -0.0016235057648820717 0 -0.029242291232758077 -0.0015364402570464059 0 -0.029295500151752581 -0.0016235057648820717 0 -0.029295623487555697 -0.0014947037448062694 0 -0.029179860849658876 -0.001620148769376221 0 -0.029183018875253774 -0.0015550951421264842 0 -0.029128802908941594 -0.0016381350055950999 0 -0.029164671187863134 -0.0016590239621980759 0 -0.029179860849658876 -0.001620148769376221 0 -0.029128802908941594 -0.0016381350055950999 0 -0.029227317279198327 -0.0016504975403980632 0 -0.029179860849658876 -0.001620148769376221 0 -0.029183018875253774 -0.0015550951421264842 0 -0.029227317279198327 -0.0016504975403980632 0 -0.029242291232758077 -0.0015364402570464059 0 -0.029183018875253774 -0.0015550951421264842 0 -0.029242291232758077 -0.0015364402570464059 0 -0.029183018875253774 -0.0015550951421264842 0 -0.029198907007974759 -0.0014673305150646517 0 -0.029183018875253774 -0.0015550951421264842 0 -0.029198907007974759 -0.0014673305150646517 0 -0.029114175319520437 -0.0014959285735699744 0 -0.029183018875253774 -0.0015550951421264842 0 -0.029114175319520437 -0.0014959285735699744 0 -0.029128802908941594 -0.0016381350055950999 0 -0.029161420670804482 -0.0013191524891219479 0 -0.029113243444742476 -0.0014897566731650318 0 -0.029198907007974759 -0.0014673305150646517 0 -0.029150637297913059 -0.0013835979393225463 0 -0.029114175319520437 -0.0014959285735699744 0 -0.029169394459139738 -0.0013299449693296801 0 -0.029076580844583446 -0.0013310791153282652 0 -0.029114175319520437 -0.0014959285735699744 0 -0.02923198426242939 -0.001399863360181894 0 -0.029198907007974759 -0.0014673305150646517 0 -0.029150637297913059 -0.0013835979393225463 0 -0.029216857864238284 -0.0013504655661237595 0 -0.02923198426242939 -0.001399863360181894 0 -0.029150637297913059 -0.0013835979393225463 0 -0.029076580844583446 -0.0013310791153282652 0 -0.028997452129037874 -0.0013800999890957839 0 -0.029114175319520437 -0.0014959285735699744 0 -0.034651432903943062 -0.0021106930020952912 0 -0.039217619300688136 -0.0017009691504584652 0 -0.030766954239258917 -0.0015378356928513047 0 -0.034651432903943062 -0.0021106930020952912 0 -0.028997452129037874 -0.0013800999890957839 0 -0.029114175319520437 -0.0014959285735699744 0 -0.029128802908941594 -0.0016381350055950999 0 -0.043731476254083725 -0.00036882491230170046 0 -0.043437261169672357 -0.00046451347394057814 0 -0.043684102877945427 -0.00041277417262604939 0 -0.033190999308212593 -0.0016356861851968291 0 -0.034027037999811723 -0.0034005240296021695 0 -0.032330960935136634 -0.0024897699919764656 0 -0.043731476254083725 -0.00036882491230170046 0 -0.043684102877945427 -0.00041277417262604939 0 -0.043703168947392346 -0.00037592171993986535 0 -0.032330960935136634 -0.0024897699919764656 0 -0.032386080221767484 -0.0016883423255937657 0 -0.031650112948330665 -0.0014214242420452089 0 -0.033190999308212593 -0.0016356861851968291 0 -0.032330960935136634 -0.0024897699919764656 0 -0.032386080221767484 -0.0016883423255937657 0 -0.033190999308212593 -0.0016356861851968291 0 -0.032386080221767484 -0.0016883423255937657 0 -0.032147946470369511 -0.00097448485696133866 0 -0.032386080221767484 -0.0016883423255937657 0 -0.032147946470369511 -0.00097448485696133866 0 -0.031650112948330665 -0.0014214242420452089 0 -0.033190999308212593 -0.0016356861851968291 0 -0.032147946470369511 -0.00097448485696133866 0 -0.0323257942585784 0.00016556311267525425 0 -0.032147946470369511 -0.00097448485696133866 0 -0.031860862626944007 -0.00030563772051462338 0 -0.0323257942585784 0.00016556311267525425 0 -0.030766954239258917 -0.0015378356928513047 0 -0.029923972816045769 -0.00034195182274592641 0 -0.032147946470369511 -0.00097448485696133866 0 -0.031860862626944007 -0.00030563772051462338 0 -0.031487843534568738 -0.00077715949998923212 0 -0.028997452129037874 -0.0013800999890957839 0 -0.029004826723930597 -0.0012407522360203917 0 -0.028866910718658843 -0.0011002361108108066 0 -0.029220207829751172 -0.0011686572425775735 0 -0.029094544691886614 -0.0012068446504421584 0 -0.02897156331998722 -0.0011235319660542777 0 -0.029076580844583446 -0.0013310791153282652 0 -0.028997452129037874 -0.0013800999890957839 0 -0.029004826723930597 -0.0012407522360203917 0 -0.029076580844583446 -0.0013310791153282652 0 -0.029004826723930597 -0.0012407522360203917 0 -0.029094544691886614 -0.0012068446504421584 0 -0.029094544691886614 -0.0012068446504421584 0 -0.029014439169077949 -0.0011829758832108798 0 -0.02897156331998722 -0.0011235319660542777 0 -0.029004826723930597 -0.0012407522360203917 0 -0.029094544691886614 -0.0012068446504421584 0 -0.029014439169077949 -0.0011829758832108798 0 -0.029004826723930597 -0.0012407522360203917 0 -0.028968304990383872 -0.0011462015256827828 0 -0.028866910718658843 -0.0011002361108108066 0 -0.029004826723930597 -0.0012407522360203917 0 -0.029014439169077949 -0.0011829758832108798 0 -0.028968304990383872 -0.0011462015256827828 0 -0.027253394857854461 -0.00045384608407681142 0 -0.023947740966913284 -2.8949886788712382e-06 0 -0.026382203347434841 -0.00019535791432506139 0 -0.02629011201738975 -0.0001801197662753437 0 -0.026408320827004467 1.8561113485362174e-05 0 -0.026061794463636358 -0.00024647489729864565 0 -0.025765213495433165 -0.0004172567606601074 0 -0.025830360103422243 -3.9705213911923582e-05 0 -0.027918284957656726 -0.00098758654960014094 0 -0.027253394857854461 -0.00045384608407681142 0 -0.027253394857854461 -0.00045384608407681142 0 -0.02733991687835036 -0.00053376498638001797 0 -0.029014439169077949 -0.0011829758832108798 0 -0.02897156331998722 -0.0011235319660542777 0 -0.028968304990383872 -0.0011462015256827828 0 -0.032098835168042066 0.00020057201455740415 0 -0.032318953820561394 0.00016615523365492402 0 -0.031516894625513513 0.0018438305386941998 0 -0.031860862626944007 -0.00030563772051462338 0 -0.032098835168042066 0.00020057201455740415 0 -0.031526884436922052 0.00011550530235013379 0 -0.030600889412059473 -0.00036390480687531701 0 -0.029923972816045769 -0.00034195182274592641 0 -0.031860862626944007 -0.00030563772051462338 0 -0.032098835168042066 0.00020057201455740415 0 -0.0323257942585784 0.00016556311267525425 0 -0.02897324827832036 -0.0011195332100871571 0 -0.028968304990383872 -0.0011462015256827828 0 -0.028866910718658843 -0.0011002361108108066 0 -0.027253394857854461 -0.00045384608407681142 0 -0.029923972816045769 -0.00034195182274592641 0 -0.032098835168042066 0.00020057201455740415 0 -0.031306825859944508 0.00066153772340506536 0 -0.031516894625513513 0.0018438305386941998 0 -0.031067853140131114 0.00022642873973588646 0 -0.030501268124088751 -0.00038667706410893641 0 -0.031297909860252007 -0.00020553737296133743 0 -0.031067853140131114 0.00022642873973588646 0 -0.030611589225445397 0.00048952598189244711 0 -0.030501268124088751 -0.00038667706410893641 0 -0.031067853140131114 0.00022642873973588646 0 -0.031526884436922052 0.00011550530235013379 0 -0.031297909860252007 -0.00020553737296133743 0 -0.032098835168042066 0.00020057201455740415 0 -0.031526884436922052 0.00011550530235013379 0 -0.031306825859944508 0.00066153772340506536 0 -0.031860862626944007 -0.00030563772051462338 0 -0.031526884436922052 0.00011550530235013379 0 -0.031297909860252007 -0.00020553737296133743 0 -0.031067853140131114 0.00022642873973588646 0 -0.031526884436922052 0.00011550530235013379 0 -0.031306825859944508 0.00066153772340506536 0 -0.031067853140131114 0.00022642873973588646 0 -0.031306825859944508 0.00066153772340506536 0 -0.030611589225445397 0.00048952598189244711 0 -0.031306825859944508 0.00066153772340506536 0 -0.030611589225445397 0.00048952598189244711 0 -0.03074910861573556 0.0011753080749059707 0 -0.030611589225445397 0.00048952598189244711 0 -0.030033237875710096 0.00097141530883308638 0 -0.03074910861573556 0.0011753080749059707 0 -0.030611589225445397 0.00048952598189244711 0 -0.029797915556282837 0.00027707728566613531 0 -0.030033237875710096 0.00097141530883308638 0 -0.029797915556282837 0.00027707728566613531 0 -0.029196188090742536 0.00092809118482208464 0 -0.030033237875710096 0.00097141530883308638 0 -0.030611589225445397 0.00048952598189244711 0 -0.029797915556282837 0.00027707728566613531 0 -0.030501268124088751 -0.00038667706410893641 0 -0.030501268124088751 -0.00038667706410893641 0 -0.030569563549648984 -0.0015697627369875759 0 -0.028765479516639408 -0.00057424902046143082 0 -0.029797915556282837 0.00027707728566613531 0 -0.030501268124088751 -0.00038667706410893641 0 -0.028765479516639408 -0.00057424902046143082 0 -0.034883698287874916 -0.00061837849805498771 0 -0.029012846836143916 -0.00060257115060658372 0 -0.030501268124088751 -0.00038667706410893641 0 -0.030948369269062186 -0.0010354349417795897 0 -0.030569563549648984 -0.0015697627369875759 0 -0.030948369269062186 -0.0010354349417795897 0 -0.031059720999474936 -0.00060168941511521247 0 -0.031487843534568738 -0.00077715949998923212 0 -0.030501268124088751 -0.00038667706410893641 0 -0.030948369269062186 -0.0010354349417795897 0 -0.031059720999474936 -0.00060168941511521247 0 -0.030501268124088751 -0.00038667706410893641 0 -0.031059720999474936 -0.00060168941511521247 0 -0.031297909860252007 -0.00020553737296133743 0 -0.031059720999474936 -0.00060168941511521247 0 -0.031297909860252007 -0.00020553737296133743 0 -0.031487843534568738 -0.00077715949998923212 0 -0.031860862626944007 -0.00030563772051462338 0 -0.031297909860252007 -0.00020553737296133743 0 -0.031487843534568738 -0.00077715949998923212 0 -0.032147946470369511 -0.00097448485696133866 0 -0.031487843534568738 -0.00077715949998923212 0 -0.031650112948330665 -0.0014214242420452089 0 -0.030948369269062186 -0.0010354349417795897 0 -0.031487843534568738 -0.00077715949998923212 0 -0.031650112948330665 -0.0014214242420452089 0 -0.039217619300688136 -0.0017009691504584652 0 -0.034883698287874916 -0.00061837849805498771 0 -0.032330960935136634 -0.0024897699919764656 0 -0.031650112948330665 -0.0014214242420452089 0 -0.030603009614917912 -0.0015555249820072801 0 -0.030948369269062186 -0.0010354349417795897 0 -0.031650112948330665 -0.0014214242420452089 0 -0.030603009614917912 -0.0015555249820072801 0 -0.031900801094707644 -0.0020845540051106109 0 -0.034883698287874916 -0.00061837849805498771 0 -0.043684102877945427 -0.00041277417262604939 0 -0.043703168947392346 -0.00037592171993986535 0 -0.043571863026620861 -0.0002754078312229753 0 -0.043630255912527803 -0.00039922888090518881 0 -0.043703168947392346 -0.00037592171993986535 0 -0.043505496690993642 -0.00032469848862052067 0 -0.043703168947392346 -0.00037592171993986535 0 -0.043505496690993642 -0.00032469848862052067 0 -0.043571863026620861 -0.0002754078312229753 0 -0.031824974448940613 -0.0010980274803413844 0 -0.031225681088182695 -0.0012342452044598992 0 -0.030954968083030353 -0.00069712970266879056 0 -0.037931713905885144 -0.00083896005892733624 0 -0.034883698287874916 -0.00061837849805498771 0 -0.031383168231117579 -0.0017019735211047564 0 -0.031824974448940613 -0.0010980274803413844 0 -0.031225681088182695 -0.0012342452044598992 0 -0.031383168231117579 -0.0017019735211047564 0 -0.031225681088182695 -0.0012342452044598992 0 -0.03074790887114082 -0.0014413105619206197 0 -0.031225681088182695 -0.0012342452044598992 0 -0.03074790887114082 -0.0014413105619206197 0 -0.030954968083030353 -0.00069712970266879056 0 -0.030962876808749883 -0.0022842636697832804 0 -0.031383168231117579 -0.0017019735211047564 0 -0.03074790887114082 -0.0014413105619206197 0 -0.030381023944359074 -0.0019603663347577726 0 -0.030962876808749883 -0.0022842636697832804 0 -0.03074790887114082 -0.0014413105619206197 0 -0.030381023944359074 -0.0019603663347577726 0 -0.03074790887114082 -0.0014413105619206197 0 -0.030077820356157674 -0.0012873090364701519 0 -0.03074790887114082 -0.0014413105619206197 0 -0.030438186922859885 -0.0010277643199580572 0 -0.030077820356157674 -0.0012873090364701519 0 -0.03074790887114082 -0.0014413105619206197 0 -0.030438186922859885 -0.0010277643199580572 0 -0.030954968083030353 -0.00069712970266879056 0 -0.030438186922859885 -0.0010277643199580572 0 -0.030954968083030353 -0.00069712970266879056 0 -0.030122288777109388 -0.00079786551921733105 0 -0.030954968083030353 -0.00069712970266879056 0 -0.030122288777109388 -0.00079786551921733105 0 -0.030145242552603514 -0.00036179536928623857 0 -0.029797915556282837 0.00027707728566613531 0 -0.028765479516639408 -0.00057424902046143082 0 -0.029196188090742536 0.00092809118482208464 0 -0.028765479516639408 -0.00057424902046143082 0 -0.028209597099694901 0.00061202153207564843 0 -0.029196188090742536 0.00092809118482208464 0 -0.028209597099694901 0.00061202153207564843 0 -0.027773121375937938 0.0017018017223333892 0 -0.027113463730477148 0.00036771486573287715 0 -0.028765479516639408 -0.00057424902046143082 0 -0.028209597099694901 0.00061202153207564843 0 -0.027113463730477148 0.00036771486573287715 0 -0.029012846836143916 -0.00060257115060658372 0 -0.029435701140649667 0.00010057222865567237 0 -0.027131352390197358 0.0013418075834723253 0 -0.029435701140649667 0.00010057222865567237 0 -0.027460520284598368 0.0018465672720205943 0 -0.029196188090742536 0.00092809118482208464 0 -0.02765642570451517 0.002241810590734731 0 -0.028209597099694901 0.00061202153207564843 0 -0.027773121375937938 0.0017018017223333892 0 -0.029196188090742536 0.00092809118482208464 0 -0.027131352390197358 0.0013418075834723253 0 -0.023445275822245523 0.002651698067972867 0 -0.027131352390197358 0.0013418075834723253 0 -0.023817079296293946 0.0029873044294892086 0 -0.029196188090742536 0.00092809118482208464 0 -0.02765642570451517 0.002241810590734731 0 -0.029680251036311237 0.0020396833866220781 0 -0.027131352390197358 0.0013418075834723253 0 -0.029237769984497067 0.001040058309029981 0 -0.022635812886598997 0.0017776759038480618 0 -0.022951099188518429 0.0024652958458625542 0 -0.023311686420463711 0.0021621291151951681 0 -0.023445275822245523 0.002651698067972867 0 -0.027330279675181039 0.0018563499585009095 0 -0.022635812886598997 0.0017776759038480618 0 -0.023311686420463711 0.0021621291151951681 0 -0.023330813943192186 0.0016965517774498303 0 -0.023445275822245523 0.002651698067972867 0 -0.019365902696552379 0.0040567112706881682 0 -0.017445781414201857 0.006486291915249881 0 -0.017227963339344694 0.0056014027626684528 0 -0.016723060270946902 0.0049746687488258293 0 -0.017445781414201857 0.006486291915249881 0 -0.017811321016660355 0.0059433441106018468 0 -0.018309027615221036 0.0064443709901413973 0 -0.023445275822245523 0.002651698067972867 0 -0.023817079296293946 0.0029873044294892086 0 -0.025136969432403056 0.0023746893377698344 0 -0.025342057335196243 0.002795037457295319 0 -0.024198515655990332 0.00290517205199518 0 -0.017445781414201857 0.006486291915249881 0 -0.017811321016660355 0.0059433441106018468 0 -0.017227963339344694 0.0056014027626684528 0 -0.017811321016660355 0.0059433441106018468 0 -0.017227963339344694 0.0056014027626684528 0 -0.018193412223038604 0.0052368522273017635 0 -0.017227963339344694 0.0056014027626684528 0 -0.017342144966724447 0.0047076400240755791 0 -0.018193412223038604 0.0052368522273017635 0 -0.017227963339344694 0.0056014027626684528 0 -0.017342144966724447 0.0047076400240755791 0 -0.016350845848132008 0.0043713635352808306 0 -0.017342144966724447 0.0047076400240755791 0 -0.017860238549689787 0.0042756996952868706 0 -0.018193412223038604 0.0052368522273017635 0 -0.017342144966724447 0.0047076400240755791 0 -0.017860238549689787 0.0042756996952868706 0 -0.01702570501382333 0.0040135991776330052 0 -0.017342144966724447 0.0047076400240755791 0 -0.01702570501382333 0.0040135991776330052 0 -0.016350845848132008 0.0043713635352808306 0 -0.017860238549689787 0.0042756996952868706 0 -0.01702570501382333 0.0040135991776330052 0 -0.01761600507866809 0.0035134371975781556 0 -0.016358237547298933 0.0043733342686172192 0 -0.017588111803503063 0.0028612946085225326 0 -0.019365902696552379 0.0040567112706881682 0 -0.019874368054339234 0.0025671918906179396 0 -0.016693041381047779 0.0044515117922987726 0 -0.016723060270946902 0.0049746687488258293 0 -0.016116172254994929 0.0034733445442211709 0 -0.01702570501382333 0.0040135991776330052 0 -0.016350845848132008 0.0043713635352808306 0 -0.016355604513154199 0.0035653782840579422 0 -0.017198265815481211 0.0055346838604455077 0 -0.016358237547298933 0.0043733342686172192 0 -0.017227963339344694 0.0056014027626684528 0 -0.016693041381047779 0.0044515117922987726 0 -0.016723060270946902 0.0049746687488258293 0 -0.023311686420463711 0.0021621291151951681 0 -0.023514030471509177 0.0026496516168447431 0 -0.023782392761598221 0.0021432601188576769 0 -0.022951099188518429 0.0024652958458625542 0 -0.023311686420463711 0.0021621291151951681 0 -0.023514030471509177 0.0026496516168447431 0 -0.020238484916868894 0.0014196289374741634 0 -0.020268518693838847 0.0017804205563058805 0 -0.02045958863693529 0.0018403087567495243 0 -0.020238484916868894 0.0014196289374741634 0 -0.020126653859919567 0.001820412973676571 0 -0.020268518693838847 0.0017804205563058805 0 -0.02206331003969041 0.0018719568877149481 0 -0.019874368054339234 0.0025671918906179396 0 -0.022951099188518429 0.0024652958458625542 0 -0.023514030471509177 0.0026496516168447431 0 -0.023252850188763555 0.0031425654786542499 0 -0.020238484916868894 0.0014196289374741634 0 -0.020634900856164352 0.0014802331588000847 0 -0.02045958863693529 0.0018403087567495243 0 -0.02206331003969041 0.0018719568877149481 0 -0.021835395184449553 0.0017426137158867521 0 -0.020634900856164352 0.0014802331588000847 0 -0.02043985022750907 0.00091552214924956919 0 -0.020973145919676264 0.0011572010260804647 0 -0.020238484916868894 0.0014196289374741634 0 -0.020634900856164352 0.0014802331588000847 0 -0.02043985022750907 0.00091552214924956919 0 -0.02043985022750907 0.00091552214924956919 0 -0.020696627602355928 0.00039703264027802902 0 -0.020844210811974236 0.00080742932477698094 0 -0.023782392761598221 0.0021432601188576769 0 -0.023330813943192186 0.0016965517774498303 0 -0.024046854807865961 0.0016143882739964816 0 -0.021835395184449553 0.0017426137158867521 0 -0.025524211040463925 0.00088216175991055225 0 -0.023311686420463711 0.0021621291151951681 0 -0.023782392761598221 0.0021432601188576769 0 -0.023330813943192186 0.0016965517774498303 0 -0.029196188090742536 0.00092809118482208464 0 -0.029680251036311237 0.0020396833866220781 0 -0.030033237875710096 0.00097141530883308638 0 -0.029680251036311237 0.0020396833866220781 0 -0.030033237875710096 0.00097141530883308638 0 -0.03074910861573556 0.0011753080749059707 0 -0.027330279675181039 0.0018563499585009095 0 -0.025524211040463925 0.00088216175991055225 0 -0.029680251036311237 0.0020396833866220781 0 -0.03074910861573556 0.0011753080749059707 0 -0.031516894625513513 0.0018438305386941998 0 -0.031306825859944508 0.00066153772340506536 0 -0.03074910861573556 0.0011753080749059707 0 -0.031516894625513513 0.0018438305386941998 0 -0.02629011201738975 -0.0001801197662753437 0 -0.026174202657512847 4.6800507346079372e-05 0 -0.026408320827004467 1.8561113485362174e-05 0 -0.025524211040463925 0.00088216175991055225 0 -0.023947740966913284 -2.8949886788712382e-06 0 -0.020696627602355928 0.00039703264027802902 0 -0.0213778472449348 0.00033137108896701226 0 -0.021045513698178312 0.00059447283712334706 0 -0.029923972816045769 -0.00034195182274592641 0 -0.025524211040463925 0.00088216175991055225 0 -0.0213778472449348 0.00033137108896701226 0 -0.021286685403411925 0.00065240241407403998 0 -0.021045513698178312 0.00059447283712334706 0 -0.0213778472449348 0.00033137108896701226 0 -0.021286685403411925 0.00065240241407403998 0 -0.021445019294110076 0.00072000987532958309 0 -0.023947740966913284 -2.8949886788712382e-06 0 -0.022127307662251405 0.00074431535228954146 0 -0.021286685403411925 0.00065240241407403998 0 -0.021445019294110076 0.00072000987532958309 0 -0.0211458108566717 0.00087326610700901681 0 -0.021286685403411925 0.00065240241407403998 0 -0.0211458108566717 0.00087326610700901681 0 -0.021045513698178312 0.00059447283712334706 0 -0.0211458108566717 0.00087326610700901681 0 -0.021045513698178312 0.00059447283712334706 0 -0.020844210811974236 0.00080742932477698094 0 -0.020696627602355928 0.00039703264027802902 0 -0.021045513698178312 0.00059447283712334706 0 -0.020844210811974236 0.00080742932477698094 0 -0.02043985022750907 0.00091552214924956919 0 -0.020844210811974236 0.00080742932477698094 0 -0.020973145919676264 0.0011572010260804647 0 -0.0211458108566717 0.00087326610700901681 0 -0.020844210811974236 0.00080742932477698094 0 -0.020973145919676264 0.0011572010260804647 0 -0.020634900856164352 0.0014802331588000847 0 -0.021070560203561836 0.0015192005723565515 0 -0.02066653530110665 0.0019346670934357072 0 -0.020634900856164352 0.0014802331588000847 0 -0.020973145919676264 0.0011572010260804647 0 -0.021070560203561836 0.0015192005723565515 0 -0.021070560203561836 0.0015192005723565515 0 -0.021317658003893059 0.0017043765525476989 0 -0.021557704951410444 0.0012129593881343664 0 -0.021317658003893059 0.0017043765525476989 0 -0.021557704951410444 0.0012129593881343664 0 -0.021759079934152811 0.0018095828962241811 0 -0.020973145919676264 0.0011572010260804647 0 -0.021070560203561836 0.0015192005723565515 0 -0.021557704951410444 0.0012129593881343664 0 -0.022127307662251405 0.00074431535228954146 0 -0.021597255801753701 0.0012006833723359877 0 -0.0211458108566717 0.00087326610700901681 0 -0.020973145919676264 0.0011572010260804647 0 -0.021557704951410444 0.0012129593881343664 0 -0.021445019294110076 0.00072000987532958309 0 -0.0211458108566717 0.00087326610700901681 0 -0.021557704951410444 0.0012129593881343664 0 -0.021695102604386261 0.0012205582445692024 0 -0.021889655427712231 0.00086608101705418303 0 -0.022199443955095384 0.0010063837036324698 0 -0.021585532807807371 0.00063052569477130315 0 -0.021695102604386261 0.0012205582445692024 0 -0.021889655427712231 0.00086608101705418303 0 -0.021695102604386261 0.0012205582445692024 0 -0.022077024959193663 0.0014086637676071468 0 -0.022199443955095384 0.0010063837036324698 0 -0.021889655427712231 0.00086608101705418303 0 -0.022199443955095384 0.0010063837036324698 0 -0.022079140019656041 0.00060703552612096734 0 -0.021597255801753701 0.0012006833723359877 0 -0.021753958247830815 0.0017772552364809138 0 -0.021695102604386261 0.0012205582445692024 0 -0.022077024959193663 0.0014086637676071468 0 -0.021759079934152811 0.0018095828962241811 0 -0.022077024959193663 0.0014086637676071468 0 -0.022249759234282161 0.001679243669989536 0 -0.021759079934152811 0.0018095828962241811 0 -0.022559398058493919 0.0015796504638981867 0 -0.02238956648960385 0.0013065892724588757 0 -0.022756227811796551 0.0010481612650949928 0 -0.022536031293971425 0.0014179088367738042 0 -0.024897482391029832 0.0020879161036170416 0 -0.022559398058493919 0.0015796504638981867 0 -0.022249759234282161 0.001679243669989536 0 -0.02235670470180507 0.0020272597633236929 0 -0.022559398058493919 0.0015796504638981867 0 -0.022249759234282161 0.001679243669989536 0 -0.02238956648960385 0.0013065892724588757 0 -0.022077024959193663 0.0014086637676071468 0 -0.022249759234282161 0.001679243669989536 0 -0.02238956648960385 0.0013065892724588757 0 -0.022199443955095384 0.0010063837036324698 0 -0.022577282014963767 0.00057306230058962421 0 -0.022756227811796551 0.0010481612650949928 0 -0.02238956648960385 0.0013065892724588757 0 -0.022199443955095384 0.0010063837036324698 0 -0.022756227811796551 0.0010481612650949928 0 -0.022077024959193663 0.0014086637676071468 0 -0.02238956648960385 0.0013065892724588757 0 -0.022199443955095384 0.0010063837036324698 0 -0.022577282014963767 0.00057306230058962421 0 -0.022288927623070814 0.0003796917374546319 0 -0.022079140019656041 0.00060703552612096734 0 -0.024870260476908764 0.0012128322425561163 0 -0.024897482391029832 0.0020879161036170416 0 -0.022199443955095384 0.0010063837036324698 0 -0.022577282014963767 0.00057306230058962421 0 -0.022079140019656041 0.00060703552612096734 0 -0.022577282014963767 0.00057306230058962421 0 -0.022288927623070814 0.0003796917374546319 0 -0.022404259753982476 9.5020760798984164e-05 0 -0.022288927623070814 0.0003796917374546319 0 -0.022079140019656041 0.00060703552612096734 0 -0.022141561653370546 0.00011670301422049376 0 -0.021585532807807371 0.00063052569477130315 0 -0.021889655427712231 0.00086608101705418303 0 -0.022079140019656041 0.00060703552612096734 0 -0.021585532807807371 0.00063052569477130315 0 -0.022079140019656041 0.00060703552612096734 0 -0.022141561653370546 0.00011670301422049376 0 -0.022127307662251405 0.00074431535228954146 0 -0.024497638425798593 0.00027805446069543164 0 -0.026061794463636358 -0.00024647489729864565 0 -0.025830360103422243 -3.9705213911923582e-05 0 -0.026179154490573769 -6.9819021165424329e-05 0 -0.023947740966913284 -2.8949886788712382e-06 0 -0.024497638425798593 0.00027805446069543164 0 -0.023161516756043027 0.00012072540754003601 0 -0.023306407663768521 0.00079697369604714166 0 -0.024110411886132752 3.5300979185961634e-05 0 -0.026061794463636358 -0.00024647489729864565 0 -0.026179154490573769 -6.9819021165424329e-05 0 -0.026288491613643331 -0.00017078568227411227 0 -0.025095378395304513 0.00040693553602226177 0 -0.02549395895368841 2.8198204503080421e-05 0 -0.025622792732448503 0.00035854028665615142 0 -0.027166229310214028 0.0018812364020453231 0 -0.027055207704009657 0.0010277817669111097 0 -0.027455336990261155 0.0013479602585686314 0 -0.027166229310214028 0.0018812364020453231 0 -0.026838316349174531 0.0010457631875996323 0 -0.027055207704009657 0.0010277817669111097 0 -0.024497638425798593 0.00027805446069543164 0 -0.02625966493949522 0.00011316029282758536 0 -0.02625966493949522 0.00011316029282758536 0 -0.025262965263043238 0.00027234721891512327 0 -0.026719887891942181 0.00075494700558327013 0 -0.026833588507702885 0.0010467834476208541 0 -0.027055207704009657 0.0010277817669111097 0 -0.02736183699336216 0.00062145202114838533 0 -0.026719887891942181 0.00075494700558327013 0 -0.027055207704009657 0.0010277817669111097 0 -0.02736183699336216 0.00062145202114838533 0 -0.027055207704009657 0.0010277817669111097 0 -0.027408919927304383 0.00098259548121081984 0 -0.025262965263043238 0.00027234721891512327 0 -0.026007736368322164 0.00033697193584632999 0 -0.024870260476908764 0.0012128322425561163 0 -0.025262965263043238 0.00027234721891512327 0 -0.027055207704009657 0.0010277817669111097 0 -0.027455336990261155 0.0013479602585686314 0 -0.027408919927304383 0.00098259548121081984 0 -0.024497638425798593 0.00027805446069543164 0 -0.025262965263043238 0.00027234721891512327 0 -0.022288927623070814 0.0003796917374546319 0 -0.022141561653370546 0.00011670301422049376 0 -0.022404259753982476 9.5020760798984164e-05 0 -0.028149767448694681 -0.0010725481274418314 0 -0.028015110428821342 -0.0011683692619284365 0 -0.028520005346581466 -0.0012941374205403054 0 -0.028437132124624825 -0.0011931549539864448 0 -0.028249391441624312 -0.00082514298674056974 0 -0.028685927724276965 -0.0010676988785299636 0 -0.028149767448694681 -0.0010725481274418314 0 -0.028437132124624825 -0.0011931549539864448 0 -0.028249391441624312 -0.00082514298674056974 0 -0.028149767448694681 -0.0010725481274418314 0 -0.028520005346581466 -0.0012941374205403054 0 -0.028437132124624825 -0.0011931549539864448 0 -0.028149767448694681 -0.0010725481274418314 0 -0.028249391441624312 -0.00082514298674056974 0 -0.027747425261053636 -0.00072996019695730505 0 -0.028249391441624312 -0.00082514298674056974 0 -0.027747425261053636 -0.00072996019695730505 0 -0.027768001318476836 -0.00033180526275495041 0 -0.028492194274674081 -0.00073587961845451573 0 -0.027204408921495133 -0.00030661448654323206 0 -0.028015110428821342 -0.0011683692619284365 0 -0.027747425261053636 -0.00072996019695730505 0 -0.026895503335129561 -0.00019738153592156198 0 -0.02905230380274559 -0.00027016138834335313 0 -0.028278004736196141 -0.0002931962136642153 0 -0.026895503335129561 -0.00019738153592156198 0 -0.028149767448694681 -0.0010725481274418314 0 -0.028015110428821342 -0.0011683692619284365 0 -0.027747425261053636 -0.00072996019695730505 0 -0.02905230380274559 -0.00027016138834335313 0 -0.028278004736196141 -0.0002931962136642153 0 -0.029301477828105958 -0.00018605262696115807 0 -0.028278004736196141 -0.0002931962136642153 0 -0.029301477828105958 -0.00018605262696115807 0 -0.028092761901047213 -0.00022824718957578286 0 -0.028999042787610653 -5.0280628010082455e-07 0 -0.029301477828105958 -0.00018605262696115807 0 -0.028092761901047213 -0.00022824718957578286 0 -0.028999042787610653 -5.0280628010082455e-07 0 -0.029301477828105958 -0.00018605262696115807 0 -0.031373964957398352 -1.8124298075859059e-07 0 -0.029301477828105958 -0.00018605262696115807 0 -0.03046118816223738 -0.00017814273779799813 0 -0.031373964957398352 -1.8124298075859059e-07 0 -0.02905230380274559 -0.00027016138834335313 0 -0.029301477828105958 -0.00018605262696115807 0 -0.03046118816223738 -0.00017814273779799813 0 -0.02905230380274559 -0.00027016138834335313 0 -0.030780497292501506 -0.00023534687928341121 0 -0.03046118816223738 -0.00017814273779799813 0 -0.030780497292501506 -0.00023534687928341121 0 -0.03046118816223738 -0.00017814273779799813 0 -0.031879833036838112 -0.00022906538261483112 0 -0.03046118816223738 -0.00017814273779799813 0 -0.031373964957398352 -1.8124298075859059e-07 0 -0.031879833036838112 -0.00022906538261483112 0 -0.033749945191072828 -1.6533659291023177e-06 0 -0.031373964957398352 -1.8124298075859059e-07 0 -0.031879833036838112 -0.00022906538261483112 0 -0.031437104717478785 -1.106803052323526e-05 0 -0.030780497292501506 -0.00023534687928341121 0 -0.031879833036838112 -0.00022906538261483112 0 -0.031227437885368855 1.6716291401515616e-05 0 -0.030163717857826892 -0.00071235572722261992 0 -0.029993687961790742 -7.3697264470339477e-05 0 -0.031437104717478785 -1.106803052323526e-05 0 -0.02956315149518916 -0.0013040417904959902 0 -0.029993687961790742 -7.3697264470339477e-05 0 -0.02956315149518916 -0.0013040417904959902 0 -0.028601721420421566 -0.0012963527582140059 0 -0.028542622889640188 -0.0011363772227782052 0 -0.028877450546396177 -0.0012457350848104956 0 -0.028520005346581466 -0.0012941374205403054 0 -0.02956315149518916 -0.0013040417904959902 0 -0.028601721420421566 -0.0012963527582140059 0 -0.028492194274674081 -0.00073587961845451573 0 -0.030163717857826892 -0.00071235572722261992 0 -0.028015110428821342 -0.0011683692619284365 0 -0.028520005346581466 -0.0012941374205403054 0 -0.02956315149518916 -0.0013040417904959902 0 -0.028437132124624825 -0.0011931549539864448 0 -0.028601721420421566 -0.0012963527582140059 0 -0.0287370023787407 -0.0013257279848010602 0 -0.028520005346581466 -0.0012941374205403054 0 -0.028437132124624825 -0.0011931549539864448 0 -0.028601721420421566 -0.0012963527582140059 0 -0.028601721420421566 -0.0012963527582140059 0 -0.028791915989984596 -0.0016636241920931279 0 -0.0287370023787407 -0.0013257279848010602 0 -0.028506784386044811 -0.0018727413848324409 0 -0.028601721420421566 -0.0012963527582140059 0 -0.028791915989984596 -0.0016636241920931279 0 -0.029128570459767064 -0.0018474651545200239 0 -0.028791915989984596 -0.0016636241920931279 0 -0.028988989958160804 -0.001535121472489537 0 -0.028791915989984596 -0.0016636241920931279 0 -0.028988989958160804 -0.001535121472489537 0 -0.0287370023787407 -0.0013257279848010602 0 -0.029128570459767064 -0.0018474651545200239 0 -0.028988989958160804 -0.001535121472489537 0 -0.029301904324058312 -0.0015828000000488399 0 -0.028988989958160804 -0.001535121472489537 0 -0.029301904324058312 -0.0015828000000488399 0 -0.029034828365818856 -0.0012927898233202788 0 -0.029301904324058312 -0.0015828000000488399 0 -0.029034828365818856 -0.0012927898233202788 0 -0.029469783337094071 -0.0012832972022991311 0 -0.029034828365818856 -0.0012927898233202788 0 -0.029469783337094071 -0.0012832972022991311 0 -0.029195243433569128 -0.00094933944142722756 0 -0.029034828365818856 -0.0012927898233202788 0 -0.0287370023787407 -0.0013257279848010602 0 -0.028685927724276965 -0.0010676988785299636 0 -0.028437132124624825 -0.0011931549539864448 0 -0.0287370023787407 -0.0013257279848010602 0 -0.028685927724276965 -0.0010676988785299636 0 -0.028988989958160804 -0.001535121472489537 0 -0.029034828365818856 -0.0012927898233202788 0 -0.0287370023787407 -0.0013257279848010602 0 -0.029603936602479057 -0.0015896700391163682 0 -0.030157420409060842 -0.0017585884337126452 0 -0.030381023944359074 -0.0019603663347577726 0 -0.029855466980283751 -0.0015995254782910273 0 -0.030077820356157674 -0.0012873090364701519 0 -0.029301904324058312 -0.0015828000000488399 0 -0.029855466980283751 -0.0015995254782910273 0 -0.029469783337094071 -0.0012832972022991311 0 -0.029470396576791451 -0.0018857906891385262 0 -0.029301904324058312 -0.0015828000000488399 0 -0.029855466980283751 -0.0015995254782910273 0 -0.029469783337094071 -0.0012832972022991311 0 -0.030077820356157674 -0.0012873090364701519 0 -0.029673622753448342 -0.00099467690491771813 0 -0.029855466980283751 -0.0015995254782910273 0 -0.029469783337094071 -0.0012832972022991311 0 -0.030077820356157674 -0.0012873090364701519 0 -0.030438186922859885 -0.0010277643199580572 0 -0.030077820356157674 -0.0012873090364701519 0 -0.030122288777109388 -0.00079786551921733105 0 -0.030077820356157674 -0.0012873090364701519 0 -0.030122288777109388 -0.00079786551921733105 0 -0.029673622753448342 -0.00099467690491771813 0 -0.030122288777109388 -0.00079786551921733105 0 -0.029731085623540685 -0.00063460109472956679 0 -0.02994288127846852 -0.00050826456633405151 0 -0.030122288777109388 -0.00079786551921733105 0 -0.029673622753448342 -0.00099467690491771813 0 -0.029731085623540685 -0.00063460109472956679 0 -0.029673622753448342 -0.00099467690491771813 0 -0.029731085623540685 -0.00063460109472956679 0 -0.029195243433569128 -0.00094933944142722756 0 -0.029731085623540685 -0.00063460109472956679 0 -0.029195243433569128 -0.00094933944142722756 0 -0.029158005747603747 -0.00050439426274072991 0 -0.029469783337094071 -0.0012832972022991311 0 -0.029673622753448342 -0.00099467690491771813 0 -0.029195243433569128 -0.00094933944142722756 0 -0.029731085623540685 -0.00063460109472956679 0 -0.029772179996442157 -0.00019312360362255498 0 -0.029158005747603747 -0.00050439426274072991 0 -0.029731085623540685 -0.00063460109472956679 0 -0.02994288127846852 -0.00050826456633405151 0 -0.029772179996442157 -0.00019312360362255498 0 -0.029772179996442157 -0.00019312360362255498 0 -0.030101112730758328 -0.00036183826541872147 0 -0.030015649673163503 0.00010457522431914878 0 -0.02994288127846852 -0.00050826456633405151 0 -0.029772179996442157 -0.00019312360362255498 0 -0.030145242552603514 -0.00036179536928623857 0 -0.03000727343491251 -0.00029159142844088439 0 -0.029435701140649667 0.00010057222865567237 0 -0.030122288777109388 -0.00079786551921733105 0 -0.02994288127846852 -0.00050826456633405151 0 -0.030145242552603514 -0.00036179536928623857 0 -0.028249391441624312 -0.00082514298674056974 0 -0.028685927724276965 -0.0010676988785299636 0 -0.028792946437461834 -0.00074864416148938862 0 -0.029034828365818856 -0.0012927898233202788 0 -0.028685927724276965 -0.0010676988785299636 0 -0.029195243433569128 -0.00094933944142722756 0 -0.028685927724276965 -0.0010676988785299636 0 -0.029195243433569128 -0.00094933944142722756 0 -0.028792946437461834 -0.00074864416148938862 0 -0.029195243433569128 -0.00094933944142722756 0 -0.029158005747603747 -0.00050439426274072991 0 -0.028792946437461834 -0.00074864416148938862 0 -0.029158005747603747 -0.00050439426274072991 0 -0.028598404651174178 -0.0003546012679630263 0 -0.028792946437461834 -0.00074864416148938862 0 -0.028249391441624312 -0.00082514298674056974 0 -0.028598404651174178 -0.0003546012679630263 0 -0.027768001318476836 -0.00033180526275495041 0 -0.028249391441624312 -0.00082514298674056974 0 -0.028598404651174178 -0.0003546012679630263 0 -0.028792946437461834 -0.00074864416148938862 0 -0.028598404651174178 -0.0003546012679630263 0 -0.028067496767288303 0.00020548020598407397 0 -0.029181506394650485 0.00024867675519329085 0 -0.028598404651174178 -0.0003546012679630263 0 -0.028067496767288303 0.00020548020598407397 0 -0.027768001318476836 -0.00033180526275495041 0 -0.029158005747603747 -0.00050439426274072991 0 -0.028598404651174178 -0.0003546012679630263 0 -0.029181506394650485 0.00024867675519329085 0 -0.029116689067299729 -0.00030455723842776278 0 -0.029266709813329454 -1.88524450236249e-05 0 -0.029266709813329454 -1.88524450236249e-05 0 -0.026871305544198427 0.0029096378389232877 0 -0.028996113075233067 0.00035895731615596 0 -0.029517688033013377 0.0008674567182767321 0 -0.028910795789277844 0.0012253359384284766 0 -0.029181506394650485 0.00024867675519329085 0 -0.028379540063468964 0.00098765788764086431 0 -0.029200238636695248 0.0015822332579884303 0 -0.028067496767288303 0.00020548020598407397 0 -0.029181506394650485 0.00024867675519329085 0 -0.028379540063468964 0.00098765788764086431 0 -0.028379540063468964 0.00098765788764086431 0 -0.027537389055992768 0.0014511776152436498 0 -0.02751677526965058 0.00075379580744328934 0 -0.028067496767288303 0.00020548020598407397 0 -0.028379540063468964 0.00098765788764086431 0 -0.02751677526965058 0.00075379580744328934 0 -0.030398671037256443 0.00029498683295932349 0 -0.030101112730758328 -0.00036183826541872147 0 -0.030015649673163503 0.00010457522431914878 0 -0.030398671037256443 0.00029498683295932349 0 -0.030062128377741651 0.00036994893946505245 0 -0.030015649673163503 0.00010457522431914878 0 -0.030398671037256443 0.00029498683295932349 0 -0.030062128377741651 0.00036994893946505245 0 -0.030048905998494718 0.00051343925795287366 0 -0.029772179996442157 -0.00019312360362255498 0 -0.030015649673163503 0.00010457522431914878 0 -0.029568484663526542 0.00021841699954659215 0 -0.030062128377741651 0.00036994893946505245 0 -0.030015649673163503 0.00010457522431914878 0 -0.029817703171090816 0.00042132154805407825 0 -0.030015649673163503 0.00010457522431914878 0 -0.029568484663526542 0.00021841699954659215 0 -0.029817703171090816 0.00042132154805407825 0 -0.029772179996442157 -0.00019312360362255498 0 -0.029158005747603747 -0.00050439426274072991 0 -0.029568484663526542 0.00021841699954659215 0 -0.029158005747603747 -0.00050439426274072991 0 -0.028996113075233067 0.00035895731615596 0 -0.029568484663526542 0.00021841699954659215 0 -0.029568484663526542 0.00021841699954659215 0 -0.029517688033013377 0.0008674567182767321 0 -0.029817703171090816 0.00042132154805407825 0 -0.028996113075233067 0.00035895731615596 0 -0.029568484663526542 0.00021841699954659215 0 -0.029517688033013377 0.0008674567182767321 0 -0.019321408482820764 0.005915735183457089 0 -0.018406143977665362 0.0058853797504260829 0 -0.018309027615221036 0.0064443709901413973 0 -0.024105579442306648 0.0035608591711816769 0 -0.023817079296293946 0.0029873044294892086 0 -0.029517688033013377 0.0008674567182767321 0 -0.029817703171090816 0.00042132154805407825 0 -0.030048905998494718 0.00051343925795287366 0 -0.019321408482820764 0.005915735183457089 0 -0.018406143977665362 0.0058853797504260829 0 -0.018193412223038604 0.0052368522273017635 0 -0.017811321016660355 0.0059433441106018468 0 -0.018406143977665362 0.0058853797504260829 0 -0.018193412223038604 0.0052368522273017635 0 -0.017811321016660355 0.0059433441106018468 0 -0.018406143977665362 0.0058853797504260829 0 -0.018309027615221036 0.0064443709901413973 0 -0.030062128377741651 0.00036994893946505245 0 -0.029817703171090816 0.00042132154805407825 0 -0.030048905998494718 0.00051343925795287366 0 -0.019321408482820764 0.005915735183457089 0 -0.018193412223038604 0.0052368522273017635 0 -0.019285549432590934 0.004800609338039212 0 -0.018193412223038604 0.0052368522273017635 0 -0.019285549432590934 0.004800609338039212 0 -0.018567561263205572 0.0045038016738317681 0 -0.024105579442306648 0.0035608591711816769 0 -0.026871305544198427 0.0029096378389232877 0 -0.019321408482820764 0.005915735183457089 0 -0.019285549432590934 0.004800609338039212 0 -0.020361618018747387 0.0053541483040461255 0 -0.019285549432590934 0.004800609338039212 0 -0.018933574855561398 0.0036919602625442409 0 -0.020393340371693373 0.0039786551764451738 0 -0.019285549432590934 0.004800609338039212 0 -0.018933574855561398 0.0036919602625442409 0 -0.018567561263205572 0.0045038016738317681 0 -0.017860238549689787 0.0042756996952868706 0 -0.018933574855561398 0.0036919602625442409 0 -0.018567561263205572 0.0045038016738317681 0 -0.017860238549689787 0.0042756996952868706 0 -0.018933574855561398 0.0036919602625442409 0 -0.01761600507866809 0.0035134371975781556 0 -0.017860238549689787 0.0042756996952868706 0 -0.018193412223038604 0.0052368522273017635 0 -0.018567561263205572 0.0045038016738317681 0 -0.028328731855332658 0.0021293473533441722 0 -0.027537389055992768 0.0014511776152436498 0 -0.026850092572929567 0.0023509933771908909 0 -0.028379540063468964 0.00098765788764086431 0 -0.028328731855332658 0.0021293473533441722 0 -0.027537389055992768 0.0014511776152436498 0 -0.026871305544198427 0.0029096378389232877 0 -0.024742691663958715 0.0037540370222379112 0 -0.028379540063468964 0.00098765788764086431 0 -0.028328731855332658 0.0021293473533441722 0 -0.029200238636695248 0.0015822332579884303 0 -0.028328731855332658 0.0021293473533441722 0 -0.029448562292286515 0.0015046511243905238 0 -0.029411158276725642 0.0034033285310447292 0 -0.019285549432590934 0.004800609338039212 0 -0.020361618018747387 0.0053541483040461255 0 -0.020393340371693373 0.0039786551764451738 0 -0.029156083771373284 0.0016532378090931795 0 -0.026871305544198427 0.0029096378389232877 0 -0.028328731855332658 0.0021293473533441722 0 -0.027741713487913263 0.0030118529666565675 0 -0.026850092572929567 0.0023509933771908909 0 -0.029411158276725642 0.0034033285310447292 0 -0.027741713487913263 0.0030118529666565675 0 -0.02771141888177581 0.0041719734091601604 0 -0.028328731855332658 0.0021293473533441722 0 -0.029411158276725642 0.0034033285310447292 0 -0.027741713487913263 0.0030118529666565675 0 -0.027741713487913263 0.0030118529666565675 0 -0.026747100161285169 0.0034045892459606208 0 -0.02771141888177581 0.0041719734091601604 0 -0.026747100161285169 0.0034045892459606208 0 -0.025435329371388062 0.0034570878642781614 0 -0.026171176577405388 0.0042842909692613973 0 -0.026747100161285169 0.0034045892459606208 0 -0.025435329371388062 0.0034570878642781614 0 -0.026850092572929567 0.0023509933771908909 0 -0.025435329371388062 0.0034570878642781614 0 -0.025681915141782873 0.0022932085970145109 0 -0.026850092572929567 0.0023509933771908909 0 -0.027741713487913263 0.0030118529666565675 0 -0.026747100161285169 0.0034045892459606208 0 -0.026850092572929567 0.0023509933771908909 0 -0.024288919614847443 0.0038488252978415307 0 -0.025435329371388062 0.0034570878642781614 0 -0.024202076854719898 0.003040390696046814 0 -0.025435329371388062 0.0034570878642781614 0 -0.025681915141782873 0.0022932085970145109 0 -0.024202076854719898 0.003040390696046814 0 -0.025191529854774249 0.001522578236138199 0 -0.025681915141782873 0.0022932085970145109 0 -0.024202076854719898 0.003040390696046814 0 -0.025191529854774249 0.001522578236138199 0 -0.025681915141782873 0.0022932085970145109 0 -0.026653032760070004 0.0012234632854806022 0 -0.025681915141782873 0.0022932085970145109 0 -0.026850092572929567 0.0023509933771908909 0 -0.026653032760070004 0.0012234632854806022 0 -0.027537389055992768 0.0014511776152436498 0 -0.026850092572929567 0.0023509933771908909 0 -0.026653032760070004 0.0012234632854806022 0 -0.028067496767288303 0.00020548020598407397 0 -0.02751677526965058 0.00075379580744328934 0 -0.027171650991087631 0.00025053701711000829 0 -0.027537389055992768 0.0014511776152436498 0 -0.02751677526965058 0.00075379580744328934 0 -0.026653032760070004 0.0012234632854806022 0 -0.02751677526965058 0.00075379580744328934 0 -0.026653032760070004 0.0012234632854806022 0 -0.027171650991087631 0.00025053701711000829 0 -0.025191529854774249 0.001522578236138199 0 -0.026260115719756279 0.00052763970441315432 0 -0.025206629354079312 0.00014857032554963897 0 -0.025191529854774249 0.001522578236138199 0 -0.026653032760070004 0.0012234632854806022 0 -0.026260115719756279 0.00052763970441315432 0 -0.026653032760070004 0.0012234632854806022 0 -0.026260115719756279 0.00052763970441315432 0 -0.027171650991087631 0.00025053701711000829 0 -0.026260115719756279 0.00052763970441315432 0 -0.026895503335129561 -0.00019738153592156198 0 -0.027171650991087631 0.00025053701711000829 0 -0.027747425261053636 -0.00072996019695730505 0 -0.026895503335129561 -0.00019738153592156198 0 -0.027768001318476836 -0.00033180526275495041 0 -0.026260115719756279 0.00052763970441315432 0 -0.026895503335129561 -0.00019738153592156198 0 -0.025206629354079312 0.00014857032554963897 0 -0.028067496767288303 0.00020548020598407397 0 -0.027768001318476836 -0.00033180526275495041 0 -0.027171650991087631 0.00025053701711000829 0 -0.026895503335129561 -0.00019738153592156198 0 -0.027768001318476836 -0.00033180526275495041 0 -0.027171650991087631 0.00025053701711000829 0 -0.028092761901047213 -0.00022824718957578286 0 -0.02720539560451753 -0.00015243464303445382 0 -0.026623596882055661 -4.0382041416620924e-07 0 -0.028999042787610653 -5.0280628010082455e-07 0 -0.028092761901047213 -0.00022824718957578286 0 -0.026623596882055661 -4.0382041416620924e-07 0 -0.028278004736196141 -0.0002931962136642153 0 -0.026895503335129561 -0.00019738153592156198 0 -0.025206629354079312 0.00014857032554963897 0 -0.027923688935256579 -0.0002555083787198015 0 -0.026219572654130798 6.0644058202833114e-05 0 -0.028278004736196141 -0.0002931962136642153 0 -0.028092761901047213 -0.00022824718957578286 0 -0.02720539560451753 -0.00015243464303445382 0 -0.026219572654130798 6.0644058202833114e-05 0 -0.024164255042343888 0.0011292179530250047 0 -0.02720539560451753 -0.00015243464303445382 0 -0.025996559160303915 -6.4318310808513112e-05 0 -0.024979965210122638 4.9316869103864512e-05 0 -0.02720539560451753 -0.00015243464303445382 0 -0.025996559160303915 -6.4318310808513112e-05 0 -0.026623596882055661 -4.0382041416620924e-07 0 -0.025996559160303915 -6.4318310808513112e-05 0 -0.026623596882055661 -4.0382041416620924e-07 0 -0.024248422557095854 1.9046801277470902e-08 0 -0.025996559160303915 -6.4318310808513112e-05 0 -0.024248422557095854 1.9046801277470902e-08 0 -0.024979965210122638 4.9316869103864512e-05 0 -0.025191529854774249 0.001522578236138199 0 -0.025206629354079312 0.00014857032554963897 0 -0.022988735262057861 0.0023229644414154062 0 -0.025191529854774249 0.001522578236138199 0 -0.022988735262057861 0.0023229644414154062 0 -0.024202076854719898 0.003040390696046814 0 -0.022988735262057861 0.0023229644414154062 0 -0.024202076854719898 0.003040390696046814 0 -0.022775586958945018 0.003773902544163492 0 -0.024202076854719898 0.003040390696046814 0 -0.022775586958945018 0.003773902544163492 0 -0.023350148337355346 0.0039779941035571397 0 -0.024288919614847443 0.0038488252978415307 0 -0.024202076854719898 0.003040390696046814 0 -0.023350148337355346 0.0039779941035571397 0 -0.024248422557095854 1.9046801277470902e-08 0 -0.024979965210122638 4.9316869103864512e-05 0 -0.023232153779614968 5.2414983657435043e-05 0 -0.024248422557095854 1.9046801277470902e-08 0 -0.023232153779614968 5.2414983657435043e-05 0 -0.021872717086451055 3.8563387072749352e-07 0 -0.024979965210122638 4.9316869103864512e-05 0 -0.023232153779614968 5.2414983657435043e-05 0 -0.022500369091911134 0.00018594381297633162 0 -0.022988735262057861 0.0023229644414154062 0 -0.022775586958945018 0.003773902544163492 0 -0.021716562487997609 0.00486193176908072 0 -0.024164255042343888 0.0011292179530250047 0 -0.021093503518534843 0.0022953750725063869 0 -0.023232153779614968 5.2414983657435043e-05 0 -0.021872717086451055 3.8563387072749352e-07 0 -0.022658540167623267 0.0001018722855868711 0 -0.023232153779614968 5.2414983657435043e-05 0 -0.022658540167623267 0.0001018722855868711 0 -0.022500369091911134 0.00018594381297633162 0 -0.021872717086451055 3.8563387072749352e-07 0 -0.022658540167623267 0.0001018722855868711 0 -0.022172303657432606 4.4140350128071556e-05 0 -0.021200395363199866 0.0012003428509563163 0 -0.021093503518534843 0.0022953750725063869 0 -0.021716562487997609 0.00486193176908072 0 -0.022464711545865861 0.004647667935095817 0 -0.022398760314846757 0.0053965604798331401 0 -0.022775586958945018 0.003773902544163492 0 -0.021716562487997609 0.00486193176908072 0 -0.022464711545865861 0.004647667935095817 0 -0.022775586958945018 0.003773902544163492 0 -0.023350148337355346 0.0039779941035571397 0 -0.022464711545865861 0.004647667935095817 0 -0.022464711545865861 0.004647667935095817 0 -0.023180132685910747 0.004525256048982778 0 -0.022680641721648784 0.0050094712059495922 0 -0.024288919614847443 0.0038488252978415307 0 -0.023350148337355346 0.0039779941035571397 0 -0.023180132685910747 0.004525256048982778 0 -0.023350148337355346 0.0039779941035571397 0 -0.022464711545865861 0.004647667935095817 0 -0.023180132685910747 0.004525256048982778 0 -0.023180132685910747 0.004525256048982778 0 -0.022680641721648784 0.0050094712059495922 0 -0.022618498672984166 0.0053564893968962414 0 -0.022680641721648784 0.0050094712059495922 0 -0.022618498672984166 0.0053564893968962414 0 -0.022398760314846757 0.0053965604798331401 0 -0.022464711545865861 0.004647667935095817 0 -0.022680641721648784 0.0050094712059495922 0 -0.022398760314846757 0.0053965604798331401 0 -0.022398760314846757 0.0053965604798331401 0 -0.021712902706764289 0.0062146387928128429 0 -0.022530563442692074 0.0057204195603559899 0 -0.021716562487997609 0.00486193176908072 0 -0.022398760314846757 0.0053965604798331401 0 -0.022530563442692074 0.0057204195603559899 0 -0.022618498672984166 0.0053564893968962414 0 -0.022398760314846757 0.0053965604798331401 0 -0.021712902706764289 0.0062146387928128429 0 -0.021872717086451055 3.8563387072749352e-07 0 -0.022172303657432606 4.4140350128071556e-05 0 -0.019497149101382519 5.5799327741148751e-08 0 -0.021093503518534843 0.0022953750725063869 0 -0.019496654352015263 -7.8133040615803084e-07 0 -0.021093503518534843 0.0022953750725063869 0 -0.019732116344792772 0.0035260459306090774 0 -0.01854860607539988 0.0035001102565568355 0 -0.017211737149891396 0.00071554950375561914 0 -0.019492594973629793 2.8344966348946625e-06 0 -0.026171176577405388 0.0042842909692613973 0 -0.024465685075768 0.0049879066039623249 0 -0.027276098566523872 0.0056624935878408049 0 -0.025435329371388062 0.0034570878642781614 0 -0.026171176577405388 0.0042842909692613973 0 -0.024465685075768 0.0049879066039623249 0 -0.026747100161285169 0.0034045892459606208 0 -0.026171176577405388 0.0042842909692613973 0 -0.02771141888177581 0.0041719734091601604 0 -0.024288919614847443 0.0038488252978415307 0 -0.025435329371388062 0.0034570878642781614 0 -0.024465685075768 0.0049879066039623249 0 -0.024288919614847443 0.0038488252978415307 0 -0.023180132685910747 0.004525256048982778 0 -0.024465685075768 0.0049879066039623249 0 -0.023180132685910747 0.004525256048982778 0 -0.022618498672984166 0.0053564893968962414 0 -0.024465685075768 0.0049879066039623249 0 -0.021385009654163577 0.006086223964747367 0 -0.021514116906551996 0.0066903346771958689 0 -0.021712902706764289 0.0062146387928128429 0 -0.024465685075768 0.0049879066039623249 0 -0.02630819778866391 0.0073554215701459175 0 -0.022618498672984166 0.0053564893968962414 0 -0.021712902706764289 0.0062146387928128429 0 -0.024465685075768 0.0049879066039623249 0 -0.024465685075768 0.0049879066039623249 0 -0.02630819778866391 0.0073554215701459175 0 -0.027276098566523872 0.0056624935878408049 0 -0.015531433333085284 0.0051239205482758402 0 -0.019012126329576783 0.0039560385966176921 0 -0.015113676463848083 0.0012721015284936491 0 -0.021712902706764289 0.0062146387928128429 0 -0.015531433333085284 0.0051239205482758402 0 -0.019012126329576783 0.0039560385966176921 0 -0.019012126329576783 0.0039560385966176921 0 -0.015113676463848083 0.0012721015284936491 0 -0.01969450676202154 0.0022136917273641514 0 -0.015113676463848083 0.0012721015284936491 0 -0.01969450676202154 0.0022136917273641514 0 -0.015894769598307552 -0.00015418071047246614 0 -0.017412376160934866 -0.00010981699543946407 0 -0.019492594973629793 2.8344966348946625e-06 0 -0.017206753915650731 -1.3430415121861193e-06 0 -0.017211737149891396 0.00071554950375561914 0 -0.017412376160934866 -0.00010981699543946407 0 -0.019492594973629793 2.8344966348946625e-06 0 -0.021712902706764289 0.0062146387928128429 0 -0.022530563442692074 0.0057204195603559899 0 -0.019012126329576783 0.0039560385966176921 0 -0.017211737149891396 0.00071554950375561914 0 -0.017412376160934866 -0.00010981699543946407 0 -0.016299027455925104 -0.00022361846210472265 0 -0.019732116344792772 0.0035260459306090774 0 -0.017945294646814457 0.0010474375331409463 0 -0.022530563442692074 0.0057204195603559899 0 -0.019012126329576783 0.0039560385966176921 0 -0.01969450676202154 0.0022136917273641514 0 -0.017412376160934866 -0.00010981699543946407 0 -0.016299027455925104 -0.00022361846210472265 0 -0.015939933966039568 -0.0002345312391667278 0 -0.017412376160934866 -0.00010981699543946407 0 -0.017206753915650731 -1.3430415121861193e-06 0 -0.015939933966039568 -0.0002345312391667278 0 -0.017206753915650731 -1.3430415121861193e-06 0 -0.014916632531486196 -3.4228810495903763e-07 0 -0.015939933966039568 -0.0002345312391667278 0 -0.014916632531486196 -3.4228810495903763e-07 0 -0.015939933966039568 -0.0002345312391667278 0 -0.014382159835407951 -0.00025796911783621868 0 -0.015939933966039568 -0.0002345312391667278 0 -0.015894769598307552 -0.00015418071047246614 0 -0.014382159835407951 -0.00025796911783621868 0 -0.016299027455925104 -0.00022361846210472265 0 -0.015939933966039568 -0.0002345312391667278 0 -0.015894769598307552 -0.00015418071047246614 0 -0.017945294646814457 0.0010474375331409463 0 -0.016266378591217958 -5.2967809514969749e-05 0 -0.015113676463848083 0.0012721015284936491 0 -0.015894769598307552 -0.00015418071047246614 0 -0.014173589014824274 -0.0003185271842997851 0 -0.015894769598307552 -0.00015418071047246614 0 -0.014606301110450724 -0.00040981826639640352 0 -0.014173589014824274 -0.0003185271842997851 0 -0.015894769598307552 -0.00015418071047246614 0 -0.014606301110450724 -0.00040981826639640352 0 -0.014382159835407951 -0.00025796911783621868 0 -0.014606301110450724 -0.00040981826639640352 0 -0.01379606127289359 -0.00038770194463455011 0 -0.014382159835407951 -0.00025796911783621868 0 -0.014606301110450724 -0.00040981826639640352 0 -0.01379606127289359 -0.00038770194463455011 0 -0.013862613142238295 -0.00042767643714633231 0 -0.014606301110450724 -0.00040981826639640352 0 -0.013862613142238295 -0.00042767643714633231 0 -0.014173589014824274 -0.0003185271842997851 0 -0.01379606127289359 -0.00038770194463455011 0 -0.013429701413001705 -0.00033927766780662312 0 -0.013862613142238295 -0.00042767643714633231 0 -0.013429701413001705 -0.00033927766780662312 0 -0.013862613142238295 -0.00042767643714633231 0 -0.013503857896617523 -0.00020772356224209597 0 -0.01379606127289359 -0.00038770194463455011 0 -0.013429701413001705 -0.00033927766780662312 0 -0.012972424809404755 -0.00026773603402416882 0 -0.01379606127289359 -0.00038770194463455011 0 -0.012972424809404755 -0.00026773603402416882 0 -0.012566360258970902 -0.00024051168638007179 0 -0.012566360258970902 -0.00024051168638007179 0 -0.012628086221997204 -2.5047324507925593e-07 0 -0.010337235893415857 -1.3471850479509593e-06 0 -0.014916632531486196 -3.4228810495903763e-07 0 -0.012628086221997204 -2.5047324507925593e-07 0 -0.014382159835407951 -0.00025796911783621868 0 -0.012566360258970902 -0.00024051168638007179 0 -0.012628086221997204 -2.5047324507925593e-07 0 -0.014382159835407951 -0.00025796911783621868 0 -0.01379606127289359 -0.00038770194463455011 0 -0.012566360258970902 -0.00024051168638007179 0 -0.014382159835407951 -0.00025796911783621868 0 -0.01401840834237896 -0.00016324678290351562 0 -0.013931322858810847 -0.00018021038799388429 0 -0.013947921245297427 -0.00021217753497869017 0 -0.013931322858810847 -0.00018021038799388429 0 -0.013893917430358024 -0.00027868567182819836 0 -0.013947921245297427 -0.00021217753497869017 0 -0.01401840834237896 -0.00016324678290351562 0 -0.013947921245297427 -0.00021217753497869017 0 -0.014014331725411335 -0.00011734139300326807 0 -0.013950162545493453 -1.6666190745724685e-05 0 -0.013892660787031171 2.1693200329891334e-05 0 -0.01401840834237896 -0.00016324678290351562 0 -0.013931322858810847 -0.00018021038799388429 0 -0.013893702052963353 1.8185678105267409e-05 0 -0.013931322858810847 -0.00018021038799388429 0 -0.013771870954952354 -0.00016495317396724278 0 -0.013893917430358024 -0.00027868567182819836 0 -0.013931322858810847 -0.00018021038799388429 0 -0.013771870954952354 -0.00016495317396724278 0 -0.013893702052963353 1.8185678105267409e-05 0 -0.013771870954952354 -0.00016495317396724278 0 -0.013862613142238295 -0.00042767643714633231 0 -0.013503857896617523 -0.00020772356224209597 0 -0.013771870954952354 -0.00016495317396724278 0 -0.013862613142238295 -0.00042767643714633231 0 -0.013893917430358024 -0.00027868567182819836 0 -0.013862613142238295 -0.00042767643714633231 0 -0.014173589014824274 -0.0003185271842997851 0 -0.013957629306853925 -0.00031400759121659444 0 -0.013862613142238295 -0.00042767643714633231 0 -0.013893917430358024 -0.00027868567182819836 0 -0.013957629306853925 -0.00031400759121659444 0 -0.013893917430358024 -0.00027868567182819836 0 -0.013957629306853925 -0.00031400759121659444 0 -0.013947921245297427 -0.00021217753497869017 0 -0.013935832962587066 -0.00020813912639664004 0 -0.013957629306853925 -0.00031400759121659444 0 -0.013947921245297427 -0.00021217753497869017 0 -0.013935832962587066 -0.00020813912639664004 0 -0.014173589014824274 -0.0003185271842997851 0 -0.013957629306853925 -0.00031400759121659444 0 -0.013493557273795392 6.1562424794654237e-05 0 -0.014125303838995273 -0.00026981682830158258 0 -0.015113676463848083 0.0012721015284936491 0 -0.014173589014824274 -0.0003185271842997851 0 -0.01373758347614196 0.00060109757772625343 0 -0.012934004165622872 0.00035042598202518743 0 -0.014173589014824274 -0.0003185271842997851 0 -0.01373758347614196 0.00060109757772625343 0 -0.012934004165622872 0.00035042598202518743 0 -0.012778346022554688 0.00086354582260651889 0 -0.012998475118166673 0.00075299363881460709 0 -0.012934004165622872 0.00035042598202518743 0 -0.01373758347614196 0.00060109757772625343 0 -0.012778346022554688 0.00086354582260651889 0 -0.012778346022554688 0.00086354582260651889 0 -0.012998475118166673 0.00075299363881460709 0 -0.012963651077988136 0.00055307276471266672 0 -0.013493557273795392 6.1562424794654237e-05 0 -0.013492714309845185 0.00027657262453075583 0 -0.013935832962587066 -0.00020813912639664004 0 -0.013980234220666533 -0.00015394149638320545 0 -0.013947921245297427 -0.00021217753497869017 0 -0.013980234220666533 -0.00015394149638320545 0 -0.013947921245297427 -0.00021217753497869017 0 -0.014014331725411335 -0.00011734139300326807 0 -0.013980234220666533 -0.00015394149638320545 0 -0.014014331725411335 -0.00011734139300326807 0 -0.014034971211596817 -5.1944141651999839e-05 0 -0.013492714309845185 0.00027657262453075583 0 -0.013780165484898934 0.0002422054326910129 0 -0.012998475118166673 0.00075299363881460709 0 -0.013243056496115487 0.00028171466024081235 0 -0.013563633798784339 0.0005486457496970443 0 -0.012998475118166673 0.00075299363881460709 0 -0.012963651077988136 0.00055307276471266672 0 -0.013243056496115487 0.00028171466024081235 0 -0.018543185687211958 0.00061567024310924575 0 -0.020475569901077989 0.0010925710428103853 0 -0.019132472980169596 0.00220765677003545 0 -0.012963651077988136 0.00055307276471266672 0 -0.013243056496115487 0.00028171466024081235 0 -0.012779308702469469 0.00028839930591052516 0 -0.015417820105721522 0.000107881716518914 0 -0.018616129712785624 0.002764101844546609 0 -0.018543185687211958 0.00061567024310924575 0 -0.017742131340308446 0.0017839278345199185 0 -0.017156932031189471 0.001071227406312342 0 -0.018543185687211958 0.00061567024310924575 0 -0.019132472980169596 0.00220765677003545 0 -0.017742131340308446 0.0017839278345199185 0 -0.01373758347614196 0.00060109757772625343 0 -0.012778346022554688 0.00086354582260651889 0 -0.013658550979444312 0.0022716584265145626 0 -0.015113676463848083 0.0012721015284936491 0 -0.01373758347614196 0.00060109757772625343 0 -0.013658550979444312 0.0022716584265145626 0 -0.015531433333085284 0.0051239205482758402 0 -0.015113676463848083 0.0012721015284936491 0 -0.013658550979444312 0.0022716584265145626 0 -0.012778346022554688 0.00086354582260651889 0 -0.012963651077988136 0.00055307276471266672 0 -0.012779308702469469 0.00028839930591052516 0 -0.012778346022554688 0.00086354582260651889 0 -0.013658550979444312 0.0022716584265145626 0 -0.012168069352440313 0.003817018646118899 0 -0.011433924290983645 0.00071317504537511591 0 -0.018616129712785624 0.002764101844546609 0 -0.015531433333085284 0.0051239205482758402 0 -0.013658550979444312 0.0022716584265145626 0 -0.012168069352440313 0.003817018646118899 0 -0.021514116906551996 0.0066903346771958689 0 -0.018616129712785624 0.002764101844546609 0 -0.02630819778866391 0.0073554215701459175 0 -0.029246314710233756 0.0078513677870121253 0 -0.027276098566523872 0.0056624935878408049 0 -0.020475569901077989 0.0010925710428103853 0 -0.020438761506340049 0.0025647551142296515 0 -0.019132472980169596 0.00220765677003545 0 -0.018616129712785624 0.002764101844546609 0 -0.025316775699532317 0.0043615938873667447 0 -0.029246314710233756 0.0078513677870121253 0 -0.027276098566523872 0.0056624935878408049 0 -0.029364204398924613 0.0055769658816922823 0 -0.024742691663958715 0.0037540370222379112 0 -0.025316775699532317 0.0043615938873667447 0 -0.020393340371693373 0.0039786551764451738 0 -0.020438761506340049 0.0025647551142296515 0 -0.019726861115226389 0.003114296170328316 0 -0.029411158276725642 0.0034033285310447292 0 -0.029364204398924613 0.0055769658816922823 0 -0.02771141888177581 0.0041719734091601604 0 -0.027276098566523872 0.0056624935878408049 0 -0.029364204398924613 0.0055769658816922823 0 -0.02771141888177581 0.0041719734091601604 0 -0.026171176577405388 0.0042842909692613973 0 -0.027276098566523872 0.0056624935878408049 0 -0.02771141888177581 0.0041719734091601604 0 -0.019132472980169596 0.00220765677003545 0 -0.017942933412424047 0.0027376184770545741 0 -0.017742131340308446 0.0017839278345199185 0 -0.018933574855561398 0.0036919602625442409 0 -0.019132472980169596 0.00220765677003545 0 -0.019726861115226389 0.003114296170328316 0 -0.018933574855561398 0.0036919602625442409 0 -0.020393340371693373 0.0039786551764451738 0 -0.019726861115226389 0.003114296170328316 0 -0.020438761506340049 0.0025647551142296515 0 -0.019132472980169596 0.00220765677003545 0 -0.019726861115226389 0.003114296170328316 0 -0.018933574855561398 0.0036919602625442409 0 -0.017942933412424047 0.0027376184770545741 0 -0.01761600507866809 0.0035134371975781556 0 -0.018933574855561398 0.0036919602625442409 0 -0.019132472980169596 0.00220765677003545 0 -0.017942933412424047 0.0027376184770545741 0 -0.01702570501382333 0.0040135991776330052 0 -0.01761600507866809 0.0035134371975781556 0 -0.016755253290907518 0.0033692177615455552 0 -0.01761600507866809 0.0035134371975781556 0 -0.016755253290907518 0.0033692177615455552 0 -0.017156225243409585 0.0029755088760081176 0 -0.017156225243409585 0.0029755088760081176 0 -0.016995655221212418 0.0023568531152973497 0 -0.016649370557711807 0.0028590550015195611 0 -0.016755253290907518 0.0033692177615455552 0 -0.017156225243409585 0.0029755088760081176 0 -0.016649370557711807 0.0028590550015195611 0 -0.017942933412424047 0.0027376184770545741 0 -0.017156225243409585 0.0029755088760081176 0 -0.016995655221212418 0.0023568531152973497 0 -0.017942933412424047 0.0027376184770545741 0 -0.01761600507866809 0.0035134371975781556 0 -0.017156225243409585 0.0029755088760081176 0 -0.017942933412424047 0.0027376184770545741 0 -0.016995655221212418 0.0023568531152973497 0 -0.017742131340308446 0.0017839278345199185 0 -0.016995655221212418 0.0023568531152973497 0 -0.016703983053349566 0.0017488060404076018 0 -0.016328500577221697 0.0024169479226863865 0 -0.016995655221212418 0.0023568531152973497 0 -0.016703983053349566 0.0017488060404076018 0 -0.017742131340308446 0.0017839278345199185 0 -0.016703983053349566 0.0017488060404076018 0 -0.015630577345098019 0.0018794130509950048 0 -0.016328500577221697 0.0024169479226863865 0 -0.016995655221212418 0.0023568531152973497 0 -0.016328500577221697 0.0024169479226863865 0 -0.016649370557711807 0.0028590550015195611 0 -0.015630577345098019 0.0018794130509950048 0 -0.015955437548181791 0.0026001898889512322 0 -0.015583748492556901 0.0028381805422978421 0 -0.015630577345098019 0.0018794130509950048 0 -0.016328500577221697 0.0024169479226863865 0 -0.015955437548181791 0.0026001898889512322 0 -0.016350845848132008 0.0043713635352808306 0 -0.016355604513154199 0.0035653782840579422 0 -0.01549858844334487 0.0030626758105173784 0 -0.016328500577221697 0.0024169479226863865 0 -0.015955437548181791 0.0026001898889512322 0 -0.016139402449013639 0.0030055020741948197 0 -0.016693041381047779 0.0044515117922987726 0 -0.016116172254994929 0.0034733445442211709 0 -0.016193346042321345 0.0033132179375586798 0 -0.016139402449013639 0.0030055020741948197 0 -0.015583748492556901 0.0028381805422978421 0 -0.01549858844334487 0.0030626758105173784 0 -0.015955437548181791 0.0026001898889512322 0 -0.016139402449013639 0.0030055020741948197 0 -0.015583748492556901 0.0028381805422978421 0 -0.016328500577221697 0.0024169479226863865 0 -0.016139402449013639 0.0030055020741948197 0 -0.016649370557711807 0.0028590550015195611 0 -0.016755253290907518 0.0033692177615455552 0 -0.016139402449013639 0.0030055020741948197 0 -0.016649370557711807 0.0028590550015195611 0 -0.016755253290907518 0.0033692177615455552 0 -0.016139402449013639 0.0030055020741948197 0 -0.016355604513154199 0.0035653782840579422 0 -0.01702570501382333 0.0040135991776330052 0 -0.016755253290907518 0.0033692177615455552 0 -0.016355604513154199 0.0035653782840579422 0 -0.016139402449013639 0.0030055020741948197 0 -0.016355604513154199 0.0035653782840579422 0 -0.01549858844334487 0.0030626758105173784 0 -0.020126653859919567 0.001820412973676571 0 -0.020268518693838847 0.0017804205563058805 0 -0.020175289620949298 0.0018799182716824109 0 -0.020268518693838847 0.0017804205563058805 0 -0.020334930753465121 0.0019272505725078776 0 -0.020175289620949298 0.0018799182716824109 0 -0.017238711954472002 0.0030871520094884731 0 -0.017588111803503063 0.0028612946085225326 0 -0.020147303486070425 0.0018365298881121979 0 -0.020128641331338289 0.0018742631489788188 0 -0.020175289620949298 0.0018799182716824109 0 -0.019874368054339234 0.0025671918906179396 0 -0.017588111803503063 0.0028612946085225326 0 -0.019874368054339234 0.0025671918906179396 0 -0.019847229164069509 0.0023191870225180737 0 -0.020634900856164352 0.0014802331588000847 0 -0.02045958863693529 0.0018403087567495243 0 -0.02066653530110665 0.0019346670934357072 0 -0.020268518693838847 0.0017804205563058805 0 -0.020334930753465121 0.0019272505725078776 0 -0.02045958863693529 0.0018403087567495243 0 -0.020334930753465121 0.0019272505725078776 0 -0.02045958863693529 0.0018403087567495243 0 -0.020430874182250956 0.0020022179219423191 0 -0.02045958863693529 0.0018403087567495243 0 -0.020430874182250956 0.0020022179219423191 0 -0.02054920195344857 0.0019920874792732765 0 -0.02045958863693529 0.0018403087567495243 0 -0.02066653530110665 0.0019346670934357072 0 -0.02054920195344857 0.0019920874792732765 0 -0.020430874182250956 0.0020022179219423191 0 -0.02054920195344857 0.0019920874792732765 0 -0.02047936368637801 0.0020605882555475288 0 -0.020334930753465121 0.0019272505725078776 0 -0.020430874182250956 0.0020022179219423191 0 -0.020353043097649577 0.0020574756876851016 0 -0.020430874182250956 0.0020022179219423191 0 -0.020353043097649577 0.0020574756876851016 0 -0.020445425608728661 0.0020426278771080953 0 -0.020430874182250956 0.0020022179219423191 0 -0.020445425608728661 0.0020426278771080953 0 -0.02047936368637801 0.0020605882555475288 0 -0.015630577345098019 0.0018794130509950048 0 -0.015583748492556901 0.0028381805422978421 0 -0.014637079574482036 0.0016857517328075274 0 -0.020334930753465121 0.0019272505725078776 0 -0.020175289620949298 0.0018799182716824109 0 -0.020353043097649577 0.0020574756876851016 0 -0.017588111803503063 0.0028612946085225326 0 -0.0175177275751092 0.0018164397323836609 0 -0.020128641331338289 0.0018742631489788188 0 -0.020175289620949298 0.0018799182716824109 0 -0.020353043097649577 0.0020574756876851016 0 -0.015583748492556901 0.0028381805422978421 0 -0.015482143614737428 0.0030781197263570837 0 -0.014637079574482036 0.0016857517328075274 0 -0.015630577345098019 0.0018794130509950048 0 -0.014637079574482036 0.0016857517328075274 0 -0.01523325394341515 0.0008394696734076812 0 -0.014637079574482036 0.0016857517328075274 0 -0.014570760765764624 0.00057261509722411705 0 -0.01523325394341515 0.0008394696734076812 0 -0.020445425608728661 0.0020426278771080953 0 -0.02034015351244246 0.001982985151339719 0 -0.020406368537079365 0.0020026095104654662 0 -0.020353043097649577 0.0020574756876851016 0 -0.020445425608728661 0.0020426278771080953 0 -0.020406368537079365 0.0020026095104654662 0 -0.014637079574482036 0.0016857517328075274 0 -0.014570760765764624 0.00057261509722411705 0 -0.014059235735090679 0.0003623546210185518 0 -0.0175177275751092 0.0018164397323836609 0 -0.017098034285821909 0.0011569668595142089 0 -0.020445425608728661 0.0020426278771080953 0 -0.020400246876139672 0.0016192456764341481 0 -0.020311663173117087 0.001842094071257693 0 -0.020418839047576642 0.0019546184801448618 0 -0.02042775051992398 0.0019530673857523744 0 -0.02034015351244246 0.001982985151339719 0 -0.020406368537079365 0.0020026095104654662 0 -0.020286123459802931 0.0017470960125218003 0 -0.017098034285821909 0.0011569668595142089 0 -0.018653166291123728 0.00076226929711477201 0 -0.014059235735090679 0.0003623546210185518 0 -0.014298920500858412 1.7484347856284688e-05 0 -0.014065678157197838 1.5625165856906172e-05 0 -0.014570760765764624 0.00057261509722411705 0 -0.014059235735090679 0.0003623546210185518 0 -0.014298920500858412 1.7484347856284688e-05 0 -0.014570760765764624 0.00057261509722411705 0 -0.01523325394341515 0.0008394696734076812 0 -0.014298920500858412 1.7484347856284688e-05 0 -0.01523325394341515 0.0008394696734076812 0 -0.014298920500858412 1.7484347856284688e-05 0 -0.015557585333398483 0.00049245143403493178 0 -0.014298920500858412 1.7484347856284688e-05 0 -0.014035581986559015 0.00010730583780248405 0 -0.01411889056795246 6.0098862881626712e-05 0 -0.014298920500858412 1.7484347856284688e-05 0 -0.014035581986559015 0.00010730583780248405 0 -0.013879410432947183 0.00012144620629952931 0 -0.014321450117861905 -7.0918097492851766e-06 0 -0.015322820417580514 0.00021399321203711554 0 -0.014298920500858412 1.7484347856284688e-05 0 -0.015557585333398483 0.00049245143403493178 0 -0.016521018768794818 0.00014019307662154468 0 -0.013998144502733293 0.00013595512387643059 0 -0.013780165484898934 0.0002422054326910129 0 -0.015417820105721522 0.000107881716518914 0 -0.015322820417580514 0.00021399321203711554 0 -0.013243056496115487 0.00028171466024081235 0 -0.013879410432947183 0.00012144620629952931 0 -0.013563633798784339 0.0005486457496970443 0 -0.014035581986559015 0.00010730583780248405 0 -0.013879410432947183 0.00012144620629952931 0 -0.013563633798784339 0.0005486457496970443 0 -0.018543185687211958 0.00061567024310924575 0 -0.016521018768794818 0.00014019307662154468 0 -0.017156932031189471 0.001071227406312342 0 -0.016521018768794818 0.00014019307662154468 0 -0.017156932031189471 0.001071227406312342 0 -0.016191311848254623 0.0010196493605796923 0 -0.016703983053349566 0.0017488060404076018 0 -0.017742131340308446 0.0017839278345199185 0 -0.017156932031189471 0.001071227406312342 0 -0.016703983053349566 0.0017488060404076018 0 -0.017156932031189471 0.001071227406312342 0 -0.016191311848254623 0.0010196493605796923 0 -0.016703983053349566 0.0017488060404076018 0 -0.015630577345098019 0.0018794130509950048 0 -0.016191311848254623 0.0010196493605796923 0 -0.015630577345098019 0.0018794130509950048 0 -0.01523325394341515 0.0008394696734076812 0 -0.016191311848254623 0.0010196493605796923 0 -0.01523325394341515 0.0008394696734076812 0 -0.015557585333398483 0.00049245143403493178 0 -0.016191311848254623 0.0010196493605796923 0 -0.015557585333398483 0.00049245143403493178 0 -0.016521018768794818 0.00014019307662154468 0 -0.016191311848254623 0.0010196493605796923 0 -0.020743816715453132 0.0020200155781275576 0 -0.020732187108243663 0.0020555655367541616 0 -0.020779985065244613 0.0020478994667889943 0 -0.020743816715453132 0.0020200155781275576 0 -0.020706626175595842 0.0020339335426916454 0 -0.020732187108243663 0.0020555655367541616 0 -0.020743816715453132 0.0020200155781275576 0 -0.020785655801467559 0.0020016309973564855 0 -0.020779985065244613 0.0020478994667889943 0 -0.020743816715453132 0.0020200155781275576 0 -0.020747653139471238 0.0019762302850052709 0 -0.020785655801467559 0.0020016309973564855 0 -0.022559398058493919 0.0015796504638981867 0 -0.02235670470180507 0.0020272597633236929 0 -0.022735558922256469 0.0017793209692859987 0 -0.020743816715453132 0.0020200155781275576 0 -0.020747653139471238 0.0019762302850052709 0 -0.020708488598541568 0.0020041296357859056 0 -0.020747653139471238 0.0019762302850052709 0 -0.020708488598541568 0.0020041296357859056 0 -0.020668984018750211 0.0019815009278815882 0 -0.021567851167739342 0.0020158089339506113 0 -0.021088678688658612 0.0019991367564092771 0 -0.02235670470180507 0.0020272597633236929 0 -0.021759079934152811 0.0018095828962241811 0 -0.021519270171398396 0.0020405489323881399 0 -0.022249759234282161 0.001679243669989536 0 -0.02235670470180507 0.0020272597633236929 0 -0.021759079934152811 0.0018095828962241811 0 -0.020708488598541568 0.0020041296357859056 0 -0.02067778613092695 0.002009140781188429 0 -0.020668984018750211 0.0019815009278815882 0 -0.020708488598541568 0.0020041296357859056 0 -0.020706626175595842 0.0020339335426916454 0 -0.02067778613092695 0.002009140781188429 0 -0.020743816715453132 0.0020200155781275576 0 -0.020708488598541568 0.0020041296357859056 0 -0.020706626175595842 0.0020339335426916454 0 -0.020706626175595842 0.0020339335426916454 0 -0.020675955937259662 0.0020488083555511077 0 -0.02067778613092695 0.002009140781188429 0 -0.020675955937259662 0.0020488083555511077 0 -0.020653377871056582 0.0020209950318108112 0 -0.02067778613092695 0.002009140781188429 0 -0.020675955937259662 0.0020488083555511077 0 -0.020653377871056582 0.0020209950318108112 0 -0.020639728378800935 0.0020682958787874429 0 -0.020653377871056582 0.0020209950318108112 0 -0.0206226628934995 0.0020260464467464802 0 -0.020639728378800935 0.0020682958787874429 0 -0.020653377871056582 0.0020209950318108112 0 -0.020659894405961738 0.0019878139482595739 0 -0.020639545088180451 0.0019899311259055138 0 -0.020653377871056582 0.0020209950318108112 0 -0.020639545088180451 0.0019899311259055138 0 -0.0206226628934995 0.0020260464467464802 0 -0.020653377871056582 0.0020209950318108112 0 -0.020659894405961738 0.0019878139482595739 0 -0.02067778613092695 0.002009140781188429 0 -0.021317658003893059 0.0017043765525476989 0 -0.021519270171398396 0.0020405489323881399 0 -0.02066653530110665 0.0019346670934357072 0 -0.020659894405961738 0.0019878139482595739 0 -0.020668984018750211 0.0019815009278815882 0 -0.02066653530110665 0.0019346670934357072 0 -0.021088678688658612 0.0019991367564092771 0 -0.020701572532639191 0.0019545887759242785 0 -0.020659894405961738 0.0019878139482595739 0 -0.02067778613092695 0.002009140781188429 0 -0.020668984018750211 0.0019815009278815882 0 -0.021317658003893059 0.0017043765525476989 0 -0.021759079934152811 0.0018095828962241811 0 -0.021519270171398396 0.0020405489323881399 0 -0.021070560203561836 0.0015192005723565515 0 -0.021317658003893059 0.0017043765525476989 0 -0.02066653530110665 0.0019346670934357072 0 -0.020659894405961738 0.0019878139482595739 0 -0.02066653530110665 0.0019346670934357072 0 -0.020639545088180451 0.0019899311259055138 0 -0.02066653530110665 0.0019346670934357072 0 -0.02054920195344857 0.0019920874792732765 0 -0.020610128408500027 0.0019929632686471613 0 -0.02054920195344857 0.0019920874792732765 0 -0.020610128408500027 0.0019929632686471613 0 -0.020569861837096255 0.0020279037633205467 0 -0.02066653530110665 0.0019346670934357072 0 -0.020639545088180451 0.0019899311259055138 0 -0.020610128408500027 0.0019929632686471613 0 -0.020639545088180451 0.0019899311259055138 0 -0.020610128408500027 0.0019929632686471613 0 -0.0206226628934995 0.0020260464467464802 0 -0.020610128408500027 0.0019929632686471613 0 -0.0206226628934995 0.0020260464467464802 0 -0.020569861837096255 0.0020279037633205467 0 -0.0206226628934995 0.0020260464467464802 0 -0.020569861837096255 0.0020279037633205467 0 -0.020595302993057757 0.0020616262883646117 0 -0.0206226628934995 0.0020260464467464802 0 -0.020595302993057757 0.0020616262883646117 0 -0.020639728378800935 0.0020682958787874429 0 -0.02047936368637801 0.0020605882555475288 0 -0.020569861837096255 0.0020279037633205467 0 -0.020595302993057757 0.0020616262883646117 0 -0.02054920195344857 0.0019920874792732765 0 -0.02047936368637801 0.0020605882555475288 0 -0.020569861837096255 0.0020279037633205467 0 -0.020434405909002931 0.0020372651996172922 0 -0.020344808950820862 0.0019754016074615172 0 -0.020445425608728661 0.0020426278771080953 0 -0.020338348398073674 0.0019481176002144494 0 -0.020311663173117087 0.001842094071257693 0 -0.02047936368637801 0.0020605882555475288 0 -0.020338348398073674 0.0019481176002144494 0 -0.020045266913709486 0.0018455859420058111 0 -0.020445425608728661 0.0020426278771080953 0 -0.02047936368637801 0.0020605882555475288 0 -0.020338348398073674 0.0019481176002144494 0 -0.020595302993057757 0.0020616262883646117 0 -0.020614129960923613 0.0021068383523286088 0 -0.020639728378800935 0.0020682958787874429 0 -0.02047936368637801 0.0020605882555475288 0 -0.020595302993057757 0.0020616262883646117 0 -0.020614129960923613 0.0021068383523286088 0 -0.020045266913709486 0.0018455859420058111 0 -0.02022438199858162 0.0016968801998882533 0 -0.020038798432007059 0.0016317242439790232 0 -0.020400246876139672 0.0016192456764341481 0 -0.020311663173117087 0.001842094071257693 0 -0.02022438199858162 0.0016968801998882533 0 -0.020338348398073674 0.0019481176002144494 0 -0.020045266913709486 0.0018455859420058111 0 -0.020311663173117087 0.001842094071257693 0 -0.020045266913709486 0.0018455859420058111 0 -0.020311663173117087 0.001842094071257693 0 -0.02022438199858162 0.0016968801998882533 0 -0.02042775051992398 0.0019530673857523744 0 -0.018653166291123728 0.00076226929711477201 0 -0.020400246876139672 0.0016192456764341481 0 -0.02022438199858162 0.0016968801998882533 0 -0.020149836277069549 0.0014164691222419113 0 -0.020400246876139672 0.0016192456764341481 0 -0.020149836277069549 0.0014164691222419113 0 -0.020277704518428866 0.001063903421069691 0 -0.020149836277069549 0.0014164691222419113 0 -0.019929101592347037 0.0013195266120774561 0 -0.020033058278974652 0.0010716999848321871 0 -0.020149836277069549 0.0014164691222419113 0 -0.019929101592347037 0.0013195266120774561 0 -0.020038798432007059 0.0016317242439790232 0 -0.02022438199858162 0.0016968801998882533 0 -0.020149836277069549 0.0014164691222419113 0 -0.020038798432007059 0.0016317242439790232 0 -0.020344808950820862 0.0019754016074615172 0 -0.019972732178357495 0.0018114567628352194 0 -0.019865742033734989 0.0015811857104406472 0 -0.019972732178357495 0.0018114567628352194 0 -0.020045266913709486 0.0018455859420058111 0 -0.020038798432007059 0.0016317242439790232 0 -0.019716128275032049 0.0014615375177930679 0 -0.020614129960923613 0.0021068383523286088 0 -0.020645165835576247 0.0021260881667863815 0 -0.020645857007489575 0.0021036074784289522 0 -0.019929101592347037 0.0013195266120774561 0 -0.019638086748458919 0.0014392400537035195 0 -0.019787402946846454 0.0010402282927349409 0 -0.019929101592347037 0.0013195266120774561 0 -0.020038798432007059 0.0016317242439790232 0 -0.019638086748458919 0.0014392400537035195 0 -0.019972732178357495 0.0018114567628352194 0 -0.019193010993082238 0.0012157460437771262 0 -0.019972732178357495 0.0018114567628352194 0 -0.017878359636098715 0.00083143458335055507 0 -0.020645165835576247 0.0021260881667863815 0 -0.020645857007489575 0.0021036074784289522 0 -0.020676885460660873 0.0021064448795688768 0 -0.020666871475588808 0.0020838743459500094 0 -0.020645857007489575 0.0021036074784289522 0 -0.020676885460660873 0.0021064448795688768 0 -0.020666871475588808 0.0020838743459500094 0 -0.020645857007489575 0.0021036074784289522 0 -0.020639728378800935 0.0020682958787874429 0 -0.020614129960923613 0.0021068383523286088 0 -0.020645857007489575 0.0021036074784289522 0 -0.020639728378800935 0.0020682958787874429 0 -0.020675955937259662 0.0020488083555511077 0 -0.020666871475588808 0.0020838743459500094 0 -0.020639728378800935 0.0020682958787874429 0 -0.020701907496774637 0.0020746703169819266 0 -0.020676885460660873 0.0021064448795688768 0 -0.020728952989363204 0.0021004282119342741 0 -0.020706626175595842 0.0020339335426916454 0 -0.020675955937259662 0.0020488083555511077 0 -0.020701907496774637 0.0020746703169819266 0 -0.020675955937259662 0.0020488083555511077 0 -0.020666871475588808 0.0020838743459500094 0 -0.020701907496774637 0.0020746703169819266 0 -0.020706626175595842 0.0020339335426916454 0 -0.020701907496774637 0.0020746703169819266 0 -0.020732187108243663 0.0020555655367541616 0 -0.020666871475588808 0.0020838743459500094 0 -0.020701907496774637 0.0020746703169819266 0 -0.020676885460660873 0.0021064448795688768 0 -0.020676885460660873 0.0021064448795688768 0 -0.020728952989363204 0.0021004282119342741 0 -0.020676707219561826 0.0021438595553799501 0 -0.020118249108348772 0.0019191831504682601 0 -0.019193010993082238 0.0012157460437771262 0 -0.019328234936171401 0.0014575240502029576 0 -0.019338965368687979 0.0017055158476804028 0 -0.01957687375711193 0.0014083168159330552 0 -0.020645165835576247 0.0021260881667863815 0 -0.020676885460660873 0.0021064448795688768 0 -0.020676707219561826 0.0021438595553799501 0 -0.019328234936171401 0.0014575240502029576 0 -0.019338965368687979 0.0017055158476804028 0 -0.019110021571304866 0.0015957878191909291 0 -0.020728952989363204 0.0021004282119342741 0 -0.020732187108243663 0.0020555655367541616 0 -0.020779985065244613 0.0020478994667889943 0 -0.020118249108348772 0.0019191831504682601 0 -0.019928240179084331 0.0020803913171615427 0 -0.019338965368687979 0.0017055158476804028 0 -0.019110021571304866 0.0015957878191909291 0 -0.019082820193774434 0.0020084945528611457 0 -0.020701907496774637 0.0020746703169819266 0 -0.020728952989363204 0.0021004282119342741 0 -0.020732187108243663 0.0020555655367541616 0 -0.017872649821589606 0.00019202965647863548 0 -0.017852732107602784 0.00027682822787944222 0 -0.017994128936297586 0.00032263513134692654 0 -0.017872649821589606 0.00019202965647863548 0 -0.017852732107602784 0.00027682822787944222 0 -0.017812698031678946 0.00018598911091614984 0 -0.019328234936171401 0.0014575240502029576 0 -0.019237056870466042 0.0012181881086245929 0 -0.019110021571304866 0.0015957878191909291 0 -0.019328234936171401 0.0014575240502029576 0 -0.019237056870466042 0.0012181881086245929 0 -0.01957687375711193 0.0014083168159330552 0 -0.018454249113440759 0.00068514683369829083 0 -0.019193010993082238 0.0012157460437771262 0 -0.017852732107602784 0.00027682822787944222 0 -0.017972837395651524 0.00035262305865837486 0 -0.017994128936297586 0.00032263513134692654 0 -0.019592019628356584 0.0018665667156678154 0 -0.018472000947343289 0.0012527227124264231 0 -0.018801969462727611 0.00085546978529985301 0 -0.019193010993082238 0.0012157460437771262 0 -0.017878359636098715 0.00083143458335055507 0 -0.015842108092533436 0.00042704105275013414 0 -0.01614558034716234 0.00078675842508090595 0 -0.016093511229806436 0.00046110536019807342 0 -0.016926509160549687 0.00020426927092924413 0 -0.017878359636098715 0.00083143458335055507 0 -0.016093511229806436 0.00046110536019807342 0 -0.016327300924086609 0.00055283007273955204 0 -0.016191288284021541 0.0002369548621346633 0 -0.01614558034716234 0.00078675842508090595 0 -0.016093511229806436 0.00046110536019807342 0 -0.016327300924086609 0.00055283007273955204 0 -0.01970882988049354 0.00064160226285143779 0 -0.019787402946846454 0.0010402282927349409 0 -0.019962861554332908 0.00068269661959669036 0 -0.017878359636098715 0.00083143458335055507 0 -0.018229839131706598 0.00044644594117395595 0 -0.019345694939176178 0.0010683206006306604 0 -0.01970882988049354 0.00064160226285143779 0 -0.019787402946846454 0.0010402282927349409 0 -0.019638086748458919 0.0014392400537035195 0 -0.019345694939176178 0.0010683206006306604 0 -0.019787402946846454 0.0010402282927349409 0 -0.019787402946846454 0.0010402282927349409 0 -0.020033058278974652 0.0010716999848321871 0 -0.019962861554332908 0.00068269661959669036 0 -0.020033058278974652 0.0010716999848321871 0 -0.02015210966450268 0.00088358037044934884 0 -0.019962861554332908 0.00068269661959669036 0 -0.019929101592347037 0.0013195266120774561 0 -0.019787402946846454 0.0010402282927349409 0 -0.020033058278974652 0.0010716999848321871 0 -0.020149836277069549 0.0014164691222419113 0 -0.020033058278974652 0.0010716999848321871 0 -0.020277704518428866 0.001063903421069691 0 -0.020033058278974652 0.0010716999848321871 0 -0.020277704518428866 0.001063903421069691 0 -0.02015210966450268 0.00088358037044934884 0 -0.018653166291123728 0.00076226929711477201 0 -0.019405930981771204 0.0012000462846008285 0 -0.020249519900318938 0.0010481618189536407 0 -0.02015210966450268 0.00088358037044934884 0 -0.020067783133726164 0.00025237900821786986 0 -0.01970882988049354 0.00064160226285143779 0 -0.019962861554332908 0.00068269661959669036 0 -0.020018965522295779 0.00023943668163317443 0 -0.02015210966450268 0.00088358037044934884 0 -0.019962861554332908 0.00068269661959669036 0 -0.020067783133726164 0.00025237900821786986 0 -0.019962861554332908 0.00068269661959669036 0 -0.020067783133726164 0.00025237900821786986 0 -0.020018965522295779 0.00023943668163317443 0 -0.018653166291123728 0.00076226929711477201 0 -0.015462350167291097 0.00039887253899263642 0 -0.018229839131706598 0.00044644594117395595 0 -0.015877564576057889 0.00029979208852079855 0 -0.014000702981978908 0.00011132087448161819 0 -0.013994497739789011 0.00011341371680089625 0 -0.013961422436515568 0.00013231434167768915 0 -0.013474693406326958 0.0010447156577240867 0 -0.013406950193070737 0.0007430021482064303 0 -0.013298556535960772 0.00091489575189100008 0 -0.015462350167291097 0.00039887253899263642 0 -0.01376374744212362 -1.463168149169824e-06 0 -0.013998738680034511 0.00011647732493324088 0 -0.013994497739789011 0.00011341371680089625 0 -0.01400656171778923 0.00010891186807805795 0 -0.013998738680034511 0.00011647732493324088 0 -0.013997389193518495 0.00011540064056503876 0 -0.013994497739789011 0.00011341371680089625 0 -0.015451334977458904 0.00066822549257621641 0 -0.015354841577076636 3.3919694468168354e-05 0 -0.014942296811925963 0.00052862977885792571 0 -0.015462350167291097 0.00039887253899263642 0 -0.015158101790001256 0.00055298647732774503 0 -0.015462350167291097 0.00039887253899263642 0 -0.015877564576057889 0.00029979208852079855 0 -0.015158101790001256 0.00055298647732774503 0 -0.015877564576057889 0.00029979208852079855 0 -0.015158101790001256 0.00055298647732774503 0 -0.014968572315320072 0.00058277059688536278 0 -0.013474693406326958 0.0010447156577240867 0 -0.013450698417353371 0.0010749098896080389 0 -0.013298556535960772 0.00091489575189100008 0 -0.013994497739789011 0.00011341371680089625 0 -0.013966478764557519 0.00012589292292798814 0 -0.01400656171778923 0.00010891186807805795 0 -0.015158101790001256 0.00055298647732774503 0 -0.013656160084974944 0.00038339600463739403 0 -0.013994497739789011 0.00011341371680089625 0 -0.013966478764557519 0.00012589292292798814 0 -0.013961422436515568 0.00013231434167768915 0 -0.013406950193070737 0.0007430021482064303 0 -0.013298556535960772 0.00091489575189100008 0 -0.013222854339844976 0.0006191881760375629 0 -0.013966478764557519 0.00012589292292798814 0 -0.013961422436515568 0.00013231434167768915 0 -0.013928735660053619 0.00015230407069225044 0 -0.013099114917923593 0.0009837726329888362 0 -0.013298556535960772 0.00091489575189100008 0 -0.013029616420628871 0.0007740964543171986 0 -0.013298556535960772 0.00091489575189100008 0 -0.013029616420628871 0.0007740964543171986 0 -0.013222854339844976 0.0006191881760375629 0 -0.013029616420628871 0.0007740964543171986 0 -0.012994229364373489 0.00058370283755618572 0 -0.013222854339844976 0.0006191881760375629 0 -0.016327300924086609 0.00055283007273955204 0 -0.016508241595050734 0.00032380680653419517 0 -0.016191288284021541 0.0002369548621346633 0 -0.013450698417353371 0.0010749098896080389 0 -0.013099114917923593 0.0009837726329888362 0 -0.013298556535960772 0.00091489575189100008 0 -0.015877564576057889 0.00029979208852079855 0 -0.014536160916313117 0.00061953007180585626 0 -0.014536160916313117 0.00061953007180585626 0 -0.014092758923680984 0.00047129581491988054 0 -0.016093511229806436 0.00046110536019807342 0 -0.016191288284021541 0.0002369548621346633 0 -0.015867477383635583 0.00014905271546109423 0 -0.015842108092533436 0.00042704105275013414 0 -0.016093511229806436 0.00046110536019807342 0 -0.015867477383635583 0.00014905271546109423 0 -0.013029616420628871 0.0007740964543171986 0 -0.012810770673268168 0.00065858186506640012 0 -0.012761289811176343 0.00088689530678953254 0 -0.013099114917923593 0.0009837726329888362 0 -0.013029616420628871 0.0007740964543171986 0 -0.012761289811176343 0.00088689530678953254 0 -0.013029616420628871 0.0007740964543171986 0 -0.012810770673268168 0.00065858186506640012 0 -0.012994229364373489 0.00058370283755618572 0 -0.012761289811176343 0.00088689530678953254 0 -0.012567863759044676 0.00068937809151378465 0 -0.012441005440446136 0.00077598458736382215 0 -0.014092758923680984 0.00047129581491988054 0 -0.015302321002644401 0.00050055953534720366 0 -0.012810770673268168 0.00065858186506640012 0 -0.012761289811176343 0.00088689530678953254 0 -0.012567863759044676 0.00068937809151378465 0 -0.016926509160549687 0.00020426927092924413 0 -0.015302321002644401 0.00050055953534720366 0 -0.015842108092533436 0.00042704105275013414 0 -0.015867477383635583 0.00014905271546109423 0 -0.015541594893432896 6.3680013441264351e-05 0 -0.014037439881005132 -1.0396745163328653e-05 0 -0.014068494438187964 4.4139345373318024e-05 0 -0.014014230806090745 -9.29967491543541e-05 0 -0.014068494438187964 4.4139345373318024e-05 0 -0.013979549221796617 0.00010359282787369525 0 -0.013907701823506006 9.9534564087388168e-05 0 -0.014056309470992456 3.1077430247383897e-05 0 -0.01397166913715619 5.3757649478712499e-06 0 -0.014014331725411335 -0.00011734139300326807 0 -0.014037439881005132 -1.0396745163328653e-05 0 -0.014014230806090745 -9.29967491543541e-05 0 -0.014014331725411335 -0.00011734139300326807 0 -0.014034971211596817 -5.1944141651999839e-05 0 -0.014037439881005132 -1.0396745163328653e-05 0 -0.014035581986559015 0.00010730583780248405 0 -0.014034971211596817 -5.1944141651999839e-05 0 -0.014037439881005132 -1.0396745163328653e-05 0 -0.014037439881005132 -1.0396745163328653e-05 0 -0.014068494438187964 4.4139345373318024e-05 0 -0.01411889056795246 6.0098862881626712e-05 0 -0.014035581986559015 0.00010730583780248405 0 -0.014037439881005132 -1.0396745163328653e-05 0 -0.01411889056795246 6.0098862881626712e-05 0 -0.014298920500858412 1.7484347856284688e-05 0 -0.014068494438187964 4.4139345373318024e-05 0 -0.01411889056795246 6.0098862881626712e-05 0 -0.014298920500858412 1.7484347856284688e-05 0 -0.014068494438187964 4.4139345373318024e-05 0 -0.01408074904530611 3.2560048030552734e-05 0 -0.014298920500858412 1.7484347856284688e-05 0 -0.014065678157197838 1.5625165856906172e-05 0 -0.01408074904530611 3.2560048030552734e-05 0 -0.014065678157197838 1.5625165856906172e-05 0 -0.014087675525828002 9.0557967608150729e-05 0 -0.01408074904530611 3.2560048030552734e-05 0 -0.014087675525828002 9.0557967608150729e-05 0 -0.01408074904530611 3.2560048030552734e-05 0 -0.014040135567965443 9.2865758583419441e-05 0 -0.01408074904530611 3.2560048030552734e-05 0 -0.014040135567965443 9.2865758583419441e-05 0 -0.01399643535615354 0.00010768333067756818 0 -0.014068494438187964 4.4139345373318024e-05 0 -0.01408074904530611 3.2560048030552734e-05 0 -0.013979549221796617 0.00010359282787369525 0 -0.01408074904530611 3.2560048030552734e-05 0 -0.013979549221796617 0.00010359282787369525 0 -0.01399643535615354 0.00010768333067756818 0 -0.013979549221796617 0.00010359282787369525 0 -0.01399643535615354 0.00010768333067756818 0 -0.013929578489508342 0.00014085712703319715 0 -0.01399643535615354 0.00010768333067756818 0 -0.013968407005435019 0.00012453504630728009 0 -0.013929578489508342 0.00014085712703319715 0 -0.014040135567965443 9.2865758583419441e-05 0 -0.01399643535615354 0.00010768333067756818 0 -0.01400656171778923 0.00010891186807805795 0 -0.013998738680034511 0.00011647732493324088 0 -0.014040135567965443 9.2865758583419441e-05 0 -0.01400656171778923 0.00010891186807805795 0 -0.01399643535615354 0.00010768333067756818 0 -0.01400656171778923 0.00010891186807805795 0 -0.013968407005435019 0.00012453504630728009 0 -0.013966478764557519 0.00012589292292798814 0 -0.01400656171778923 0.00010891186807805795 0 -0.013968407005435019 0.00012453504630728009 0 -0.013966478764557519 0.00012589292292798814 0 -0.013968407005435019 0.00012453504630728009 0 -0.013924260218382931 0.00014539559483904181 0 -0.013968407005435019 0.00012453504630728009 0 -0.013924260218382931 0.00014539559483904181 0 -0.013929578489508342 0.00014085712703319715 0 -0.013924260218382931 0.00014539559483904181 0 -0.013929578489508342 0.00014085712703319715 0 -0.013893579903633546 0.0001614960722332987 0 -0.013966478764557519 0.00012589292292798814 0 -0.013924260218382931 0.00014539559483904181 0 -0.013928735660053619 0.00015230407069225044 0 -0.013929578489508342 0.00014085712703319715 0 -0.013901191029414874 0.00014729806153443019 0 -0.013861442896043692 0.0001802418676525404 0 -0.013979549221796617 0.00010359282787369525 0 -0.013929578489508342 0.00014085712703319715 0 -0.013901191029414874 0.00014729806153443019 0 -0.013979549221796617 0.00010359282787369525 0 -0.013901191029414874 0.00014729806153443019 0 -0.013907701823506006 9.9534564087388168e-05 0 -0.013890096160195882 0.00012457372347346397 0 -0.013901191029414874 0.00014729806153443019 0 -0.013907701823506006 9.9534564087388168e-05 0 -0.01401840834237896 -0.00016324678290351562 0 -0.014014331725411335 -0.00011734139300326807 0 -0.014014230806090745 -9.29967491543541e-05 0 -0.013950162545493453 -1.6666190745724685e-05 0 -0.01397166913715619 5.3757649478712499e-06 0 -0.013890096160195882 0.00012457372347346397 0 -0.013901191029414874 0.00014729806153443019 0 -0.013890357488772641 0.00014826206756656489 0 -0.013890357488772641 0.00014826206756656489 0 -0.013887220689569359 0.00016344364112277408 0 -0.013905801363923231 0.00012727913160988328 0 -0.013890357488772641 0.00014826206756656489 0 -0.013887220689569359 0.00016344364112277408 0 -0.013872222357205559 0.00016877681892141455 0 -0.013887220689569359 0.00016344364112277408 0 -0.013876948146457183 0.00017388554216875147 0 -0.013870006284570661 0.00016377513159283313 0 -0.013887220689569359 0.00016344364112277408 0 -0.013859240563487999 0.00015326049190056559 0 -0.013870006284570661 0.00016377513159283313 0 -0.013887220689569359 0.00016344364112277408 0 -0.013876948146457183 0.00017388554216875147 0 -0.013894795147230734 0.00020138702955719271 0 -0.013859240563487999 0.00015326049190056559 0 -0.013872222357205559 0.00016877681892141455 0 -0.013823176106133548 0.00017541363329139279 0 -0.013887220689569359 0.00016344364112277408 0 -0.013859240563487999 0.00015326049190056559 0 -0.013872222357205559 0.00016877681892141455 0 -0.013901191029414874 0.00014729806153443019 0 -0.013872222357205559 0.00016877681892141455 0 -0.013861442896043692 0.0001802418676525404 0 -0.013901191029414874 0.00014729806153443019 0 -0.013890357488772641 0.00014826206756656489 0 -0.013872222357205559 0.00016877681892141455 0 -0.013929578489508342 0.00014085712703319715 0 -0.013861442896043692 0.0001802418676525404 0 -0.013893579903633546 0.0001614960722332987 0 -0.013861442896043692 0.0001802418676525404 0 -0.013867248616073656 0.00017179682661915246 0 -0.013735551443135091 0.00022240580197744735 0 -0.013861442896043692 0.0001802418676525404 0 -0.013893579903633546 0.0001614960722332987 0 -0.013867248616073656 0.00017179682661915246 0 -0.013924260218382931 0.00014539559483904181 0 -0.013867248616073656 0.00017179682661915246 0 -0.013928735660053619 0.00015230407069225044 0 -0.013924260218382931 0.00014539559483904181 0 -0.013893579903633546 0.0001614960722332987 0 -0.013867248616073656 0.00017179682661915246 0 -0.013867248616073656 0.00017179682661915246 0 -0.013913608428622368 0.00017648146133136415 0 -0.013888294060416508 0.00019674068949362451 0 -0.013867248616073656 0.00017179682661915246 0 -0.013928735660053619 0.00015230407069225044 0 -0.013913608428622368 0.00017648146133136415 0 -0.013867248616073656 0.00017179682661915246 0 -0.013735551443135091 0.00022240580197744735 0 -0.013888294060416508 0.00019674068949362451 0 -0.013861442896043692 0.0001802418676525404 0 -0.013735551443135091 0.00022240580197744735 0 -0.013823176106133548 0.00017541363329139279 0 -0.013872222357205559 0.00016877681892141455 0 -0.013861442896043692 0.0001802418676525404 0 -0.013823176106133548 0.00017541363329139279 0 -0.00097062973147840495 0.0010182014285303187 0 -0.0014112035075766335 0.000861390768655527 0 -0.0018755321672529258 0.0012603638030158828 0 -0.0072619230988393742 0.00051309669081888386 0 -0.0077164764124280352 0.00062817060975696817 0 -0.013823176106133548 0.00017541363329139279 0 -0.013536112526185792 -9.202406892056271e-05 0 -0.01382068398878853 6.7887000707606793e-05 0 -0.013735551443135091 0.00022240580197744735 0 -0.013823176106133548 0.00017541363329139279 0 -0.013536112526185792 -9.202406892056271e-05 0 -0.013735551443135091 0.00022240580197744735 0 -0.013536112526185792 -9.202406892056271e-05 0 -0.013182129820533333 4.7323969796114197e-05 0 -0.00097062973147840495 0.0010182014285303187 0 -0.0008617113747741628 0.00064174007146468922 0 -0.0014112035075766335 0.000861390768655527 0 -0.00097062973147840495 0.0010182014285303187 0 -0.0008617113747741628 0.00064174007146468922 0 -0.00090035011584293817 0.00081948598439976429 0 -0.0008617113747741628 0.00064174007146468922 0 -0.0014112035075766335 0.000861390768655527 0 -0.0015740837271012616 0.0005310759527256011 0 -0.0014112035075766335 0.000861390768655527 0 -0.0018679709014464384 0.00087825602541662855 0 -0.0018755321672529258 0.0012603638030158828 0 -0.0014112035075766335 0.000861390768655527 0 -0.0015740837271012616 0.0005310759527256011 0 -0.0018679709014464384 0.00087825602541662855 0 -0.0015740837271012616 0.0005310759527256011 0 -0.0018679709014464384 0.00087825602541662855 0 -0.0023206798320837903 0.00033907118551538293 0 -0.0022355022747187203 0.0011965313809018995 0 -0.0023271063584244405 0.00062125765743823195 0 -0.0024995674106558278 0.0010713115478704293 0 -0.0022040779502029814 0.0012419236446446393 0 -0.002434613170486986 0.00081576376667937315 0 -0.0018679709014464384 0.00087825602541662855 0 -0.0022040779502029814 0.0012419236446446393 0 -0.0023206798320837903 0.00033907118551538293 0 -0.0026922807076921219 0.00097109935657853212 0 -0.0024995674106558278 0.0010713115478704293 0 -0.002434613170486986 0.00081576376667937315 0 -0.0026922807076921219 0.00097109935657853212 0 -0.0024995674106558278 0.0010713115478704293 0 -0.0026734932244122725 0.0013281695059920967 0 -0.0024995674106558278 0.0010713115478704293 0 -0.0026734932244122725 0.0013281695059920967 0 -0.0022040779502029814 0.0012419236446446393 0 -0.013856704448833204 0.00015657006626245857 0 -0.013856918965131568 0.00016905656778037223 0 -0.01382068398878853 6.7887000707606793e-05 0 -0.01115678567043178 0.00012099392332611261 0 -0.0088614554869360946 0.00091089598740573866 0 -0.013868333297992809 0.000166557042176916 0 -0.013876948146457183 0.00017388554216875147 0 -0.013894795147230734 0.00020138702955719271 0 -0.013856704448833204 0.00015657006626245857 0 -0.013868333297992809 0.000166557042176916 0 -0.013876948146457183 0.00017388554216875147 0 -0.013859240563487999 0.00015326049190056559 0 -0.013856704448833204 0.00015657006626245857 0 -0.013870006284570661 0.00016377513159283313 0 -0.013856704448833204 0.00015657006626245857 0 -0.013876948146457183 0.00017388554216875147 0 -0.013870006284570661 0.00016377513159283313 0 -0.013859240563487999 0.00015326049190056559 0 -0.013856704448833204 0.00015657006626245857 0 -0.01382068398878853 6.7887000707606793e-05 0 -0.0088614554869360946 0.00091089598740573866 0 -0.0077164764124280352 0.00062817060975696817 0 -0.0026734932244122725 0.0013281695059920967 0 -0.0018755321672529258 0.0012603638030158828 0 -0.0022040779502029814 0.0012419236446446393 0 -0.013859240563487999 0.00015326049190056559 0 -0.013823176106133548 0.00017541363329139279 0 -0.01382068398878853 6.7887000707606793e-05 0 -0.0018679709014464384 0.00087825602541662855 0 -0.0018755321672529258 0.0012603638030158828 0 -0.0022040779502029814 0.0012419236446446393 0 -0.010091684960477914 0.00038412746577574984 0 -0.010700798813215015 0.00065039068620451881 0 -0.011102634147665904 0.00028038898220014892 0 -0.012645551540578535 0.00041566660621878652 0 -0.012816774965638935 0.00027700215209101121 0 -0.012437934571615447 0.00032134234537573958 0 -0.011477385490260204 0.00029548043119802231 0 -0.01177131087876347 0.00032157902281764714 0 -0.010091684960477914 0.00038412746577574984 0 -0.010251405589213173 0.00070243619563544303 0 -0.010700798813215015 0.00065039068620451881 0 -0.012645551540578535 0.00041566660621878652 0 -0.012826881592674854 0.00047682355445306823 0 -0.012816774965638935 0.00027700215209101121 0 -0.012645551540578535 0.00041566660621878652 0 -0.012638554487806519 0.0005452032280397806 0 -0.012513187395166802 0.00045916040943314322 0 -0.012567863759044676 0.00068937809151378465 0 -0.012638554487806519 0.0005452032280397806 0 -0.012433321548891263 0.00057098071816842513 0 -0.012810770673268168 0.00065858186506640012 0 -0.012638554487806519 0.0005452032280397806 0 -0.012826881592674854 0.00047682355445306823 0 -0.012810770673268168 0.00065858186506640012 0 -0.012567863759044676 0.00068937809151378465 0 -0.012638554487806519 0.0005452032280397806 0 -0.012645551540578535 0.00041566660621878652 0 -0.012638554487806519 0.0005452032280397806 0 -0.012826881592674854 0.00047682355445306823 0 -0.012810770673268168 0.00065858186506640012 0 -0.012826881592674854 0.00047682355445306823 0 -0.012994229364373489 0.00058370283755618572 0 -0.012826881592674854 0.00047682355445306823 0 -0.012994229364373489 0.00058370283755618572 0 -0.013067264926552684 0.00044245004843319701 0 -0.010091684960477914 0.00038412746577574984 0 -0.0093737533188271022 0.00045149632614978162 0 -0.010004317000732668 0.00077883799495594109 0 -0.011477385490260204 0.00029548043119802231 0 -0.011228517083911897 0.00068293269233803762 0 -0.012826881592674854 0.00047682355445306823 0 -0.012816774965638935 0.00027700215209101121 0 -0.013067264926552684 0.00044245004843319701 0 -0.010091684960477914 0.00038412746577574984 0 -0.010004317000732668 0.00077883799495594109 0 -0.010251405589213173 0.00070243619563544303 0 -0.013204867062708528 0.0002521444670106574 0 -0.013067264926552684 0.00044245004843319701 0 -0.013342381035457349 0.00044975222578374493 0 -0.012816774965638935 0.00027700215209101121 0 -0.013204867062708528 0.0002521444670106574 0 -0.013067264926552684 0.00044245004843319701 0 -0.011228517083911897 0.00068293269233803762 0 -0.012442202025459669 0.00073936979463357436 0 -0.011228517083911897 0.00068293269233803762 0 -0.013136394705533936 0.00053161351734384507 0 -0.013067264926552684 0.00044245004843319701 0 -0.013222854339844976 0.0006191881760375629 0 -0.013342381035457349 0.00044975222578374493 0 -0.012994229364373489 0.00058370283755618572 0 -0.013067264926552684 0.00044245004843319701 0 -0.013222854339844976 0.0006191881760375629 0 -0.013656160084974944 0.00038339600463739403 0 -0.013136394705533936 0.00053161351734384507 0 -0.013961422436515568 0.00013231434167768915 0 -0.013951266966970263 0.00017780377260515713 0 -0.013928735660053619 0.00015230407069225044 0 -0.013406950193070737 0.0007430021482064303 0 -0.013222854339844976 0.0006191881760375629 0 -0.013342381035457349 0.00044975222578374493 0 -0.013951266966970263 0.00017780377260515713 0 -0.013913608428622368 0.00017648146133136415 0 -0.013888294060416508 0.00019674068949362451 0 -0.013951266966970263 0.00017780377260515713 0 -0.013928735660053619 0.00015230407069225044 0 -0.013913608428622368 0.00017648146133136415 0 -0.014155304516212164 0.00012285733896183249 0 -0.012442202025459669 0.00073936979463357436 0 -0.013735551443135091 0.00022240580197744735 0 -0.012921080156836542 0.00038476175513854941 0 -0.013182129820533333 4.7323969796114197e-05 0 -0.013735551443135091 0.00022240580197744735 0 -0.013888294060416508 0.00019674068949362451 0 -0.013974976084399288 0.00026765483661580537 0 -0.013136394705533936 0.00053161351734384507 0 -0.012442202025459669 0.00073936979463357436 0 -0.012282600443006251 0.00060529270144378435 0 -0.012413148840178637 0.00079916000440621328 0 -0.012376986712221443 0.00060094855513687746 0 -0.013951266966970263 0.00017780377260515713 0 -0.013888294060416508 0.00019674068949362451 0 -0.013974976084399288 0.00026765483661580537 0 -0.00097062973147840495 0.0010182014285303187 0 -0.00093296877437658581 0.00081890219504696961 0 -0.00096855561190532585 0.00075006544599161393 0 -0.013536112526185792 -9.202406892056271e-05 0 -0.013182129820533333 4.7323969796114197e-05 0 -0.012801852539572394 -0.00021011946447885865 0 -0.012921080156836542 0.00038476175513854941 0 -0.013182129820533333 4.7323969796114197e-05 0 -0.012801852539572394 -0.00021011946447885865 0 -0.0072619230988393742 0.00051309669081888386 0 -0.007059797714493876 -0.00017440379347012519 0 -0.00098840989946716437 0.00063540411662871461 0 -8.1826426833673897e-06 0.00088068785377201295 0 -0.0008617113747741628 0.00064174007146468922 0 0.00026449025009033119 0.0007470352351912075 0 -0.00012323224504477402 0.00031149710815870925 0 -0.00097062973147840495 0.0010182014285303187 0 -0.00090035011584293817 0.00081948598439976429 0 -0.00093296877437658581 0.00081890219504696961 0 -0.0008617113747741628 0.00064174007146468922 0 -0.00090035011584293817 0.00081948598439976429 0 -0.00093602986896893056 0.00090031762340433627 0 -0.00093602986896893056 0.00090031762340433627 0 -0.00093296877437658581 0.00081890219504696961 0 -0.00096643544197321408 0.00081878912425513862 0 -0.00090035011584293817 0.00081948598439976429 0 -0.00093602986896893056 0.00090031762340433627 0 -0.00093296877437658581 0.00081890219504696961 0 -0.00093296877437658581 0.00081890219504696961 0 -0.00096643544197321408 0.00081878912425513862 0 -0.00096855561190532585 0.00075006544599161393 0 -8.1826426833673897e-06 0.00088068785377201295 0 -0.0018412215084480095 0.00043034826114228471 0 -0.00096643544197321408 0.00081878912425513862 0 -0.0010428161303667439 0.00080041508569122567 0 -0.00096855561190532585 0.00075006544599161393 0 0.00026449025009033119 0.0007470352351912075 0 0.00064823082053151282 0.00053537808772863814 0 0.0010364672580257701 0.00077820289843095688 0 -0.00093602986896893056 0.00090031762340433627 0 -0.0011377190297296306 0.00080974494306713051 0 -0.0013906387474926644 0.00087636636454004014 0 -0.0010428161303667439 0.00080041508569122567 0 -0.0011377190297296306 0.00080974494306713051 0 -0.00096855561190532585 0.00075006544599161393 0 -0.00093602986896893056 0.00090031762340433627 0 -0.0010428161303667439 0.00080041508569122567 0 -0.0011377190297296306 0.00080974494306713051 0 -0.00093602986896893056 0.00090031762340433627 0 -0.00096643544197321408 0.00081878912425513862 0 -0.0010428161303667439 0.00080041508569122567 0 0.00026449025009033119 0.0007470352351912075 0 0.00064823082053151282 0.00053537808772863814 0 0.00037367180644479469 0.00029586911524598548 0 -0.011228517083911897 0.00068293269233803762 0 -0.0056075190760275688 0.00051717017927162951 0 -0.012442202025459669 0.00073936979463357436 0 -0.007059797714493876 -0.00017440379347012519 0 -0.0011377190297296306 0.00080974494306713051 0 -0.00096855561190532585 0.00075006544599161393 0 -0.0013147214902031466 0.00072128780885964195 0 -0.0087629222058117264 0.0015293277319626208 0 -0.0090214506864527977 -0.0004926294519810785 0 -0.0074143309286982297 -0.00056976984946453531 0 -0.0087629222058117264 0.0015293277319626208 0 -0.0093498145468687861 0.0015023995217858057 0 -0.0090214506864527977 -0.0004926294519810785 0 -0.007059797714493876 -0.00017440379347012519 0 -0.0056075190760275688 0.00051717017927162951 0 -0.0093737533188271022 0.00045149632614978162 0 -0.010004317000732668 0.00077883799495594109 0 -0.0097690353838162589 0.0010674561651192443 0 -0.010004317000732668 0.00077883799495594109 0 -0.010260681171623107 0.00097909870845076579 0 -0.010251405589213173 0.00070243619563544303 0 -0.010004317000732668 0.00077883799495594109 0 -0.010230121004437482 0.001032083460989893 0 -0.010260681171623107 0.00097909870845076579 0 -0.0056075190760275688 0.00051717017927162951 0 -0.0083400964521217723 0.00069907909330312555 0 -0.010004317000732668 0.00077883799495594109 0 -0.0097690353838162589 0.0010674561651192443 0 -0.010230121004437482 0.001032083460989893 0 -0.0011377190297296306 0.00080974494306713051 0 -0.0013147214902031466 0.00072128780885964195 0 -0.0013906387474926644 0.00087636636454004014 0 -0.0018412215084480095 0.00043034826114228471 0 -0.00047243045060905075 0.00034589931836003131 0 0.0010364672580257701 0.00077820289843095688 0 0.0010683587508242671 0.00060903373699926916 0 0.0012843940608907858 0.00031131590934539699 0 -0.0056075190760275688 0.00051717017927162951 0 -0.0018412215084480095 0.00043034826114228471 0 0.0010364672580257701 0.00077820289843095688 0 0.0010683587508242671 0.00060903373699926916 0 0.00087101540036749756 0.00046424298464418695 0 0.00064823082053151282 0.00053537808772863814 0 0.0010364672580257701 0.00077820289843095688 0 0.00087101540036749756 0.00046424298464418695 0 -0.0043445994818845004 0.000289000561507217 0 -0.0046492841592940216 0.00078177614556748046 0 -0.0054721964716518108 0.00033724859473886992 0 -0.0018412215084480095 0.00043034826114228471 0 -0.00629091457567694 0.00052075016584097686 0 -0.0046492841592940216 0.00078177614556748046 0 -0.0054721964716518108 0.00033724859473886992 0 -0.0066006059508400758 0.00038626322248880632 0 -0.0023301096476180442 0.00033348600177694044 0 -0.0023965349093380641 0.00045405581517377703 0 -0.0025123393125324016 0.00030281409923223218 0 -0.0083400964521217723 0.00069907909330312555 0 -0.00629091457567694 0.00052075016584097686 0 -0.010300763758779216 0.00099434315781298855 0 -0.010508938350518875 0.00099910948833169689 0 -0.010260681171623107 0.00097909870845076579 0 -0.010700798813215015 0.00065039068620451881 0 -0.01121362332453682 0.00090654336589861197 0 -0.010260681171623107 0.00097909870845076579 0 -0.009885752473677397 0.001112625797567546 0 -0.010025063068298534 0.0008967124591397331 0 -0.010230121004437482 0.001032083460989893 0 -0.010260681171623107 0.00097909870845076579 0 -0.010025063068298534 0.0008967124591397331 0 -0.010260681171623107 0.00097909870845076579 0 -0.010251405589213173 0.00070243619563544303 0 -0.010700798813215015 0.00065039068620451881 0 -0.002455508490674115 0.00057394719208829102 0 -0.0023965349093380641 0.00045405581517377703 0 -0.0025147395135445409 0.0004651786766445343 0 0.0015172871656803668 -7.1708351439353325e-05 0 0.0012843940608907858 0.00031131590934539699 0 0.0013968214999314046 -0.00011377012215552272 0 3.5949250389932466e-05 0.00040930807266788619 0 -0.00047243045060905075 0.00034589931836003131 0 0.0012843940608907858 0.00031131590934539699 0 0.00099966575284236837 0.00023637681230868064 0 0.0013968214999314046 -0.00011377012215552272 0 3.5949250389932466e-05 0.00040930807266788619 0 0.0026483369700573611 0.000245162704403448 0 -0.0023965349093380641 0.00045405581517377703 0 -0.0025147395135445409 0.0004651786766445343 0 -0.0025123393125324016 0.00030281409923223218 0 0.0010661921265615422 0.00053532187063279368 0 0.0011314334086962785 0.00012415903480065781 0 0.0010683587508242671 0.00060903373699926916 0 0.0012843940608907858 0.00031131590934539699 0 0.00099966575284236837 0.00023637681230868064 0 0.0010683587508242671 0.00060903373699926916 0 0.00087101540036749756 0.00046424298464418695 0 0.0010052315854975709 -3.8919615322107274e-06 0 0.00087101540036749756 0.00046424298464418695 0 0.0010052315854975709 -3.8919615322107274e-06 0 0.00078292481002664174 0.00018562250494534019 0 0.0011314334086962785 0.00012415903480065781 0 0.00092095914478929996 0.00018879244811507114 0 0.0011314334086962785 0.00012415903480065781 0 0.0026483369700573611 0.000245162704403448 0 0.0018360123413840466 0.00031237719398862136 0 0.0017276927179112602 -0.00023950734532897868 0 0.0022582720812402732 -6.3354999334346262e-05 0 0.0011314334086962785 0.00012415903480065781 0 0.0019998099193589474 -0.0003646914580671022 0 0.00099533563939370917 -8.1192307546464401e-05 0 0.00057172416664003013 -0.00035609231544988471 0 0.00066110653862184966 -0.0008642563404034682 0 0.00057172416664003013 -0.00035609231544988471 0 0.00029357189213279804 -0.00051677209430376508 0 0.00045722656752115434 -0.00074449108345378155 0 0.00057172416664003013 -0.00035609231544988471 0 0.0005698624137115833 -9.620307577710857e-06 0 0.00011040062518702404 -0.00010138292031534071 0 0.00099533563939370917 -8.1192307546464401e-05 0 0.00057172416664003013 -0.00035609231544988471 0 0.0005698624137115833 -9.620307577710857e-06 0 0.00099533563939370917 -8.1192307546464401e-05 0 0.0005698624137115833 -9.620307577710857e-06 0 0.00078292481002664174 0.00018562250494534019 0 0.0005698624137115833 -9.620307577710857e-06 0 0.00078292481002664174 0.00018562250494534019 0 0.00037367180644479469 0.00029586911524598548 0 0.00064823082053151282 0.00053537808772863814 0 0.00078292481002664174 0.00018562250494534019 0 0.00037367180644479469 0.00029586911524598548 0 0.00064823082053151282 0.00053537808772863814 0 0.00087101540036749756 0.00046424298464418695 0 0.00078292481002664174 0.00018562250494534019 0 0.0005698624137115833 -9.620307577710857e-06 0 0.00037367180644479469 0.00029586911524598548 0 0.00011040062518702404 -0.00010138292031534071 0 0.00037367180644479469 0.00029586911524598548 0 0.00011040062518702404 -0.00010138292031534071 0 -0.00012323224504477402 0.00031149710815870925 0 0.00026449025009033119 0.0007470352351912075 0 0.00037367180644479469 0.00029586911524598548 0 -0.00012323224504477402 0.00031149710815870925 0 0.00011040062518702404 -0.00010138292031534071 0 -0.00012323224504477402 0.00031149710815870925 0 -0.00057295188327184394 1.6852034829817355e-05 0 0.00011040062518702404 -0.00010138292031534071 0 -0.00057295188327184394 1.6852034829817355e-05 0 -0.00038867185115918187 -0.00051956046098221135 0 0.00011040062518702404 -0.00010138292031534071 0 0.00029357189213279804 -0.00051677209430376508 0 -0.00038867185115918187 -0.00051956046098221135 0 0.00057172416664003013 -0.00035609231544988471 0 0.00011040062518702404 -0.00010138292031534071 0 0.00029357189213279804 -0.00051677209430376508 0 0.00029357189213279804 -0.00051677209430376508 0 0.00044744452620639396 -0.00095299188539835862 0 -0.00038867185115918187 -0.00051956046098221135 0 0.00049826868909335286 -0.00099544317194095793 0 0.00067871005072687681 -0.0010827891874586751 0 0.00044744452620639396 -0.00095299188539835862 0 -0.00038867185115918187 -0.00051956046098221135 0 -0.00077930233823449841 -0.0012256266939688829 0 0.00044744452620639396 -0.00095299188539835862 0 0.00082798940068694803 -0.00055406166501419725 0 0.0020889910545964039 -0.0010090144854143814 0 0.00029357189213279804 -0.00051677209430376508 0 0.00044744452620639396 -0.00095299188539835862 0 0.00045722656752115434 -0.00074449108345378155 0 0.00044744452620639396 -0.00095299188539835862 0 0.00082798940068694803 -0.00055406166501419725 0 0.00036275207475962068 -0.00078388405101591891 0 0.0013610368069843454 7.6966566215493869e-06 0 0.0004708040837499111 -8.7934415224820526e-05 0 0.0012610459089615613 0.0012339161607187066 0 0.00082798940068694803 -0.00055406166501419725 0 0.0013610368069843454 7.6966566215493869e-06 0 0.0020889910545964039 -0.0010090144854143814 0 0.00082798940068694803 -0.00055406166501419725 0 0.0013610368069843454 7.6966566215493869e-06 0 0.0004708040837499111 -8.7934415224820526e-05 0 0.0019998099193589474 -0.0003646914580671022 0 0.0068328395871135542 0.00042763865333775238 0 0.0051511419559784844 0.00022215480779424655 0 0.0051530854689809773 -0.00026435102095658447 0 0.0054022389969139613 0.00078167941928679492 0 0.0004708040837499111 -8.7934415224820526e-05 0 -0.0001231777035009302 -0.00093970994934253216 0 6.440036794899604e-05 0.00051685930473560485 0 0.00082798940068694803 -0.00055406166501419725 0 0.0004708040837499111 -8.7934415224820526e-05 0 0.00036275207475962068 -0.00078388405101591891 0 0.0051511419559784844 0.00022215480779424655 0 0.0050180447641002372 0.00059399319387597898 0 0.0054022389969139613 0.00078167941928679492 0 0.00057172416664003013 -0.00035609231544988471 0 0.00066110653862184966 -0.0008642563404034682 0 0.00045722656752115434 -0.00074449108345378155 0 0.0019998099193589474 -0.0003646914580671022 0 0.00028927234814854361 -0.0008777632733829912 0 0.0004708040837499111 -8.7934415224820526e-05 0 -0.0001231777035009302 -0.00093970994934253216 0 0.00036275207475962068 -0.00078388405101591891 0 0.00044744452620639396 -0.00095299188539835862 0 0.00036275207475962068 -0.00078388405101591891 0 0.00045722656752115434 -0.00074449108345378155 0 0.00066110653862184966 -0.0008642563404034682 0 0.00036275207475962068 -0.00078388405101591891 0 0.00045722656752115434 -0.00074449108345378155 0 0.0019998099193589474 -0.0003646914580671022 0 0.0026483369700573611 0.000245162704403448 0 0.0051530854689809773 -0.00026435102095658447 0 0.0047372550789678636 3.8817201682287852e-05 0 0.0041002710354637213 -0.00060209060090868642 0 0.0051511419559784844 0.00022215480779424655 0 0.0051530854689809773 -0.00026435102095658447 0 0.0047372550789678636 3.8817201682287852e-05 0 0.0076640953142927013 0.00018685707333133188 0 0.00724611614933159 -1.4118424731583601e-05 0 0.0072926852684112959 0.00036317463485732043 0 0.0050096462463084463 0.00059997388517839744 0 0.0047372550789678636 3.8817201682287852e-05 0 0.0042778057106618054 0.00024771222013528617 0 0.0074866991367520744 0.00025945936206986738 0 0.0058037535636086086 0.00011594572315070548 0 0.0051511419559784844 0.00022215480779424655 0 0.0050096462463084463 0.00059997388517839744 0 0.0047372550789678636 3.8817201682287852e-05 0 0.0059360098867547294 0.00075088149240234742 0 0.0074866991367520744 0.00025945936206986738 0 0.00724611614933159 -1.4118424731583601e-05 0 0.0072926852684112959 0.00036317463485732043 0 0.0069883440048830337 0.00028922887588003787 0 0.0058037535636086086 0.00011594572315070548 0 0.003598129213641164 0.00041021617552968121 0 0.00724611614933159 -1.4118424731583601e-05 0 0.0068194819348330249 -0.00021080350060476925 0 0.0069883440048830337 0.00028922887588003787 0 0.0042778057106618054 0.00024771222013528617 0 0.0041002710354637213 -0.00060209060090868642 0 0.0035550735544855041 -9.9947564679004846e-05 0 0.0047372550789678636 3.8817201682287852e-05 0 0.0042778057106618054 0.00024771222013528617 0 0.0041002710354637213 -0.00060209060090868642 0 0.0014316409492354549 0.00042159455394097248 0 0.0016895318330035654 0.00050550033445492782 0 0.0012839983943538518 0.00065871215406061072 0 0.0026483369700573611 0.000245162704403448 0 0.003598129213641164 0.00041021617552968121 0 -0.0024271529398328883 -0.00063301288717917666 0 -0.0023206798320837903 0.00033907118551538293 0 -0.0013644059095574855 -0.0001846007099068377 0 -0.0024271529398328883 -0.00063301288717917666 0 -0.0013644059095574855 -0.0001846007099068377 0 -0.0017271167993325631 -0.00081900141111252193 0 -0.0028543746668461601 -0.00012282452749138445 0 -0.0023271063584244405 0.00062125765743823195 0 -0.0025199265455420625 0.00056678182824411146 0 -0.0026546143944983854 0.00056407609350017109 0 -0.0027185325142627384 0.00068147025397238066 0 -0.0025199265455420625 0.00056678182824411146 0 -0.002434613170486986 0.00081576376667937315 0 -0.0027185325142627384 0.00068147025397238066 0 -0.0026922807076921219 0.00097109935657853212 0 -0.002434613170486986 0.00081576376667937315 0 -0.0027185325142627384 0.00068147025397238066 0 -0.0015740837271012616 0.0005310759527256011 0 -0.0023206798320837903 0.00033907118551538293 0 -0.0013644059095574855 -0.0001846007099068377 0 -0.0008617113747741628 0.00064174007146468922 0 -0.0015740837271012616 0.0005310759527256011 0 -0.0013644059095574855 -0.0001846007099068377 0 -0.0008617113747741628 0.00064174007146468922 0 -0.00057295188327184394 1.6852034829817355e-05 0 -0.0013644059095574855 -0.0001846007099068377 0 -0.0008617113747741628 0.00064174007146468922 0 -0.00012323224504477402 0.00031149710815870925 0 -0.00057295188327184394 1.6852034829817355e-05 0 -0.00057295188327184394 1.6852034829817355e-05 0 -0.00038867185115918187 -0.00051956046098221135 0 -0.0013644059095574855 -0.0001846007099068377 0 -0.00038867185115918187 -0.00051956046098221135 0 -0.0013644059095574855 -0.0001846007099068377 0 -0.00077930233823449841 -0.0012256266939688829 0 -0.0013644059095574855 -0.0001846007099068377 0 -0.00077930233823449841 -0.0012256266939688829 0 -0.0017271167993325631 -0.00081900141111252193 0 -0.0016831615240244264 -0.0013841174902997999 0 -0.00077930233823449841 -0.0012256266939688829 0 -0.0017271167993325631 -0.00081900141111252193 0 0.00098370944196295379 -0.0011085787180865889 0 0.00067871005072687681 -0.0010827891874586751 0 0.0013610368069843454 7.6966566215493869e-06 0 0.0020889910545964039 -0.0010090144854143814 0 0.0025791140364959169 0.00039328691627919056 0 0.003676313360924013 -0.00074668718958671742 0 0.0042511856757441692 0.00033759934818532243 0 0.0025791140364959169 0.00039328691627919056 0 0.003676313360924013 -0.00074668718958671742 0 0.0020889910545964039 -0.0010090144854143814 0 0.0025791140364959169 0.00039328691627919056 0 0.003676313360924013 -0.00074668718958671742 0 0.0042511856757441692 0.00033759934818532243 0 0.00524219926395144 -0.00040233911714481158 0 0.00098370944196295379 -0.0011085787180865889 0 0.0013813545222410319 -0.00043242626240066611 0 -0.0016831615240244264 -0.0013841174902997999 0 -0.0020946357567017937 -0.0010915865655292613 0 -0.0017271167993325631 -0.00081900141111252193 0 -0.0016831615240244264 -0.0013841174902997999 0 -0.0020946357567017937 -0.0010915865655292613 0 -0.0025078984903128287 -0.0015700415121669806 0 -0.0024271529398328883 -0.00063301288717917666 0 -0.0020946357567017937 -0.0010915865655292613 0 -0.0017271167993325631 -0.00081900141111252193 0 -0.0025199265455420625 0.00056678182824411146 0 -0.0026002422636955537 0.00049838561124808075 0 -0.0025503990131057531 0.00042586213148603885 0 -0.0028543746668461601 -0.00012282452749138445 0 0.0013813545222410319 -0.00043242626240066611 0 -0.0024271529398328883 -0.00063301288717917666 0 -0.0020946357567017937 -0.0010915865655292613 0 -0.0025078984903128287 -0.0015700415121669806 0 -0.0025199265455420625 0.00056678182824411146 0 -0.0026002422636955537 0.00049838561124808075 0 -0.0026546143944983854 0.00056407609350017109 0 -0.0026002422636955537 0.00049838561124808075 0 -0.0026188757275560841 0.00046917235211972169 0 -0.0025980294844584434 0.00045228042622557643 0 -0.0025980294844584434 0.00045228042622557643 0 -0.0026139416231776343 0.00043094435915654397 0 -0.0026321106391030756 0.00045184289141709979 0 -0.0026188020675877209 0.0004220203471120694 0 -0.0026139416231776343 0.00043094435915654397 0 -0.0025503990131057531 0.00042586213148603885 0 -0.0026002422636955537 0.00049838561124808075 0 -0.0025980294844584434 0.00045228042622557643 0 -0.0025503990131057531 0.00042586213148603885 0 0.0013813545222410319 -0.00043242626240066611 0 0.0054462593512588468 0.00083193262940456467 0 -0.0026188757275560841 0.00046917235211972169 0 -0.0025980294844584434 0.00045228042622557643 0 -0.0026321106391030756 0.00045184289141709979 0 0.0042511856757441692 0.00033759934818532243 0 0.00524219926395144 -0.00040233911714481158 0 0.0054592939061499533 0.00074048998428429425 0 0.0060845376421438946 -0.00034547612496033 0 0.005318397661351758 -0.00054233947289769396 0 0.0055377940404079066 0.00068904748568842918 0 -9.3968074841022352e-06 0.0006161537940229684 0 0.0013813545222410319 -0.00043242626240066611 0 -0.0025980294844584434 0.00045228042622557643 0 -0.0026139416231776343 0.00043094435915654397 0 -0.0025503990131057531 0.00042586213148603885 0 -9.3968074841022352e-06 0.0006161537940229684 0 -0.00017311979257735285 0.00048836645356141071 0 -9.3968074841022352e-06 0.0006161537940229684 0 -0.0036458424719582306 0.00025622006274750786 0 -0.002626797357304143 0.00042755627979295215 0 -0.0026592426869782994 0.00044597521452929628 0 -0.0026979570389281545 0.00042864088322670449 0 -0.0026592426869782994 0.00044597521452929628 0 -0.0026979570389281545 0.00042864088322670449 0 -0.0026966277923410366 0.00047088976250417639 0 -0.0026592426869782994 0.00044597521452929628 0 -0.0026562461784152371 0.00046904919825496114 0 -0.0026966277923410366 0.00047088976250417639 0 -0.0026321106391030756 0.00045184289141709979 0 -0.0026592426869782994 0.00044597521452929628 0 -0.0026562461784152371 0.00046904919825496114 0 -0.0026188757275560841 0.00046917235211972169 0 -0.0026321106391030756 0.00045184289141709979 0 -0.0026562461784152371 0.00046904919825496114 0 -0.0026321106391030756 0.00045184289141709979 0 -0.0026344848511482789 0.00043892113421347247 0 -0.0026592426869782994 0.00044597521452929628 0 -0.002626797357304143 0.00042755627979295215 0 -0.0026344848511482789 0.00043892113421347247 0 -0.0026592426869782994 0.00044597521452929628 0 -0.0026139416231776343 0.00043094435915654397 0 -0.0026321106391030756 0.00045184289141709979 0 -0.0026344848511482789 0.00043892113421347247 0 -0.002626797357304143 0.00042755627979295215 0 -0.0026139416231776343 0.00043094435915654397 0 -0.0026344848511482789 0.00043892113421347247 0 -0.0026979570389281545 0.00042864088322670449 0 -0.002748744284156026 0.00048126852888135443 0 -0.0026966277923410366 0.00047088976250417639 0 -0.0026979570389281545 0.00042864088322670449 0 -0.002748744284156026 0.00048126852888135443 0 -0.0028028870189644051 0.00045648209757077787 0 -0.002748744284156026 0.00048126852888135443 0 -0.0027354377955134124 0.00051354658628742858 0 -0.0028407338174439483 0.00055441884371199371 0 -0.002748744284156026 0.00048126852888135443 0 -0.0027354377955134124 0.00051354658628742858 0 -0.0026966277923410366 0.00047088976250417639 0 -0.0027354377955134124 0.00051354658628742858 0 -0.0028407338174439483 0.00055441884371199371 0 -0.002744249374174247 0.00057745451226092815 0 -0.0026002422636955537 0.00049838561124808075 0 -0.0026188757275560841 0.00046917235211972169 0 -0.0026707447441600084 0.00051180896184638877 0 -0.0026188757275560841 0.00046917235211972169 0 -0.0026562461784152371 0.00046904919825496114 0 -0.0026707447441600084 0.00051180896184638877 0 -0.0026562461784152371 0.00046904919825496114 0 -0.0026966277923410366 0.00047088976250417639 0 -0.0026707447441600084 0.00051180896184638877 0 -0.0027354377955134124 0.00051354658628742858 0 -0.0026966277923410366 0.00047088976250417639 0 -0.0026707447441600084 0.00051180896184638877 0 -0.0027354377955134124 0.00051354658628742858 0 -0.0026707447441600084 0.00051180896184638877 0 -0.002744249374174247 0.00057745451226092815 0 -0.0026707447441600084 0.00051180896184638877 0 -0.0026546143944983854 0.00056407609350017109 0 -0.002744249374174247 0.00057745451226092815 0 -0.0026002422636955537 0.00049838561124808075 0 -0.0026707447441600084 0.00051180896184638877 0 -0.0026546143944983854 0.00056407609350017109 0 -0.0026546143944983854 0.00056407609350017109 0 -0.0027185325142627384 0.00068147025397238066 0 -0.002744249374174247 0.00057745451226092815 0 -0.0027185325142627384 0.00068147025397238066 0 -0.002744249374174247 0.00057745451226092815 0 -0.0027870443982952685 0.00068435380578261984 0 -0.002744249374174247 0.00057745451226092815 0 -0.002920474795386355 0.0006596911581241556 0 -0.0027870443982952685 0.00068435380578261984 0 -0.0028407338174439483 0.00055441884371199371 0 -0.002744249374174247 0.00057745451226092815 0 -0.002920474795386355 0.0006596911581241556 0 -0.0028146137131529166 0.00081568816469137042 0 -0.0030435084405699793 0.00078560462891294144 0 -0.0030188156193491199 0.00096643268403599357 0 -0.002920474795386355 0.0006596911581241556 0 -0.0028146137131529166 0.00081568816469137042 0 -0.0030435084405699793 0.00078560462891294144 0 -0.002920474795386355 0.0006596911581241556 0 -0.0027870443982952685 0.00068435380578261984 0 -0.0028146137131529166 0.00081568816469137042 0 -0.0025408375364454638 0.00058708395561827957 0 -0.006419709128476064 0.00061468015168577911 0 -0.0026922807076921219 0.00097109935657853212 0 -0.0027185325142627384 0.00068147025397238066 0 -0.0030597280028763245 0.00080622044343086436 0 -0.0027185325142627384 0.00068147025397238066 0 -0.0027870443982952685 0.00068435380578261984 0 -0.0028146137131529166 0.00081568816469137042 0 -0.0028853274942693624 0.00078327540907218753 0 -0.0025408375364454638 0.00058708395561827957 0 -0.0063254911236499591 0.00053607370726816708 0 -0.0055364984286672622 0.00061343271199539983 0 -0.0032665063693614396 0.00087854830570540147 0 -0.0030435084405699793 0.00078560462891294144 0 -0.0030188156193491199 0.00096643268403599357 0 -0.0063254911236499591 0.00053607370726816708 0 -0.006419709128476064 0.00061468015168577911 0 -0.0032665063693614396 0.00087854830570540147 0 -0.0030435084405699793 0.00078560462891294144 0 -0.0031398952559377707 0.00054144114182646489 0 -0.0028407338174439483 0.00055441884371199371 0 -0.002920474795386355 0.0006596911581241556 0 -0.0031398952559377707 0.00054144114182646489 0 -0.002920474795386355 0.0006596911581241556 0 -0.0030435084405699793 0.00078560462891294144 0 -0.0031398952559377707 0.00054144114182646489 0 -0.0028979616593768193 0.00069479813130384589 0 -0.0030559972501466434 0.00061279555685995319 0 -0.0032052566725307798 0.00092224380221301281 0 -0.0025834150643045651 0.0005637152331226051 0 -0.0055364984286672622 0.00061343271199539983 0 -0.0032665063693614396 0.00087854830570540147 0 -0.0031398952559377707 0.00054144114182646489 0 -0.0035532940054930893 0.00076109266775392951 0 -0.0028979616593768193 0.00069479813130384589 0 -0.0030559972501466434 0.00061279555685995319 0 -0.0029345197032582442 0.00048703685314928596 0 -0.0029473678246510096 0.00054365937888398109 0 -0.0025834150643045651 0.0005637152331226051 0 -0.0028979616593768193 0.00069479813130384589 0 -0.0028028870189644051 0.00045648209757077787 0 -0.0029345197032582442 0.00048703685314928596 0 -0.002748744284156026 0.00048126852888135443 0 -0.0028407338174439483 0.00055441884371199371 0 -0.0031398952559377707 0.00054144114182646489 0 -0.002748744284156026 0.00048126852888135443 0 -0.0028979616593768193 0.00069479813130384589 0 -0.0028028870189644051 0.00045648209757077787 0 -0.0028028870189644051 0.00045648209757077787 0 -0.0029345197032582442 0.00048703685314928596 0 -0.0028413319426579386 0.00037798876825423508 0 -0.0030559972501466434 0.00061279555685995319 0 -0.0029345197032582442 0.00048703685314928596 0 -0.0031685240236568983 0.00048376070956098957 0 -0.0029345197032582442 0.00048703685314928596 0 -0.0031685240236568983 0.00048376070956098957 0 -0.0029693113294194835 0.00037118950313959559 0 -0.0029345197032582442 0.00048703685314928596 0 -0.0028413319426579386 0.00037798876825423508 0 -0.0029693113294194835 0.00037118950313959559 0 -0.0031685240236568983 0.00048376070956098957 0 -0.0034077973217884997 0.00048672415942677843 0 -0.0032925552584971911 0.00038970197300891183 0 -0.0031685240236568983 0.00048376070956098957 0 -0.0034077973217884997 0.00048672415942677843 0 -0.0033785652837753813 0.00056663703301342678 0 -0.0034077973217884997 0.00048672415942677843 0 -0.0034560955224829742 0.00046074155115282436 0 -0.0032925552584971911 0.00038970197300891183 0 -0.0033785652837753813 0.00056663703301342678 0 -0.003245555452170036 0.00066403891021259436 0 -0.0034829754031261081 0.00081333240931725896 0 -0.0033785652837753813 0.00056663703301342678 0 -0.003609329478034785 0.00049068857100820857 0 -0.0034829754031261081 0.00081333240931725896 0 -0.0034077973217884997 0.00048672415942677843 0 -0.0033785652837753813 0.00056663703301342678 0 -0.003609329478034785 0.00049068857100820857 0 -0.0030559972501466434 0.00061279555685995319 0 -0.0031685240236568983 0.00048376070956098957 0 -0.003245555452170036 0.00066403891021259436 0 -0.0031685240236568983 0.00048376070956098957 0 -0.0033785652837753813 0.00056663703301342678 0 -0.003245555452170036 0.00066403891021259436 0 -0.00020848628820930651 -2.1488272485520078e-09 0 1.5858444377181153e-05 5.5512408187465545e-05 0 -0.0026538082225537095 6.888780165009874e-05 0 -0.0035930144595121209 0.00068559914872949493 0 -0.0035469317437898601 0.00054249134138898173 0 -0.0035090650323496616 0.00045989894143049967 0 -0.0035930144595121209 0.00068559914872949493 0 -0.0035860118145168737 0.0005560396359776523 0 -0.0035469317437898601 0.00054249134138898173 0 -0.0035930144595121209 0.00068559914872949493 0 -0.0035860118145168737 0.0005560396359776523 0 -0.0034716230467272771 0.0004428028795457772 0 -0.0035860118145168737 0.0005560396359776523 0 -0.0035626643805071636 0.00050718111509537561 0 -0.0036810158366747722 0.00044745455136781747 0 -0.0035860118145168737 0.0005560396359776523 0 -0.0035469317437898601 0.00054249134138898173 0 -0.0035626643805071636 0.00050718111509537561 0 -0.0034077973217884997 0.00048672415942677843 0 -0.0034560955224829742 0.00046074155115282436 0 -0.0035626643805071636 0.00050718111509537561 0 -0.0035469317437898601 0.00054249134138898173 0 -0.0034560955224829742 0.00046074155115282436 0 -0.0035626643805071636 0.00050718111509537561 0 -0.0034077973217884997 0.00048672415942677843 0 -0.0035626643805071636 0.00050718111509537561 0 -0.003609329478034785 0.00049068857100820857 0 -0.003609329478034785 0.00049068857100820857 0 -0.0036810158366747722 0.00044745455136781747 0 -0.0040248904082987973 0.00045050503898481101 0 -0.0035626643805071636 0.00050718111509537561 0 -0.003609329478034785 0.00049068857100820857 0 -0.0036810158366747722 0.00044745455136781747 0 -0.00020848628820930651 -2.1488272485520078e-09 0 -0.0026538082225537095 6.888780165009874e-05 0 -0.0028242971593326312 1.4664091624437678e-06 0 -0.0035930144595121209 0.00068559914872949493 0 -0.0034716230467272771 0.0004428028795457772 0 -0.0026538082225537095 6.888780165009874e-05 0 -0.0017169105950195348 0.00020330827137527444 0 -0.0024414719353525391 -3.3160325935555842e-05 0 -0.0035860118145168737 0.0005560396359776523 0 -0.0036810158366747722 0.00044745455136781747 0 -0.0034716230467272771 0.0004428028795457772 0 -0.0036810158366747722 0.00044745455136781747 0 -0.0034716230467272771 0.0004428028795457772 0 -0.0033973515603844383 0.00029945378138582809 0 -0.0036810158366747722 0.00044745455136781747 0 -0.0040248904082987973 0.00045050503898481101 0 -0.0033973515603844383 0.00029945378138582809 0 -0.0033973515603844383 0.00029945378138582809 0 -0.0026538082225537095 6.888780165009874e-05 0 -0.0028242971593326312 1.4664091624437678e-06 0 -0.0040248904082987973 0.00045050503898481101 0 -0.0033973515603844383 0.00029945378138582809 0 -0.0028242971593326312 1.4664091624437678e-06 0 -0.0034716230467272771 0.0004428028795457772 0 -0.0033973515603844383 0.00029945378138582809 0 -0.0026538082225537095 6.888780165009874e-05 0 -0.0028242971593326312 1.4664091624437678e-06 0 -0.0052141807600979678 3.3311878419766634e-05 0 -0.0054358247743802601 -1.3990237950708142e-06 0 -0.0040248904082987973 0.00045050503898481101 0 -0.0028242971593326312 1.4664091624437678e-06 0 -0.0052141807600979678 3.3311878419766634e-05 0 -0.0042285632218132573 0.00052135573914665397 0 -0.0047885219692716261 0.00065366548988409889 0 -0.0040248904082987973 0.00045050503898481101 0 -0.0052141807600979678 3.3311878419766634e-05 0 -0.0063139742828469533 0.00057928814331932815 0 -0.003609329478034785 0.00049068857100820857 0 -0.0040248904082987973 0.00045050503898481101 0 -0.0034829754031261081 0.00081333240931725896 0 -0.0052141807600979678 3.3311878419766634e-05 0 -0.0063139742828469533 0.00057928814331932815 0 -0.0068293846158120324 8.8355472869273228e-05 0 -0.0052141807600979678 3.3311878419766634e-05 0 -0.0068293846158120324 8.8355472869273228e-05 0 -0.0059597829543215275 -0.00035215067333284946 0 -0.0052141807600979678 3.3311878419766634e-05 0 -0.0054358247743802601 -1.3990237950708142e-06 0 -0.0059597829543215275 -0.00035215067333284946 0 -0.0030559972501466434 0.00061279555685995319 0 -0.003245555452170036 0.00066403891021259436 0 -0.0032052566725307798 0.00092224380221301281 0 -0.003245555452170036 0.00066403891021259436 0 -0.0034829754031261081 0.00081333240931725896 0 -0.0032052566725307798 0.00092224380221301281 0 -0.0047885219692716261 0.00065366548988409889 0 -0.0055364984286672622 0.00061343271199539983 0 -0.0063139742828469533 0.00057928814331932815 0 -0.0068293846158120324 8.8355472869273228e-05 0 -0.0070362321468197828 0.0003737666068049652 0 -0.007657640561962155 0.00036402456996365202 0 -0.0055364984286672622 0.00061343271199539983 0 -0.0093307866660803009 0.00011702837371925063 0 -0.008978163011897345 0.00089720408835321697 0 -0.0092772662041571505 -0.00026699105929946449 0 -0.0068293846158120324 8.8355472869273228e-05 0 -0.008978163011897345 0.00089720408835321697 0 -0.0092772662041571505 -0.00026699105929946449 0 -0.0092772662041571505 -0.00026699105929946449 0 -0.0097024223965153835 0.001017969305832136 0 -0.0090992468388491326 0.00015943749809843287 0 -0.009263595361870958 -0.00015412217608221145 0 -0.0088581553969150212 0.00020288901516462955 0 -0.0092772662041571505 -0.00026699105929946449 0 -0.01062411246032288 0.00067117271671054003 0 -0.011662402806643209 0.0011112750988245459 0 -0.0068293846158120324 8.8355472869273228e-05 0 -0.0092772662041571505 -0.00026699105929946449 0 -0.0060465326989475199 -0.00058255383928899429 0 -0.0113503220476213 0.0011008467513881127 0 -0.011662402806643209 0.0011112750988245459 0 -0.011621479718055026 0.00060887200634111925 0 -0.01062411246032288 0.00067117271671054003 0 -0.0113503220476213 0.0011008467513881127 0 -0.011662402806643209 0.0011112750988245459 0 -0.0113503220476213 0.0011008467513881127 0 -0.012377326873798814 0.00069277333249531745 0 -0.01192928471663084 0.00053511667000113517 0 -0.0113503220476213 0.0011008467513881127 0 -0.01192928471663084 0.00053511667000113517 0 -0.011621479718055026 0.00060887200634111925 0 -0.0092772662041571505 -0.00026699105929946449 0 -0.01062411246032288 0.00067117271671054003 0 -0.0097024223965153835 0.001017969305832136 0 -0.011458402728161359 0.0011211740034406381 0 -0.011527538907275191 0.00101078633612889 0 -0.0113503220476213 0.0011008467513881127 0 -0.012377326873798814 0.00069277333249531745 0 -0.013548563290323303 0.0014846016729813238 0 -0.012415252166665329 0.0011471402422855693 0 -0.011527538907275191 0.00101078633612889 0 -0.01062411246032288 0.00067117271671054003 0 -0.0113503220476213 0.0011008467513881127 0 -0.0097024223965153835 0.001017969305832136 0 -0.0054358247743802601 -1.3990237950708142e-06 0 -0.0059597829543215275 -0.00035215067333284946 0 -0.0080438550939694892 6.4329137084158068e-07 0 -0.0068293846158120324 8.8355472869273228e-05 0 -0.0059597829543215275 -0.00035215067333284946 0 -0.0060465326989475199 -0.00058255383928899429 0 -0.011662402806643209 0.0011112750988245459 0 -0.010577957765894224 4.5080967072237118e-05 0 -0.011621479718055026 0.00060887200634111925 0 -0.0059597829543215275 -0.00035215067333284946 0 -0.0060465326989475199 -0.00058255383928899429 0 -0.0080438550939694892 6.4329137084158068e-07 0 -0.0088581553969150212 0.00020288901516462955 0 -0.0080478861837679876 4.7962799669907244e-08 0 -0.011662402806643209 0.0011112750988245459 0 -0.0080532782752198995 3.4999780793898949e-06 0 -0.010577957765894224 4.5080967072237118e-05 0 -0.010577957765894224 4.5080967072237118e-05 0 -0.011439193760590105 -3.5627515006842818e-05 0 -0.010337235893415857 -1.3471850479509593e-06 0 -0.0080532782752198995 3.4999780793898949e-06 0 -0.010577957765894224 4.5080967072237118e-05 0 -0.010337235893415857 -1.3471850479509593e-06 0 -0.010577957765894224 4.5080967072237118e-05 0 -0.011565924448528237 9.3324493006900782e-05 0 -0.011439193760590105 -3.5627515006842818e-05 0 -0.010577957765894224 4.5080967072237118e-05 0 -0.011565924448528237 9.3324493006900782e-05 0 -0.011621479718055026 0.00060887200634111925 0 -0.012972424809404755 -0.00026773603402416882 0 -0.012566360258970902 -0.00024051168638007179 0 -0.012179166104825249 -0.00010486961050982268 0 -0.012566360258970902 -0.00024051168638007179 0 -0.012179166104825249 -0.00010486961050982268 0 -0.011439193760590105 -3.5627515006842818e-05 0 -0.011565924448528237 9.3324493006900782e-05 0 -0.012179166104825249 -0.00010486961050982268 0 -0.011439193760590105 -3.5627515006842818e-05 0 -0.012566360258970902 -0.00024051168638007179 0 -0.011439193760590105 -3.5627515006842818e-05 0 -0.010337235893415857 -1.3471850479509593e-06 0 -0.012548165128072926 0.00026754973498012874 0 -0.013161935242123977 0.00025217051025240301 0 -0.01287181832016113 -9.8973768890984765e-05 0 -0.012377326873798814 0.00069277333249531745 0 -0.012855161857021707 0.00082737865913566958 0 -0.013161935242123977 0.00025217051025240301 0 -0.012377326873798814 0.00069277333249531745 0 -0.012548165128072926 0.00026754973498012874 0 -0.013161935242123977 0.00025217051025240301 0 -0.012548165128072926 0.00026754973498012874 0 -0.01192928471663084 0.00053511667000113517 0 -0.01209528777533418 0.00020556687601283515 0 -0.012377326873798814 0.00069277333249531745 0 -0.012548165128072926 0.00026754973498012874 0 -0.01192928471663084 0.00053511667000113517 0 -0.011565924448528237 9.3324493006900782e-05 0 -0.011621479718055026 0.00060887200634111925 0 -0.01209528777533418 0.00020556687601283515 0 -0.01192928471663084 0.00053511667000113517 0 -0.011621479718055026 0.00060887200634111925 0 -0.01209528777533418 0.00020556687601283515 0 -0.011565924448528237 9.3324493006900782e-05 0 -0.012179166104825249 -0.00010486961050982268 0 -0.01209528777533418 0.00020556687601283515 0 -0.012548165128072926 0.00026754973498012874 0 -0.01209528777533418 0.00020556687601283515 0 -0.01287181832016113 -9.8973768890984765e-05 0 -0.012972424809404755 -0.00026773603402416882 0 -0.012179166104825249 -0.00010486961050982268 0 -0.01287181832016113 -9.8973768890984765e-05 0 -0.012179166104825249 -0.00010486961050982268 0 -0.01209528777533418 0.00020556687601283515 0 -0.01287181832016113 -9.8973768890984765e-05 0 -0.013429701413001705 -0.00033927766780662312 0 -0.012972424809404755 -0.00026773603402416882 0 -0.01287181832016113 -9.8973768890984765e-05 0 -0.013429701413001705 -0.00033927766780662312 0 -0.01287181832016113 -9.8973768890984765e-05 0 -0.013503857896617523 -0.00020772356224209597 0 -0.013161935242123977 0.00025217051025240301 0 -0.01287181832016113 -9.8973768890984765e-05 0 -0.013503857896617523 -0.00020772356224209597 0 -0.013161935242123977 0.00025217051025240301 0 -0.013503857896617523 -0.00020772356224209597 0 -0.013703162619181171 0.00012342841800118886 0 -0.013771870954952354 -0.00016495317396724278 0 -0.013503857896617523 -0.00020772356224209597 0 -0.013703162619181171 0.00012342841800118886 0 -0.013161935242123977 0.00025217051025240301 0 -0.013703162619181171 0.00012342841800118886 0 -0.013676532834139046 0.00053833558000698561 0 -0.013703162619181171 0.00012342841800118886 0 -0.013883967240946701 0.00020006110794541278 0 -0.013676532834139046 0.00053833558000698561 0 -0.013703162619181171 0.00012342841800118886 0 -0.013893702052963353 1.8185678105267409e-05 0 -0.013883967240946701 0.00020006110794541278 0 -0.013771870954952354 -0.00016495317396724278 0 -0.013703162619181171 0.00012342841800118886 0 -0.013893702052963353 1.8185678105267409e-05 0 -0.013893702052963353 1.8185678105267409e-05 0 -0.013905801363923231 0.00012727913160988328 0 -0.013883967240946701 0.00020006110794541278 0 -0.013890096160195882 0.00012457372347346397 0 -0.013890357488772641 0.00014826206756656489 0 -0.013905801363923231 0.00012727913160988328 0 -0.013890096160195882 0.00012457372347346397 0 -0.013893702052963353 1.8185678105267409e-05 0 -0.013905801363923231 0.00012727913160988328 0 -0.013905801363923231 0.00012727913160988328 0 -0.013894795147230734 0.00020138702955719271 0 -0.013883967240946701 0.00020006110794541278 0 -0.013887220689569359 0.00016344364112277408 0 -0.013905801363923231 0.00012727913160988328 0 -0.013894795147230734 0.00020138702955719271 0 -0.013894795147230734 0.00020138702955719271 0 -0.013883967240946701 0.00020006110794541278 0 -0.013885742783154796 0.00029369597680982737 0 -0.0089447787253628726 0.0012105613984356683 0 -0.0087345861737411316 0.00079354183369457945 0 -0.0095055190840964785 0.00090899208777820361 0 -0.013883967240946701 0.00020006110794541278 0 -0.013885742783154796 0.00029369597680982737 0 -0.013676532834139046 0.00053833558000698561 0 -0.013868333297992809 0.000166557042176916 0 -0.013894795147230734 0.00020138702955719271 0 -0.013885742783154796 0.00029369597680982737 0 -0.0079570137182529629 0.0011416509937702214 0 -0.0089447787253628726 0.0012105613984356683 0 -0.0087345861737411316 0.00079354183369457945 0 -0.0088614554869360946 0.00091089598740573866 0 -0.011827278666198891 0.00074068969520927166 0 -0.0088614554869360946 0.00091089598740573866 0 -0.0052422970541897576 0.0011714432869924464 0 -0.0026922807076921219 0.00097109935657853212 0 -0.0026734932244122725 0.0013281695059920967 0 -0.0029979896596187281 0.0011463945787695666 0 -0.0026922807076921219 0.00097109935657853212 0 -0.0030597280028763245 0.00080622044343086436 0 -0.0029979896596187281 0.0011463945787695666 0 -0.0052422970541897576 0.0011714432869924464 0 -0.006419709128476064 0.00061468015168577911 0 -0.0030597280028763245 0.00080622044343086436 0 -0.0029979896596187281 0.0011463945787695666 0 -0.0033922659334438185 0.00098366890279601724 0 -0.0087345861737411316 0.00079354183369457945 0 -0.0095055190840964785 0.00090899208777820361 0 -0.0095580937041623744 0.00040316516622351074 0 -0.0093307866660803009 0.00011702837371925063 0 -0.0091282038836249593 0.00013734215831756008 0 -0.0090992468388491326 0.00015943749809843287 0 -0.006419709128476064 0.00061468015168577911 0 -0.0099912673272630932 0.00064628533756828737 0 -0.0095055190840964785 0.00090899208777820361 0 -0.0095580937041623744 0.00040316516622351074 0 -0.010325674165532657 0.00085838174760842424 0 -0.0093307866660803009 0.00011702837371925063 0 -0.0092772662041571505 -0.00026699105929946449 0 -0.0090992468388491326 0.00015943749809843287 0 -0.012855161857021707 0.00082737865913566958 0 -0.013161935242123977 0.00025217051025240301 0 -0.013676532834139046 0.00053833558000698561 0 -0.011527538907275191 0.00101078633612889 0 -0.0099912673272630932 0.00064628533756828737 0 -0.011527538907275191 0.00101078633612889 0 -0.011819175887190798 0.00091933043594221971 0 -0.011101726103956695 0.0013366979475697581 0 -0.010325674165532657 0.00085838174760842424 0 -0.010001747669011444 0.0012797076002364423 0 -0.0095055190840964785 0.00090899208777820361 0 -0.010325674165532657 0.00085838174760842424 0 -0.010001747669011444 0.0012797076002364423 0 -0.011827278666198891 0.00074068969520927166 0 -0.011819175887190798 0.00091933043594221971 0 -0.0089447787253628726 0.0012105613984356683 0 -0.0095055190840964785 0.00090899208777820361 0 -0.010001747669011444 0.0012797076002364423 0 -0.00028627823811886875 0.0049967163561467423 0 -0.00023045347432354063 0.0046507174588427827 0 -0.00054927137528758849 0.0050972085463614073 0 -0.00028627823811886875 0.0049967163561467423 0 0.00022702978651753926 0.0046259652097860862 0 -0.00023045347432354063 0.0046507174588427827 0 0.00022702978651753926 0.0046259652097860862 0 -0.00042334534256150119 0.0054346712025443028 0 0.0017001385664328868 0.004949505682476138 0 -0.00028627823811886875 0.0049967163561467423 0 0.00022702978651753926 0.0046259652097860862 0 -0.00042334534256150119 0.0054346712025443028 0 0.00022702978651753926 0.0046259652097860862 0 0.00097580690139048825 0.0041269834933360585 0 0.00048339139700028915 0.0039765953703218074 0 0.00097580690139048825 0.0041269834933360585 0 0.00048339139700028915 0.0039765953703218074 0 0.0010651280190514987 0.0035675142857986911 0 0.00048339139700028915 0.0039765953703218074 0 0.00014863492915927459 0.0040589273149631731 0 0.00011420840678079746 0.00434506055892501 0 0.00022702978651753926 0.0046259652097860862 0 0.00048339139700028915 0.0039765953703218074 0 0.00011420840678079746 0.00434506055892501 0 0.00022702978651753926 0.0046259652097860862 0 0.00011420840678079746 0.00434506055892501 0 -0.00023045347432354063 0.0046507174588427827 0 -0.00023045347432354063 0.0046507174588427827 0 -0.00016775542804007009 0.0042881153344110244 0 -0.00084340871110397499 0.0044472934570403766 0 0.00011420840678079746 0.00434506055892501 0 -0.00023045347432354063 0.0046507174588427827 0 -0.00016775542804007009 0.0042881153344110244 0 0.00014863492915927459 0.0040589273149631731 0 -0.00016775542804007009 0.0042881153344110244 0 0.00015939832683568972 0.0036086451182222984 0 0.00014863492915927459 0.0040589273149631731 0 0.00011420840678079746 0.00434506055892501 0 -0.00016775542804007009 0.0042881153344110244 0 -0.00084340871110397499 0.0044472934570403766 0 -0.0013445550310275012 0.0039504153734361966 0 -0.0013425776574618482 0.0049234748731934062 0 -0.00023045347432354063 0.0046507174588427827 0 -0.00084340871110397499 0.0044472934570403766 0 -0.0013425776574618482 0.0049234748731934062 0 -0.00016775542804007009 0.0042881153344110244 0 -0.00065459374763617115 0.0039435762058145458 0 -0.00084340871110397499 0.0044472934570403766 0 -0.00065459374763617115 0.0039435762058145458 0 -0.00084340871110397499 0.0044472934570403766 0 -0.0013445550310275012 0.0039504153734361966 0 -0.0013445550310275012 0.0039504153734361966 0 -0.0013425776574618482 0.0049234748731934062 0 -0.0021628371287683579 0.0043693987275719038 0 -0.0013445550310275012 0.0039504153734361966 0 -0.0019952306459738072 0.0037287729310381411 0 -0.0021628371287683579 0.0043693987275719038 0 -0.0013425776574618482 0.0049234748731934062 0 -0.0025912719610313769 0.0052371014751369334 0 -0.0021628371287683579 0.0043693987275719038 0 -0.00081801384543418547 0.0050202969811543666 0 -0.0025901016627352604 0.0036184952293425096 0 -0.00065528757840684017 0.0049005735579126181 0 -0.00061810205118920244 0.0049899294228604755 0 -0.0006453670380683616 0.0049627161003870414 0 -0.00033024259161960488 0.0046606768195494135 0 -0.00081801384543418547 0.0050202969811543666 0 -0.00023045347432354063 0.0046507174588427827 0 -0.00065528757840684017 0.0049005735579126181 0 -0.00054927137528758849 0.0050972085463614073 0 -0.00065528757840684017 0.0049005735579126181 0 -0.00054927137528758849 0.0050972085463614073 0 -0.00061810205118920244 0.0049899294228604755 0 -0.00054927137528758849 0.0050972085463614073 0 -0.00061810205118920244 0.0049899294228604755 0 -0.00074024867805423536 0.0048661546197068233 0 -0.00061810205118920244 0.0049899294228604755 0 -0.00053485712391673919 0.0048996896502569208 0 -0.0006453670380683616 0.0049627161003870414 0 -0.00053485712391673919 0.0048996896502569208 0 -0.00074024867805423536 0.0048661546197068233 0 -0.0009336761523856741 0.0042710721290320835 0 -0.00061810205118920244 0.0049899294228604755 0 -0.00053485712391673919 0.0048996896502569208 0 -0.00074024867805423536 0.0048661546197068233 0 -0.00054927137528758849 0.0050972085463614073 0 -0.00074024867805423536 0.0048661546197068233 0 -0.00090014479647183192 0.0048497611954402067 0 -0.00054927137528758849 0.0050972085463614073 0 -0.00090014479647183192 0.0048497611954402067 0 -0.00042334534256150119 0.0054346712025443028 0 -0.00028627823811886875 0.0049967163561467423 0 -0.00054927137528758849 0.0050972085463614073 0 -0.00042334534256150119 0.0054346712025443028 0 -0.00090014479647183192 0.0048497611954402067 0 -0.00042334534256150119 0.0054346712025443028 0 -0.0012796327684190634 0.004866889137065491 0 -0.00042334534256150119 0.0054346712025443028 0 -0.0012796327684190634 0.004866889137065491 0 -0.0018723273949572334 0.0051768200781713404 0 -0.0012796327684190634 0.004866889137065491 0 -0.0018723273949572334 0.0051768200781713404 0 -0.002268534060208602 0.0047449253477159625 0 -0.0024885095103828756 0.0051324355291431402 0 -0.0029497884885144412 0.0050320963374061237 0 -0.002268534060208602 0.0047449253477159625 0 -0.0018723273949572334 0.0051768200781713404 0 -0.0024885095103828756 0.0051324355291431402 0 -0.002268534060208602 0.0047449253477159625 0 -0.0024885095103828756 0.0051324355291431402 0 -0.002547761094228444 0.0055594013814291802 0 -0.0028778139810199609 0.0053348292380350909 0 -0.0018723273949572334 0.0051768200781713404 0 -0.0024885095103828756 0.0051324355291431402 0 -0.002547761094228444 0.0055594013814291802 0 -0.0018723273949572334 0.0051768200781713404 0 -0.002547761094228444 0.0055594013814291802 0 -0.0021257226398552313 0.0061948807743789592 0 -0.002547761094228444 0.0055594013814291802 0 -0.0028784478726368986 0.0059185194338453638 0 -0.0021257226398552313 0.0061948807743789592 0 -0.00042334534256150119 0.0054346712025443028 0 -0.0018723273949572334 0.0051768200781713404 0 -0.0021257226398552313 0.0061948807743789592 0 -0.0036389809359817908 0.0053262408885467443 0 -0.0034212314301671062 0.0050133813316445824 0 -0.0038281845558284029 0.0051050296634166841 0 -0.0036389809359817908 0.0053262408885467443 0 -0.0032663077317787487 0.0053394087808631748 0 -0.0034212314301671062 0.0050133813316445824 0 -0.0036389809359817908 0.0053262408885467443 0 -0.0032663077317787487 0.0053394087808631748 0 -0.0035379867302028994 0.0056230398744588923 0 -0.0032663077317787487 0.0053394087808631748 0 -0.0029497884885144412 0.0050320963374061237 0 -0.0034212314301671062 0.0050133813316445824 0 -0.0024885095103828756 0.0051324355291431402 0 -0.0029497884885144412 0.0050320963374061237 0 -0.0028778139810199609 0.0053348292380350909 0 -0.0032663077317787487 0.0053394087808631748 0 -0.0029497884885144412 0.0050320963374061237 0 -0.0028778139810199609 0.0053348292380350909 0 -0.002547761094228444 0.0055594013814291802 0 -0.0028778139810199609 0.0053348292380350909 0 -0.0031024742056987653 0.0056424788022290838 0 -0.002547761094228444 0.0055594013814291802 0 -0.0031024742056987653 0.0056424788022290838 0 -0.0028784478726368986 0.0059185194338453638 0 -0.0031024742056987653 0.0056424788022290838 0 -0.0033329413279959107 0.0059118969053630847 0 -0.0028784478726368986 0.0059185194338453638 0 -0.0032663077317787487 0.0053394087808631748 0 -0.0031024742056987653 0.0056424788022290838 0 -0.0035379867302028994 0.0056230398744588923 0 -0.0032663077317787487 0.0053394087808631748 0 -0.0028778139810199609 0.0053348292380350909 0 -0.0031024742056987653 0.0056424788022290838 0 -0.0031024742056987653 0.0056424788022290838 0 -0.0035379867302028994 0.0056230398744588923 0 -0.0033329413279959107 0.0059118969053630847 0 -0.0035379867302028994 0.0056230398744588923 0 -0.0036596345051397314 0.0058563034213151843 0 -0.0038625309572258657 0.0056778665195082005 0 -0.0035379867302028994 0.0056230398744588923 0 -0.0038625309572258657 0.0056778665195082005 0 -0.0037744642939954057 0.0055315960396779022 0 -0.0036389809359817908 0.0053262408885467443 0 -0.0035379867302028994 0.0056230398744588923 0 -0.0037744642939954057 0.0055315960396779022 0 -0.0037322501501136918 0.0059959573696854703 0 -0.0036596345051397314 0.0058563034213151843 0 -0.0035041020862035814 0.0060746427783669159 0 -0.0036596345051397314 0.0058563034213151843 0 -0.0033329413279959107 0.0059118969053630847 0 -0.0035041020862035814 0.0060746427783669159 0 -0.0035379867302028994 0.0056230398744588923 0 -0.0036596345051397314 0.0058563034213151843 0 -0.0033329413279959107 0.0059118969053630847 0 -0.0033329413279959107 0.0059118969053630847 0 -0.0035041020862035814 0.0060746427783669159 0 -0.0032260466151419333 0.006260929807096873 0 -0.0033329413279959107 0.0059118969053630847 0 -0.0028784478726368986 0.0059185194338453638 0 -0.0032260466151419333 0.006260929807096873 0 0.0023669903231930047 0.0041470105439506263 0 0.0026165947774948743 0.0042925367881616987 0 0.002103069990331398 0.0043388701095467839 0 0.0023669903231930047 0.0041470105439506263 0 0.0025763304391589674 0.0042758252277428762 0 0.0024348397018376946 0.0038166624334628014 0 0.0023669903231930047 0.0041470105439506263 0 0.0025763304391589674 0.0042758252277428762 0 0.0026165947774948743 0.0042925367881616987 0 -0.0035041020862035814 0.0060746427783669159 0 -0.0032260466151419333 0.006260929807096873 0 -0.0039589037901230258 0.0060876604104011037 0 -0.0037322501501136918 0.0059959573696854703 0 -0.0035041020862035814 0.0060746427783669159 0 -0.0039589037901230258 0.0060876604104011037 0 0.0026165947774948743 0.0042925367881616987 0 0.0022506426103453795 0.0044756496598869809 0 0.0019388992079508829 0.0042988580477577318 0 0.0026155813002351268 0.0042549666548209429 0 0.0026177933041375708 0.004262267951925457 0 0.0025763304391589674 0.0042758252277428762 0 0.0026165947774948743 0.0042925367881616987 0 0.0022506426103453795 0.0044756496598869809 0 -0.00028631490312311836 0.0052668611503576919 0 -0.0011054444564918568 0.005277095443277177 0 0.00022702978651753926 0.0046259652097860862 0 0.00097580690139048825 0.0041269834933360585 0 0.0017001385664328868 0.004949505682476138 0 -0.00038403175082726501 0.0054662025259812974 0 -0.00023035274650173133 0.0055304417817091467 0 0.0026165947774948743 0.0042925367881616987 0 0.0017001385664328868 0.004949505682476138 0 0.002103069990331398 0.0043388701095467839 0 -0.0028784478726368986 0.0059185194338453638 0 -0.0032260466151419333 0.006260929807096873 0 -0.0021257226398552313 0.0061948807743789592 0 -0.00028631490312311836 0.0052668611503576919 0 -0.00023035274650173133 0.0055304417817091467 0 0.002103069990331398 0.0043388701095467839 0 0.0015572322854223363 0.0038944235769036825 0 0.0020219844128672101 0.0037773077626081686 0 0.0017001385664328868 0.004949505682476138 0 0.002103069990331398 0.0043388701095467839 0 0.0015572322854223363 0.0038944235769036825 0 0.0023669903231930047 0.0041470105439506263 0 0.002103069990331398 0.0043388701095467839 0 0.0020219844128672101 0.0037773077626081686 0 0.00097580690139048825 0.0041269834933360585 0 0.0017001385664328868 0.004949505682476138 0 0.0015572322854223363 0.0038944235769036825 0 0.0015918441942225365 0.0035316622894403997 0 0.0015572322854223363 0.0038944235769036825 0 0.0010651280190514987 0.0035675142857986911 0 0.00097580690139048825 0.0041269834933360585 0 0.0015572322854223363 0.0038944235769036825 0 0.0010651280190514987 0.0035675142857986911 0 0.0015918441942225365 0.0035316622894403997 0 0.0015613005300387133 0.0032466016503449619 0 0.0010651280190514987 0.0035675142857986911 0 0.0015918441942225365 0.0035316622894403997 0 0.0020219844128672101 0.0037773077626081686 0 0.0019310524079501632 0.0033686648649686223 0 0.0015918441942225365 0.0035316622894403997 0 0.0015572322854223363 0.0038944235769036825 0 0.0020219844128672101 0.0037773077626081686 0 0.0023669903231930047 0.0041470105439506263 0 0.0020219844128672101 0.0037773077626081686 0 0.0024348397018376946 0.0038166624334628014 0 0.0020219844128672101 0.0037773077626081686 0 0.0022660438681423502 0.0035476307385003936 0 0.0024348397018376946 0.0038166624334628014 0 0.0020219844128672101 0.0037773077626081686 0 0.0022660438681423502 0.0035476307385003936 0 0.0019310524079501632 0.0033686648649686223 0 0.0022878826470078936 0.0032227965600977754 0 0.0018749158613863561 0.0030978601484289974 0 0.0019310524079501632 0.0033686648649686223 0 0.0022660438681423502 0.0035476307385003936 0 0.0022878826470078936 0.0032227965600977754 0 0.0019310524079501632 0.0033686648649686223 0 0.0018749158613863561 0.0030978601484289974 0 0.0015613005300387133 0.0032466016503449619 0 0.0015943824284903785 0.0029541287600314756 0 0.0018749158613863561 0.0030978601484289974 0 0.0015613005300387133 0.0032466016503449619 0 0.0019310524079501632 0.0033686648649686223 0 0.0015918441942225365 0.0035316622894403997 0 0.0015613005300387133 0.0032466016503449619 0 0.0019310524079501632 0.0033686648649686223 0 0.0025763304391589674 0.0042758252277428762 0 0.0031449073712142036 0.0039483309614625978 0 0.0027653250792090888 0.0038797827886372952 0 0.0031554093783000572 0.0035748711816666473 0 0.0031449073712142036 0.0039483309614625978 0 0.0027653250792090888 0.0038797827886372952 0 0.0031554093783000572 0.0035748711816666473 0 0.0027653250792090888 0.0038797827886372952 0 0.0026986203436327968 0.0034768334843854436 0 0.0027653250792090888 0.0038797827886372952 0 0.0024348397018376946 0.0038166624334628014 0 0.0026986203436327968 0.0034768334843854436 0 0.0025763304391589674 0.0042758252277428762 0 0.0027653250792090888 0.0038797827886372952 0 0.0024348397018376946 0.0038166624334628014 0 0.0022660438681423502 0.0035476307385003936 0 0.0024348397018376946 0.0038166624334628014 0 0.0026986203436327968 0.0034768334843854436 0 0.0022660438681423502 0.0035476307385003936 0 0.0022878826470078936 0.0032227965600977754 0 0.0026986203436327968 0.0034768334843854436 0 0.0022878826470078936 0.0032227965600977754 0 0.0026986203436327968 0.0034768334843854436 0 0.0027092845153580685 0.0031565947950042764 0 0.0026986203436327968 0.0034768334843854436 0 0.0029390284007139605 0.0033243583061858765 0 0.0027092845153580685 0.0031565947950042764 0 0.0030540136033545191 0.0035154587678805386 0 0.0026986203436327968 0.0034768334843854436 0 0.0029390284007139605 0.0033243583061858765 0 0.0031419701513021375 0.003568933212137246 0 0.0027369258741355858 0.0034798729320784372 0 0.0029390284007139605 0.0033243583061858765 0 0.0030313180806185811 0.0031254343440777228 0 0.0031879841571239836 0.0033076426508446702 0 0.0030540136033545191 0.0035154587678805386 0 0.0029390284007139605 0.0033243583061858765 0 0.0031879841571239836 0.0033076426508446702 0 0.0030313180806185811 0.0031254343440777228 0 0.0027092845153580685 0.0031565947950042764 0 0.0029207942029175452 0.0029138191762991105 0 0.0030313180806185811 0.0031254343440777228 0 0.0029207942029175452 0.0029138191762991105 0 0.0032073676623025726 0.002917096749506761 0 0.0029390284007139605 0.0033243583061858765 0 0.0030313180806185811 0.0031254343440777228 0 0.0027092845153580685 0.0031565947950042764 0 0.0022878826470078936 0.0032227965600977754 0 0.0027092845153580685 0.0031565947950042764 0 0.0025329778599767474 0.0029223413746708436 0 0.0027092845153580685 0.0031565947950042764 0 0.0025329778599767474 0.0029223413746708436 0 0.0029207942029175452 0.0029138191762991105 0 0.0025329778599767474 0.0029223413746708436 0 0.0028334810771767529 0.0027182897318563369 0 0.0025274592855565291 0.0026911257575076772 0 0.0025329778599767474 0.0029223413746708436 0 0.0029207942029175452 0.0029138191762991105 0 0.0028334810771767529 0.0027182897318563369 0 0.0029207942029175452 0.0029138191762991105 0 0.0032035685122026791 0.0027426068142522232 0 0.0028334810771767529 0.0027182897318563369 0 0.0029207942029175452 0.0029138191762991105 0 0.0032073676623025726 0.002917096749506761 0 0.0032035685122026791 0.0027426068142522232 0 0.0018749158613863561 0.0030978601484289974 0 0.0019397595305782694 0.0028195983434959691 0 0.0021770017157070414 0.0029552554410351116 0 0.0018749158613863561 0.0030978601484289974 0 0.0019397595305782694 0.0028195983434959691 0 0.0015943824284903785 0.0029541287600314756 0 0.0022878826470078936 0.0032227965600977754 0 0.0025329778599767474 0.0029223413746708436 0 0.0021770017157070414 0.0029552554410351116 0 0.0022878826470078936 0.0032227965600977754 0 0.0018749158613863561 0.0030978601484289974 0 0.0021770017157070414 0.0029552554410351116 0 0.0025329778599767474 0.0029223413746708436 0 0.0022707899671958643 0.0027848331667778624 0 0.0025274592855565291 0.0026911257575076772 0 0.0022707899671958643 0.0027848331667778624 0 0.0025274592855565291 0.0026911257575076772 0 0.0021777626855136599 0.0025975499483436976 0 0.0025329778599767474 0.0029223413746708436 0 0.0021770017157070414 0.0029552554410351116 0 0.0022707899671958643 0.0027848331667778624 0 0.0019397595305782694 0.0028195983434959691 0 0.0022707899671958643 0.0027848331667778624 0 0.0021777626855136599 0.0025975499483436976 0 0.0019397595305782694 0.0028195983434959691 0 0.0018826898162205656 0.0026829193145425393 0 0.0021777626855136599 0.0025975499483436976 0 0.0019397595305782694 0.0028195983434959691 0 0.0021770017157070414 0.0029552554410351116 0 0.0022707899671958643 0.0027848331667778624 0 0.0018826898162205656 0.0026829193145425393 0 0.0017836332180248514 0.0026254210582836168 0 0.0019628734151362834 0.0025189858714257168 0 0.0018826898162205656 0.0026829193145425393 0 0.0017674660339994826 0.0028071697768985923 0 0.0016731815668460533 0.0027755585946006218 0 0.0018826898162205656 0.0026829193145425393 0 0.0017836332180248514 0.0026254210582836168 0 0.0016731815668460533 0.0027755585946006218 0 0.0019397595305782694 0.0028195983434959691 0 0.0018826898162205656 0.0026829193145425393 0 0.0017674660339994826 0.0028071697768985923 0 0.0017120501072080889 0.0026207699212175703 0 0.0017836332180248514 0.0026254210582836168 0 0.0019033129158177945 0.0024412343671507668 0 0.0017836332180248514 0.0026254210582836168 0 0.0016057049213530229 0.0027461858788018273 0 0.0016731815668460533 0.0027755585946006218 0 0.0017120501072080889 0.0026207699212175703 0 0.0017836332180248514 0.0026254210582836168 0 0.0016057049213530229 0.0027461858788018273 0 0.0017120501072080889 0.0026207699212175703 0 0.0016057049213530229 0.0027461858788018273 0 0.0015866429504401178 0.0027213734938368998 0 0.0016057049213530229 0.0027461858788018273 0 0.0014964935210027342 0.0028624775510772364 0 0.0014511488934976704 0.0028651308555031839 0 0.0016057049213530229 0.0027461858788018273 0 0.0014511488934976704 0.0028651308555031839 0 0.0015866429504401178 0.0027213734938368998 0 0.0016057049213530229 0.0027461858788018273 0 0.0014964935210027342 0.0028624775510772364 0 0.0016731815668460533 0.0027755585946006218 0 0.0014964935210027342 0.0028624775510772364 0 0.0014511488934976704 0.0028651308555031839 0 0.0013297604511845462 0.0029889664403770846 0 0.0014511488934976704 0.0028651308555031839 0 0.0013297604511845462 0.0029889664403770846 0 0.00128723047468044 0.0029869020674377815 0 0.0019397595305782694 0.0028195983434959691 0 0.0017674660339994826 0.0028071697768985923 0 0.0015943824284903785 0.0029541287600314756 0 0.0017674660339994826 0.0028071697768985923 0 0.0016731815668460533 0.0027755585946006218 0 0.0015943824284903785 0.0029541287600314756 0 0.0014964935210027342 0.0028624775510772364 0 0.0016731815668460533 0.0027755585946006218 0 0.0015943824284903785 0.0029541287600314756 0 0.0014964935210027342 0.0028624775510772364 0 0.0015943824284903785 0.0029541287600314756 0 0.0013297604511845462 0.0029889664403770846 0 0.0015613005300387133 0.0032466016503449619 0 0.0015943824284903785 0.0029541287600314756 0 0.001302227295572742 0.0031728688502090847 0 0.0015613005300387133 0.0032466016503449619 0 0.001302227295572742 0.0031728688502090847 0 0.0010651280190514987 0.0035675142857986911 0 0.001302227295572742 0.0031728688502090847 0 0.0010361082682171815 0.0031642138425595928 0 0.0010651280190514987 0.0035675142857986911 0 0.0015943824284903785 0.0029541287600314756 0 0.001302227295572742 0.0031728688502090847 0 0.0013297604511845462 0.0029889664403770846 0 0.001302227295572742 0.0031728688502090847 0 0.0013297604511845462 0.0029889664403770846 0 0.0010361082682171815 0.0031642138425595928 0 0.0013297604511845462 0.0029889664403770846 0 0.001155887323721404 0.0030555733268589598 0 0.0010361082682171815 0.0031642138425595928 0 0.0013297604511845462 0.0029889664403770846 0 0.00128723047468044 0.0029869020674377815 0 0.001155887323721404 0.0030555733268589598 0 0.00128723047468044 0.0029869020674377815 0 0.001155887323721404 0.0030555733268589598 0 0.001200446534632455 0.0030398223505929225 0 0.00097742475042730207 0.0031139737925265179 0 0.00059819527882618766 0.0033668288053244409 0 0.0010131543887055251 0.0030786495950969497 0 0.001200446534632455 0.0030398223505929225 0 0.00097742475042730207 0.0031139737925265179 0 0.0012201548381970122 0.0029793105271061293 0 0.001155887323721404 0.0030555733268589598 0 0.001200446534632455 0.0030398223505929225 0 0.00097742475042730207 0.0031139737925265179 0 0.00093837279686333837 0.0028991795350781003 0 0.00057149281683405216 0.0028321393100392265 0 0.001155887323721404 0.0030555733268589598 0 0.00097742475042730207 0.0031139737925265179 0 0.0010361082682171815 0.0031642138425595928 0 0.00097742475042730207 0.0031139737925265179 0 0.0010361082682171815 0.0031642138425595928 0 0.00059819527882618766 0.0033668288053244409 0 0.0010361082682171815 0.0031642138425595928 0 0.00059819527882618766 0.0033668288053244409 0 0.0010651280190514987 0.0035675142857986911 0 -0.00016775542804007009 0.0042881153344110244 0 0.00015939832683568972 0.0036086451182222984 0 -0.00029626236900600115 0.0029275206800224904 0 0.00068497410521966336 0.0032729510620983743 0 0.00057149281683405216 0.0028321393100392265 0 0.00059819527882618766 0.0033668288053244409 0 0.00015939832683568972 0.0036086451182222984 0 -7.8982724868684198e-05 0.0029044689428285976 0 0.00048339139700028915 0.0039765953703218074 0 0.00014863492915927459 0.0040589273149631731 0 0.00015939832683568972 0.0036086451182222984 0 0.00048339139700028915 0.0039765953703218074 0 0.00059819527882618766 0.0033668288053244409 0 0.00015939832683568972 0.0036086451182222984 0 0.00048339139700028915 0.0039765953703218074 0 0.00059819527882618766 0.0033668288053244409 0 0.0010651280190514987 0.0035675142857986911 0 -0.0013445550310275012 0.0039504153734361966 0 -0.0010707437483973364 0.0034133068297375669 0 -0.0018788369556343855 0.0029462800222148271 0 -0.0013445550310275012 0.0039504153734361966 0 -0.0019952306459738072 0.0037287729310381411 0 -0.0018788369556343855 0.0029462800222148271 0 -0.00065459374763617115 0.0039435762058145458 0 -0.0010707437483973364 0.0034133068297375669 0 -0.00071834907446528362 0.0028353841612977796 0 -0.0010707437483973364 0.0034133068297375669 0 -0.00071834907446528362 0.0028353841612977796 0 -0.0018788369556343855 0.0029462800222148271 0 -0.00021879192957530966 0.0043379681186532584 0 -0.00019910518224758498 0.0025773462686276487 0 -0.00016775542804007009 0.0042881153344110244 0 -0.00065459374763617115 0.0039435762058145458 0 -0.00071834907446528362 0.0028353841612977796 0 -0.00065459374763617115 0.0039435762058145458 0 -0.0013445550310275012 0.0039504153734361966 0 -0.0010707437483973364 0.0034133068297375669 0 0.00015939832683568972 0.0036086451182222984 0 -7.8982724868684198e-05 0.0029044689428285976 0 -0.00029626236900600115 0.0029275206800224904 0 -0.00043529606251151089 0.0014694235046870045 0 -0.00043083316918709477 0.0014784877612835277 0 -0.00039368477334276628 0.0014603317477806961 0 0.001200446534632455 0.0030398223505929225 0 0.0012201548381970122 0.0029793105271061293 0 0.0013170398458036705 0.0029923862425310544 0 0.00057149281683405216 0.0028321393100392265 0 -0.00019910518224758498 0.0025773462686276487 0 0.00057149281683405216 0.0028321393100392265 0 0.00017859383773095413 0.0023194834673147644 0 -0.00019910518224758498 0.0025773462686276487 0 0.00017859383773095413 0.0023194834673147644 0 0.00025546621985510399 0.00256306549666608 0 0.00015547884198463833 0.0025720485108835034 0 0.00010510997059102677 0.002444587187666894 0 0.00128723047468044 0.0029869020674377815 0 0.001200446534632455 0.0030398223505929225 0 0.0013170398458036705 0.0029923862425310544 0 0.00128723047468044 0.0029869020674377815 0 0.0013170398458036705 0.0029923862425310544 0 0.0013768395098091766 0.0029244802482927654 0 -0.00043083316918709477 0.0014784877612835277 0 -0.00039368477334276628 0.0014603317477806961 0 -0.0003751157036266767 0.0014655232625242734 0 -0.00019910518224758498 0.0025773462686276487 0 -0.0012246507545917375 0.0022149263377993296 0 0.00017859383773095413 0.0023194834673147644 0 -0.0002824181729371359 0.0016051452635872396 0 -0.00043083316918709477 0.0014784877612835277 0 -0.00040019810577546368 0.0015174631178276215 0 -0.0003751157036266767 0.0014655232625242734 0 0.0002601858762555975 0.0021227497187274137 0 -1.8111573767451929e-05 0.0018962110983881742 0 0.00013449256661777481 0.0018130426400367505 0 0.00017859383773095413 0.0023194834673147644 0 0.0015442780247255303 0.0022642686165834374 0 0.0013170398458036705 0.0029923862425310544 0 0.0014677694851846943 0.0028231339940238969 0 0.0015593122562791405 0.0026570063746529891 0 0.0013170398458036705 0.0029923862425310544 0 0.0013768395098091766 0.0029244802482927654 0 0.0014677694851846943 0.0028231339940238969 0 0.0014511488934976704 0.0028651308555031839 0 0.0013768395098091766 0.0029244802482927654 0 0.0014677694851846943 0.0028231339940238969 0 0.0014511488934976704 0.0028651308555031839 0 0.00128723047468044 0.0029869020674377815 0 0.0013768395098091766 0.0029244802482927654 0 0.0014677694851846943 0.0028231339940238969 0 0.0015608291697778161 0.0026906888462595526 0 0.0015593122562791405 0.0026570063746529891 0 0.0014677694851846943 0.0028231339940238969 0 0.0015608291697778161 0.0026906888462595526 0 0.0015866429504401178 0.0027213734938368998 0 0.0014511488934976704 0.0028651308555031839 0 0.0014677694851846943 0.0028231339940238969 0 0.0015866429504401178 0.0027213734938368998 0 0.0017129007456348452 0.0025748317880934742 0 0.0016227772424155359 0.002620354720702977 0 0.001897657675618682 0.0024176333970124426 0 0.0017120501072080889 0.0026207699212175703 0 0.0015866429504401178 0.0027213734938368998 0 0.0017129007456348452 0.0025748317880934742 0 0.0015608291697778161 0.0026906888462595526 0 0.0015866429504401178 0.0027213734938368998 0 0.0017129007456348452 0.0025748317880934742 0 0.0015608291697778161 0.0026906888462595526 0 0.0017129007456348452 0.0025748317880934742 0 0.0016227772424155359 0.002620354720702977 0 0.0017120501072080889 0.0026207699212175703 0 0.0017129007456348452 0.0025748317880934742 0 0.0019033129158177945 0.0024412343671507668 0 -1.8111573767451929e-05 0.0018962110983881742 0 0.00013449256661777481 0.0018130426400367505 0 -8.508018374883885e-05 0.0017062666488115385 0 0.0026334625757646266 0.0021533309719841678 0 0.0027283115603133549 0.0022022076586678463 0 0.00271590533982311 0.0022637545649804819 0 0.0015442780247255303 0.0022642686165834374 0 0.0012828487267807131 0.0019247006584856515 0 0.0016393471699313648 0.0024129412330270356 0 0.0015442780247255303 0.0022642686165834374 0 -0.00040019810577546368 0.0015174631178276215 0 -0.00022753909074553472 0.0015962604413664405 0 -0.00019925581004620014 0.0017048835570952563 0 -0.0002824181729371359 0.0016051452635872396 0 -0.00016194280810799479 0.0017474851267660248 0 -1.8111573767451929e-05 0.0018962110983881742 0 -8.508018374883885e-05 0.0017062666488115385 0 -0.00019925581004620014 0.0017048835570952563 0 -0.00040019810577546368 0.0015174631178276215 0 -0.00034009308630092411 0.0014929511221356228 0 -0.0002816760270163764 0.0015262090964346035 0 -0.00040019810577546368 0.0015174631178276215 0 -0.0002816760270163764 0.0015262090964346035 0 -0.00022753909074553472 0.0015962604413664405 0 -0.00034009308630092411 0.0014929511221356228 0 -0.0003751157036266767 0.0014655232625242734 0 -0.00029599501939823168 0.0014608233413319523 0 -0.00034009308630092411 0.0014929511221356228 0 -0.0002816760270163764 0.0015262090964346035 0 -0.00029599501939823168 0.0014608233413319523 0 -0.00040019810577546368 0.0015174631178276215 0 -0.00034009308630092411 0.0014929511221356228 0 -0.0003751157036266767 0.0014655232625242734 0 -0.00023180511806674537 0.0014761013132139854 0 -0.00016529256425169625 0.0014751464113228381 0 -0.000202510694621713 0.001441539119004003 0 -0.00023180511806674537 0.0014761013132139854 0 -0.00024100514485938894 0.0014343074577750903 0 -0.000202510694621713 0.001441539119004003 0 -0.00023180511806674537 0.0014761013132139854 0 -0.0002816760270163764 0.0015262090964346035 0 -0.00029599501939823168 0.0014608233413319523 0 -0.00023180511806674537 0.0014761013132139854 0 -0.00029599501939823168 0.0014608233413319523 0 -0.00024100514485938894 0.0014343074577750903 0 -0.0002816760270163764 0.0015262090964346035 0 -0.00021100602276262606 0.0015324499255123911 0 -0.00022753909074553472 0.0015962604413664405 0 -0.00023180511806674537 0.0014761013132139854 0 -0.0002816760270163764 0.0015262090964346035 0 -0.00021100602276262606 0.0015324499255123911 0 -0.00021100602276262606 0.0015324499255123911 0 -0.00016230306997630772 0.0015843640739339737 0 -0.00022753909074553472 0.0015962604413664405 0 -0.00023180511806674537 0.0014761013132139854 0 -0.00021100602276262606 0.0015324499255123911 0 -0.00016529256425169625 0.0014751464113228381 0 -0.00021100602276262606 0.0015324499255123911 0 -0.00016529256425169625 0.0014751464113228381 0 -0.00016230306997630772 0.0015843640739339737 0 -0.00022753909074553472 0.0015962604413664405 0 -0.00019925581004620014 0.0017048835570952563 0 -0.00014804179710366187 0.0016536514877432159 0 -0.00016230306997630772 0.0015843640739339737 0 -0.00022753909074553472 0.0015962604413664405 0 -0.00014804179710366187 0.0016536514877432159 0 -0.00019925581004620014 0.0017048835570952563 0 -0.00014804179710366187 0.0016536514877432159 0 -8.7067686911765843e-05 0.0016825341564750483 0 -7.4331291462427859e-05 0.0016131485379515804 0 1.6366486364367182e-05 0.0016986132203356979 0 -0.00016230306997630772 0.0015843640739339737 0 -8.7067686911765843e-05 0.0016825341564750483 0 5.1845228756132102e-05 0.0016113447594310662 0 -0.00016230306997630772 0.0015843640739339737 0 0.00028174281349285611 0.0018070158890426101 0 4.4324445964013214e-05 0.0015315951023709296 0 -8.7067686911765843e-05 0.0016825341564750483 0 5.1845228756132102e-05 0.0016113447594310662 0 -1.0808381529596093e-05 0.0017618195338037254 0 0.00028174281349285611 0.0018070158890426101 0 0.00024266964862166836 0.0015044298427541432 0 4.4324445964013214e-05 0.0015315951023709296 0 -0.00016230306997630772 0.0015843640739339737 0 -0.00014804179710366187 0.0016536514877432159 0 -8.7067686911765843e-05 0.0016825341564750483 0 0.00028174281349285611 0.0018070158890426101 0 0.00086313198871632783 0.0020688904512212512 0 0.00070889496217355281 0.001643694489354885 0 1.6366486364367182e-05 0.0016986132203356979 0 0.0015194443283124163 0.0014095600007802596 0 5.1845228756132102e-05 0.0016113447594310662 0 0.00028096546908101637 0.0016749967969288376 0 0.00013460213579987357 0.0017907504700815796 0 0.00028174281349285611 0.0018070158890426101 0 0.00043971300201187401 0.0014885843203580997 0 0.00070889496217355281 0.001643694489354885 0 0.00043971300201187401 0.0014885843203580997 0 0.00070889496217355281 0.001643694489354885 0 0.00070646877713484901 0.0013369351616538835 0 0.00028174281349285611 0.0018070158890426101 0 0.00043971300201187401 0.0014885843203580997 0 0.00024266964862166836 0.0015044298427541432 0 0.00043971300201187401 0.0014885843203580997 0 0.00024266964862166836 0.0015044298427541432 0 0.00031767702884747344 0.0013212424227732587 0 0.00043971300201187401 0.0014885843203580997 0 0.00031767702884747344 0.0013212424227732587 0 0.00050171746554840348 0.0012292082463521003 0 0.00031767702884747344 0.0013212424227732587 0 0.0001930359425059046 0.0011464867944393415 0 0.0003622509808312972 0.0011311320582772224 0 0.00031767702884747344 0.0013212424227732587 0 0.00050171746554840348 0.0012292082463521003 0 0.0003622509808312972 0.0011311320582772224 0 0.00050171746554840348 0.0012292082463521003 0 0.00065245854082942537 0.0011063746759346767 0 0.00070646877713484901 0.0013369351616538835 0 0.00043971300201187401 0.0014885843203580997 0 0.00050171746554840348 0.0012292082463521003 0 0.00070646877713484901 0.0013369351616538835 0 -0.00016529256425169625 0.0014751464113228381 0 1.0614397239337502e-05 0.0014142346623404168 0 4.4324445964013214e-05 0.0015315951023709296 0 -0.00016529256425169625 0.0014751464113228381 0 -0.00016230306997630772 0.0015843640739339737 0 4.4324445964013214e-05 0.0015315951023709296 0 0.00024266964862166836 0.0015044298427541432 0 4.4324445964013214e-05 0.0015315951023709296 0 0.00013890062957961494 0.0013724531138864886 0 0.00024266964862166836 0.0015044298427541432 0 0.00031767702884747344 0.0013212424227732587 0 0.00013890062957961494 0.0013724531138864886 0 1.0614397239337502e-05 0.0014142346623404168 0 4.4324445964013214e-05 0.0015315951023709296 0 0.00013890062957961494 0.0013724531138864886 0 1.0614397239337502e-05 0.0014142346623404168 0 0.00013890062957961494 0.0013724531138864886 0 2.4870561417762476e-05 0.0012748592494916974 0 0.00031767702884747344 0.0013212424227732587 0 0.00013890062957961494 0.0013724531138864886 0 0.0001930359425059046 0.0011464867944393415 0 0.00013890062957961494 0.0013724531138864886 0 2.4870561417762476e-05 0.0012748592494916974 0 0.0001930359425059046 0.0011464867944393415 0 -0.00018771434976376411 0.0014711841600741863 0 -8.6480820949911768e-05 0.0010889767557102428 0 -0.00016529256425169625 0.0014751464113228381 0 2.4870561417762476e-05 0.0012748592494916974 0 -7.1879838239261796e-06 0.0010220619050887519 0 -0.00016529256425169625 0.0014751464113228381 0 -0.00019819527081072364 0.0014166108143000944 0 -0.000202510694621713 0.001441539119004003 0 -0.00016529256425169625 0.0014751464113228381 0 1.0614397239337502e-05 0.0014142346623404168 0 2.4870561417762476e-05 0.0012748592494916974 0 -0.00019819527081072364 0.0014166108143000944 0 -0.000202510694621713 0.001441539119004003 0 -0.00021312499458021194 0.0014164384294713854 0 -0.00019819527081072364 0.0014166108143000944 0 -0.00021084906488408743 0.0013987550247211425 0 -0.00021312499458021194 0.0014164384294713854 0 -7.1879838239261796e-06 0.0010220619050887519 0 0.0001930359425059046 0.0011464867944393415 0 0.0002067144301482685 0.00089802118262641631 0 2.4870561417762476e-05 0.0012748592494916974 0 -7.1879838239261796e-06 0.0010220619050887519 0 0.0001930359425059046 0.0011464867944393415 0 -7.1879838239261796e-06 0.0010220619050887519 0 0.0002067144301482685 0.00089802118262641631 0 0.00020557117974690222 0.00063365588292834101 0 -0.00019819527081072364 0.0014166108143000944 0 -0.00021084906488408743 0.0013987550247211425 0 -0.00020468439208795936 0.0013770332443837885 0 -8.6480820949911768e-05 0.0010889767557102428 0 -0.0021478950593371042 0.00089065632014605288 0 -0.00021084906488408743 0.0013987550247211425 0 -0.00021312499458021194 0.0014164384294713854 0 -0.00023277714059597785 0.0013946147330847181 0 -0.00021084906488408743 0.0013987550247211425 0 -0.00022416528287481363 0.0013653988108900813 0 -0.00023277714059597785 0.0013946147330847181 0 -0.0010686773106397458 0.0018214486462875728 0 -0.0023479178160530673 0.0012502853272784032 0 0.00065245854082942537 0.0011063746759346767 0 0.00047463032340196474 0.0010371834869892247 0 0.00057124522927760077 0.00092551020012555528 0 0.00050171746554840348 0.0012292082463521003 0 0.00065245854082942537 0.0011063746759346767 0 0.00047463032340196474 0.0010371834869892247 0 0.0001930359425059046 0.0011464867944393415 0 0.0002067144301482685 0.00089802118262641631 0 0.00032538318829088576 0.00096793750257057379 0 0.00047463032340196474 0.0010371834869892247 0 0.00032538318829088576 0.00096793750257057379 0 0.00042582215654727456 0.00086087818873387676 0 0.00047463032340196474 0.0010371834869892247 0 0.0003622509808312972 0.0011311320582772224 0 0.00032538318829088576 0.00096793750257057379 0 0.00050171746554840348 0.0012292082463521003 0 0.00047463032340196474 0.0010371834869892247 0 0.0003622509808312972 0.0011311320582772224 0 0.0001930359425059046 0.0011464867944393415 0 0.0003622509808312972 0.0011311320582772224 0 0.00032538318829088576 0.00096793750257057379 0 0.0002067144301482685 0.00089802118262641631 0 0.0003206333389298813 0.00077338084740892585 0 0.00020557117974690222 0.00063365588292834101 0 0.0002067144301482685 0.00089802118262641631 0 0.00032538318829088576 0.00096793750257057379 0 0.0003206333389298813 0.00077338084740892585 0 0.0003206333389298813 0.00077338084740892585 0 0.00042582215654727456 0.00086087818873387676 0 0.00045004182323911651 0.00067611181506952627 0 0.00032538318829088576 0.00096793750257057379 0 0.0003206333389298813 0.00077338084740892585 0 0.00042582215654727456 0.00086087818873387676 0 0.00042582215654727456 0.00086087818873387676 0 0.00057124522927760077 0.00092551020012555528 0 0.00045004182323911651 0.00067611181506952627 0 0.00057124522927760077 0.00092551020012555528 0 0.00045004182323911651 0.00067611181506952627 0 0.00078151440037083964 0.0009766413424743786 0 0.00047463032340196474 0.0010371834869892247 0 0.00042582215654727456 0.00086087818873387676 0 0.00057124522927760077 0.00092551020012555528 0 -0.003623376106430811 0.00046303447032183305 0 -0.0037413077076784329 0.00075276996973021673 0 -0.0034854572103934279 0.00089222364373043889 0 -0.003623376106430811 0.00046303447032183305 0 -0.0032428470524729783 0.00042896103881251587 0 -0.0034854572103934279 0.00089222364373043889 0 -0.0021478950593371042 0.00089065632014605288 0 -0.0046093956554712108 0.001170344567604347 0 0.00049864823347534157 0.00063544580826309436 0 0.00045004182323911651 0.00067611181506952627 0 0.00020557117974690222 0.00063365588292834101 0 -0.0014143889703984965 0.0005532589444975489 0 -0.0021478950593371042 0.00089065632014605288 0 0.0003206333389298813 0.00077338084740892585 0 0.00045004182323911651 0.00067611181506952627 0 0.00020557117974690222 0.00063365588292834101 0 -0.0051533823710352136 0.00058281898208447931 0 -0.0049601179680687562 0.00099607996501001176 0 -0.0055366706804595295 0.0013167715174379772 0 -0.0046380548446710206 0.00053890432533864696 0 -0.0051533823710352136 0.00058281898208447931 0 -0.0049601179680687562 0.00099607996501001176 0 -0.00021084906488408743 0.0013987550247211425 0 -0.00023100427944811988 0.0013808086268013312 0 -0.00020468439208795936 0.0013770332443837885 0 -0.0023479178160530673 0.0012502853272784032 0 -0.0021478950593371042 0.00089065632014605288 0 -0.0046380548446710206 0.00053890432533864696 0 -0.0049601179680687562 0.00099607996501001176 0 -0.0044372150370677989 0.00091031414221159532 0 -0.0023479178160530673 0.0012502853272784032 0 -0.0049470472346891566 0.0017038294217850266 0 -0.00022416528287481363 0.0013653988108900813 0 -0.00028707639333402717 0.0013585805689848372 0 -0.00023277714059597785 0.0013946147330847181 0 -0.0033019827485719386 0.0014060854232055776 0 -0.0030620644363486354 0.0018415405868618697 0 -0.0026611790819007987 0.001347122892908803 0 -0.0023479178160530673 0.0012502853272784032 0 -0.0016374723726844684 0.0017254067050605788 0 -0.0049470472346891566 0.0017038294217850266 0 -0.0016374723726844684 0.0017254067050605788 0 -0.0035021460700907529 0.0036225613954196222 0 -0.0030213884583056082 0.0030360896732277388 0 -0.0026956295924714926 0.0037225051291951781 0 -0.0018788369556343855 0.0029462800222148271 0 -0.0030213884583056082 0.0030360896732277388 0 -0.0026956295924714926 0.0037225051291951781 0 -0.0012246507545917375 0.0022149263377993296 0 -0.0016374723726844684 0.0017254067050605788 0 -0.0019952306459738072 0.0037287729310381411 0 -0.0018788369556343855 0.0029462800222148271 0 -0.0026956295924714926 0.0037225051291951781 0 -0.00039368477334276628 0.0014603317477806961 0 -0.00039608592414403697 0.001468185177014117 0 -0.0003751157036266767 0.0014655232625242734 0 -0.00028707639333402717 0.0013585805689848372 0 -0.0003751157036266767 0.0014655232625242734 0 -0.00029599501939823168 0.0014608233413319523 0 -0.0016374723726844684 0.0017254067050605788 0 -7.3459932199757019e-05 0.0012022924787845081 0 -0.00028707639333402717 0.0013585805689848372 0 -0.00029599501939823168 0.0014608233413319523 0 -0.00024100514485938894 0.0014343074577750903 0 -0.00024100514485938894 0.0014343074577750903 0 -0.00021312499458021194 0.0014164384294713854 0 -0.00023277714059597785 0.0013946147330847181 0 -0.00024100514485938894 0.0014343074577750903 0 -0.000202510694621713 0.001441539119004003 0 -0.00021312499458021194 0.0014164384294713854 0 -0.00028707639333402717 0.0013585805689848372 0 -0.00024100514485938894 0.0014343074577750903 0 -0.00023277714059597785 0.0013946147330847181 0 0.0016895318330035654 0.00050550033445492782 0 0.0012839983943538518 0.00065871215406061072 0 0.0011717441983671595 0.00097565193544521837 0 0.0014250068581346091 0.00042310018396011991 0 0.0012839983943538518 0.00065871215406061072 0 0.00087899655702517474 0.00050655651315686403 0 3.5949250389932466e-05 0.00040930807266788619 0 0.00066968721759473615 0.00025238775044690982 0 0.0012839983943538518 0.00065871215406061072 0 0.00087899655702517474 0.00050655651315686403 0 0.0011717441983671595 0.00097565193544521837 0 0.0068194819348330249 -0.00021080350060476925 0 0.0067122102719260049 0.00025658007418673441 0 0.0069883440048830337 0.00028922887588003787 0 0.0068194819348330249 -0.00021080350060476925 0 0.0065035389744860931 8.6609112367377729e-05 0 0.0067122102719260049 0.00025658007418673441 0 0.003598129213641164 0.00041021617552968121 0 0.0044728567581817967 0.00062638310566857762 0 0.0024682185580201161 0.0011302120176853285 0 0.0022930997569955208 0.001261773029541114 0 0.0021815680627700167 0.001167713891374331 0 0.0022930997569955208 0.001261773029541114 0 0.0021334798090946912 0.0012619297938220402 0 0.0021538710829999566 0.0013746565295996902 0 0.0022930997569955208 0.001261773029541114 0 0.0021815680627700167 0.001167713891374331 0 0.0021334798090946912 0.0012619297938220402 0 0.0024682185580201161 0.0011302120176853285 0 0.0021617855938586847 0.00099075559466166633 0 0.0021839551957359019 0.0010336665737321555 0 0.003598129213641164 0.00041021617552968121 0 0.00089040602129067642 0.0007320889999951817 0 0.0024682185580201161 0.0011302120176853285 0 0.0021815680627700167 0.001167713891374331 0 0.0021839551957359019 0.0010336665737321555 0 0.00087899655702517474 0.00050655651315686403 0 0.0011717441983671595 0.00097565193544521837 0 0.00033438222792828772 0.00057244708090527176 0 0.0021617855938586847 0.00099075559466166633 0 0.0021839551957359019 0.0010336665737321555 0 0.0017154600039518009 0.0012507425418213549 0 0.0014598831822129003 0.00099768134640472505 0 0.0010945325393625486 0.0014120102517365782 0 0.001077324630470348 0.00044453163633021841 0 0.0021617855938586847 0.00099075559466166633 0 0.0014598831822129003 0.00099768134640472505 0 0.0017154600039518009 0.0012507425418213549 0 0.0014598831822129003 0.00099768134640472505 0 0.0017154600039518009 0.0012507425418213549 0 0.0010945325393625486 0.0014120102517365782 0 0.0017154600039518009 0.0012507425418213549 0 0.0014377676538173609 0.001682042290583239 0 0.0010945325393625486 0.0014120102517365782 0 0.0021591174948693381 0.0010628740655981214 0 0.0017284828887201671 0.0014475595690497073 0 0.0021815680627700167 0.001167713891374331 0 0.0021839551957359019 0.0010336665737321555 0 0.002070742583644372 0.0011779872021524501 0 0.0021839551957359019 0.0010336665737321555 0 0.0017154600039518009 0.0012507425418213549 0 0.0014377676538173609 0.001682042290583239 0 0.0021815680627700167 0.001167713891374331 0 0.0021334798090946912 0.0012619297938220402 0 0.002070742583644372 0.0011779872021524501 0 0.0021334798090946912 0.0012619297938220402 0 0.002070742583644372 0.0011779872021524501 0 0.0019344191464778213 0.0012985762590071593 0 0.0021334798090946912 0.0012619297938220402 0 0.0019344191464778213 0.0012985762590071593 0 0.0021538710829999566 0.0013746565295996902 0 0.0017284828887201671 0.0014475595690497073 0 0.0015194443283124163 0.0014095600007802596 0 0.0014377676538173609 0.001682042290583239 0 0.00098967633629120028 0.0017220169953334008 0 0.00086313198871632783 0.0020688904512212512 0 0.00098967633629120028 0.0017220169953334008 0 0.00086313198871632783 0.0020688904512212512 0 0.00070889496217355281 0.001643694489354885 0 0.0011123304293144095 0.0013869222825872811 0 0.00052162527100141397 0.00055169275323824858 0 0.00070889496217355281 0.001643694489354885 0 0.0010945325393625486 0.0014120102517365782 0 0.00070646877713484901 0.0013369351616538835 0 0.0010945325393625486 0.0014120102517365782 0 0.00086032415546004543 0.0011591827340925447 0 0.001050753742208491 0.00090877463646156823 0 0.0014377676538173609 0.001682042290583239 0 0.00098967633629120028 0.0017220169953334008 0 0.0010945325393625486 0.0014120102517365782 0 0.00098967633629120028 0.0017220169953334008 0 0.00070889496217355281 0.001643694489354885 0 0.0010945325393625486 0.0014120102517365782 0 0.0010945325393625486 0.0014120102517365782 0 0.00086032415546004543 0.0011591827340925447 0 0.00070646877713484901 0.0013369351616538835 0 0.00065245854082942537 0.0011063746759346767 0 0.00086032415546004543 0.0011591827340925447 0 0.00070646877713484901 0.0013369351616538835 0 0.00045004182323911651 0.00067611181506952627 0 0.00078151440037083964 0.0009766413424743786 0 0.001050753742208491 0.00090877463646156823 0 0.00060800388583633893 0.00075838538054569552 0 0.00052162527100141397 0.00055169275323824858 0 0.00065245854082942537 0.0011063746759346767 0 0.00057124522927760077 0.00092551020012555528 0 0.00078151440037083964 0.0009766413424743786 0 0.00065245854082942537 0.0011063746759346767 0 0.00086032415546004543 0.0011591827340925447 0 0.00078151440037083964 0.0009766413424743786 0 0.00086032415546004543 0.0011591827340925447 0 0.00078151440037083964 0.0009766413424743786 0 0.001050753742208491 0.00090877463646156823 0 0.00052162527100141397 0.00055169275323824858 0 -0.0011520462174299684 0.00016499429464671354 0 -0.0014143889703984965 0.0005532589444975489 0 -0.0020780728646020807 0.00081985009061910381 0 0.00049864823347534157 0.00063544580826309436 0 0.00045004182323911651 0.00067611181506952627 0 0.00058039882015520003 0.00071125310392949274 0 -0.003623376106430811 0.00046303447032183305 0 -0.0039933339320571172 0.00049945392100341878 0 -0.0037413077076784329 0.00075276996973021673 0 0.00049864823347534157 0.00063544580826309436 0 0.00058039882015520003 0.00071125310392949274 0 0.00057214449649939912 0.00065845161288920532 0 -0.0020780728646020807 0.00081985009061910381 0 -0.0011520462174299684 0.00016499429464671354 0 0.00049864823347534157 0.00063544580826309436 0 0.00056720216985151355 0.00063590307603856732 0 0.00057214449649939912 0.00065845161288920532 0 -0.0027648276538488237 0.00047815952883940356 0 -0.0027263438004318445 0.00044746803932034458 0 -0.0026191319088248789 0.00052624732586540625 0 -0.002776060629918504 0.00045357871922704798 0 -0.0027263438004318445 0.00044746803932034458 0 -0.0027892238897668444 0.00032248069618248193 0 -0.0027263438004318445 0.00044746803932034458 0 -0.0026277428601887876 0.00041945845042831958 0 -0.0026975293493359163 0.00037609173328447324 0 -0.002764247540231158 0.00045317962253154124 0 -0.0027648276538488237 0.00047815952883940356 0 -0.0027263438004318445 0.00044746803932034458 0 -0.0020780728646020807 0.00081985009061910381 0 -0.0026724400365570732 0.00068863613539354052 0 -0.0011520462174299684 0.00016499429464671354 0 -0.0012821000501402884 0.0003005749086622776 0 0.00089040602129067642 0.0007320889999951817 0 0.00052162527100141397 0.00055169275323824858 0 0.0021617855938586847 0.00099075559466166633 0 0.0014598831822129003 0.00099768134640472505 0 0.001077324630470348 0.00044453163633021841 0 -0.00048131008347674097 0.00017690532424130068 0 -0.00048328570356053109 -0.00018490870298948771 0 0.00046024289197534984 0.00011639385507335943 0 0.00033438222792828772 0.00057244708090527176 0 -0.00048131008347674097 0.00017690532424130068 0 0.00046024289197534984 0.00011639385507335943 0 0.00087899655702517474 0.00050655651315686403 0 0.00033438222792828772 0.00057244708090527176 0 0.00046024289197534984 0.00011639385507335943 0 -0.0026191319088248789 0.00052624732586540625 0 -0.0026277428601887876 0.00041945845042831958 0 -0.0025147395135445409 0.0004651786766445343 0 -0.0027263438004318445 0.00044746803932034458 0 -0.0026191319088248789 0.00052624732586540625 0 -0.0026277428601887876 0.00041945845042831958 0 -0.0026277428601887876 0.00041945845042831958 0 -0.0025147395135445409 0.0004651786766445343 0 -0.0025123393125324016 0.00030281409923223218 0 -0.002455508490674115 0.00057394719208829102 0 -0.0026191319088248789 0.00052624732586540625 0 -0.0025147395135445409 0.0004651786766445343 0 0.0014250068581346091 0.00042310018396011991 0 0.00087899655702517474 0.00050655651315686403 0 0.00046024289197534984 0.00011639385507335943 0 3.5949250389932466e-05 0.00040930807266788619 0 -0.0012821000501402884 0.0003005749086622776 0 -0.00629091457567694 0.00052075016584097686 0 -0.0081975804766183987 0.00075392861426823877 0 -0.009885752473677397 0.001112625797567546 0 -0.010025063068298534 0.0008967124591397331 0 -0.0094555581140877195 0.00096454659757443562 0 -0.00629091457567694 0.00052075016584097686 0 -0.0039124415323348299 0.00042239157664205912 0 -0.0026277428601887876 0.00041945845042831958 0 -0.0025123393125324016 0.00030281409923223218 0 -0.0026481681075473172 0.00031423303291952081 0 -0.0026277428601887876 0.00041945845042831958 0 -0.0026481681075473172 0.00031423303291952081 0 -0.0026975293493359163 0.00037609173328447324 0 -0.0063317732136868102 0.00058424334048878368 0 -0.0060057986018920879 0.00055600122001756404 0 -0.0060099916013487045 0.00063639911177379828 0 -0.01121362332453682 0.00090654336589861197 0 -0.012003443015066896 0.0006832300380392967 0 -0.011622159099977117 0.00056805217190027872 0 -0.009885752473677397 0.001112625797567546 0 -0.0094555581140877195 0.00096454659757443562 0 -0.009374440582746656 0.0011980323876669315 0 -0.010508938350518875 0.00099910948833169689 0 -0.010800494583392429 0.00091459564503121999 0 -0.0060099916013487045 0.00063639911177379828 0 -0.0056771792263426652 0.0005367052442460502 0 -0.005685170255948618 0.00069934128061350663 0 -0.0094555581140877195 0.00096454659757443562 0 -0.009374440582746656 0.0011980323876669315 0 -0.0088130850666503432 0.0010804641195247028 0 -0.010800494583392429 0.00091459564503121999 0 -0.0097923404458605361 0.0010786468989727332 0 -0.009374440582746656 0.0011980323876669315 0 -0.0088130850666503432 0.0010804641195247028 0 -0.0088175430819955099 0.001281999578087727 0 -0.0081975804766183987 0.00075392861426823877 0 -0.006800688155969078 0.0011178470061122537 0 -0.0026481681075473172 0.00031423303291952081 0 -0.0026975293493359163 0.00037609173328447324 0 -0.0027892238897668444 0.00032248069618248193 0 -0.0027263438004318445 0.00044746803932034458 0 -0.0026975293493359163 0.00037609173328447324 0 -0.0027892238897668444 0.00032248069618248193 0 -0.0060057986018920879 0.00055600122001756404 0 -0.0060099916013487045 0.00063639911177379828 0 -0.0056771792263426652 0.0005367052442460502 0 -0.0039124415323348299 0.00042239157664205912 0 -0.0044097633878975775 0.0003685534327874428 0 -0.0039933339320571172 0.00049945392100341878 0 -0.0040186836931500828 0.0010072163541013125 0 -0.0038987337706752443 0.0008844095076514266 0 -0.0039933339320571172 0.00049945392100341878 0 -0.0038987337706752443 0.0008844095076514266 0 -0.0037413077076784329 0.00075276996973021673 0 -0.0020780728646020807 0.00081985009061910381 0 -0.0044097633878975775 0.0003685534327874428 0 -0.0040186836931500828 0.0010072163541013125 0 -0.0038900212360683619 0.0010045392077906875 0 -0.0039032403746516587 0.0011149828334870975 0 -0.0040186836931500828 0.0010072163541013125 0 -0.0038900212360683619 0.0010045392077906875 0 -0.0038987337706752443 0.0008844095076514266 0 -0.0038987337706752443 0.0008844095076514266 0 -0.0037413077076784329 0.00075276996973021673 0 -0.0037543696589974187 0.0010121361881616608 0 -0.0038900212360683619 0.0010045392077906875 0 -0.0038987337706752443 0.0008844095076514266 0 -0.0037543696589974187 0.0010121361881616608 0 -0.0038900212360683619 0.0010045392077906875 0 -0.0037543696589974187 0.0010121361881616608 0 -0.0039032403746516587 0.0011149828334870975 0 -0.0037543696589974187 0.0010121361881616608 0 -0.0039032403746516587 0.0011149828334870975 0 -0.0037278138562320323 0.0013487558588366811 0 -0.0039032403746516587 0.0011149828334870975 0 -0.004034351336457795 0.0012861390070684658 0 -0.0037278138562320323 0.0013487558588366811 0 -0.0044097633878975775 0.0003685534327874428 0 -0.006800688155969078 0.0011178470061122537 0 -0.0040186836931500828 0.0010072163541013125 0 -0.0039032403746516587 0.0011149828334870975 0 -0.004034351336457795 0.0012861390070684658 0 -0.0080012228456931758 0.001032682330158737 0 -0.0075734665546714581 0.0014280857924933923 0 -0.0080070980442515684 0.0013612064526358502 0 -0.006800688155969078 0.0011178470061122537 0 -0.0097923404458605361 0.0010786468989727332 0 -0.006800688155969078 0.0011178470061122537 0 -0.0057836157724606681 0.0012577441842180808 0 -0.0080012228456931758 0.001032682330158737 0 -0.007433266501055899 0.0011446067453504617 0 -0.0075734665546714581 0.0014280857924933923 0 -0.0059414993666698562 0.0020527265324951516 0 -0.0060729038759486827 0.002316413959204336 0 -0.0057101633683197149 0.0021020256871257569 0 -0.0057836157724606681 0.0012577441842180808 0 -0.0086510489357793739 0.0018852269701698291 0 -0.010348529960500367 0.0022882135820411122 0 -0.010642598888549213 0.002875767644527107 0 -0.0098160724347813033 0.0024911578571036696 0 -0.0086510489357793739 0.0018852269701698291 0 -0.012649814180535065 0.001302243813969264 0 -0.01042416168772139 0.0013303851769796986 0 -0.010624327654556141 0.0014640330093931956 0 -0.010593684951920423 0.0016649183706209803 0 -0.010760014233527229 0.001278043286566097 0 -0.010624327654556141 0.0014640330093931956 0 -0.010770072383942944 0.0017108205458083103 0 -0.0086510489357793739 0.0018852269701698291 0 -0.0097923404458605361 0.0010786468989727332 0 -0.01042416168772139 0.0013303851769796986 0 -0.010760014233527229 0.001278043286566097 0 -0.010624327654556141 0.0014640330093931956 0 -0.012132778370935227 0.00049046357287555094 0 -0.012041826279495665 0.00046861077949808571 0 -0.012092131740895237 0.00047513068173100486 0 -0.0097923404458605361 0.0010786468989727332 0 -0.012081033235645508 0.00095671542333550805 0 -0.010624327654556141 0.0014640330093931956 0 -0.010770072383942944 0.0017108205458083103 0 -0.010593684951920423 0.0016649183706209803 0 -0.012081033235645508 0.00095671542333550805 0 -0.012649814180535065 0.001302243813969264 0 -0.016682423045369429 -0.00085392276355931247 0 -0.016728201905938198 -0.00080308162994608811 0 -0.016636846888379912 -0.00083370304682649416 0 -0.017950146200213627 -0.00042065014778046832 0 -0.017322176215524648 -0.00066756760701603844 0 -0.017741924271251552 -0.00027946606055936516 0 -0.016707400880696235 -0.00089525433087812238 0 -0.016682423045369429 -0.00085392276355931247 0 -0.016613254856405735 -0.00089491931138489886 0 -0.016605312309323599 -0.00022760372232069105 0 -0.017076353131056252 -0.00072392634676159465 0 -0.015153899795005303 0.00028064107881112189 0 -0.015149015326233209 -0.00017576683050192802 0 -0.015402612772918283 0.00034880534195347611 0 -0.016682423045369429 -0.00085392276355931247 0 -0.016728201905938198 -0.00080308162994608811 0 -0.016726179992048264 -0.00083952424467718847 0 -0.016605312309323599 -0.00022760372232069105 0 -0.014415277156462902 4.4565808594421201e-05 0 -0.016707400880696235 -0.00089525433087812238 0 -0.016682423045369429 -0.00085392276355931247 0 -0.016726179992048264 -0.00083952424467718847 0 -0.012649814180535065 0.001302243813969264 0 -0.014415277156462902 4.4565808594421201e-05 0 -0.012160654832467761 0.00054842692154536646 0 -0.012167511696558164 0.00056079505187336053 0 -0.012174670207769467 0.00056107605838077372 0 -0.013208808169645658 0.00066343398247131465 0 -0.013276127492461756 0.00068262772261164662 0 -0.01321402667307604 0.00053488272166275557 0 -0.012081033235645508 0.00095671542333550805 0 -0.014415277156462902 4.4565808594421201e-05 0 -0.012160654832467761 0.00054842692154536646 0 -0.012198166153058127 0.00055911035541638657 0 -0.012233665290968537 0.00051676415408383159 0 -0.012081033235645508 0.00095671542333550805 0 -0.012221423594060562 0.00038936852494250739 0 -0.012172634255742748 0.00058146028039383945 0 -0.012198166153058127 0.00055911035541638657 0 -0.012227761301004851 0.00064474829547172489 0 -0.012160654832467761 0.00054842692154536646 0 -0.012174670207769467 0.00056107605838077372 0 -0.012198166153058127 0.00055911035541638657 0 -0.012174670207769467 0.00056107605838077372 0 -0.012172634255742748 0.00058146028039383945 0 -0.012198166153058127 0.00055911035541638657 0 -0.012167511696558164 0.00056079505187336053 0 -0.012174670207769467 0.00056107605838077372 0 -0.012172634255742748 0.00058146028039383945 0 -0.014415277156462902 4.4565808594421201e-05 0 -0.015507309869183469 -5.0188096846367468e-05 0 -0.016605312309323599 -0.00022760372232069105 0 -0.015507309869183469 -5.0188096846367468e-05 0 -0.012041826279495665 0.00046861077949808571 0 -0.012087741606461568 0.00044687341552264296 0 -0.012233665290968537 0.00051676415408383159 0 -0.012003443015066896 0.0006832300380392967 0 -0.012132778370935227 0.00049046357287555094 0 -0.012085885519438818 0.00049830534848473499 0 -0.012087741606461568 0.00044687341552264296 0 -0.012085885519438818 0.00049830534848473499 0 -0.012098865556232862 0.00041328092887042087 0 -0.012041826279495665 0.00046861077949808571 0 -0.012087741606461568 0.00044687341552264296 0 -0.012092131740895237 0.00047513068173100486 0 -0.012087741606461568 0.00044687341552264296 0 -0.012092131740895237 0.00047513068173100486 0 -0.012085885519438818 0.00049830534848473499 0 -0.012132778370935227 0.00049046357287555094 0 -0.012092131740895237 0.00047513068173100486 0 -0.012085885519438818 0.00049830534848473499 0 -0.012003443015066896 0.0006832300380392967 0 -0.012085885519438818 0.00049830534848473499 0 -0.012098865556232862 0.00041328092887042087 0 -0.011622159099977117 0.00056805217190027872 0 -0.012098865556232862 0.00041328092887042087 0 -0.011102634147665904 0.00028038898220014892 0 -0.012087741606461568 0.00044687341552264296 0 -0.012098865556232862 0.00041328092887042087 0 -0.012233665290968537 0.00051676415408383159 0 -0.012070756004349897 0.00038459230886966168 0 -0.01177131087876347 0.00032157902281764714 0 -0.012098865556232862 0.00041328092887042087 0 -0.012338039392569356 0.00045114132430110719 0 -0.012437934571615447 0.00032134234537573958 0 -0.012003443015066896 0.0006832300380392967 0 -0.011622159099977117 0.00056805217190027872 0 -0.012098865556232862 0.00041328092887042087 0 -0.012098865556232862 0.00041328092887042087 0 -0.012233665290968537 0.00051676415408383159 0 -0.012338039392569356 0.00045114132430110719 0 -0.012198166153058127 0.00055911035541638657 0 -0.012233665290968537 0.00051676415408383159 0 -0.012227761301004851 0.00064474829547172489 0 -0.012233665290968537 0.00051676415408383159 0 -0.012336717273462673 0.00063997619523897072 0 -0.012227761301004851 0.00064474829547172489 0 -0.012233665290968537 0.00051676415408383159 0 -0.012338039392569356 0.00045114132430110719 0 -0.012433321548891263 0.00057098071816842513 0 -0.012233665290968537 0.00051676415408383159 0 -0.012433321548891263 0.00057098071816842513 0 -0.012336717273462673 0.00063997619523897072 0 -0.012433321548891263 0.00057098071816842513 0 -0.012336717273462673 0.00063997619523897072 0 -0.0124200846883398 0.00066395887411776729 0 -0.012338039392569356 0.00045114132430110719 0 -0.012433321548891263 0.00057098071816842513 0 -0.012513187395166802 0.00045916040943314322 0 -0.012638554487806519 0.0005452032280397806 0 -0.012433321548891263 0.00057098071816842513 0 -0.012513187395166802 0.00045916040943314322 0 -0.012645551540578535 0.00041566660621878652 0 -0.012513187395166802 0.00045916040943314322 0 -0.012437934571615447 0.00032134234537573958 0 -0.012338039392569356 0.00045114132430110719 0 -0.012513187395166802 0.00045916040943314322 0 -0.012437934571615447 0.00032134234537573958 0 -0.01121362332453682 0.00090654336589861197 0 -0.011622159099977117 0.00056805217190027872 0 -0.011102634147665904 0.00028038898220014892 0 -0.010700798813215015 0.00065039068620451881 0 -0.01121362332453682 0.00090654336589861197 0 -0.011102634147665904 0.00028038898220014892 0 -0.0073576611628125791 0.0020541160245322655 0 -0.0082203444968537674 0.0018149293951863087 0 -0.0089951906328053603 0.0024646466450942684 0 -0.0077418117283439853 0.0014618011425900478 0 -0.0073187627387926758 0.0018109826510473704 0 -0.0073827514627658906 0.0010563147348804686 0 -0.0077418117283439853 0.0014618011425900478 0 -0.0073576611628125791 0.0020541160245322655 0 -0.0082203444968537674 0.0018149293951863087 0 -0.0077418117283439853 0.0014618011425900478 0 -0.0073187627387926758 0.0018109826510473704 0 -0.0073576611628125791 0.0020541160245322655 0 -0.0089448171567821193 0.0012268681855041005 0 -0.009196233294833385 0.00079520551227835298 0 -0.009196233294833385 0.00079520551227835298 0 -0.0025901016627352604 0.0036184952293425096 0 -0.0025912719610313769 0.0052371014751369334 0 -0.0021628371287683579 0.0043693987275719038 0 -0.0030501386390661932 0.0044307871913474425 0 -0.0073187627387926758 0.0018109826510473704 0 -0.007352492983905029 0.002054669862077029 0 -0.006875620275211141 0.0019345513661239103 0 -0.0073187627387926758 0.0018109826510473704 0 -0.006875620275211141 0.0019345513661239103 0 -0.0073827514627658906 0.0010563147348804686 0 -0.0025901016627352604 0.0036184952293425096 0 -0.0053025458144647887 0.0025547504261501887 0 -0.0026956295924714926 0.0037225051291951781 0 -0.0021628371287683579 0.0043693987275719038 0 -0.0030501386390661932 0.0044307871913474425 0 -0.0019952306459738072 0.0037287729310381411 0 -0.0026956295924714926 0.0037225051291951781 0 -0.0021628371287683579 0.0043693987275719038 0 -0.0078598657248525224 0.00018842923498425901 0 -0.0077418117283439853 0.0014618011425900478 0 -0.0073827514627658906 0.0010563147348804686 0 -0.0078598657248525224 0.00018842923498425901 0 -0.0077418117283439853 0.0014618011425900478 0 -0.008784455166980551 0.0012832959400421453 0 -0.0049470472346891566 0.0017038294217850266 0 -0.0053025458144647887 0.0025547504261501887 0 -0.0035021460700907529 0.0036225613954196222 0 -0.0026956295924714926 0.0037225051291951781 0 -0.0030501386390661932 0.0044307871913474425 0 -0.0049601179680687562 0.00099607996501001176 0 -0.0055366706804595295 0.0013167715174379772 0 -0.0050398018539219366 0.0016349385912536858 0 -0.0049470472346891566 0.0017038294217850266 0 -0.0070323901218260565 0.0013731151012638255 0 -0.0049601179680687562 0.00099607996501001176 0 -0.0044372150370677989 0.00091031414221159532 0 -0.0050398018539219366 0.0016349385912536858 0 -0.0037413077076784329 0.00075276996973021673 0 -0.0037543696589974187 0.0010121361881616608 0 -0.0034854572103934279 0.00089222364373043889 0 -0.0055366706804595295 0.0013167715174379772 0 -0.0055425473414125884 0.0018508880379663609 0 -0.0050398018539219366 0.0016349385912536858 0 -0.0057836157724606681 0.0012577441842180808 0 -0.0046093956554712108 0.001170344567604347 0 -0.0037543696589974187 0.0010121361881616608 0 -0.0037278138562320323 0.0013487558588366811 0 -0.0034854572103934279 0.00089222364373043889 0 -0.008784455166980551 0.0012832959400421453 0 -0.0089951906328053603 0.0024646466450942684 0 -0.0097313648654738932 0.0023922464492653604 0 -0.0070323901218260565 0.0013731151012638255 0 -0.0076900612828789631 0.0021553924934240337 0 -0.0055425473414125884 0.0018508880379663609 0 -0.0050398018539219366 0.0016349385912536858 0 -0.0056540520571285273 0.0023749702743320672 0 -0.0059214318844443446 0.0020580253163810331 0 -0.0055366706804595295 0.0013167715174379772 0 -0.0055425473414125884 0.0018508880379663609 0 -0.0059214318844443446 0.0020580253163810331 0 -0.0055425473414125884 0.0018508880379663609 0 -0.0057101633683197149 0.0021020256871257569 0 -0.0055425473414125884 0.0018508880379663609 0 -0.0057101633683197149 0.0021020256871257569 0 -0.0056540520571285273 0.0023749702743320672 0 -0.0057836157724606681 0.0012577441842180808 0 -0.0057176969202266106 0.0014835757644369911 0 -0.0077418117283439853 0.0014618011425900478 0 -0.008784455166980551 0.0012832959400421453 0 -0.0082203444968537674 0.0018149293951863087 0 -0.008784455166980551 0.0012832959400421453 0 -0.0082203444968537674 0.0018149293951863087 0 -0.0089951906328053603 0.0024646466450942684 0 -0.016527731275397448 -0.001055449417241981 0 -0.016613254856405735 -0.00089491931138489886 0 -0.016518852857840181 -0.00081335890530673401 0 -0.016527731275397448 -0.001055449417241981 0 -0.016518852857840181 -0.00081335890530673401 0 -0.016225130391929545 -0.0009518883621423901 0 -0.010642598888549213 0.002875767644527107 0 -0.0089951906328053603 0.0024646466450942684 0 -0.0098160724347813033 0.0024911578571036696 0 -0.012649814180535065 0.001302243813969264 0 -0.01345035873106403 0.00067867604867897949 0 -0.016707400880696235 -0.00089525433087812238 0 -0.016527731275397448 -0.001055449417241981 0 -0.016613254856405735 -0.00089491931138489886 0 -0.010348529960500367 0.0022882135820411122 0 -0.0097324006395401522 0.0023881849268435778 0 -0.0098160724347813033 0.0024911578571036696 0 -0.0060729038759486827 0.002316413959204336 0 -0.0057101633683197149 0.0021020256871257569 0 -0.0056540520571285273 0.0023749702743320672 0 -0.0086510489357793739 0.0018852269701698291 0 -0.0076900612828789631 0.0021553924934240337 0 -0.0076900612828789631 0.0021553924934240337 0 -0.0078989772101723931 0.0023135923033345317 0 -0.0089951906328053603 0.0024646466450942684 0 -0.0097313648654738932 0.0023922464492653604 0 -0.0098160724347813033 0.0024911578571036696 0 -0.017322176215524648 -0.00066756760701603844 0 -0.016518852857840181 -0.00081335890530673401 0 -0.017164134142915923 -0.00028743649367348769 0 -0.017076353131056252 -0.00072392634676159465 0 -0.016533480857936374 -0.00082822717367134614 0 -0.016613254856405735 -0.00089491931138489886 0 -0.016636846888379912 -0.00083370304682649416 0 -0.016518852857840181 -0.00081335890530673401 0 -0.016682423045369429 -0.00085392276355931247 0 -0.016613254856405735 -0.00089491931138489886 0 -0.016636846888379912 -0.00083370304682649416 0 -0.016518852857840181 -0.00081335890530673401 0 -0.015952174572255302 -0.00058213190364766738 0 -0.016347408165692429 -0.00028908702219243197 0 -0.016518852857840181 -0.00081335890530673401 0 -0.015952174572255302 -0.00058213190364766738 0 -0.016225130391929545 -0.0009518883621423901 0 -0.0017551944987952185 0.0030880230429336706 0 -0.0017579488833225428 0.0037149282904539224 0 -0.0015393270207892376 0.0034070551536580637 0 -0.009196233294833385 0.00079520551227835298 0 -0.008785878499733682 0.0015843490978010852 0 -0.009196233294833385 0.00079520551227835298 0 -0.01345035873106403 0.00067867604867897949 0 -0.015836858547558556 -0.0013081861260461596 0 -0.015952174572255302 -0.00058213190364766738 0 -0.016225130391929545 -0.0009518883621423901 0 -0.015836858547558556 -0.0013081861260461596 0 -0.016527731275397448 -0.001055449417241981 0 -0.016225130391929545 -0.0009518883621423901 0 -0.0012304347161728444 0.0035974340931236963 0 -0.0015655182536971118 0.0030457773070321397 0 -0.0015393270207892376 0.0034070551536580637 0 -0.0017551944987952185 0.0030880230429336706 0 -0.0015655182536971118 0.0030457773070321397 0 -0.0015393270207892376 0.0034070551536580637 0 -0.00063814920184008172 0.0043905199828456034 0 -0.0025901016627352604 0.0036184952293425096 0 -0.0012304347161728444 0.0035974340931236963 0 -0.0017579488833225428 0.0037149282904539224 0 -0.0014056132130608782 0.0040016139940755764 0 -0.0012304347161728444 0.0035974340931236963 0 -0.0017579488833225428 0.0037149282904539224 0 -0.0015393270207892376 0.0034070551536580637 0 -0.0016652252576818589 0.0041046466452572599 0 -0.0015154972882695378 0.004164582871543923 0 -0.0013016763643849485 0.0041719297432478248 0 -0.0014056132130608782 0.0040016139940755764 0 -0.0016652252576818589 0.0041046466452572599 0 -0.0013016763643849485 0.0041719297432478248 0 -0.008785878499733682 0.0015843490978010852 0 -0.0089929747027202023 0.0021788642837951206 0 -0.0017579488833225428 0.0037149282904539224 0 -0.0014056132130608782 0.0040016139940755764 0 -0.0016652252576818589 0.0041046466452572599 0 -0.015952174572255302 -0.00058213190364766738 0 -0.016123252239983222 0.00036199433109776181 0 -0.016347408165692429 -0.00028908702219243197 0 -0.016518852857840181 -0.00081335890530673401 0 -0.016780783484358578 -0.00010016470439709321 0 -0.017164134142915923 -0.00028743649367348769 0 -0.016518852857840181 -0.00081335890530673401 0 -0.016347408165692429 -0.00028908702219243197 0 -0.016780783484358578 -0.00010016470439709321 0 -0.016123252239983222 0.00036199433109776181 0 -0.016347408165692429 -0.00028908702219243197 0 -0.016780783484358578 -0.00010016470439709321 0 -0.017164134142915923 -0.00028743649367348769 0 -0.017506945614774085 -3.1763626071040314e-05 0 -0.017527774006320548 -0.00025533367968400559 0 -0.017322176215524648 -0.00066756760701603844 0 -0.017164134142915923 -0.00028743649367348769 0 -0.017527774006320548 -0.00025533367968400559 0 -0.016780783484358578 -0.00010016470439709321 0 -0.017164134142915923 -0.00028743649367348769 0 -0.017218464718402517 6.9548532021064945e-05 0 -0.017218464718402517 6.9548532021064945e-05 0 -0.017506945614774085 -3.1763626071040314e-05 0 -0.017512660560645373 0.00024173098390849703 0 -0.017164134142915923 -0.00028743649367348769 0 -0.017218464718402517 6.9548532021064945e-05 0 -0.017506945614774085 -3.1763626071040314e-05 0 -0.016780783484358578 -0.00010016470439709321 0 -0.017218464718402517 6.9548532021064945e-05 0 -0.017022884745251623 0.00047403037641646561 0 -0.017218464718402517 6.9548532021064945e-05 0 -0.017512660560645373 0.00024173098390849703 0 -0.017022884745251623 0.00047403037641646561 0 -0.017512660560645373 0.00024173098390849703 0 -0.017022884745251623 0.00047403037641646561 0 -0.017604867184309848 0.00057445675443214901 0 -0.016123252239983222 0.00036199433109776181 0 -0.016780783484358578 -0.00010016470439709321 0 -0.017022884745251623 0.00047403037641646561 0 -0.016123252239983222 0.00036199433109776181 0 -0.017022884745251623 0.00047403037641646561 0 -0.016318393990592504 0.0013466470581374242 0 -0.017022884745251623 0.00047403037641646561 0 -0.017404387865067202 0.00092972970972096084 0 -0.016318393990592504 0.0013466470581374242 0 -0.017404387865067202 0.00092972970972096084 0 -0.017604867184309848 0.00057445675443214901 0 -0.017892290824969358 0.0010006242208769132 0 -0.017022884745251623 0.00047403037641646561 0 -0.017404387865067202 0.00092972970972096084 0 -0.017604867184309848 0.00057445675443214901 0 -0.017404387865067202 0.00092972970972096084 0 -0.017416717236815586 0.0014257996964898954 0 -0.017892290824969358 0.0010006242208769132 0 -0.017404387865067202 0.00092972970972096084 0 -0.017416717236815586 0.0014257996964898954 0 -0.016318393990592504 0.0013466470581374242 0 -0.017416717236815586 0.0014257996964898954 0 -0.016318393990592504 0.0013466470581374242 0 -0.017281345937929279 0.0022496795641036137 0 -0.0016166311875151684 0.0041495879312366405 0 -0.0015487499722258878 0.0041548778979043008 0 -0.0015154972882695378 0.004164582871543923 0 -0.0016166311875151684 0.0041495879312366405 0 -0.0015487499722258878 0.0041548778979043008 0 -0.0016128170501894675 0.00410585313324541 0 -0.0015487499722258878 0.0041548778979043008 0 -0.0015976911715862286 0.0040958070325448374 0 -0.0016128170501894675 0.00410585313324541 0 -0.0015487499722258878 0.0041548778979043008 0 -0.0015976911715862286 0.0040958070325448374 0 -0.0015009858150196714 0.0041669100785274556 0 -0.0015487499722258878 0.0041548778979043008 0 -0.0015009858150196714 0.0041669100785274556 0 -0.0014060873822491617 0.0041528506442444629 0 -0.0015154972882695378 0.004164582871543923 0 -0.0014060873822491617 0.0041528506442444629 0 -0.0013016763643849485 0.0041719297432478248 0 -0.0015487499722258878 0.0041548778979043008 0 -0.0015154972882695378 0.004164582871543923 0 -0.0014060873822491617 0.0041528506442444629 0 -0.0089929747027202023 0.0021788642837951206 0 -0.0083139084045580191 0.0029572248531892641 0 -0.0016652252576818589 0.0041046466452572599 0 -0.0016166311875151684 0.0041495879312366405 0 -0.0015154972882695378 0.004164582871543923 0 -0.017812698031678946 0.00018598911091614984 0 -0.017788854923364496 0.00014182386692945977 0 -0.017782639870909143 0.00016257108789714055 0 -0.017812698031678946 0.00018598911091614984 0 -0.017782639870909143 0.00016257108789714055 0 -0.017789090182290312 0.00020612086279388797 0 -0.017872649821589606 0.00019202965647863548 0 -0.017812698031678946 0.00018598911091614984 0 -0.017788854923364496 0.00014182386692945977 0 -0.012567863759044676 0.00068937809151378465 0 -0.012441005440446136 0.00077598458736382215 0 -0.012465524465436032 0.00072380495121640305 0 -0.012567863759044676 0.00068937809151378465 0 -0.012465524465436032 0.00072380495121640305 0 -0.0124200846883398 0.00066395887411776729 0 -0.012567863759044676 0.00068937809151378465 0 -0.012433321548891263 0.00057098071816842513 0 -0.0124200846883398 0.00066395887411776729 0 -0.012441005440446136 0.00077598458736382215 0 -0.012465524465436032 0.00072380495121640305 0 -0.0124200846883398 0.00066395887411776729 0 -0.012441005440446136 0.00077598458736382215 0 -0.012336717273462673 0.00063997619523897072 0 -0.0124200846883398 0.00066395887411776729 0 -0.017788854923364496 0.00014182386692945977 0 -0.017767478844557233 0.000148833603006013 0 -0.017782639870909143 0.00016257108789714055 0 -0.012441005440446136 0.00077598458736382215 0 -0.012336717273462673 0.00063997619523897072 0 -0.012227761301004851 0.00064474829547172489 0 -0.015302321002644401 0.00050055953534720366 0 -0.014895222360454572 0.00039233746425862545 0 -0.017767478844557233 0.000148833603006013 0 -0.017782639870909143 0.00016257108789714055 0 -0.017780460247515822 0.00015241417033747285 0 -0.017782639870909143 0.00016257108789714055 0 -0.017792222409596697 0.00016335605048935521 0 -0.017789090182290312 0.00020612086279388797 0 -0.017782639870909143 0.00016257108789714055 0 -0.017792222409596697 0.00016335605048935521 0 -0.017780460247515822 0.00015241417033747285 0 -0.017792222409596697 0.00016335605048935521 0 -0.01779103568138447 0.00013394301303014738 0 -0.017805626038260816 0.00014234657387150691 0 -0.01813947090181663 0.00039017468803548869 0 -0.017815526504087947 0.00016069981066395956 0 -0.017792222409596697 0.00016335605048935521 0 -0.017780460247515822 0.00015241417033747285 0 -0.017805626038260816 0.00014234657387150691 0 -0.017767478844557233 0.000148833603006013 0 -0.017780460247515822 0.00015241417033747285 0 -0.017772909756481745 0.00015007604919848829 0 -0.017769877114153804 0.00015013710372806512 0 -0.017767478844557233 0.000148833603006013 0 -0.017772909756481745 0.00015007604919848829 0 -0.015507309869183469 -5.0188096846367468e-05 0 -0.014895222360454572 0.00039233746425862545 0 -0.017768282586640809 0.00015163314198218776 0 -0.017772909756481745 0.00015007604919848829 0 -0.017783458849530878 0.0001488554666118265 0 -0.017768282586640809 0.00015163314198218776 0 -0.017769754522751161 0.00015011947986493906 0 -0.017772909756481745 0.00015007604919848829 0 -0.015507309869183469 -5.0188096846367468e-05 0 -0.015918354697760363 0.00025639743436094538 0 -0.017780460247515822 0.00015241417033747285 0 -0.017772909756481745 0.00015007604919848829 0 -0.017783458849530878 0.0001488554666118265 0 -0.017780460247515822 0.00015241417033747285 0 -0.017783458849530878 0.0001488554666118265 0 -0.017805626038260816 0.00014234657387150691 0 -0.017787954115434899 -9.2898161601670309e-05 0 -0.01779103568138447 0.00013394301303014738 0 -0.017805626038260816 0.00014234657387150691 0 -0.017768282586640809 0.00015163314198218776 0 -0.017783458849530878 0.0001488554666118265 0 -0.017805626038260816 0.00014234657387150691 0 -0.017950146200213627 -0.00042065014778046832 0 -0.017787954115434899 -9.2898161601670309e-05 0 -0.017805626038260816 0.00014234657387150691 0 -0.016605312309323599 -0.00022760372232069105 0 -0.017935590096009115 0.00013905713586592696 0 -0.017950146200213627 -0.00042065014778046832 0 -0.017787954115434899 -9.2898161601670309e-05 0 -0.017741924271251552 -0.00027946606055936516 0 -0.017322176215524648 -0.00066756760701603844 0 -0.017741924271251552 -0.00027946606055936516 0 -0.017527774006320548 -0.00025533367968400559 0 -0.017741924271251552 -0.00027946606055936516 0 -0.017527774006320548 -0.00025533367968400559 0 -0.017692116231894654 -7.9297207643828411e-05 0 -0.017787954115434899 -9.2898161601670309e-05 0 -0.017741924271251552 -0.00027946606055936516 0 -0.017692116231894654 -7.9297207643828411e-05 0 -0.017506945614774085 -3.1763626071040314e-05 0 -0.017527774006320548 -0.00025533367968400559 0 -0.017692116231894654 -7.9297207643828411e-05 0 -0.017787954115434899 -9.2898161601670309e-05 0 -0.017692116231894654 -7.9297207643828411e-05 0 -0.01779103568138447 0.00013394301303014738 0 -0.017506945614774085 -3.1763626071040314e-05 0 -0.017692116231894654 -7.9297207643828411e-05 0 -0.01779103568138447 0.00013394301303014738 0 -0.018528781556699844 0.00063465190153522534 0 -0.01779103568138447 0.00013394301303014738 0 -0.018039545607617707 0.00068317801193866978 0 -0.017506945614774085 -3.1763626071040314e-05 0 -0.017512660560645373 0.00024173098390849703 0 -0.01779103568138447 0.00013394301303014738 0 -0.017512660560645373 0.00024173098390849703 0 -0.01779103568138447 0.00013394301303014738 0 -0.017604867184309848 0.00057445675443214901 0 -0.01779103568138447 0.00013394301303014738 0 -0.017604867184309848 0.00057445675443214901 0 -0.018039545607617707 0.00068317801193866978 0 -0.017604867184309848 0.00057445675443214901 0 -0.018039545607617707 0.00068317801193866978 0 -0.017892290824969358 0.0010006242208769132 0 -0.018039545607617707 0.00068317801193866978 0 -0.017892290824969358 0.0010006242208769132 0 -0.018375743432270972 0.0010396768403421787 0 -0.017892290824969358 0.0010006242208769132 0 -0.018255954181331153 0.001403809090400008 0 -0.018375743432270972 0.0010396768403421787 0 -0.017416717236815586 0.0014257996964898954 0 -0.018255954181331153 0.001403809090400008 0 -0.018255979957091301 0.0018165880538218854 0 -0.017416717236815586 0.0014257996964898954 0 -0.017892290824969358 0.0010006242208769132 0 -0.018255954181331153 0.001403809090400008 0 -0.018255954181331153 0.001403809090400008 0 -0.018600867047525803 0.0013608808816825528 0 -0.018465510602941392 0.0016415012966788773 0 -0.018255954181331153 0.001403809090400008 0 -0.018600867047525803 0.0013608808816825528 0 -0.018375743432270972 0.0010396768403421787 0 -0.018528781556699844 0.00063465190153522534 0 -0.018039545607617707 0.00068317801193866978 0 -0.018375743432270972 0.0010396768403421787 0 -0.018528781556699844 0.00063465190153522534 0 -0.018375743432270972 0.0010396768403421787 0 -0.018927880903591179 0.00099648268253456503 0 -0.01813947090181663 0.00039017468803548869 0 -0.018379239247887071 0.00060804432207500997 0 -0.018600867047525803 0.0013608808816825528 0 -0.018375743432270972 0.0010396768403421787 0 -0.018927880903591179 0.00099648268253456503 0 -0.018600867047525803 0.0013608808816825528 0 -0.018907822778661404 0.001420012286788648 0 -0.018927880903591179 0.00099648268253456503 0 -0.018600867047525803 0.0013608808816825528 0 -0.018907822778661404 0.001420012286788648 0 -0.01865027109383071 0.0015634027480518184 0 -0.019237056870466042 0.0012181881086245929 0 -0.018907822778661404 0.001420012286788648 0 -0.019110021571304866 0.0015957878191909291 0 -0.019237056870466042 0.0012181881086245929 0 -0.018907822778661404 0.001420012286788648 0 -0.018927880903591179 0.00099648268253456503 0 -0.018454249113440759 0.00068514683369829083 0 -0.018379239247887071 0.00060804432207500997 0 -0.017852732107602784 0.00027682822787944222 0 -0.017812698031678946 0.00018598911091614984 0 -0.017789090182290312 0.00020612086279388797 0 -0.018830863576248743 0.0017106665375640655 0 -0.018703675834159949 0.0020368068013673865 0 -0.019082820193774434 0.0020084945528611457 0 -0.019110021571304866 0.0015957878191909291 0 -0.018830863576248743 0.0017106665375640655 0 -0.019082820193774434 0.0020084945528611457 0 -0.018907822778661404 0.001420012286788648 0 -0.019110021571304866 0.0015957878191909291 0 -0.018830863576248743 0.0017106665375640655 0 -0.018907822778661404 0.001420012286788648 0 -0.01865027109383071 0.0015634027480518184 0 -0.018830863576248743 0.0017106665375640655 0 -0.01865027109383071 0.0015634027480518184 0 -0.018562425570831612 0.0017247317526719599 0 -0.018830863576248743 0.0017106665375640655 0 -0.018562425570831612 0.0017247317526719599 0 -0.018830863576248743 0.0017106665375640655 0 -0.018703675834159949 0.0020368068013673865 0 -0.018561900258544223 0.001739532157807356 0 -0.018578656429277033 0.001759440180314162 0 -0.018562425570831612 0.0017247317526719599 0 -0.018551541757996518 0.0015985686828203401 0 -0.018441417780390077 0.0015655870718484471 0 -0.018562425570831612 0.0017247317526719599 0 -0.01848891201419943 0.0017044709669754566 0 -0.018551541757996518 0.0015985686828203401 0 -0.01848891201419943 0.0017044709669754566 0 -0.018665911028590915 0.0015697361963845869 0 -0.018551541757996518 0.0015985686828203401 0 -0.018562425570831612 0.0017247317526719599 0 -0.018465510602941392 0.0016415012966788773 0 -0.01848891201419943 0.0017044709669754566 0 -0.01865027109383071 0.0015634027480518184 0 -0.018562425570831612 0.0017247317526719599 0 -0.018465510602941392 0.0016415012966788773 0 -0.018600867047525803 0.0013608808816825528 0 -0.01865027109383071 0.0015634027480518184 0 -0.018465510602941392 0.0016415012966788773 0 -0.018255979957091301 0.0018165880538218854 0 -0.01848891201419943 0.0017044709669754566 0 -0.01864595923606335 0.0016373913376931078 0 -0.018255954181331153 0.001403809090400008 0 -0.018465510602941392 0.0016415012966788773 0 -0.018255979957091301 0.0018165880538218854 0 -0.018465510602941392 0.0016415012966788773 0 -0.018255979957091301 0.0018165880538218854 0 -0.01848891201419943 0.0017044709669754566 0 -0.01848891201419943 0.0017044709669754566 0 -0.018665911028590915 0.0015697361963845869 0 -0.01864595923606335 0.0016373913376931078 0 -0.018665911028590915 0.0015697361963845869 0 -0.018640953906939428 0.0014368712747840063 0 -0.018999413062240927 0.0013972319593160865 0 -0.018823273440478582 0.0012325104144543975 0 -0.018640953906939428 0.0014368712747840063 0 -0.018999413062240927 0.0013972319593160865 0 -0.018823273440478582 0.0012325104144543975 0 -0.018545634196287492 0.0013124548259281076 0 -0.018640953906939428 0.0014368712747840063 0 -0.020055061262047664 0.0010554939100279623 0 -0.020920844249645222 0.00087680903059158893 0 -0.018545634196287492 0.0013124548259281076 0 -0.018640953906939428 0.0014368712747840063 0 -0.018493593604236327 0.0014498029504294938 0 -0.018640953906939428 0.0014368712747840063 0 -0.018551541757996518 0.0015985686828203401 0 -0.018493593604236327 0.0014498029504294938 0 -0.018665911028590915 0.0015697361963845869 0 -0.018640953906939428 0.0014368712747840063 0 -0.018551541757996518 0.0015985686828203401 0 -0.018551541757996518 0.0015985686828203401 0 -0.018441417780390077 0.0015655870718484471 0 -0.018493593604236327 0.0014498029504294938 0 -0.018441417780390077 0.0015655870718484471 0 -0.018493593604236327 0.0014498029504294938 0 -0.018395027628369358 0.0014030043891004151 0 -0.018578656429277033 0.001759440180314162 0 -0.019551711484902749 0.0016960971470074339 0 -0.020920844249645222 0.00087680903059158893 0 -0.021883067395388273 0.0018306276408954401 0 -0.023267481913397645 0.0005249466348702603 0 -0.0253085869371753 0.00039005184658749784 0 -0.024370976339968743 0.0016260513699163947 0 -0.018545634196287492 0.0013124548259281076 0 -0.018493593604236327 0.0014498029504294938 0 -0.018412294973728288 0.0013833368948926745 0 -0.018545634196287492 0.0013124548259281076 0 -0.018412294973728288 0.0013833368948926745 0 -0.018387245258279783 0.0013556655182441768 0 -0.018412294973728288 0.0013833368948926745 0 -0.018402948387671963 0.0013971196412183612 0 -0.018387245258279783 0.0013556655182441768 0 -0.019551711484902749 0.0016960971470074339 0 -0.021883067395388273 0.0018306276408954401 0 -0.018493593604236327 0.0014498029504294938 0 -0.018412294973728288 0.0013833368948926745 0 -0.018395027628369358 0.0014030043891004151 0 -0.019423756198917057 0.0017395706491565221 0 -0.019551711484902749 0.0016960971470074339 0 -0.020747653139471238 0.0019762302850052709 0 -0.020825207191645777 0.0019728682660430917 0 -0.020785655801467559 0.0020016309973564855 0 -0.02235670470180507 0.0020272597633236929 0 -0.02309995175307256 0.0019885369398040392 0 -0.022735558922256469 0.0017793209692859987 0 -0.020829905624339388 0.0019923943543399131 0 -0.020825207191645777 0.0019728682660430917 0 -0.020785655801467559 0.0020016309973564855 0 -0.021567851167739342 0.0020158089339506113 0 -0.021883067395388273 0.0018306276408954401 0 -0.019551711484902749 0.0016960971470074339 0 -0.019928240179084331 0.0020803913171615427 0 -0.020829905624339388 0.0019923943543399131 0 -0.020785655801467559 0.0020016309973564855 0 -0.020779985065244613 0.0020478994667889943 0 -0.018703675834159949 0.0020368068013673865 0 -0.018822378632316002 0.0023151715370390872 0 -0.019082820193774434 0.0020084945528611457 0 -0.0080868452139054667 0.0012292291922589226 0 -0.013878934679919405 0.0021302176714994921 0 -0.016213755620007295 -0.0018440496720748228 0 -0.018247463577346142 -0.0025101213149062605 0 -0.017052805490928719 -0.00048994312994621032 0 -0.0016740522009136662 0.0040024622542677553 0 -0.0016402691067774998 0.0040539164857033138 0 -0.0016823597886853608 0.004045406815715297 0 -0.0016740522009136662 0.0040024622542677553 0 -0.0017481926754791596 0.0039297702866527241 0 -0.0016799768083525458 0.004017166035407361 0 -0.0080868452139054667 0.0012292291922589226 0 -0.0089370897574499297 0.00062713014749941735 0 -0.0016740522009136662 0.0040024622542677553 0 -0.0016402691067774998 0.0040539164857033138 0 -0.0016799768083525458 0.004017166035407361 0 -0.0016402691067774998 0.0040539164857033138 0 -0.0015976911715862286 0.0040958070325448374 0 -0.0016799768083525458 0.004017166035407361 0 -0.0016402691067774998 0.0040539164857033138 0 -0.0015976911715862286 0.0040958070325448374 0 -0.0016128170501894675 0.00410585313324541 0 -0.0016166311875151684 0.0041495879312366405 0 -0.0016128170501894675 0.00410585313324541 0 -0.0016823597886853608 0.004045406815715297 0 -0.0083139084045580191 0.0029572248531892641 0 -0.013878934679919405 0.0021302176714994921 0 -0.0016402691067774998 0.0040539164857033138 0 -0.0016128170501894675 0.00410585313324541 0 -0.0016823597886853608 0.004045406815715297 0 -0.016318393990592504 0.0013466470581374242 0 -0.017281345937929279 0.0022496795641036137 0 -0.016477479886444331 0.0025359123164075082 0 -0.018764190025545708 0.0018021010292668437 0 -0.013878934679919405 0.0021302176714994921 0 -0.018009988072509527 0.0019438275152141038 0 -0.018764190025545708 0.0018021010292668437 0 -0.018255979957091301 0.0018165880538218854 0 -0.018868441711244365 0.0017987019879107209 0 -0.01864595923606335 0.0016373913376931078 0 -0.017416717236815586 0.0014257996964898954 0 -0.018255979957091301 0.0018165880538218854 0 -0.017281345937929279 0.0022496795641036137 0 -0.018665911028590915 0.0015697361963845869 0 -0.01864595923606335 0.0016373913376931078 0 -0.018907022376984776 0.0014757191375297416 0 -0.018868441711244365 0.0017987019879107209 0 -0.01864595923606335 0.0016373913376931078 0 -0.018907022376984776 0.0014757191375297416 0 -0.018868441711244365 0.0017987019879107209 0 -0.018907022376984776 0.0014757191375297416 0 -0.019159358127900112 0.0016833000450374254 0 -0.018907022376984776 0.0014757191375297416 0 -0.019159358127900112 0.0016833000450374254 0 -0.019104235377659092 0.0011857569756401863 0 -0.013878934679919405 0.0021302176714994921 0 -0.019516993862924954 0.00025557421589559275 0 -0.018907022376984776 0.0014757191375297416 0 -0.019104235377659092 0.0011857569756401863 0 -0.018999413062240927 0.0013972319593160865 0 -0.018665911028590915 0.0015697361963845869 0 -0.018907022376984776 0.0014757191375297416 0 -0.018999413062240927 0.0013972319593160865 0 -0.020055061262047664 0.0010554939100279623 0 -0.019440206746122901 0.0012569736312526695 0 -0.018823273440478582 0.0012325104144543975 0 -0.018999413062240927 0.0013972319593160865 0 -0.019363501529265074 0.0013435160993416867 0 -0.019104235377659092 0.0011857569756401863 0 -0.018999413062240927 0.0013972319593160865 0 -0.019363501529265074 0.0013435160993416867 0 -0.018691964913278309 0.00032936996831229464 0 -0.018077311875915363 0.0015393614015575315 0 -0.018991429766710383 0.002320246810283436 0 -0.019104235377659092 0.0011857569756401863 0 -0.019363501529265074 0.0013435160993416867 0 -0.018991429766710383 0.002320246810283436 0 -0.019516993862924954 0.00025557421589559275 0 -0.018849544920736989 0.0024687389520851684 0 -0.018077311875915363 0.0015393614015575315 0 -0.016341359385774645 0.00088273532809511536 0 -0.015763333548635256 0.0019380059555022719 0 -0.017487751115788069 0.00058788713526833813 0 -0.017052805490928719 -0.00048994312994621032 0 -0.016341359385774645 0.00088273532809511536 0 -0.018077311875915363 0.0015393614015575315 0 -0.017487751115788069 0.00058788713526833813 0 -0.016341359385774645 0.00088273532809511536 0 -0.018691964913278309 0.00032936996831229464 0 -0.018077311875915363 0.0015393614015575315 0 -0.017487751115788069 0.00058788713526833813 0 -0.018247463577346142 -0.0025101213149062605 0 -0.018691964913278309 0.00032936996831229464 0 -0.017052805490928719 -0.00048994312994621032 0 -0.018691964913278309 0.00032936996831229464 0 -0.017487751115788069 0.00058788713526833813 0 -0.017052805490928719 -0.00048994312994621032 0 -0.016213755620007295 -0.0018440496720748228 0 -0.015273302795693895 -0.00043247212366665357 0 -0.014115513701290622 -0.0011584639711010379 0 -0.017052805490928719 -0.00048994312994621032 0 -0.015273302795693895 -0.00043247212366665357 0 -0.016341359385774645 0.00088273532809511536 0 -0.016213755620007295 -0.0018440496720748228 0 -0.017052805490928719 -0.00048994312994621032 0 -0.015273302795693895 -0.00043247212366665357 0 -0.015273302795693895 -0.00043247212366665357 0 -0.015176797694496693 0.00069602004663685713 0 -0.016341359385774645 0.00088273532809511536 0 -0.015176797694496693 0.00069602004663685713 0 -0.016341359385774645 0.00088273532809511536 0 -0.015763333548635256 0.0019380059555022719 0 -0.015176797694496693 0.00069602004663685713 0 -0.014593196592823212 0.0015450915821899772 0 -0.015763333548635256 0.0019380059555022719 0 -0.014593196592823212 0.0015450915821899772 0 -0.013936796569288671 0.00028161992654587696 0 -0.013578259298911289 0.0019340658558471935 0 -0.015176797694496693 0.00069602004663685713 0 -0.014593196592823212 0.0015450915821899772 0 -0.013936796569288671 0.00028161992654587696 0 -0.011985925225132034 0.00085710344144290654 0 -0.013936796569288671 0.00028161992654587696 0 -0.013578259298911289 0.0019340658558471935 0 -0.011985925225132034 0.00085710344144290654 0 -0.013578259298911289 0.0019340658558471935 0 -0.012112775647320516 0.0023827802574638143 0 -0.011985925225132034 0.00085710344144290654 0 -0.012403972466274549 -0.00062191452665243346 0 -0.010698162099578502 -2.1345128703217869e-05 0 -0.011985925225132034 0.00085710344144290654 0 -0.012403972466274549 -0.00062191452665243346 0 -0.013936796569288671 0.00028161992654587696 0 -0.0070774305380112146 0.0016719488355951839 0 -0.0066748581732285284 0.0018118431018353694 0 -0.007012374156834574 0.001238988300583602 0 -0.010357769312907427 0.00030712969565209046 0 -0.0089370897574499297 0.00062713014749941735 0 -0.012403972466274549 -0.00062191452665243346 0 -0.014099281032865341 -0.0012113180190074732 0 -0.013936796569288671 0.00028161992654587696 0 -0.015210931224063575 0.00058308315828058262 0 -0.0089370897574499297 0.00062713014749941735 0 -0.015273302795693895 -0.00043247212366665357 0 -0.014099281032865341 -0.0012113180190074732 0 -0.013936796569288671 0.00028161992654587696 0 -0.015273302795693895 -0.00043247212366665357 0 -0.015176797694496693 0.00069602004663685713 0 -0.013936796569288671 0.00028161992654587696 0 -0.0089292563091707931 0.0014965835708622606 0 -0.0093927908583385893 0.00028782670411067854 0 -0.0076267749967399443 0.0015120023899860293 0 -0.0091510504926664189 0.0013404549275350484 0 -0.0095907991845744448 0.0017414041164999115 0 -0.0089292563091707931 0.0014965835708622606 0 -0.010225727189254397 0.00089075920533406461 0 -0.0094477273960616136 0.0021972668484599328 0 -0.0056686000961050026 0.0018996950373800657 0 -0.0091510504926664189 0.0013404549275350484 0 -0.0089292563091707931 0.0014965835708622606 0 -0.0093927908583385893 0.00028782670411067854 0 -0.010225727189254397 0.00089075920533406461 0 -0.0091510504926664189 0.0013404549275350484 0 -0.01230660886299585 0.0023965595044420493 0 -0.011985925225132034 0.00085710344144290654 0 -0.010078305827193632 0.00099691264723753177 0 -0.012112775647320516 0.0023827802574638143 0 -0.011985925225132034 0.00085710344144290654 0 -0.010078305827193632 0.00099691264723753177 0 -0.010698162099578502 -2.1345128703217869e-05 0 -0.0091510504926664189 0.0013404549275350484 0 -0.0068015322074679307 0.0016800152509238878 0 -0.0071742830718669118 0.0016516544417133005 0 -0.0072857816425918771 0.0017265024513726133 0 -0.0073706323823889324 0.0015854576825862754 0 -0.0026413498509115178 0.0028021777678642326 0 -0.0028231673759667388 0.0029189102443371918 0 -0.0026966682610212161 0.003114157799170843 0 -0.0068015322074679307 0.0016800152509238878 0 -0.0031443212204695843 0.0030190206115795854 0 -0.010357769312907427 0.00030712969565209046 0 -0.0068015322074679307 0.0016800152509238878 0 -0.0056686000961050026 0.0018996950373800657 0 -0.0032958786759172284 0.0028951637296080321 0 -0.0028231673759667388 0.0029189102443371918 0 -0.0028719036566243498 0.0030842660079988286 0 -0.0031280138944431344 0.0029297421041777102 0 -0.0028581776808467778 0.0027277490384895907 0 -0.0028231673759667388 0.0029189102443371918 0 -0.0031280138944431344 0.0029297421041777102 0 -0.0028581776808467778 0.0027277490384895907 0 -0.0026413498509115178 0.0028021777678642326 0 -0.0028231673759667388 0.0029189102443371918 0 -0.0056686000961050026 0.0018996950373800657 0 -0.0068015322074679307 0.0016800152509238878 0 -0.002837020752519587 0.0032639953515112958 0 -0.0026966682610212161 0.003114157799170843 0 -0.0026893865193588504 0.0034452825152037044 0 -0.0028719036566243498 0.0030842660079988286 0 -0.002837020752519587 0.0032639953515112958 0 -0.0030746707831440364 0.0032048530891915237 0 -0.0028231673759667388 0.0029189102443371918 0 -0.0028719036566243498 0.0030842660079988286 0 -0.0026966682610212161 0.003114157799170843 0 -0.0028719036566243498 0.0030842660079988286 0 -0.002837020752519587 0.0032639953515112958 0 -0.0026966682610212161 0.003114157799170843 0 -0.0026413498509115178 0.0028021777678642326 0 -0.0026966682610212161 0.003114157799170843 0 -0.0023856912426714859 0.003201898666641854 0 -0.0026966682610212161 0.003114157799170843 0 -0.0026893865193588504 0.0034452825152037044 0 -0.0023856912426714859 0.003201898666641854 0 -0.0024846792971365459 0.0035467887065370168 0 -0.0031443212204695843 0.0030190206115795854 0 -0.002566850397214944 0.0036760456259044565 0 -0.0020663530214047291 0.0033573202088520281 0 -0.0021742499754382602 0.0037393479427452647 0 -0.002566850397214944 0.0036760456259044565 0 -0.0021742499754382602 0.0037393479427452647 0 -0.0021014266088967321 0.0040678212404560918 0 -0.0026893865193588504 0.0034452825152037044 0 -0.0030109741649268955 0.0037766892470165281 0 -0.0029799514521165128 0.0034408495058892295 0 -0.002837020752519587 0.0032639953515112958 0 -0.0026893865193588504 0.0034452825152037044 0 -0.0029799514521165128 0.0034408495058892295 0 -0.002837020752519587 0.0032639953515112958 0 -0.0029799514521165128 0.0034408495058892295 0 -0.0030746707831440364 0.0032048530891915237 0 -0.0017481926754791596 0.0039297702866527241 0 -0.0016799768083525458 0.004017166035407361 0 -0.0018156292613388516 0.003980975408238616 0 -0.0070774305380112146 0.0016719488355951839 0 -0.0074903322693114357 0.0015282669844210914 0 -0.007012374156834574 0.001238988300583602 0 -0.0089370897574499297 0.00062713014749941735 0 -0.0031443212204695843 0.0030190206115795854 0 -0.0020663530214047291 0.0033573202088520281 0 -0.0021742499754382602 0.0037393479427452647 0 -0.0016939061760476227 0.0040776624596220029 0 -0.0031443212204695843 0.0030190206115795854 0 -0.0012933770453030389 0.0043949715974482681 0 -0.0018156292613388516 0.003980975408238616 0 -0.0016490348609645644 0.004058215023970471 0 -0.0016939061760476227 0.0040776624596220029 0 -0.0016799768083525458 0.004017166035407361 0 -0.0018156292613388516 0.003980975408238616 0 -0.0016490348609645644 0.004058215023970471 0 -0.0015976911715862286 0.0040958070325448374 0 -0.0016799768083525458 0.004017166035407361 0 -0.0016490348609645644 0.004058215023970471 0 -0.0015976911715862286 0.0040958070325448374 0 -0.0016490348609645644 0.004058215023970471 0 -0.0015009858150196714 0.0041669100785274556 0 -0.0015009858150196714 0.0041669100785274556 0 -0.0016939061760476227 0.0040776624596220029 0 -0.0021014266088967321 0.0040678212404560918 0 -0.0015009858150196714 0.0041669100785274556 0 -0.0012895673528715733 0.0041162891812058528 0 -0.0011643647213532998 0.00407857779626466 0 -0.0016490348609645644 0.004058215023970471 0 -0.0015009858150196714 0.0041669100785274556 0 -0.0016939061760476227 0.0040776624596220029 0 -0.0015002662089792411 0.004147977355323876 0 -0.001643688882475578 0.0040604489587283393 0 -0.0015009858150196714 0.0041669100785274556 0 -0.0012895673528715733 0.0041162891812058528 0 -0.0014060873822491617 0.0041528506442444629 0 -0.0014060873822491617 0.0041528506442444629 0 -0.0012367699640404035 0.0041453470007852813 0 -0.0013016763643849485 0.0041719297432478248 0 -0.0012367699640404035 0.0041453470007852813 0 -0.0013016763643849485 0.0041719297432478248 0 -0.0010739343109728017 0.0041927217902584463 0 -0.0012895673528715733 0.0041162891812058528 0 -0.0014060873822491617 0.0041528506442444629 0 -0.0012367699640404035 0.0041453470007852813 0 -0.001167753934480744 0.0040931883626685941 0 -0.0012058622599195555 0.0041497865310641006 0 -0.0010739343109728017 0.0041927217902584463 0 -0.0012367699640404035 0.0041453470007852813 0 -0.001167753934480744 0.0040931883626685941 0 -0.0010739343109728017 0.0041927217902584463 0 -0.0012895673528715733 0.0041162891812058528 0 -0.0012367699640404035 0.0041453470007852813 0 -0.001167753934480744 0.0040931883626685941 0 -0.001167753934480744 0.0040931883626685941 0 -0.0011643647213532998 0.00407857779626466 0 -0.0012427768627947676 0.004013568916782638 0 -0.0021742499754382602 0.0037393479427452647 0 -0.0016939061760476227 0.0040776624596220029 0 -0.0021014266088967321 0.0040678212404560918 0 -0.0012895673528715733 0.0041162891812058528 0 -0.001167753934480744 0.0040931883626685941 0 -0.0011643647213532998 0.00407857779626466 0 -0.002566850397214944 0.0036760456259044565 0 -0.0021014266088967321 0.0040678212404560918 0 -0.0026743969412626385 0.0039481015504631688 0 -0.001643688882475578 0.0040604489587283393 0 -0.002057728084871938 0.0038540194040135685 0 -0.0011643647213532998 0.00407857779626466 0 -0.0014159663090783133 0.003757214145769829 0 -0.0012427768627947676 0.004013568916782638 0 -0.002566850397214944 0.0036760456259044565 0 -0.0026743969412626385 0.0039481015504631688 0 -0.0030109741649268955 0.0037766892470165281 0 -0.0024846792971365459 0.0035467887065370168 0 -0.0030522548349114359 0.0037958621140962777 0 -0.0014159663090783133 0.003757214145769829 0 -0.0014205720817512312 0.0040314499170603889 0 -0.0017630993430484607 0.0038897077809314298 0 -0.0014205720817512312 0.0040314499170603889 0 -0.0017231283343741484 0.0041017261356128465 0 -0.0017630993430484607 0.0038897077809314298 0 -0.0014159663090783133 0.003757214145769829 0 -0.0014205720817512312 0.0040314499170603889 0 -0.0012427768627947676 0.004013568916782638 0 -0.0014205720817512312 0.0040314499170603889 0 -0.0017231283343741484 0.0041017261356128465 0 -0.001375889632998378 0.0042634190989711256 0 -0.001167753934480744 0.0040931883626685941 0 -0.0012427768627947676 0.004013568916782638 0 -0.0012058622599195555 0.0041497865310641006 0 -0.0014205720817512312 0.0040314499170603889 0 -0.0012427768627947676 0.004013568916782638 0 -0.0012058622599195555 0.0041497865310641006 0 -0.0014205720817512312 0.0040314499170603889 0 -0.0012058622599195555 0.0041497865310641006 0 -0.001375889632998378 0.0042634190989711256 0 -0.0012058622599195555 0.0041497865310641006 0 -0.0011276750615701592 0.004426369592187996 0 -0.001375889632998378 0.0042634190989711256 0 -0.0012058622599195555 0.0041497865310641006 0 -0.0011276750615701592 0.004426369592187996 0 -0.0010739343109728017 0.0041927217902584463 0 -0.0017231283343741484 0.0041017261356128465 0 -0.001375889632998378 0.0042634190989711256 0 -0.0019840379996550147 0.0043488061858915931 0 -0.001375889632998378 0.0042634190989711256 0 -0.0015584069686285656 0.0045244498811259255 0 -0.0019840379996550147 0.0043488061858915931 0 -0.0011276750615701592 0.004426369592187996 0 -0.001375889632998378 0.0042634190989711256 0 -0.0015584069686285656 0.0045244498811259255 0 -0.0012796327684190634 0.004866889137065491 0 -0.0011276750615701592 0.004426369592187996 0 -0.0015584069686285656 0.0045244498811259255 0 -0.00090014479647183192 0.0048497611954402067 0 -0.0012796327684190634 0.004866889137065491 0 -0.0011276750615701592 0.004426369592187996 0 -0.00090014479647183192 0.0048497611954402067 0 -0.0011276750615701592 0.004426369592187996 0 -0.0009336761523856741 0.0042710721290320835 0 -0.00074024867805423536 0.0048661546197068233 0 -0.00090014479647183192 0.0048497611954402067 0 -0.0009336761523856741 0.0042710721290320835 0 -0.00063814920184008172 0.0043905199828456034 0 -0.0010129499554755023 0.0041919479757381349 0 -0.0012304347161728444 0.0035974340931236963 0 -0.0014056132130608782 0.0040016139940755764 0 -0.0009336761523856741 0.0042710721290320835 0 -0.0014056132130608782 0.0040016139940755764 0 -0.0009336761523856741 0.0042710721290320835 0 -0.0013016763643849485 0.0041719297432478248 0 -0.0009336761523856741 0.0042710721290320835 0 -0.0013016763643849485 0.0041719297432478248 0 -0.0010739343109728017 0.0041927217902584463 0 -0.0011276750615701592 0.004426369592187996 0 -0.0009336761523856741 0.0042710721290320835 0 -0.0010739343109728017 0.0041927217902584463 0 -0.0031080050527760913 0.0046599718675509674 0 -0.0027512086478622493 0.0043233587119786447 0 -0.0034973395857384321 0.004232683102764959 0 -0.0031080050527760913 0.0046599718675509674 0 -0.0036500104429998338 0.0046978849996823771 0 -0.0034973395857384321 0.004232683102764959 0 -0.0036500104429998338 0.0046978849996823771 0 -0.0034973395857384321 0.004232683102764959 0 -0.0038809308944294284 0.0043550007888704207 0 -0.0031080050527760913 0.0046599718675509674 0 -0.0036500104429998338 0.0046978849996823771 0 -0.0034212314301671062 0.0050133813316445824 0 -0.0036500104429998338 0.0046978849996823771 0 -0.0034212314301671062 0.0050133813316445824 0 -0.0038281845558284029 0.0051050296634166841 0 -0.0029497884885144412 0.0050320963374061237 0 -0.0031080050527760913 0.0046599718675509674 0 -0.0034212314301671062 0.0050133813316445824 0 -0.0029497884885144412 0.0050320963374061237 0 -0.0031080050527760913 0.0046599718675509674 0 -0.002268534060208602 0.0047449253477159625 0 -0.0015584069686285656 0.0045244498811259255 0 -0.002268534060208602 0.0047449253477159625 0 -0.0019840379996550147 0.0043488061858915931 0 -0.0012796327684190634 0.004866889137065491 0 -0.0015584069686285656 0.0045244498811259255 0 -0.002268534060208602 0.0047449253477159625 0 -0.0031080050527760913 0.0046599718675509674 0 -0.002268534060208602 0.0047449253477159625 0 -0.0027512086478622493 0.0043233587119786447 0 -0.0019840379996550147 0.0043488061858915931 0 -0.0027512086478622493 0.0043233587119786447 0 -0.0022265010663162941 0.0040539092821728785 0 -0.002268534060208602 0.0047449253477159625 0 -0.0019840379996550147 0.0043488061858915931 0 -0.0027512086478622493 0.0043233587119786447 0 -0.0027512086478622493 0.0043233587119786447 0 -0.0022265010663162941 0.0040539092821728785 0 -0.0033815340783077737 0.0037743159466196762 0 -0.0022265010663162941 0.0040539092821728785 0 -0.0021908448923975152 0.0035516629852204561 0 -0.0033815340783077737 0.0037743159466196762 0 -0.0017231283343741484 0.0041017261356128465 0 -0.0019840379996550147 0.0043488061858915931 0 -0.0022265010663162941 0.0040539092821728785 0 -0.0017231283343741484 0.0041017261356128465 0 -0.0022265010663162941 0.0040539092821728785 0 -0.0017630993430484607 0.0038897077809314298 0 -0.0022265010663162941 0.0040539092821728785 0 -0.0017630993430484607 0.0038897077809314298 0 -0.0021908448923975152 0.0035516629852204561 0 -0.002057728084871938 0.0038540194040135685 0 -0.0026973574772596008 0.003701012747016195 0 -0.0026743969412626385 0.0039481015504631688 0 -0.0031934429600377757 0.0037872423687687205 0 -0.0030109741649268955 0.0037766892470165281 0 -0.0014159663090783133 0.003757214145769829 0 -0.0017630993430484607 0.0038897077809314298 0 -0.0021908448923975152 0.0035516629852204561 0 -0.0031934429600377757 0.0037872423687687205 0 -0.0031698367650497944 0.0036218303326683446 0 -0.0030109741649268955 0.0037766892470165281 0 -0.0026973574772596008 0.003701012747016195 0 -0.0033251472281602469 0.00375290653724998 0 -0.0031934429600377757 0.0037872423687687205 0 -0.0033340596566854195 0.0036691400702899128 0 -0.0033815340783077737 0.0037743159466196762 0 -0.0031934429600377757 0.0037872423687687205 0 -0.0031698367650497944 0.0036218303326683446 0 -0.0033340596566854195 0.0036691400702899128 0 -0.0033340596566854195 0.0036691400702899128 0 -0.0033815340783077737 0.0037743159466196762 0 -0.0039545386984383675 0.0033489323718379938 0 -0.0033815340783077737 0.0037743159466196762 0 -0.0040074694706254844 0.0037973886998914318 0 -0.0039545386984383675 0.0033489323718379938 0 -0.0027512086478622493 0.0043233587119786447 0 -0.0033815340783077737 0.0037743159466196762 0 -0.0034973395857384321 0.004232683102764959 0 -0.0033815340783077737 0.0037743159466196762 0 -0.0034973395857384321 0.004232683102764959 0 -0.0040074694706254844 0.0037973886998914318 0 -0.0034973395857384321 0.004232683102764959 0 -0.0038809308944294284 0.0043550007888704207 0 -0.0040074694706254844 0.0037973886998914318 0 -0.0040074694706254844 0.0037973886998914318 0 -0.0039545386984383675 0.0033489323718379938 0 -0.004344234760529116 0.0032620270351518309 0 -0.0033340596566854195 0.0036691400702899128 0 -0.0039545386984383675 0.0033489323718379938 0 -0.0034797300034726578 0.0033834687807899992 0 -0.0039545386984383675 0.0033489323718379938 0 -0.0034797300034726578 0.0033834687807899992 0 -0.0034378067262225238 0.0031065810990147627 0 -0.0039614372897937445 0.0033189240950306778 0 -0.0038965443622296101 0.0031762408176090927 0 -0.0039545386984383675 0.0033489323718379938 0 -0.0042378880801206536 0.0031498454804661227 0 -0.0043843852441690905 0.0030515829037858935 0 -0.0039545386984383675 0.0033489323718379938 0 -0.004344234760529116 0.0032620270351518309 0 -0.0043843852441690905 0.0030515829037858935 0 -0.004344234760529116 0.0032620270351518309 0 -0.0043843852441690905 0.0030515829037858935 0 -0.004662064219085417 0.0029263777376977245 0 -0.0031698367650497944 0.0036218303326683446 0 -0.0030109741649268955 0.0037766892470165281 0 -0.0029799514521165128 0.0034408495058892295 0 -0.0031698367650497944 0.0036218303326683446 0 -0.0029799514521165128 0.0034408495058892295 0 -0.0032538906807359673 0.0034086928632336391 0 -0.0029799514521165128 0.0034408495058892295 0 -0.0032538906807359673 0.0034086928632336391 0 -0.0030746707831440364 0.0032048530891915237 0 -0.0031698367650497944 0.0036218303326683446 0 -0.0033340596566854195 0.0036691400702899128 0 -0.0032538906807359673 0.0034086928632336391 0 -0.0033340596566854195 0.0036691400702899128 0 -0.0032538906807359673 0.0034086928632336391 0 -0.0034797300034726578 0.0033834687807899992 0 -0.0032538906807359673 0.0034086928632336391 0 -0.0034797300034726578 0.0033834687807899992 0 -0.0034378067262225238 0.0031065810990147627 0 -0.0032538906807359673 0.0034086928632336391 0 -0.0034378067262225238 0.0031065810990147627 0 -0.0030746707831440364 0.0032048530891915237 0 -0.0038965443622296101 0.0031762408176090927 0 -0.0032958786759172284 0.0028951637296080321 0 -0.0028719036566243498 0.0030842660079988286 0 -0.0030746707831440364 0.0032048530891915237 0 -0.0031280138944431344 0.0029297421041777102 0 -0.0034378067262225238 0.0031065810990147627 0 -0.0030746707831440364 0.0032048530891915237 0 -0.0031280138944431344 0.0029297421041777102 0 -0.0038305194378671801 0.002779422636435467 0 -0.0040835877395795717 0.0029694272616617558 0 -0.0040726030441620145 0.0028116795671348769 0 -0.0040835877395795717 0.0029694272616617558 0 -0.0040726030441620145 0.0028116795671348769 0 -0.0042297416608666526 0.0028623944489136683 0 -0.0042378880801206536 0.0031498454804661227 0 -0.0042297416608666526 0.0028623944489136683 0 -0.0044916671826845805 0.0028647895393690941 0 -0.0042378880801206536 0.0031498454804661227 0 -0.0040835877395795717 0.0029694272616617558 0 -0.0042297416608666526 0.0028623944489136683 0 -0.0056571896321093414 0.0019016548180871295 0 -0.0048778609521957427 0.0023791584001063896 0 -0.0042297416608666526 0.0028623944489136683 0 -0.0041573170502724344 0.0026312488121801175 0 -0.0044916671826845805 0.0028647895393690941 0 -0.0041573170502724344 0.0026312488121801175 0 -0.0044916671826845805 0.0028647895393690941 0 -0.0049327547815491389 0.0024287004421825681 0 -0.0093927908583385893 0.00028782670411067854 0 -0.0066588394585678137 0.0012781250327860321 0 -0.0076267749967399443 0.0015120023899860293 0 -0.0056686000961050026 0.0018996950373800657 0 -0.0056571896321093414 0.0019016548180871295 0 -0.0038305194378671801 0.002779422636435467 0 -0.0040726030441620145 0.0028116795671348769 0 -0.0041573170502724344 0.0026312488121801175 0 -0.0040726030441620145 0.0028116795671348769 0 -0.0042297416608666526 0.0028623944489136683 0 -0.0041573170502724344 0.0026312488121801175 0 -0.0066588394585678137 0.0012781250327860321 0 -0.0076267749967399443 0.0015120023899860293 0 -0.0060460900611491791 0.0023069936173570268 0 -0.0043843852441690905 0.0030515829037858935 0 -0.0047707696311178891 0.0027140570228757284 0 -0.004662064219085417 0.0029263777376977245 0 -0.0043843852441690905 0.0030515829037858935 0 -0.0044916671826845805 0.0028647895393690941 0 -0.0047707696311178891 0.0027140570228757284 0 -0.0042378880801206536 0.0031498454804661227 0 -0.0043843852441690905 0.0030515829037858935 0 -0.0044916671826845805 0.0028647895393690941 0 -0.0044916671826845805 0.0028647895393690941 0 -0.0047707696311178891 0.0027140570228757284 0 -0.0049327547815491389 0.0024287004421825681 0 -0.0047707696311178891 0.0027140570228757284 0 -0.0048967631445721999 0.0027235482068198799 0 -0.004662064219085417 0.0029263777376977245 0 -0.0047707696311178891 0.0027140570228757284 0 -0.0050457105959983558 0.0026721278343826101 0 -0.0048967631445721999 0.0027235482068198799 0 -0.0047707696311178891 0.0027140570228757284 0 -0.0050457105959983558 0.0026721278343826101 0 -0.0049327547815491389 0.0024287004421825681 0 -0.0050457105959983558 0.0026721278343826101 0 -0.0049327547815491389 0.0024287004421825681 0 -0.0055423556534837529 0.0028412607995107067 0 -0.0050457105959983558 0.0026721278343826101 0 -0.0054655133755587715 0.0029586563826620024 0 -0.0055423556534837529 0.0028412607995107067 0 -0.0050457105959983558 0.0026721278343826101 0 -0.0051920277375790995 0.0028301297391770358 0 -0.0054655133755587715 0.0029586563826620024 0 -0.0050457105959983558 0.0026721278343826101 0 -0.0051920277375790995 0.0028301297391770358 0 -0.0050272320316951139 0.0027198160528464003 0 -0.0051920277375790995 0.0028301297391770358 0 -0.0054993238614090981 0.0030172146843447365 0 -0.0054655133755587715 0.0029586563826620024 0 -0.0051920277375790995 0.0028301297391770358 0 -0.0054993238614090981 0.0030172146843447365 0 -0.0053486044199535388 0.0030077020346018432 0 -0.0054655133755587715 0.0029586563826620024 0 -0.0056502826902098402 0.0030897270273349932 0 -0.0058421376853443783 0.0031688381682598347 0 -0.0054993238614090981 0.0030172146843447365 0 -0.0054655133755587715 0.0029586563826620024 0 -0.0056502826902098402 0.0030897270273349932 0 -0.0057296118912667235 0.0031052601665316568 0 -0.0056469527278418365 0.0032934683227856662 0 -0.0063551885223643474 0.0033282134719391059 0 -0.0054993238614090981 0.0030172146843447365 0 -0.0056502826902098402 0.0030897270273349932 0 -0.0057296118912667235 0.0031052601665316568 0 -0.0056502826902098402 0.0030897270273349932 0 -0.0057296118912667235 0.0031052601665316568 0 -0.0057563911377522719 0.0031430210546434289 0 -0.0026764703013726463 0.0011196715536854792 0 -0.020022126139584186 0.0019900054899798575 0 -0.0057296118912667235 0.0031052601665316568 0 -0.0057563911377522719 0.0031430210546434289 0 -0.0057992436127706042 0.0031564056524281989 0 -0.0057296118912667235 0.0031052601665316568 0 -0.0055114855936537728 0.0031248117882084194 0 -0.0056469527278418365 0.0032934683227856662 0 -0.0055114855936537728 0.0031248117882084194 0 -0.0053486044199535388 0.0030077020346018432 0 -0.0054115504614991664 0.0032088737543136325 0 -0.0054993238614090981 0.0030172146843447365 0 -0.0055114855936537728 0.0031248117882084194 0 -0.0053486044199535388 0.0030077020346018432 0 -0.0054993238614090981 0.0030172146843447365 0 -0.0057296118912667235 0.0031052601665316568 0 -0.0055114855936537728 0.0031248117882084194 0 -0.014437329359799874 0.0051767615007084957 0 -0.020022126139584186 0.0019900054899798575 0 -0.008854072061756646 0.0071565754947948389 0 -0.0072321223563051465 0.0056751738645682056 0 -0.0068607432369229464 0.0074208865506729905 0 -0.0057563911377522719 0.0031430210546434289 0 -0.0058421376853443783 0.0031688381682598347 0 -0.0057992436127706042 0.0031564056524281989 0 -0.005013215585882488 0.0055519411395944986 0 -0.020022126139584186 0.0019900054899798575 0 -0.0056502826902098402 0.0030897270273349932 0 -0.0057563911377522719 0.0031430210546434289 0 -0.0058421376853443783 0.0031688381682598347 0 -0.008854072061756646 0.0071565754947948389 0 -0.0072321223563051465 0.0056751738645682056 0 -0.0089103641429201866 0.0057114243215378828 0 -0.0072321223563051465 0.0056751738645682056 0 -0.0086237939944081386 0.0044224827777506834 0 -0.0089103641429201866 0.0057114243215378828 0 -0.0086237939944081386 0.0044224827777506834 0 -0.0075386230352517992 0.0037411866451422097 0 -0.0085833647511610288 0.0028631603881515131 0 -0.0072321223563051465 0.0056751738645682056 0 -0.0086237939944081386 0.0044224827777506834 0 -0.0075386230352517992 0.0037411866451422097 0 -0.0054655133755587715 0.0029586563826620024 0 -0.0058421376853443783 0.0031688381682598347 0 -0.0055423556534837529 0.0028412607995107067 0 -0.005013215585882488 0.0055519411395944986 0 -0.0071651559298741381 0.0029267180360846622 0 -0.0058421376853443783 0.0031688381682598347 0 -0.0063166749306866818 0.0029114973684984716 0 -0.0055423556534837529 0.0028412607995107067 0 -0.0066588394585678137 0.0012781250327860321 0 -0.0049327547815491389 0.0024287004421825681 0 -0.0060460900611491791 0.0023069936173570268 0 -0.0063166749306866818 0.0029114973684984716 0 -0.0055423556534837529 0.0028412607995107067 0 -0.0060460900611491791 0.0023069936173570268 0 -0.0049327547815491389 0.0024287004421825681 0 -0.0055423556534837529 0.0028412607995107067 0 -0.0060460900611491791 0.0023069936173570268 0 -0.0075224327068574666 0.0016909405301018374 0 -0.0071651559298741381 0.0029267180360846622 0 -0.0076267749967399443 0.0015120023899860293 0 -0.0075386230352517992 0.0037411866451422097 0 -0.0085833647511610288 0.0028631603881515131 0 -0.0076267749967399443 0.0015120023899860293 0 -0.0063166749306866818 0.0029114973684984716 0 -0.0060460900611491791 0.0023069936173570268 0 -0.0089292563091707931 0.0014965835708622606 0 -0.0076267749967399443 0.0015120023899860293 0 -0.0085833647511610288 0.0028631603881515131 0 -0.0089292563091707931 0.0014965835708622606 0 -0.0085833647511610288 0.0028631603881515131 0 -0.0094477273960616136 0.0021972668484599328 0 -0.010190230782407073 0.00099741448475369667 0 -0.0094477273960616136 0.0021972668484599328 0 -0.010712181525883472 0.0033062172311261544 0 -0.0085833647511610288 0.0028631603881515131 0 -0.0094477273960616136 0.0021972668484599328 0 -0.0094539182994149498 0.0035313653166016141 0 -0.0094477273960616136 0.0021972668484599328 0 -0.010712181525883472 0.0033062172311261544 0 -0.0094539182994149498 0.0035313653166016141 0 -0.010190230782407073 0.00099741448475369667 0 -0.010712181525883472 0.0033062172311261544 0 -0.012143930943282042 0.0023466150580296161 0 -0.010712181525883472 0.0033062172311261544 0 -0.012425805475813774 0.0039752889739998699 0 -0.011395284047379417 0.0051577858118771512 0 -0.010712181525883472 0.0033062172311261544 0 -0.0099329367730422325 0.004757980288162691 0 -0.011395284047379417 0.0051577858118771512 0 -0.0086237939944081386 0.0044224827777506834 0 -0.0085833647511610288 0.0028631603881515131 0 -0.0094539182994149498 0.0035313653166016141 0 -0.0086237939944081386 0.0044224827777506834 0 -0.0099329367730422325 0.004757980288162691 0 -0.0094539182994149498 0.0035313653166016141 0 -0.010712181525883472 0.0033062172311261544 0 -0.0099329367730422325 0.004757980288162691 0 -0.0094539182994149498 0.0035313653166016141 0 -0.014717584846342755 0.0026132542808235517 0 -0.013578259298911289 0.0019340658558471935 0 -0.014093679461713155 0.0037212753062574491 0 -0.014717584846342755 0.0026132542808235517 0 -0.014093679461713155 0.0037212753062574491 0 -0.015583682864239761 0.00360586313823371 0 -0.014593196592823212 0.0015450915821899772 0 -0.014717584846342755 0.0026132542808235517 0 -0.013578259298911289 0.0019340658558471935 0 -0.012143930943282042 0.0023466150580296161 0 -0.012425805475813774 0.0039752889739998699 0 -0.014093679461713155 0.0037212753062574491 0 -0.013578259298911289 0.0019340658558471935 0 -0.012112775647320516 0.0023827802574638143 0 -0.014093679461713155 0.0037212753062574491 0 -0.01230660886299585 0.0023965595044420493 0 -0.013901336225089917 0.0036086648810077738 0 -0.010712181525883472 0.0033062172311261544 0 -0.012143930943282042 0.0023466150580296161 0 -0.012425805475813774 0.0039752889739998699 0 -0.012425805475813774 0.0039752889739998699 0 -0.01329376805191099 0.0053293843964719928 0 -0.011395284047379417 0.0051577858118771512 0 -0.012425805475813774 0.0039752889739998699 0 -0.014093679461713155 0.0037212753062574491 0 -0.01329376805191099 0.0053293843964719928 0 -0.014093679461713155 0.0037212753062574491 0 -0.01329376805191099 0.0053293843964719928 0 -0.015583682864239761 0.00360586313823371 0 -0.017369145497557376 0.0035545519036355899 0 -0.017539481733986409 0.0028508834637216334 0 -0.017599725268504975 0.0034532446352256662 0 -0.01368762988849398 0.0050948678221475179 0 -0.016958393900929236 0.0029658209923902855 0 -0.017369145497557376 0.0035545519036355899 0 -0.017444137633470497 0.0036398826873500286 0 -0.017599725268504975 0.0034532446352256662 0 -0.017369145497557376 0.0035545519036355899 0 -0.017444137633470497 0.0036398826873500286 0 -0.017552644019863936 0.0035908556965545441 0 -0.01329376805191099 0.0053293843964719928 0 -0.011395284047379417 0.0051577858118771512 0 -0.011220049841842548 0.0069323479616103514 0 -0.01368762988849398 0.0050948678221475179 0 -0.022733602655806078 0.0036085545707859102 0 -0.037386163394397529 0.00097656274247331074 0 -0.039021451136770753 0.0016749763820889496 0 -0.038464294015554658 0.00025376393717525055 0 -0.028268492867966552 0.0026374669038281926 0 -0.022733602655806078 0.0036085545707859102 0 -0.037386163394397529 0.00097656274247331074 0 -0.036588974695391414 0.0020484247343488687 0 -0.039021451136770753 0.0016749763820889496 0 -0.037386163394397529 0.00097656274247331074 0 -0.036588974695391414 0.0020484247343488687 0 -0.035776016895883771 0.0010104986052188231 0 -0.0086237939944081386 0.0044224827777506834 0 -0.0099329367730422325 0.004757980288162691 0 -0.0089103641429201866 0.0057114243215378828 0 -0.0099329367730422325 0.004757980288162691 0 -0.010046420700386072 0.0059799980725424038 0 -0.0089103641429201866 0.0057114243215378828 0 -0.0099329367730422325 0.004757980288162691 0 -0.010046420700386072 0.0059799980725424038 0 -0.011395284047379417 0.0051577858118771512 0 -0.010046420700386072 0.0059799980725424038 0 -0.011395284047379417 0.0051577858118771512 0 -0.011220049841842548 0.0069323479616103514 0 -0.039021451136770753 0.0016749763820889496 0 -0.040272924815881073 0.00059233603762235223 0 -0.038464294015554658 0.00025376393717525055 0 -0.022733602655806078 0.0036085545707859102 0 -0.033023579965281553 0.00089983485903973189 0 -0.008854072061756646 0.0071565754947948389 0 -0.010046420700386072 0.0059799980725424038 0 -0.011220049841842548 0.0069323479616103514 0 -0.024112876976749607 0.0019974720736740197 0 -0.025037938570394963 0.0019118295039031884 0 -0.024608733134810816 0.0022578016858975664 0 -0.008854072061756646 0.0071565754947948389 0 -0.010046420700386072 0.0059799980725424038 0 -0.0089103641429201866 0.0057114243215378828 0 -0.014437329359799874 0.0051767615007084957 0 -0.022733602655806078 0.0036085545707859102 0 -0.033023579965281553 0.00089983485903973189 0 -0.036070537929311149 -0.00026836722340030248 0 -0.040272924815881073 0.00059233603762235223 0 -0.040199870351828072 -0.0010767027133933957 0 -0.041396745863094345 -0.0004161051896735245 0 -0.024112876976749607 0.0019974720736740197 0 -0.024608733134810816 0.0022578016858975664 0 -0.024171738971110867 0.0026771023961153161 0 -0.040272924815881073 0.00059233603762235223 0 -0.039223854971458715 -0.00072134553755621555 0 -0.038464294015554658 0.00025376393717525055 0 -0.040272924815881073 0.00059233603762235223 0 -0.039223854971458715 -0.00072134553755621555 0 -0.040199870351828072 -0.0010767027133933957 0 -0.039223854971458715 -0.00072134553755621555 0 -0.039064496916984645 -0.0018821434228066371 0 -0.040199870351828072 -0.0010767027133933957 0 -0.039012318875790805 -0.0020005110293073 0 -0.040513766171572076 -0.0013119412583172708 0 -0.039064496916984645 -0.0018821434228066371 0 -0.040060534619285354 -0.0021401555312045889 0 -0.04004627327665683 -0.0023420589064990435 0 -0.040170567137616665 -0.0024249048649711419 0 -0.040060534619285354 -0.0021401555312045889 0 -0.04004627327665683 -0.0023420589064990435 0 -0.040170567137616665 -0.0024249048649711419 0 -0.040230945579268262 -0.0024884931442753877 0 -0.04004627327665683 -0.0023420589064990435 0 -0.040513766171572076 -0.0013119412583172708 0 -0.036070537929311149 -0.00026836722340030248 0 -0.040170567137616665 -0.0024249048649711419 0 -0.040060534619285354 -0.0021401555312045889 0 -0.040153580102729514 -0.0026046134006357745 0 -0.037386163394397529 0.00097656274247331074 0 -0.035776016895883771 0.0010104986052188231 0 -0.03674353967188377 -7.329248883643745e-05 0 -0.03674353967188377 -7.329248883643745e-05 0 -0.036105415367924269 -0.00092990020108104136 0 -0.035308716502230442 -5.0141840024514059e-05 0 -0.035776016895883771 0.0010104986052188231 0 -0.03674353967188377 -7.329248883643745e-05 0 -0.035308716502230442 -5.0141840024514059e-05 0 -0.03674353967188377 -7.329248883643745e-05 0 -0.038464294015554658 0.00025376393717525055 0 -0.037697703271400117 -0.0011233325126444565 0 -0.037386163394397529 0.00097656274247331074 0 -0.03674353967188377 -7.329248883643745e-05 0 -0.038464294015554658 0.00025376393717525055 0 -0.039223854971458715 -0.00072134553755621555 0 -0.038464294015554658 0.00025376393717525055 0 -0.037697703271400117 -0.0011233325126444565 0 -0.037935345910624731 -0.0020678696172864767 0 -0.037697703271400117 -0.0011233325126444565 0 -0.036252687544309721 -0.0023491435385713634 0 -0.039223854971458715 -0.00072134553755621555 0 -0.039064496916984645 -0.0018821434228066371 0 -0.037697703271400117 -0.0011233325126444565 0 -0.039064496916984645 -0.0018821434228066371 0 -0.037935345910624731 -0.0020678696172864767 0 -0.037697703271400117 -0.0011233325126444565 0 -0.037697703271400117 -0.0011233325126444565 0 -0.036105415367924269 -0.00092990020108104136 0 -0.036252687544309721 -0.0023491435385713634 0 -0.03674353967188377 -7.329248883643745e-05 0 -0.037697703271400117 -0.0011233325126444565 0 -0.036105415367924269 -0.00092990020108104136 0 -0.043103347997664056 -0.0033624401085365031 0 -0.042764363788265355 -0.0024536975035454162 0 -0.043358516290276823 -0.0028296364855934413 0 -0.043103347997664056 -0.0033624401085365031 0 -0.042079476715506263 -0.003220086860992255 0 -0.042764363788265355 -0.0024536975035454162 0 -0.037935345910624731 -0.0020678696172864767 0 -0.036252687544309721 -0.0023491435385713634 0 -0.038662742892126026 -0.0029331984607696999 0 -0.040138495618208904 -0.0030500060506039603 0 -0.040234178357125658 -0.0029876604162860807 0 -0.039064496916984645 -0.0018821434228066371 0 -0.037935345910624731 -0.0020678696172864767 0 -0.038662742892126026 -0.0029331984607696999 0 -0.042079476715506263 -0.003220086860992255 0 -0.042764363788265355 -0.0024536975035454162 0 -0.041737524952587875 -0.0022546613196611459 0 -0.042764363788265355 -0.0024536975035454162 0 -0.043358516290276823 -0.0028296364855934413 0 -0.043606616012129736 -0.0023784764794661651 0 -0.042764363788265355 -0.0024536975035454162 0 -0.043606616012129736 -0.0023784764794661651 0 -0.043361141896304523 -0.0019637941074247154 0 -0.040230945579268262 -0.0024884931442753877 0 -0.040529992645565727 -0.00278589092679353 0 -0.040209785628245537 -0.0024685234952973633 0 -0.040230945579268262 -0.0024884931442753877 0 -0.04004627327665683 -0.0023420589064990435 0 -0.040529992645565727 -0.00278589092679353 0 -0.040234178357125658 -0.0029876604162860807 0 -0.040521851719914535 -0.002861019609437767 0 -0.038662742892126026 -0.0029331984607696999 0 -0.04004627327665683 -0.0023420589064990435 0 -0.040529992645565727 -0.00278589092679353 0 -0.039064496916984645 -0.0018821434228066371 0 -0.038662742892126026 -0.0029331984607696999 0 -0.04004627327665683 -0.0023420589064990435 0 -0.042079476715506263 -0.003220086860992255 0 -0.041737524952587875 -0.0022546613196611459 0 -0.040529992645565727 -0.00278589092679353 0 -0.041737524952587875 -0.0022546613196611459 0 -0.040529992645565727 -0.00278589092679353 0 -0.0406527523218293 -0.0021693122499699059 0 -0.040529992645565727 -0.00278589092679353 0 -0.040209785628245537 -0.0024685234952973633 0 -0.0406527523218293 -0.0021693122499699059 0 -0.040068967853582826 -0.0021180047997104586 0 -0.040209785628245537 -0.0024685234952973633 0 -0.0406527523218293 -0.0021693122499699059 0 -0.040068967853582826 -0.0021180047997104586 0 -0.039899480500076225 -0.0023338554280883362 0 -0.040209785628245537 -0.0024685234952973633 0 -0.040230945579268262 -0.0024884931442753877 0 -0.040209785628245537 -0.0024685234952973633 0 -0.039922350441112239 -0.0024173172280376686 0 -0.039899480500076225 -0.0023338554280883362 0 -0.040209785628245537 -0.0024685234952973633 0 -0.039922350441112239 -0.0024173172280376686 0 -0.040230945579268262 -0.0024884931442753877 0 -0.039922350441112239 -0.0024173172280376686 0 -0.040010211148808365 -0.0024865824396884022 0 -0.039592749251591654 -0.0023552926880170597 0 -0.039641971150509443 -0.0022525098924108954 0 -0.039528984642214764 -0.0024576339096531318 0 -0.039423655175053758 -0.0020214111864232361 0 -0.037895805114739223 -0.0015803065824502981 0 -0.039592749251591654 -0.0023552926880170597 0 -0.039090014881662381 -0.0023590686326977477 0 -0.039267739327458487 -0.0024152110946040685 0 -0.039922350441112239 -0.0024173172280376686 0 -0.039592749251591654 -0.0023552926880170597 0 -0.039630076771076647 -0.0024662232963153399 0 -0.039899480500076225 -0.0023338554280883362 0 -0.039592749251591654 -0.0023552926880170597 0 -0.039641971150509443 -0.0022525098924108954 0 -0.039899480500076225 -0.0023338554280883362 0 -0.039922350441112239 -0.0024173172280376686 0 -0.039592749251591654 -0.0023552926880170597 0 -0.040068967853582826 -0.0021180047997104586 0 -0.039641971150509443 -0.0022525098924108954 0 -0.039541759024198472 -0.0017630718311269587 0 -0.040068967853582826 -0.0021180047997104586 0 -0.039899480500076225 -0.0023338554280883362 0 -0.039641971150509443 -0.0022525098924108954 0 -0.039641971150509443 -0.0022525098924108954 0 -0.039315960845250776 -0.002150244046673265 0 -0.039541759024198472 -0.0017630718311269587 0 -0.042634702823666069 -0.0022007166325106551 0 -0.04275303539382426 -0.0024099550538388874 0 -0.042852520960878784 -0.0022091624328926655 0 -0.042634702823666069 -0.0022007166325106551 0 -0.042831544703941113 -0.0020280386181469354 0 -0.042852520960878784 -0.0022091624328926655 0 -0.039696186251776004 -0.0012789654318101631 0 -0.03831064024376564 -0.0010425868814764024 0 -0.035520530703995495 0.0018339519261817486 0 -0.033967007106295841 -3.599270252283023e-05 0 -0.035319355490433961 -0.00096061511246210978 0 -0.033967007106295841 -3.599270252283023e-05 0 -0.035319355490433961 -0.00096061511246210978 0 -0.032364266482778084 -0.0019313135239090954 0 -0.035520530703995495 0.0018339519261817486 0 -0.035319355490433961 -0.00096061511246210978 0 -0.037242253731870414 -0.0013268991293183075 0 -0.039641971150509443 -0.0022525098924108954 0 -0.039315960845250776 -0.002150244046673265 0 -0.039528984642214764 -0.0024576339096531318 0 -0.039696186251776004 -0.0012789654318101631 0 -0.037895805114739223 -0.0015803065824502981 0 -0.037895805114739223 -0.0015803065824502981 0 -0.035924281223495891 -0.0022322039009734377 0 -0.035319355490433961 -0.00096061511246210978 0 -0.037242253731870414 -0.0013268991293183075 0 -0.035221760359353364 -0.0027857606756837051 0 -0.037761459250941237 -0.00022726133378002842 0 -0.037082909206148727 -0.0024965564980087484 0 -0.034208445425955032 -0.0024809126877392879 0 -0.037082909206148727 -0.0024965564980087484 0 -0.034208445425955032 -0.0024809126877392879 0 -0.0362138468280222 -0.0036035757350525765 0 -0.037082909206148727 -0.0024965564980087484 0 -0.038225760942501914 -0.003492746476082542 0 -0.038845702611020369 -0.0024372536498905384 0 -0.037761459250941237 -0.00022726133378002842 0 -0.037082909206148727 -0.0024965564980087484 0 -0.038845702611020369 -0.0024372536498905384 0 -0.035221760359353364 -0.0027857606756837051 0 -0.033134993117772515 -0.0042675882517695732 0 -0.032364266482778084 -0.0019313135239090954 0 -0.035319355490433961 -0.00096061511246210978 0 -0.035221760359353364 -0.0027857606756837051 0 -0.032364266482778084 -0.0019313135239090954 0 -0.0055114855936537728 0.0031248117882084194 0 -0.0056469527278418365 0.0032934683227856662 0 -0.0054115504614991664 0.0032088737543136325 0 -0.020138625235284945 -0.0012622508394445815 0 -0.021700540287000428 -0.0016961326718293165 0 -0.035924281223495891 -0.0022322039009734377 0 -0.021700540287000428 -0.0016961326718293165 0 -0.034208445425955032 -0.0024809126877392879 0 -0.034707489387057269 -0.0056606722479286805 0 -0.030478647844118089 -0.0050100660074517359 0 -0.020138625235284945 -0.0012622508394445815 0 -0.020022126139584186 0.0019900054899798575 0 -0.034707489387057269 -0.0056606722479286805 0 -0.036929985302057176 -0.0046950865711764137 0 -0.038889096074331449 -0.0060998103404204416 0 -0.037082909206148727 -0.0024965564980087484 0 -0.0362138468280222 -0.0036035757350525765 0 -0.038225760942501914 -0.003492746476082542 0 -0.0362138468280222 -0.0036035757350525765 0 -0.036929985302057176 -0.0046950865711764137 0 -0.038225760942501914 -0.003492746476082542 0 -0.034208445425955032 -0.0024809126877392879 0 -0.0362138468280222 -0.0036035757350525765 0 -0.034707489387057269 -0.0056606722479286805 0 -0.0362138468280222 -0.0036035757350525765 0 -0.034707489387057269 -0.0056606722479286805 0 -0.036929985302057176 -0.0046950865711764137 0 -0.020022126139584186 0.0019900054899798575 0 -0.035909528664886649 -0.0074064055124013354 0 -0.036929985302057176 -0.0046950865711764137 0 -0.038889096074331449 -0.0060998103404204416 0 -0.038225760942501914 -0.003492746476082542 0 -0.038951531025949025 -0.0032445514689967169 0 -0.038225760942501914 -0.003492746476082542 0 -0.038845702611020369 -0.0024372536498905384 0 -0.038646680724241718 -0.0042513953893170281 0 -0.038951531025949025 -0.0032445514689967169 0 -0.038225760942501914 -0.003492746476082542 0 -0.038646680724241718 -0.0042513953893170281 0 -0.038951531025949025 -0.0032445514689967169 0 -0.039534988980178265 -0.0031060468488046619 0 -0.038646680724241718 -0.0042513953893170281 0 -0.040438051835285094 -0.0029609897685143856 0 -0.039534988980178265 -0.0031060468488046619 0 -0.024112876976749607 0.0019974720736740197 0 -0.023049781572011385 0.0021645898442587659 0 -0.024171738971110867 0.0026771023961153161 0 -0.020022126139584186 0.0019900054899798575 0 -0.036070537929311149 -0.00026836722340030248 0 -0.040438051835285094 -0.0029609897685143856 0 -0.039534988980178265 -0.0031060468488046619 0 -0.040126099391346502 -0.0027016224101818719 0 -0.036070537929311149 -0.00026836722340030248 0 -0.038621206363453106 -0.0021870860361039349 0 -0.039730651475692012 -0.0026759899462965898 0 -0.040126099391346502 -0.0027016224101818719 0 -0.040010211148808365 -0.0024865824396884022 0 -0.039534988980178265 -0.0031060468488046619 0 -0.039730651475692012 -0.0026759899462965898 0 -0.040126099391346502 -0.0027016224101818719 0 -0.039534988980178265 -0.0031060468488046619 0 -0.039730651475692012 -0.0026759899462965898 0 -0.039355786956097441 -0.0026592137540565556 0 -0.040170567137616665 -0.0024249048649711419 0 -0.040126099391346502 -0.0027016224101818719 0 -0.040010211148808365 -0.0024865824396884022 0 -0.040170567137616665 -0.0024249048649711419 0 -0.040153580102729514 -0.0026046134006357745 0 -0.040126099391346502 -0.0027016224101818719 0 -0.040170567137616665 -0.0024249048649711419 0 -0.040230945579268262 -0.0024884931442753877 0 -0.040010211148808365 -0.0024865824396884022 0 -0.039922350441112239 -0.0024173172280376686 0 -0.040010211148808365 -0.0024865824396884022 0 -0.039630076771076647 -0.0024662232963153399 0 -0.039730651475692012 -0.0026759899462965898 0 -0.040010211148808365 -0.0024865824396884022 0 -0.039630076771076647 -0.0024662232963153399 0 -0.039592749251591654 -0.0023552926880170597 0 -0.039630076771076647 -0.0024662232963153399 0 -0.039267739327458487 -0.0024152110946040685 0 -0.039630076771076647 -0.0024662232963153399 0 -0.039267739327458487 -0.0024152110946040685 0 -0.039355786956097441 -0.0026592137540565556 0 -0.037895805114739223 -0.0015803065824502981 0 -0.038631227113245917 -0.0022508142037917091 0 -0.039090014881662381 -0.0023590686326977477 0 -0.039267739327458487 -0.0024152110946040685 0 -0.038845702611020369 -0.0024372536498905384 0 -0.038951531025949025 -0.0032445514689967169 0 -0.038845702611020369 -0.0024372536498905384 0 -0.039355786956097441 -0.0026592137540565556 0 -0.039267739327458487 -0.0024152110946040685 0 -0.038845702611020369 -0.0024372536498905384 0 -0.039355786956097441 -0.0026592137540565556 0 -0.038951531025949025 -0.0032445514689967169 0 -0.039534988980178265 -0.0031060468488046619 0 -0.039355786956097441 -0.0026592137540565556 0 -0.039730651475692012 -0.0026759899462965898 0 -0.039630076771076647 -0.0024662232963153399 0 -0.039355786956097441 -0.0026592137540565556 0 -0.027763878088715482 0.00093072843836540682 0 -0.027886111643996604 0.0016106522565636902 0 -0.028335456930273058 0.00048826333390237147 0 -0.027516292482908541 0.0020710309133580838 0 -0.02806180640179945 0.00056766831136246588 0 -0.02736183699336216 0.00062145202114838533 0 -0.027763878088715482 0.00093072843836540682 0 -0.028335456930273058 0.00048826333390237147 0 -0.027455336990261155 0.0013479602585686314 0 -0.027763878088715482 0.00093072843836540682 0 -0.027886111643996604 0.0016106522565636902 0 -0.027455336990261155 0.0013479602585686314 0 -0.027763878088715482 0.00093072843836540682 0 -0.027408919927304383 0.00098259548121081984 0 -0.02736183699336216 0.00062145202114838533 0 -0.027763878088715482 0.00093072843836540682 0 -0.027408919927304383 0.00098259548121081984 0 -0.028633341538532385 0.0015599018480201322 0 -0.026867529070232789 0.0022857372073724017 0 -0.02777194736530697 0.00065892836495780739 0 -0.028633341538532385 0.0015599018480201322 0 -0.029363928096452767 0.00052106306649854473 0 -0.02777194736530697 0.00065892836495780739 0 -0.028633341538532385 0.0015599018480201322 0 -0.026867529070232789 0.0022857372073724017 0 -0.028668040065611907 0.0031255611142741355 0 -0.026867529070232789 0.0022857372073724017 0 -0.026440337478498135 0.0033676493896478421 0 -0.028668040065611907 0.0031255611142741355 0 -0.027516292482908541 0.0020710309133580838 0 -0.024897482391029832 0.0020879161036170416 0 -0.027166229310214028 0.0018812364020453231 0 -0.027886111643996604 0.0016106522565636902 0 -0.027468232986158306 0.0026965458341649093 0 -0.026867529070232789 0.0022857372073724017 0 -0.026440337478498135 0.0033676493896478421 0 -0.026284348555619622 0.0035306245856723531 0 -0.027166229310214028 0.0018812364020453231 0 -0.027455336990261155 0.0013479602585686314 0 -0.027886111643996604 0.0016106522565636902 0 -0.026440337478498135 0.0033676493896478421 0 -0.026284348555619622 0.0035306245856723531 0 -0.025519746659856807 0.0028633381614769182 0 -0.026284348555619622 0.0035306245856723531 0 -0.025519746659856807 0.0028633381614769182 0 -0.025949248781891206 0.0019035733044569184 0 -0.024897482391029832 0.0020879161036170416 0 -0.02438972875036698 0.0017756827560629943 0 -0.022559398058493919 0.0015796504638981867 0 -0.022759762931901666 0.0010932452528493711 0 -0.022920352713804413 0.0015275625316240966 0 -0.025519746659856807 0.0028633381614769182 0 -0.025949248781891206 0.0019035733044569184 0 -0.024370976339968743 0.0016260513699163947 0 -0.021883067395388273 0.0018306276408954401 0 -0.02438972875036698 0.0017756827560629943 0 -0.02309995175307256 0.0019885369398040392 0 -0.022920352713804413 0.0015275625316240966 0 -0.022735558922256469 0.0017793209692859987 0 -0.022559398058493919 0.0015796504638981867 0 -0.022920352713804413 0.0015275625316240966 0 -0.022735558922256469 0.0017793209692859987 0 -0.0253085869371753 0.00039005184658749784 0 -0.025949248781891206 0.0019035733044569184 0 -0.024370976339968743 0.0016260513699163947 0 -0.025519746659856807 0.0028633381614769182 0 -0.024370976339968743 0.0016260513699163947 0 -0.023997613502886709 0.0027579521833212993 0 -0.026440337478498135 0.0033676493896478421 0 -0.025519746659856807 0.0028633381614769182 0 -0.023599219376914438 0.0041464570736728856 0 -0.025519746659856807 0.0028633381614769182 0 -0.023997613502886709 0.0027579521833212993 0 -0.023599219376914438 0.0041464570736728856 0 -0.026416018849792895 0.0034200803697111708 0 -0.026131249612535486 0.003594838495411647 0 -0.022526410307463617 0.002409535493351221 0 -0.02102739790262299 0.0042869762708502993 0 -0.023599219376914438 0.0041464570736728856 0 -0.023997613502886709 0.0027579521833212993 0 -0.022526410307463617 0.002409535493351221 0 -0.023599219376914438 0.0041464570736728856 0 -0.024370976339968743 0.0016260513699163947 0 -0.023997613502886709 0.0027579521833212993 0 -0.022526410307463617 0.002409535493351221 0 -0.021253105410349998 0.00080544257138003179 0 -0.023267481913397645 0.0005249466348702603 0 -0.022526410307463617 0.002409535493351221 0 -0.023267481913397645 0.0005249466348702603 0 -0.024370976339968743 0.0016260513699163947 0 -0.022526410307463617 0.002409535493351221 0 -0.021253105410349998 0.00080544257138003179 0 -0.022526410307463617 0.002409535493351221 0 -0.020403208292520802 0.0024114781869440894 0 -0.022526410307463617 0.002409535493351221 0 -0.02102739790262299 0.0042869762708502993 0 -0.020403208292520802 0.0024114781869440894 0 -0.030489301859254223 0.0027340848458247682 0 -0.028668040065611907 0.0031255611142741355 0 -0.03009542344637741 0.0013548638270424259 0 -0.025768354276768091 0.0035084971447197255 0 -0.026131249612535486 0.003594838495411647 0 -0.028633341538532385 0.0015599018480201322 0 -0.028668040065611907 0.0031255611142741355 0 -0.03009542344637741 0.0013548638270424259 0 -0.028633341538532385 0.0015599018480201322 0 -0.03009542344637741 0.0013548638270424259 0 -0.029363928096452767 0.00052106306649854473 0 -0.030489301859254223 0.0027340848458247682 0 -0.03009542344637741 0.0013548638270424259 0 -0.0316723685287413 0.00095162655538264028 0 -0.0316723685287413 0.00095162655538264028 0 -0.032235469660440275 0.0024836400974339 0 -0.033248459213848593 0.0011620014226006864 0 -0.025768354276768091 0.0035084971447197255 0 -0.025780138887059406 0.0032775634432335417 0 -0.030489301859254223 0.0027340848458247682 0 -0.0316723685287413 0.00095162655538264028 0 -0.032235469660440275 0.0024836400974339 0 -0.02102739790262299 0.0042869762708502993 0 -0.019126549775347799 0.0040895418090306831 0 -0.019623792361357383 0.003277919757961011 0 -0.019623792361357383 0.003277919757961011 0 -0.020403208292520802 0.0024114781869440894 0 -0.018991429766710383 0.002320246810283436 0 -0.02102739790262299 0.0042869762708502993 0 -0.019623792361357383 0.003277919757961011 0 -0.020403208292520802 0.0024114781869440894 0 -0.021253105410349998 0.00080544257138003179 0 -0.019363501529265074 0.0013435160993416867 0 -0.020403208292520802 0.0024114781869440894 0 -0.019363501529265074 0.0013435160993416867 0 -0.020403208292520802 0.0024114781869440894 0 -0.018991429766710383 0.002320246810283436 0 -0.019623792361357383 0.003277919757961011 0 -0.018991429766710383 0.002320246810283436 0 -0.018235503319406949 0.0032063398005697918 0 -0.019126549775347799 0.0040895418090306831 0 -0.019623792361357383 0.003277919757961011 0 -0.018235503319406949 0.0032063398005697918 0 -0.018235503319406949 0.0032063398005697918 0 -0.018158597784205213 0.0024849638603172005 0 -0.017539481733986409 0.0028508834637216334 0 -0.018991429766710383 0.002320246810283436 0 -0.018235503319406949 0.0032063398005697918 0 -0.018158597784205213 0.0024849638603172005 0 -0.017899618484713446 0.0017308190935069422 0 -0.016958393900929236 0.0029658209923902855 0 -0.018077311875915363 0.0015393614015575315 0 -0.018158597784205213 0.0024849638603172005 0 -0.017539481733986409 0.0028508834637216334 0 -0.018077311875915363 0.0015393614015575315 0 -0.018991429766710383 0.002320246810283436 0 -0.018158597784205213 0.0024849638603172005 0 -0.014717584846342755 0.0026132542808235517 0 -0.015763333548635256 0.0019380059555022719 0 -0.015583682864239761 0.00360586313823371 0 -0.018077311875915363 0.0015393614015575315 0 -0.015763333548635256 0.0019380059555022719 0 -0.015583682864239761 0.00360586313823371 0 -0.014593196592823212 0.0015450915821899772 0 -0.014717584846342755 0.0026132542808235517 0 -0.015763333548635256 0.0019380059555022719 0 -0.018235503319406949 0.0032063398005697918 0 -0.017539481733986409 0.0028508834637216334 0 -0.017599725268504975 0.0034532446352256662 0 -0.018235503319406949 0.0032063398005697918 0 -0.01793324510360807 0.0038419893760644635 0 -0.017599725268504975 0.0034532446352256662 0 -0.017444137633470497 0.0036398826873500286 0 -0.01793324510360807 0.0038419893760644635 0 -0.017599725268504975 0.0034532446352256662 0 -0.019126549775347799 0.0040895418090306831 0 -0.018235503319406949 0.0032063398005697918 0 -0.01793324510360807 0.0038419893760644635 0 -0.025780138887059406 0.0032775634432335417 0 -0.025855260366817959 0.0031153103407991056 0 -0.034255797304506383 0.0022987157068649635 0 -0.033248459213848593 0.0011620014226006864 0 -0.034552791425448551 0.00089331111826271748 0 -0.032235469660440275 0.0024836400974339 0 -0.034255797304506383 0.0022987157068649635 0 -0.033248459213848593 0.0011620014226006864 0 -0.035776016895883771 0.0010104986052188231 0 -0.034255797304506383 0.0022987157068649635 0 -0.034552791425448551 0.00089331111826271748 0 -0.036588974695391414 0.0020484247343488687 0 -0.035776016895883771 0.0010104986052188231 0 -0.034255797304506383 0.0022987157068649635 0 -0.028268492867966552 0.0026374669038281926 0 -0.025855260366817959 0.0031153103407991056 0 -0.035308716502230442 -5.0141840024514059e-05 0 -0.034270228438902338 1.1814584651099923e-05 0 -0.03462272408921082 -0.00093551924115530948 0 -0.035776016895883771 0.0010104986052188231 0 -0.034552791425448551 0.00089331111826271748 0 -0.035308716502230442 -5.0141840024514059e-05 0 -0.034552791425448551 0.00089331111826271748 0 -0.035308716502230442 -5.0141840024514059e-05 0 -0.034270228438902338 1.1814584651099923e-05 0 -0.033248459213848593 0.0011620014226006864 0 -0.033338537040821958 -0.00012134802430323409 0 -0.034270228438902338 1.1814584651099923e-05 0 -0.033248459213848593 0.0011620014226006864 0 -0.034552791425448551 0.00089331111826271748 0 -0.034270228438902338 1.1814584651099923e-05 0 -0.033338537040821958 -0.00012134802430323409 0 -0.034270228438902338 1.1814584651099923e-05 0 -0.03462272408921082 -0.00093551924115530948 0 -0.033338537040821958 -0.00012134802430323409 0 -0.034084812817735712 -0.0014211519909315454 0 -0.03462272408921082 -0.00093551924115530948 0 -0.033783518057344156 -0.00067597962070228498 0 -0.032731494123111909 -0.0017186086661885752 0 -0.031978003102138705 -0.00022622315184544424 0 -0.036918863737175608 -0.0013325189348289128 0 -0.031423203844457459 -0.00033966107432178202 0 -0.033338537040821958 -0.00012134802430323409 0 -0.034084812817735712 -0.0014211519909315454 0 -0.032182883267548541 -0.00068989669197828051 0 -0.040138495618208904 -0.0030500060506039603 0 -0.036918863737175608 -0.0013325189348289128 0 -0.036105415367924269 -0.00092990020108104136 0 -0.035308716502230442 -5.0141840024514059e-05 0 -0.03462272408921082 -0.00093551924115530948 0 -0.036105415367924269 -0.00092990020108104136 0 -0.036252687544309721 -0.0023491435385713634 0 -0.03462272408921082 -0.00093551924115530948 0 -0.036252687544309721 -0.0023491435385713634 0 -0.033986157708853486 -0.0016057091529521593 0 -0.03462272408921082 -0.00093551924115530948 0 -0.036918863737175608 -0.0013325189348289128 0 -0.034968669283823438 -0.0017768167773397263 0 -0.043103347997664056 -0.0033624401085365031 0 -0.043864115005019751 -0.0029260863565487311 0 -0.043358516290276823 -0.0028296364855934413 0 -0.043103347997664056 -0.0033624401085365031 0 -0.043930077688428111 -0.0035261249090597488 0 -0.043864115005019751 -0.0029260863565487311 0 -0.043864115005019751 -0.0029260863565487311 0 -0.043606616012129736 -0.0023784764794661651 0 -0.044195183782837003 -0.0024030490909298153 0 -0.043864115005019751 -0.0029260863565487311 0 -0.043358516290276823 -0.0028296364855934413 0 -0.043606616012129736 -0.0023784764794661651 0 -0.043864115005019751 -0.0029260863565487311 0 -0.044195183782837003 -0.0024030490909298153 0 -0.04446178799498865 -0.0029667290044042252 0 -0.044195183782837003 -0.0024030490909298153 0 -0.04446178799498865 -0.0029667290044042252 0 -0.044575217821607116 -0.0021768442597332222 0 -0.043606616012129736 -0.0023784764794661651 0 -0.044195183782837003 -0.0024030490909298153 0 -0.04398702783890087 -0.0019905915729207277 0 -0.043930077688428111 -0.0035261249090597488 0 -0.043864115005019751 -0.0029260863565487311 0 -0.04446178799498865 -0.0029667290044042252 0 -0.036918863737175608 -0.0013325189348289128 0 -0.038999507075676315 -0.002229613104040051 0 -0.031790513809900854 -0.0014280835819362292 0 -0.032731494123111909 -0.0017186086661885752 0 -0.031725442724517196 -0.0027663721925504747 0 -0.031790513809900854 -0.0014280835819362292 0 -0.032731494123111909 -0.0017186086661885752 0 -0.031978003102138705 -0.00022622315184544424 0 -0.04446178799498865 -0.0029667290044042252 0 -0.044936656385252752 -0.0024216487365998868 0 -0.044575217821607116 -0.0021768442597332222 0 -0.038999507075676315 -0.002229613104040051 0 -0.036295222546018462 -0.0021678223416618336 0 -0.03054424206456955 -0.0016003775439402516 0 -0.030890451966825265 -0.0016467772008120134 0 -0.030489030618708991 -0.0019427422912435947 0 -0.03054424206456955 -0.0016003775439402516 0 -0.030890451966825265 -0.0016467772008120134 0 -0.030717900830497913 -0.0010411329753696487 0 -0.031790513809900854 -0.0014280835819362292 0 -0.031725442724517196 -0.0027663721925504747 0 -0.030717900830497913 -0.0010411329753696487 0 -0.036295222546018462 -0.0021678223416618336 0 -0.029261556569147872 -0.00072566391505572442 0 -0.031790513809900854 -0.0014280835819362292 0 -0.030717900830497913 -0.0010411329753696487 0 -0.031978003102138705 -0.00022622315184544424 0 -0.030717900830497913 -0.0010411329753696487 0 -0.031978003102138705 -0.00022622315184544424 0 -0.030509714350906429 -1.4351542171082186e-05 0 -0.031423203844457459 -0.00033966107432178202 0 -0.030893943754720814 -0.00010859522217851346 0 -0.0316723685287413 0.00095162655538264028 0 -0.033338537040821958 -0.00012134802430323409 0 -0.032182883267548541 -0.00068989669197828051 0 -0.0316723685287413 0.00095162655538264028 0 -0.033248459213848593 0.0011620014226006864 0 -0.033338537040821958 -0.00012134802430323409 0 -0.0316723685287413 0.00095162655538264028 0 -0.032182883267548541 -0.00068989669197828051 0 -0.030509714350906429 -1.4351542171082186e-05 0 -0.03009542344637741 0.0013548638270424259 0 -0.030509714350906429 -1.4351542171082186e-05 0 -0.029363928096452767 0.00052106306649854473 0 -0.03009542344637741 0.0013548638270424259 0 -0.0316723685287413 0.00095162655538264028 0 -0.030509714350906429 -1.4351542171082186e-05 0 -0.030509714350906429 -1.4351542171082186e-05 0 -0.029363928096452767 0.00052106306649854473 0 -0.029673756935510148 -0.00025636662160876788 0 -0.029363928096452767 0.00052106306649854473 0 -0.029673756935510148 -0.00025636662160876788 0 -0.029061480883114419 -0.00019270662236235356 0 -0.029673756935510148 -0.00025636662160876788 0 -0.029061480883114419 -0.00019270662236235356 0 -0.029435980088724761 -0.00072738119461913692 0 -0.029061480883114419 -0.00019270662236235356 0 -0.029435980088724761 -0.00072738119461913692 0 -0.029115289916530361 -0.00061594905442554975 0 -0.029435980088724761 -0.00072738119461913692 0 -0.029360651037863627 -0.0011228938845403047 0 -0.029135645435813953 -0.00087840530566446289 0 -0.029435980088724761 -0.00072738119461913692 0 -0.029135645435813953 -0.00087840530566446289 0 -0.029115289916530361 -0.00061594905442554975 0 -0.029673756935510148 -0.00025636662160876788 0 -0.029435980088724761 -0.00072738119461913692 0 -0.029988516361107304 -0.00077150758131514505 0 -0.029435980088724761 -0.00072738119461913692 0 -0.029988516361107304 -0.00077150758131514505 0 -0.029676948614301413 -0.0010780226222697332 0 -0.030717900830497913 -0.0010411329753696487 0 -0.030509714350906429 -1.4351542171082186e-05 0 -0.029988516361107304 -0.00077150758131514505 0 -0.030509714350906429 -1.4351542171082186e-05 0 -0.029673756935510148 -0.00025636662160876788 0 -0.029988516361107304 -0.00077150758131514505 0 -0.030717900830497913 -0.0010411329753696487 0 -0.030009223807728275 -0.0012382344193991651 0 -0.030252803002445643 -0.0015025763084169223 0 -0.030717900830497913 -0.0010411329753696487 0 -0.029988516361107304 -0.00077150758131514505 0 -0.030009223807728275 -0.0012382344193991651 0 -0.03054424206456955 -0.0016003775439402516 0 -0.030717900830497913 -0.0010411329753696487 0 -0.030252803002445643 -0.0015025763084169223 0 -0.030009223807728275 -0.0012382344193991651 0 -0.030252803002445643 -0.0015025763084169223 0 -0.029873826407967236 -0.0015069889417926913 0 -0.030252803002445643 -0.0015025763084169223 0 -0.03003024287593976 -0.0016907070586971644 0 -0.029873826407967236 -0.0015069889417926913 0 -0.030252803002445643 -0.0015025763084169223 0 -0.030299855988023112 -0.001727521414759453 0 -0.03003024287593976 -0.0016907070586971644 0 -0.03054424206456955 -0.0016003775439402516 0 -0.030252803002445643 -0.0015025763084169223 0 -0.030299855988023112 -0.001727521414759453 0 -0.02975919485733047 -0.001664094622336221 0 -0.03003024287593976 -0.0016907070586971644 0 -0.029873826407967236 -0.0015069889417926913 0 -0.02975919485733047 -0.001664094622336221 0 -0.029873826407967236 -0.0015069889417926913 0 -0.029566335729942713 -0.0015071741196765129 0 -0.029873826407967236 -0.0015069889417926913 0 -0.029607732565030992 -0.001342678421137976 0 -0.029566335729942713 -0.0015071741196765129 0 -0.029607732565030992 -0.001342678421137976 0 -0.029360651037863627 -0.0011228938845403047 0 -0.029348609064758658 -0.0013028636169221688 0 -0.030009223807728275 -0.0012382344193991651 0 -0.029873826407967236 -0.0015069889417926913 0 -0.029607732565030992 -0.001342678421137976 0 -0.030009223807728275 -0.0012382344193991651 0 -0.029607732565030992 -0.001342678421137976 0 -0.029676948614301413 -0.0010780226222697332 0 -0.029988516361107304 -0.00077150758131514505 0 -0.030009223807728275 -0.0012382344193991651 0 -0.029676948614301413 -0.0010780226222697332 0 -0.029435980088724761 -0.00072738119461913692 0 -0.029676948614301413 -0.0010780226222697332 0 -0.029360651037863627 -0.0011228938845403047 0 -0.029607732565030992 -0.001342678421137976 0 -0.029676948614301413 -0.0010780226222697332 0 -0.029360651037863627 -0.0011228938845403047 0 -0.029360651037863627 -0.0011228938845403047 0 -0.029085734185824174 -0.00117513360628824 0 -0.029135645435813953 -0.00087840530566446289 0 -0.029360651037863627 -0.0011228938845403047 0 -0.029085734185824174 -0.00117513360628824 0 -0.029348609064758658 -0.0013028636169221688 0 -0.029085734185824174 -0.00117513360628824 0 -0.029263934793602012 -0.0013094380695234456 0 -0.029348609064758658 -0.0013028636169221688 0 -0.029085734185824174 -0.00117513360628824 0 -0.029263934793602012 -0.0013094380695234456 0 -0.029254475252758375 -0.0012974508711322884 0 -0.029263934793602012 -0.0013094380695234456 0 -0.029348609064758658 -0.0013028636169221688 0 -0.029391207001483542 -0.001462015200449817 0 -0.029263934793602012 -0.0013094380695234456 0 -0.029391207001483542 -0.001462015200449817 0 -0.029296894594009665 -0.0013959211953467 0 -0.029607732565030992 -0.001342678421137976 0 -0.029348609064758658 -0.0013028636169221688 0 -0.029566335729942713 -0.0015071741196765129 0 -0.029566335729942713 -0.0015071741196765129 0 -0.029391207001483542 -0.001462015200449817 0 -0.029558933410063916 -0.0016418766568164975 0 -0.029348609064758658 -0.0013028636169221688 0 -0.029566335729942713 -0.0015071741196765129 0 -0.029391207001483542 -0.001462015200449817 0 -0.029391207001483542 -0.001462015200449817 0 -0.02944253226397826 -0.0016340078535274649 0 -0.029558933410063916 -0.0016418766568164975 0 -0.029391207001483542 -0.001462015200449817 0 -0.02944253226397826 -0.0016340078535274649 0 -0.029351736901345803 -0.001513772927236564 0 -0.02975919485733047 -0.001664094622336221 0 -0.029566335729942713 -0.0015071741196765129 0 -0.029558933410063916 -0.0016418766568164975 0 -0.029295500151752581 -0.0016235057648820717 0 -0.029359941552911929 -0.0016190004115570345 0 -0.029295623487555697 -0.0014947037448062694 0 -0.029359941552911929 -0.0016190004115570345 0 -0.029351736901345803 -0.001513772927236564 0 -0.029295623487555697 -0.0014947037448062694 0 -0.02944253226397826 -0.0016340078535274649 0 -0.029359941552911929 -0.0016190004115570345 0 -0.029351736901345803 -0.001513772927236564 0 -0.029391207001483542 -0.001462015200449817 0 -0.029351736901345803 -0.001513772927236564 0 -0.029296894594009665 -0.0013959211953467 0 -0.029351736901345803 -0.001513772927236564 0 -0.029295623487555697 -0.0014947037448062694 0 -0.029296894594009665 -0.0013959211953467 0 -0.029295623487555697 -0.0014947037448062694 0 -0.029270787383145421 -0.0013878723778148402 0 -0.029296894594009665 -0.0013959211953467 0 -0.029263934793602012 -0.0013094380695234456 0 -0.029296894594009665 -0.0013959211953467 0 -0.029254475252758375 -0.0012974508711322884 0 -0.029270787383145421 -0.0013878723778148402 0 -0.029296894594009665 -0.0013959211953467 0 -0.029254475252758375 -0.0012974508711322884 0 -0.029270787383145421 -0.0013878723778148402 0 -0.029254475252758375 -0.0012974508711322884 0 -0.029265579996213837 -0.0013467507938051929 0 -0.027853830681460318 -0.00086227201873432526 0 -0.028492628650945973 -0.00095974941458241655 0 -0.027998457784372002 -0.00048879387612769801 0 -0.028649692226844995 -0.0011068362428231125 0 -0.028538743072422764 -0.00084473326957778118 0 -0.02925113326825006 -0.0013322937368921521 0 -0.029265579996213837 -0.0013467507938051929 0 -0.029244808913463916 -0.0013637300744463721 0 -0.029254475252758375 -0.0012974508711322884 0 -0.029265579996213837 -0.0013467507938051929 0 -0.029244808913463916 -0.0013637300744463721 0 -0.029085734185824174 -0.00117513360628824 0 -0.027982187731536223 -0.00052026618803826499 0 -0.028675675758211346 -0.00059030586988905083 0 -0.029008416466337845 -0.0011799724828746617 0 -0.028538743072422764 -0.00084473326957778118 0 -0.029085734185824174 -0.00117513360628824 0 -0.029254475252758375 -0.0012974508711322884 0 -0.029244808913463916 -0.0013637300744463721 0 -0.028797507248259004 -0.00065728543165534013 0 -0.028675675758211346 -0.00059030586988905083 0 -0.028335456930273058 0.00048826333390237147 0 -0.029085734185824174 -0.00117513360628824 0 -0.028797507248259004 -0.00065728543165534013 0 -0.028675675758211346 -0.00059030586988905083 0 -0.029085734185824174 -0.00117513360628824 0 -0.029135645435813953 -0.00087840530566446289 0 -0.028797507248259004 -0.00065728543165534013 0 -0.029135645435813953 -0.00087840530566446289 0 -0.028797507248259004 -0.00065728543165534013 0 -0.029115289916530361 -0.00061594905442554975 0 -0.029061480883114419 -0.00019270662236235356 0 -0.028797507248259004 -0.00065728543165534013 0 -0.029115289916530361 -0.00061594905442554975 0 -0.028538743072422764 -0.00084473326957778118 0 -0.028447859590291839 -0.00068497393729948213 0 -0.029363928096452767 0.00052106306649854473 0 -0.029061480883114419 -0.00019270662236235356 0 -0.02777194736530697 0.00065892836495780739 0 -0.028683153119247167 -0.0005467321633100948 0 -0.02806180640179945 0.00056766831136246588 0 -0.029061480883114419 -0.00019270662236235356 0 -0.028797507248259004 -0.00065728543165534013 0 -0.02777194736530697 0.00065892836495780739 0 -0.028126354553220687 -0.00052558140023418901 0 -0.028675675758211346 -0.00059030586988905083 0 -0.028335456930273058 0.00048826333390237147 0 -0.028126354553220687 -0.00052558140023418901 0 -0.028335456930273058 0.00048826333390237147 0 -0.027412179406674436 0.00011553711628596633 0 -0.02736183699336216 0.00062145202114838533 0 -0.028335456930273058 0.00048826333390237147 0 -0.027412179406674436 0.00011553711628596633 0 -0.028538743072422764 -0.00084473326957778118 0 -0.027725113347632873 -0.0002114619356811736 0 -0.044638373698722873 -0.00047375255882205848 0 -0.043681499898622918 -0.00082097061997551599 0 -0.044713844502674217 -0.00046598530305715715 0 -0.044803793387716701 -0.00036264977681594625 0 -0.044857938173272514 -0.00043319272294795481 0 -0.044855083787742382 -0.00025124821400764763 0 -0.044713844502674217 -0.00046598530305715715 0 -0.044803793387716701 -0.00036264977681594625 0 -0.044803793387716701 -0.00036264977681594625 0 -0.044857938173272514 -0.00043319272294795481 0 -0.044861042623538551 -0.00035577640560977572 0 -0.044853786215763351 -0.00040132067778728695 0 -0.044857938173272514 -0.00043319272294795481 0 -0.044861042623538551 -0.00035577640560977572 0 -0.044853786215763351 -0.00040132067778728695 0 -0.044857938173272514 -0.00043319272294795481 0 -0.044830482170647973 -0.00049139432931864389 0 -0.042525746931149709 -0.0011616822849880332 0 -0.043916146936935838 -0.0021775855270851816 0 -0.041874225473365313 -0.0026633660022166959 0 -0.044713844502674217 -0.00046598530305715715 0 -0.042525746931149709 -0.0011616822849880332 0 -0.043916146936935838 -0.0021775855270851816 0 -0.029342927493551114 -0.001856426113443966 0 -0.02950785463748936 -0.0020163490857185284 0 -0.029440457300203351 -0.0018684673547184564 0 -0.02950785463748936 -0.0020163490857185284 0 -0.029440457300203351 -0.0018684673547184564 0 -0.029561935392507857 -0.001925040462431603 0 -0.029440457300203351 -0.0018684673547184564 0 -0.029449847817533032 -0.0017604603741517579 0 -0.02936024073533677 -0.0017306944178385171 0 -0.029440457300203351 -0.0018684673547184564 0 -0.029449847817533032 -0.0017604603741517579 0 -0.029561935392507857 -0.001925040462431603 0 -0.02944253226397826 -0.0016340078535274649 0 -0.029359941552911929 -0.0016190004115570345 0 -0.029449847817533032 -0.0017604603741517579 0 -0.029295500151752581 -0.0016235057648820717 0 -0.029359941552911929 -0.0016190004115570345 0 -0.02936024073533677 -0.0017306944178385171 0 -0.029359941552911929 -0.0016190004115570345 0 -0.029449847817533032 -0.0017604603741517579 0 -0.02936024073533677 -0.0017306944178385171 0 -0.029558933410063916 -0.0016418766568164975 0 -0.029575003810987623 -0.001807774526601563 0 -0.029722239799364513 -0.0018161410042724533 0 -0.02975919485733047 -0.001664094622336221 0 -0.029558933410063916 -0.0016418766568164975 0 -0.029722239799364513 -0.0018161410042724533 0 -0.02944253226397826 -0.0016340078535274649 0 -0.029449847817533032 -0.0017604603741517579 0 -0.029575003810987623 -0.001807774526601563 0 -0.02944253226397826 -0.0016340078535274649 0 -0.029558933410063916 -0.0016418766568164975 0 -0.029575003810987623 -0.001807774526601563 0 -0.029449847817533032 -0.0017604603741517579 0 -0.029575003810987623 -0.001807774526601563 0 -0.029561935392507857 -0.001925040462431603 0 -0.029575003810987623 -0.001807774526601563 0 -0.029688112693300968 -0.0019402768828610808 0 -0.029722239799364513 -0.0018161410042724533 0 -0.029688112693300968 -0.0019402768828610808 0 -0.029561935392507857 -0.001925040462431603 0 -0.029733088353761549 -0.0020925558734356648 0 -0.02950785463748936 -0.0020163490857185284 0 -0.029561935392507857 -0.001925040462431603 0 -0.029733088353761549 -0.0020925558734356648 0 -0.03614092493284652 -0.0022993645692003977 0 -0.035623041791989364 -0.0023550225225910841 0 -0.029688112693300968 -0.0019402768828610808 0 -0.029733088353761549 -0.0020925558734356648 0 -0.029867813330462952 -0.001982676943777335 0 -0.029575003810987623 -0.001807774526601563 0 -0.029688112693300968 -0.0019402768828610808 0 -0.029561935392507857 -0.001925040462431603 0 -0.035623041791989364 -0.0023550225225910841 0 -0.036689180329166314 -0.0030278915595183887 0 -0.029733088353761549 -0.0020925558734356648 0 -0.029867813330462952 -0.001982676943777335 0 -0.030132912368604891 -0.0021522748307210081 0 -0.041874225473365313 -0.0026633660022166959 0 -0.040433332307353125 -0.0024881841162872173 0 -0.039856734227289067 -0.0030599550222555828 0 -0.040433332307353125 -0.0024881841162872173 0 -0.040063989244414032 -0.0028382097614061985 0 -0.040330604437708181 -0.0021014543230525908 0 -0.039397563697711364 -0.0018443927534778977 0 -0.036689180329166314 -0.0030278915595183887 0 -0.029867813330462952 -0.001982676943777335 0 -0.030068575161795511 -0.001981442857319605 0 -0.030132912368604891 -0.0021522748307210081 0 -0.029867813330462952 -0.001982676943777335 0 -0.029722239799364513 -0.0018161410042724533 0 -0.029912807796181263 -0.0018355653758246094 0 -0.029688112693300968 -0.0019402768828610808 0 -0.029867813330462952 -0.001982676943777335 0 -0.029722239799364513 -0.0018161410042724533 0 -0.029912807796181263 -0.0018355653758246094 0 -0.030137499849337085 -0.0018496591449661129 0 -0.030068575161795511 -0.001981442857319605 0 -0.029867813330462952 -0.001982676943777335 0 -0.029912807796181263 -0.0018355653758246094 0 -0.030068575161795511 -0.001981442857319605 0 -0.02975919485733047 -0.001664094622336221 0 -0.03003024287593976 -0.0016907070586971644 0 -0.029912807796181263 -0.0018355653758246094 0 -0.03003024287593976 -0.0016907070586971644 0 -0.029912807796181263 -0.0018355653758246094 0 -0.030137499849337085 -0.0018496591449661129 0 -0.02975919485733047 -0.001664094622336221 0 -0.029722239799364513 -0.0018161410042724533 0 -0.029912807796181263 -0.0018355653758246094 0 -0.03054424206456955 -0.0016003775439402516 0 -0.030299855988023112 -0.001727521414759453 0 -0.030489030618708991 -0.0019427422912435947 0 -0.030137499849337085 -0.0018496591449661129 0 -0.030068575161795511 -0.001981442857319605 0 -0.030489030618708991 -0.0019427422912435947 0 -0.030299855988023112 -0.001727521414759453 0 -0.030137499849337085 -0.0018496591449661129 0 -0.030489030618708991 -0.0019427422912435947 0 -0.030299855988023112 -0.001727521414759453 0 -0.03003024287593976 -0.0016907070586971644 0 -0.030137499849337085 -0.0018496591449661129 0 -0.038162191730747211 -0.0031168006069219934 0 -0.038674087256383383 -0.0030098070257036612 0 -0.038619702845057294 -0.0027056639519085568 0 -0.040063989244414032 -0.0028382097614061985 0 -0.039665159882901362 -0.0026845649853664832 0 -0.039171884835658116 -0.0029073876105898872 0 -0.036689180329166314 -0.0030278915595183887 0 -0.03934843181675933 -0.0028566424380133547 0 -0.030068575161795511 -0.001981442857319605 0 -0.030132912368604891 -0.0021522748307210081 0 -0.030489030618708991 -0.0019427422912435947 0 -0.042639437833243685 -0.0013453792644898075 0 -0.041562976145101953 -0.0018091221506364213 0 -0.039665159882901362 -0.0026845649853664832 0 -0.040330604437708181 -0.0021014543230525908 0 -0.039122677030678073 -0.0027860076668065371 0 -0.036689180329166314 -0.0030278915595183887 0 -0.034134051371056136 -0.0025299003036882138 0 -0.040063989244414032 -0.0028382097614061985 0 -0.039665159882901362 -0.0026845649853664832 0 -0.040330604437708181 -0.0021014543230525908 0 -0.04470921974933012 -0.00068421096227534175 0 -0.044658779142524703 -0.00073490464162090277 0 -0.044616620598386274 -0.00083061944807836846 0 -0.04470921974933012 -0.00068421096227534175 0 -0.044675052935393131 -0.00066851488328468806 0 -0.044658779142524703 -0.00073490464162090277 0 -0.04470921974933012 -0.00068421096227534175 0 -0.044804412961745713 -0.00061405959128242582 0 -0.044616620598386274 -0.00083061944807836846 0 -0.04470921974933012 -0.00068421096227534175 0 -0.044729178369008638 -0.00062645771525200906 0 -0.044675052935393131 -0.00066851488328468806 0 -0.044675052935393131 -0.00066851488328468806 0 -0.044725604110814977 -0.00056225565537245401 0 -0.044667775231140634 -0.00057717159566626633 0 -0.044729178369008638 -0.00062645771525200906 0 -0.044675052935393131 -0.00066851488328468806 0 -0.044725604110814977 -0.00056225565537245401 0 -0.044725604110814977 -0.00056225565537245401 0 -0.044769654209052441 -0.00057895456724422947 0 -0.044779432752225602 -0.0004982424905077248 0 -0.044769654209052441 -0.00057895456724422947 0 -0.044796521730771234 -0.00054470953083682262 0 -0.044779432752225602 -0.0004982424905077248 0 -0.044729178369008638 -0.00062645771525200906 0 -0.044725604110814977 -0.00056225565537245401 0 -0.044769654209052441 -0.00057895456724422947 0 -0.044769654209052441 -0.00057895456724422947 0 -0.044754962890870061 -0.00062598701635606141 0 -0.044804412961745713 -0.00061405959128242582 0 -0.04470921974933012 -0.00068421096227534175 0 -0.044754962890870061 -0.00062598701635606141 0 -0.044804412961745713 -0.00061405959128242582 0 -0.04470921974933012 -0.00068421096227534175 0 -0.044729178369008638 -0.00062645771525200906 0 -0.044754962890870061 -0.00062598701635606141 0 -0.044729178369008638 -0.00062645771525200906 0 -0.044769654209052441 -0.00057895456724422947 0 -0.044754962890870061 -0.00062598701635606141 0 -0.042525746931149709 -0.0011616822849880332 0 -0.041874225473365313 -0.0026633660022166959 0 -0.040330604437708181 -0.0021014543230525908 0 -0.044857938173272514 -0.00043319272294795481 0 -0.044804412961745713 -0.00061405959128242582 0 -0.044830482170647973 -0.00049139432931864389 0 -0.041874225473365313 -0.0026633660022166959 0 -0.040433332307353125 -0.0024881841162872173 0 -0.040330604437708181 -0.0021014543230525908 0 -0.043681499898622918 -0.00082097061997551599 0 -0.042639437833243685 -0.0013453792644898075 0 -0.044804412961745713 -0.00061405959128242582 0 -0.044830482170647973 -0.00049139432931864389 0 -0.044796521730771234 -0.00054470953083682262 0 -0.044830482170647973 -0.00049139432931864389 0 -0.044796521730771234 -0.00054470953083682262 0 -0.044779432752225602 -0.0004982424905077248 0 -0.044769654209052441 -0.00057895456724422947 0 -0.044804412961745713 -0.00061405959128242582 0 -0.044796521730771234 -0.00054470953083682262 0 -0.044830482170647973 -0.00049139432931864389 0 -0.044819241593205224 -0.00040515976072367149 0 -0.044779432752225602 -0.0004982424905077248 0 -0.044853786215763351 -0.00040132067778728695 0 -0.044830482170647973 -0.00049139432931864389 0 -0.044819241593205224 -0.00040515976072367149 0 -0.044716762927616983 -0.00050164961748145654 0 -0.044779432752225602 -0.0004982424905077248 0 -0.044740499467639347 -0.00040259106857928255 0 -0.044819241593205224 -0.00040515976072367149 0 -0.044779432752225602 -0.0004982424905077248 0 -0.044740499467639347 -0.00040259106857928255 0 -0.044716762927616983 -0.00050164961748145654 0 -0.044658243647120704 -0.00047723919818310032 0 -0.044740499467639347 -0.00040259106857928255 0 -0.044725604110814977 -0.00056225565537245401 0 -0.044716762927616983 -0.00050164961748145654 0 -0.044667775231140634 -0.00057717159566626633 0 -0.044725604110814977 -0.00056225565537245401 0 -0.044716762927616983 -0.00050164961748145654 0 -0.044779432752225602 -0.0004982424905077248 0 -0.044568354863232872 -0.00051290208077782483 0 -0.044658243647120704 -0.00047723919818310032 0 -0.044588878282684832 -0.00061075368338518515 0 -0.044716762927616983 -0.00050164961748145654 0 -0.044658243647120704 -0.00047723919818310032 0 -0.044667775231140634 -0.00057717159566626633 0 -0.044658243647120704 -0.00047723919818310032 0 -0.044588878282684832 -0.00061075368338518515 0 -0.044667775231140634 -0.00057717159566626633 0 -0.044658243647120704 -0.00047723919818310032 0 -0.044625415219152649 -0.00038106350151898889 0 -0.044740499467639347 -0.00040259106857928255 0 -0.044568354863232872 -0.00051290208077782483 0 -0.044658243647120704 -0.00047723919818310032 0 -0.044625415219152649 -0.00038106350151898889 0 -0.044568354863232872 -0.00051290208077782483 0 -0.04445353018481072 -0.00044471856698468374 0 -0.044625415219152649 -0.00038106350151898889 0 -0.044568354863232872 -0.00051290208077782483 0 -0.04445353018481072 -0.00044471856698468374 0 -0.044491075882148394 -0.00069910702252603272 0 -0.044491075882148394 -0.00069910702252603272 0 -0.044471499104640648 -0.00083596194620954689 0 -0.044238545425561986 -0.00081411575879792209 0 -0.04445353018481072 -0.00044471856698468374 0 -0.044491075882148394 -0.00069910702252603272 0 -0.044238545425561986 -0.00081411575879792209 0 -0.044491075882148394 -0.00069910702252603272 0 -0.044558538218516471 -0.000768250388153131 0 -0.044471499104640648 -0.00083596194620954689 0 -0.044491075882148394 -0.00069910702252603272 0 -0.044558538218516471 -0.000768250388153131 0 -0.04456456776428467 -0.00069001432754549027 0 -0.044558538218516471 -0.000768250388153131 0 -0.04456456776428467 -0.00069001432754549027 0 -0.044618285460501679 -0.00068133190144661893 0 -0.044491075882148394 -0.00069910702252603272 0 -0.04456456776428467 -0.00069001432754549027 0 -0.044588878282684832 -0.00061075368338518515 0 -0.044568354863232872 -0.00051290208077782483 0 -0.044491075882148394 -0.00069910702252603272 0 -0.044588878282684832 -0.00061075368338518515 0 -0.04456456776428467 -0.00069001432754549027 0 -0.044588878282684832 -0.00061075368338518515 0 -0.044618285460501679 -0.00068133190144661893 0 -0.044588878282684832 -0.00061075368338518515 0 -0.044667775231140634 -0.00057717159566626633 0 -0.044618285460501679 -0.00068133190144661893 0 -0.044675052935393131 -0.00066851488328468806 0 -0.044667775231140634 -0.00057717159566626633 0 -0.044618285460501679 -0.00068133190144661893 0 -0.044675052935393131 -0.00066851488328468806 0 -0.044618285460501679 -0.00068133190144661893 0 -0.044626285472004222 -0.00073574867564119191 0 -0.044558538218516471 -0.000768250388153131 0 -0.044618285460501679 -0.00068133190144661893 0 -0.044626285472004222 -0.00073574867564119191 0 -0.044675052935393131 -0.00066851488328468806 0 -0.044626285472004222 -0.00073574867564119191 0 -0.044658779142524703 -0.00073490464162090277 0 -0.038674087256383383 -0.0030098070257036612 0 -0.038853506276649477 -0.0027776843406145065 0 -0.039089910850680809 -0.0028505107235332534 0 -0.039665159882901362 -0.0026845649853664832 0 -0.039122677030678073 -0.0027860076668065371 0 -0.039171884835658116 -0.0029073876105898872 0 -0.044626285472004222 -0.00073574867564119191 0 -0.044658779142524703 -0.00073490464162090277 0 -0.044616620598386274 -0.00083061944807836846 0 -0.03934843181675933 -0.0028566424380133547 0 -0.038936825034657813 -0.0029091543053912346 0 -0.039122677030678073 -0.0027860076668065371 0 -0.039171884835658116 -0.0029073876105898872 0 -0.039089910850680809 -0.0028505107235332534 0 -0.044558538218516471 -0.000768250388153131 0 -0.044626285472004222 -0.00073574867564119191 0 -0.044616620598386274 -0.00083061944807836846 0 -0.044558538218516471 -0.000768250388153131 0 -0.044616620598386274 -0.00083061944807836846 0 -0.044471499104640648 -0.00083596194620954689 0 -0.038968706409763423 -0.0024535218046002837 0 -0.038853506276649477 -0.0027776843406145065 0 -0.039089910850680809 -0.0028505107235332534 0 -0.038968706409763423 -0.0024535218046002837 0 -0.038619702845057294 -0.0027056639519085568 0 -0.038853506276649477 -0.0027776843406145065 0 -0.038674087256383383 -0.0030098070257036612 0 -0.038619702845057294 -0.0027056639519085568 0 -0.038853506276649477 -0.0027776843406145065 0 -0.036295222546018462 -0.0021678223416618336 0 -0.034134051371056136 -0.0025299003036882138 0 -0.044936656385252752 -0.0024216487365998868 0 -0.044575217821607116 -0.0021768442597332222 0 -0.044589938064024781 -0.0016953005743364795 0 -0.038968706409763423 -0.0024535218046002837 0 -0.039089910850680809 -0.0028505107235332534 0 -0.03911484251711396 -0.0028644870275821351 0 -0.036295222546018462 -0.0021678223416618336 0 -0.043468739926306267 -0.0023700761391315514 0 -0.044575217821607116 -0.0021768442597332222 0 -0.044589938064024781 -0.0016953005743364795 0 -0.044402092472060381 -0.0017731099719530215 0 -0.043468739926306267 -0.0023700761391315514 0 -0.044359368201092 -0.0019177178773177115 0 -0.044616620598386274 -0.00083061944807836846 0 -0.044384253923619936 -0.00097489901474489095 0 -0.044471499104640648 -0.00083596194620954689 0 -0.039122677030678073 -0.0027860076668065371 0 -0.039089910850680809 -0.0028505107235332534 0 -0.03911484251711396 -0.0028644870275821351 0 -0.041562976145101953 -0.0018091221506364213 0 -0.043468739926306267 -0.0023700761391315514 0 -0.044384253923619936 -0.00097489901474489095 0 -0.044471499104640648 -0.00083596194620954689 0 -0.044238545425561986 -0.00081411575879792209 0 -0.044648190660483547 -0.0016671534540795305 0 -0.044131464978503947 -0.0013912277796444402 0 -0.044238545425561986 -0.00081411575879792209 0 -0.044131464978503947 -0.0013912277796444402 0 -0.043731131164632973 -0.0010913738610830103 0 -0.044238545425561986 -0.00081411575879792209 0 -0.043468739926306267 -0.0023700761391315514 0 -0.044436262639993195 -0.00054015433473916796 0 -0.044648190660483547 -0.0016671534540795305 0 -0.044131464978503947 -0.0013912277796444402 0 -0.044402092472060381 -0.0017731099719530215 0 -0.044131464978503947 -0.0013912277796444402 0 -0.044402092472060381 -0.0017731099719530215 0 -0.04398702783890087 -0.0019905915729207277 0 -0.044402092472060381 -0.0017731099719530215 0 -0.04398702783890087 -0.0019905915729207277 0 -0.044292042438477203 -0.0020858594782987832 0 -0.044195183782837003 -0.0024030490909298153 0 -0.04398702783890087 -0.0019905915729207277 0 -0.044292042438477203 -0.0020858594782987832 0 -0.044575217821607116 -0.0021768442597332222 0 -0.044402092472060381 -0.0017731099719530215 0 -0.044292042438477203 -0.0020858594782987832 0 -0.044195183782837003 -0.0024030490909298153 0 -0.044575217821607116 -0.0021768442597332222 0 -0.044292042438477203 -0.0020858594782987832 0 -0.043606616012129736 -0.0023784764794661651 0 -0.04398702783890087 -0.0019905915729207277 0 -0.043361141896304523 -0.0019637941074247154 0 -0.04398702783890087 -0.0019905915729207277 0 -0.043728228858986772 -0.0015957049455478157 0 -0.043361141896304523 -0.0019637941074247154 0 -0.043728228858986772 -0.0015957049455478157 0 -0.043731131164632973 -0.0010913738610830103 0 -0.043059876538176202 -0.001553785983637525 0 -0.044131464978503947 -0.0013912277796444402 0 -0.04398702783890087 -0.0019905915729207277 0 -0.043728228858986772 -0.0015957049455478157 0 -0.044131464978503947 -0.0013912277796444402 0 -0.043728228858986772 -0.0015957049455478157 0 -0.043731131164632973 -0.0010913738610830103 0 -0.043731131164632973 -0.0010913738610830103 0 -0.043791140251298183 -0.000611712523043202 0 -0.04333267505095563 -0.00089667372224061113 0 -0.043731131164632973 -0.0010913738610830103 0 -0.044238545425561986 -0.00081411575879792209 0 -0.043791140251298183 -0.000611712523043202 0 -0.04445353018481072 -0.00044471856698468374 0 -0.044238545425561986 -0.00081411575879792209 0 -0.044183553116099346 -0.00037637803371879942 0 -0.044238545425561986 -0.00081411575879792209 0 -0.043791140251298183 -0.000611712523043202 0 -0.044183553116099346 -0.00037637803371879942 0 -0.043791140251298183 -0.000611712523043202 0 -0.044183553116099346 -0.00037637803371879942 0 -0.043842441089119666 -0.00028099354095571588 0 -0.044183553116099346 -0.00037637803371879942 0 -0.044214314073140026 -0.00018082049623655545 0 -0.043842441089119666 -0.00028099354095571588 0 -0.044183553116099346 -0.00037637803371879942 0 -0.0444021307787709 -0.00021016609475646965 0 -0.044214314073140026 -0.00018082049623655545 0 -0.04445353018481072 -0.00044471856698468374 0 -0.044183553116099346 -0.00037637803371879942 0 -0.0444021307787709 -0.00021016609475646965 0 -0.0444021307787709 -0.00021016609475646965 0 -0.044214314073140026 -0.00018082049623655545 0 -0.044487361391875417 -4.4468342325784441e-05 0 -0.0444021307787709 -0.00021016609475646965 0 -0.044487361391875417 -4.4468342325784441e-05 0 -0.04450665920087403 -0.00013711287118769419 0 -0.044214314073140026 -0.00018082049623655545 0 -0.044487361391875417 -4.4468342325784441e-05 0 -0.0440043183826778 -7.0557169262720778e-05 0 -0.044487361391875417 -4.4468342325784441e-05 0 -0.044999977953675108 6.0110247616170262e-08 0 -0.044515762903153129 6.0557699786950835e-05 0 -0.044999977953675108 6.0110247616170262e-08 0 -0.044515762903153129 6.0557699786950835e-05 0 -0.044998320243268261 4.3693212677540553e-07 0 -0.044487361391875417 -4.4468342325784441e-05 0 -0.044999977953675108 6.0110247616170262e-08 0 -0.044942745736132897 -4.788908869191273e-05 0 -0.04452464223973264 -5.8587971628099626e-05 0 -0.044715410428702126 -4.6421629638857913e-05 0 -0.044487361391875417 -4.4468342325784441e-05 0 -0.044503807438983335 -7.1276949734085145e-05 0 -0.04450665920087403 -0.00013711287118769419 0 -0.044503807438983335 -7.1276949734085145e-05 0 -0.0446438850446415 -0.00010988478557202046 0 -0.04450665920087403 -0.00013711287118769419 0 -0.044503807438983335 -7.1276949734085145e-05 0 -0.044682276237310657 -5.0399193151575707e-06 0 -0.0446438850446415 -0.00010988478557202046 0 -0.0446438850446415 -0.00010988478557202046 0 -0.044640014500206979 -0.00017885551584731816 0 -0.04450665920087403 -0.00013711287118769419 0 -0.044715410428702126 -4.6421629638857913e-05 0 -0.044840824518948594 -1.8270524778674335e-05 0 -0.044999977953675108 6.0110247616170262e-08 0 -0.044942745736132897 -4.788908869191273e-05 0 -0.044999977579775613 -2.9283502095637884e-08 0 -0.044942745736132897 -4.788908869191273e-05 0 -0.044999977579775613 -2.9283502095637884e-08 0 -0.045003203317744579 -1.3769557407717144e-05 0 -0.044840824518948594 -1.8270524778674335e-05 0 -0.04499993167211061 -5.4661089970918368e-10 0 -0.044999977579775613 -2.9283502095637884e-08 0 -0.045003203317744579 -1.3769557407717144e-05 0 -0.045000023578360686 8.6398075601583096e-09 0 -0.044682276237310657 -5.0399193151575707e-06 0 -0.0446438850446415 -0.00010988478557202046 0 -0.044803813687256104 -0.00010647847740571505 0 -0.0446438850446415 -0.00010988478557202046 0 -0.044740126622642852 -0.00018240277242146681 0 -0.044640014500206979 -0.00017885551584731816 0 -0.0446438850446415 -0.00010988478557202046 0 -0.044740126622642852 -0.00018240277242146681 0 -0.044803813687256104 -0.00010647847740571505 0 -0.044640014500206979 -0.00017885551584731816 0 -0.04456127380004718 -0.00025304539044284079 0 -0.044727395775224145 -0.00026359064254853089 0 -0.044740126622642852 -0.00018240277242146681 0 -0.044640014500206979 -0.00017885551584731816 0 -0.044727395775224145 -0.00026359064254853089 0 -0.0444021307787709 -0.00021016609475646965 0 -0.04450665920087403 -0.00013711287118769419 0 -0.04456127380004718 -0.00025304539044284079 0 -0.044640014500206979 -0.00017885551584731816 0 -0.04450665920087403 -0.00013711287118769419 0 -0.04456127380004718 -0.00025304539044284079 0 -0.04445353018481072 -0.00044471856698468374 0 -0.0444021307787709 -0.00021016609475646965 0 -0.04456127380004718 -0.00025304539044284079 0 -0.04445353018481072 -0.00044471856698468374 0 -0.04456127380004718 -0.00025304539044284079 0 -0.044625415219152649 -0.00038106350151898889 0 -0.04456127380004718 -0.00025304539044284079 0 -0.044625415219152649 -0.00038106350151898889 0 -0.044727395775224145 -0.00026359064254853089 0 -0.044625415219152649 -0.00038106350151898889 0 -0.044740499467639347 -0.00040259106857928255 0 -0.044727395775224145 -0.00026359064254853089 0 -0.044800817294136458 -0.00031289188048859803 0 -0.044740499467639347 -0.00040259106857928255 0 -0.044727395775224145 -0.00026359064254853089 0 -0.044819241593205224 -0.00040515976072367149 0 -0.044800817294136458 -0.00031289188048859803 0 -0.044740499467639347 -0.00040259106857928255 0 -0.044853786215763351 -0.00040132067778728695 0 -0.044819241593205224 -0.00040515976072367149 0 -0.044869068144228377 -0.00030012892294951243 0 -0.044819241593205224 -0.00040515976072367149 0 -0.044800817294136458 -0.00031289188048859803 0 -0.044869068144228377 -0.00030012892294951243 0 -0.044800817294136458 -0.00031289188048859803 0 -0.044869068144228377 -0.00030012892294951243 0 -0.044826279769476833 -0.00019451921402685471 0 -0.044869068144228377 -0.00030012892294951243 0 -0.044826279769476833 -0.00019451921402685471 0 -0.044909653581291932 -0.00019287173188006478 0 -0.044800817294136458 -0.00031289188048859803 0 -0.044826279769476833 -0.00019451921402685471 0 -0.044727395775224145 -0.00026359064254853089 0 -0.044740126622642852 -0.00018240277242146681 0 -0.044826279769476833 -0.00019451921402685471 0 -0.044727395775224145 -0.00026359064254853089 0 -0.044826279769476833 -0.00019451921402685471 0 -0.044803813687256104 -0.00010647847740571505 0 -0.044937333835547537 -8.1996886918274519e-05 0 -0.044740126622642852 -0.00018240277242146681 0 -0.044826279769476833 -0.00019451921402685471 0 -0.044803813687256104 -0.00010647847740571505 0 -0.044803813687256104 -0.00010647847740571505 0 -0.044999314977635617 1.3064635134520893e-07 0 -0.044937333835547537 -8.1996886918274519e-05 0 -0.044682276237310657 -5.0399193151575707e-06 0 -0.044803813687256104 -0.00010647847740571505 0 -0.044999314977635617 1.3064635134520893e-07 0 -0.044999314977635617 1.3064635134520893e-07 0 -0.044937333835547537 -8.1996886918274519e-05 0 -0.045000270569753094 -1.7874713790489025e-07 0 -0.044826279769476833 -0.00019451921402685471 0 -0.044937333835547537 -8.1996886918274519e-05 0 -0.044909653581291932 -0.00019287173188006478 0 -0.044909653581291932 -0.00019287173188006478 0 -0.044982377938756084 -0.00015297635003552149 0 -0.044917524604693268 -0.0002469565304654938 0 -0.044937333835547537 -8.1996886918274519e-05 0 -0.044909653581291932 -0.00019287173188006478 0 -0.044982377938756084 -0.00015297635003552149 0 -0.044928898363560774 2.7413418902305029e-05 0 -0.044993586643721835 -1.2486449039750395e-06 0 -0.044999968552932132 -4.4615630048981594e-08 0 -0.044937333835547537 -8.1996886918274519e-05 0 -0.044982377938756084 -0.00015297635003552149 0 -0.045000270569753094 -1.7874713790489025e-07 0 -0.044964167597537616 -7.645875314259418e-05 0 -0.044999965906345391 6.2405447630813857e-09 0 -0.044928898363560774 2.7413418902305029e-05 0 -0.044993586643721835 -1.2486449039750395e-06 0 -0.044841690873152269 1.9476616041798958e-05 0 -0.0450000001640413 1.5385338885112108e-08 0 -0.044993586643721835 -1.2486449039750395e-06 0 -0.044999848171588509 4.7181644036983116e-07 0 -0.044993586643721835 -1.2486449039750395e-06 0 -0.044999848171588509 4.7181644036983116e-07 0 -0.045007013380180219 8.0177712352863374e-06 0 -0.044980796345307633 -3.5686841115976338e-07 0 -0.044921052124687909 2.2325702172457982e-05 0 -0.0450000001640413 1.5385338885112108e-08 0 -0.044993586643721835 -1.2486449039750395e-06 0 -0.044999968552932132 -4.4615630048981594e-08 0 -0.04499258825089842 -8.3820562395846229e-07 0 -0.044999848171588509 4.7181644036983116e-07 0 -0.045007013380180219 8.0177712352863374e-06 0 -0.044928898363560774 2.7413418902305029e-05 0 -0.044841690873152269 1.9476616041798958e-05 0 -0.044822846848143458 0.00020187334683731815 0 -0.04490877498410565 -0.00029313412245017052 0 -0.044917524604693268 -0.0002469565304654938 0 -0.044861042623538551 -0.00035577640560977572 0 -0.044964167597537616 -7.645875314259418e-05 0 -0.044789272031934058 4.6090940465737656e-05 0 -0.044632054633669746 0.00017873863836552901 0 -0.044841690873152269 1.9476616041798958e-05 0 -0.044822846848143458 0.00020187334683731815 0 -0.044982377938756084 -0.00015297635003552149 0 -0.04490877498410565 -0.00029313412245017052 0 -0.044917524604693268 -0.0002469565304654938 0 -0.044869068144228377 -0.00030012892294951243 0 -0.044909653581291932 -0.00019287173188006478 0 -0.044917524604693268 -0.0002469565304654938 0 -0.044869068144228377 -0.00030012892294951243 0 -0.044917524604693268 -0.0002469565304654938 0 -0.044861042623538551 -0.00035577640560977572 0 -0.044853786215763351 -0.00040132067778728695 0 -0.044869068144228377 -0.00030012892294951243 0 -0.044861042623538551 -0.00035577640560977572 0 -0.045335720576761523 -0.00020490598326012172 0 -0.044789272031934058 4.6090940465737656e-05 0 -0.044855083787742382 -0.00025124821400764763 0 -0.044803793387716701 -0.00036264977681594625 0 -0.04490877498410565 -0.00029313412245017052 0 -0.044803793387716701 -0.00036264977681594625 0 -0.04490877498410565 -0.00029313412245017052 0 -0.044861042623538551 -0.00035577640560977572 0 -0.043132288833369399 -0.0024655485464147951 0 -0.043036019968929952 -0.0025274948079290443 0 -0.043125251152268652 -0.0025915340144351145 0 -0.043239202811736356 -0.0024852160405274856 0 -0.043132288833369399 -0.0024655485464147951 0 -0.043125251152268652 -0.0025915340144351145 0 -0.041829455623442882 -0.001509486225838077 0 -0.041587081994573838 -0.0018350692796136583 0 -0.040664938428090561 -0.00036126149860442504 0 -0.040021131568476268 -0.0011445117090576177 0 -0.040824579400913212 -0.0010787204859068519 0 -0.043239202811736356 -0.0024852160405274856 0 -0.043132288833369399 -0.0024655485464147951 0 -0.043197135393246357 -0.0023756823318682478 0 -0.043239202811736356 -0.0024852160405274856 0 -0.043341805686826794 -0.0023571120816366707 0 -0.043197135393246357 -0.0023756823318682478 0 -0.043132288833369399 -0.0024655485464147951 0 -0.043058736115999405 -0.0024438392322701733 0 -0.043127717535456668 -0.0023523993875879615 0 -0.043058736115999405 -0.0024438392322701733 0 -0.0429569882003938 -0.0025169220046728337 0 -0.043036019968929952 -0.0025274948079290443 0 -0.043058736115999405 -0.0024438392322701733 0 -0.0429569882003938 -0.0025169220046728337 0 -0.043065649903669741 -0.0023505251613610461 0 -0.043132288833369399 -0.0024655485464147951 0 -0.043058736115999405 -0.0024438392322701733 0 -0.043036019968929952 -0.0025274948079290443 0 -0.0429569882003938 -0.0025169220046728337 0 -0.042954944277122833 -0.0025802781457148808 0 -0.043036019968929952 -0.0025274948079290443 0 -0.042954944277122833 -0.0025802781457148808 0 -0.043036019968929952 -0.0025274948079290443 0 -0.042995557897347665 -0.0026041355284514194 0 -0.043036019968929952 -0.0025274948079290443 0 -0.042995557897347665 -0.0026041355284514194 0 -0.043125251152268652 -0.0025915340144351145 0 -0.042995557897347665 -0.0026041355284514194 0 -0.042946646163652208 -0.0026597632453402749 0 -0.043030051456089437 -0.0026592150121177555 0 -0.042995557897347665 -0.0026041355284514194 0 -0.043030051456089437 -0.0026592150121177555 0 -0.043125251152268652 -0.0025915340144351145 0 -0.042995557897347665 -0.0026041355284514194 0 -0.042946646163652208 -0.0026597632453402749 0 -0.042925689733154991 -0.0025972323177110138 0 -0.042954944277122833 -0.0025802781457148808 0 -0.042995557897347665 -0.0026041355284514194 0 -0.042925689733154991 -0.0025972323177110138 0 -0.043094458145998965 -0.0029236785591729396 0 -0.042832568774723419 -0.0024529185882971112 0 -0.039696186251776004 -0.0012789654318101631 0 -0.043094458145998965 -0.0029236785591729396 0 -0.042956358208452977 -0.0027031089748185259 0 -0.042946646163652208 -0.0026597632453402749 0 -0.043030051456089437 -0.0026592150121177555 0 -0.039696186251776004 -0.0012789654318101631 0 -0.041416912157256347 -0.0023097418646158508 0 -0.040068967853582826 -0.0021180047997104586 0 -0.039541759024198472 -0.0017630718311269587 0 -0.040470260878024078 -0.0016233675461455113 0 -0.041416912157256347 -0.0023097418646158508 0 -0.041587081994573838 -0.0018350692796136583 0 -0.039541759024198472 -0.0017630718311269587 0 -0.040021131568476268 -0.0011445117090576177 0 -0.040470260878024078 -0.0016233675461455113 0 -0.040021131568476268 -0.0011445117090576177 0 -0.040470260878024078 -0.0016233675461455113 0 -0.040824579400913212 -0.0010787204859068519 0 -0.040068967853582826 -0.0021180047997104586 0 -0.040470260878024078 -0.0016233675461455113 0 -0.0406527523218293 -0.0021693122499699059 0 -0.040470260878024078 -0.0016233675461455113 0 -0.0406527523218293 -0.0021693122499699059 0 -0.041429287612369664 -0.0015076881623905013 0 -0.041737524952587875 -0.0022546613196611459 0 -0.0406527523218293 -0.0021693122499699059 0 -0.041429287612369664 -0.0015076881623905013 0 -0.041737524952587875 -0.0022546613196611459 0 -0.041429287612369664 -0.0015076881623905013 0 -0.042283203202078581 -0.0017166017735454661 0 -0.041429287612369664 -0.0015076881623905013 0 -0.042283203202078581 -0.0017166017735454661 0 -0.042592253121703012 -0.00099343744600512477 0 -0.040470260878024078 -0.0016233675461455113 0 -0.041429287612369664 -0.0015076881623905013 0 -0.040824579400913212 -0.0010787204859068519 0 -0.041429287612369664 -0.0015076881623905013 0 -0.041648077439494474 -0.00069073127631504104 0 -0.040824579400913212 -0.0010787204859068519 0 -0.043728228858986772 -0.0015957049455478157 0 -0.043361141896304523 -0.0019637941074247154 0 -0.043059876538176202 -0.001553785983637525 0 -0.042764363788265355 -0.0024536975035454162 0 -0.043361141896304523 -0.0019637941074247154 0 -0.043059876538176202 -0.001553785983637525 0 -0.042764363788265355 -0.0024536975035454162 0 -0.041737524952587875 -0.0022546613196611459 0 -0.042283203202078581 -0.0017166017735454661 0 -0.042764363788265355 -0.0024536975035454162 0 -0.042283203202078581 -0.0017166017735454661 0 -0.043059876538176202 -0.001553785983637525 0 -0.042283203202078581 -0.0017166017735454661 0 -0.043059876538176202 -0.001553785983637525 0 -0.042592253121703012 -0.00099343744600512477 0 -0.043059876538176202 -0.001553785983637525 0 -0.04333267505095563 -0.00089667372224061113 0 -0.042592253121703012 -0.00099343744600512477 0 -0.043731131164632973 -0.0010913738610830103 0 -0.043059876538176202 -0.001553785983637525 0 -0.04333267505095563 -0.00089667372224061113 0 -0.04333267505095563 -0.00089667372224061113 0 -0.042592253121703012 -0.00099343744600512477 0 -0.043337429087611318 -0.00043522254375867895 0 -0.043337429087611318 -0.00043522254375867895 0 -0.042757288185200103 -0.00028488391506871301 0 -0.043377737304317134 -0.00021094212893616341 0 -0.042592253121703012 -0.00099343744600512477 0 -0.043337429087611318 -0.00043522254375867895 0 -0.042757288185200103 -0.00028488391506871301 0 -0.043791140251298183 -0.000611712523043202 0 -0.043337429087611318 -0.00043522254375867895 0 -0.043842441089119666 -0.00028099354095571588 0 -0.043791140251298183 -0.000611712523043202 0 -0.04333267505095563 -0.00089667372224061113 0 -0.043337429087611318 -0.00043522254375867895 0 -0.040664938428090561 -0.00036126149860442504 0 -0.041648077439494474 -0.00069073127631504104 0 -0.040824579400913212 -0.0010787204859068519 0 -0.042592253121703012 -0.00099343744600512477 0 -0.041648077439494474 -0.00069073127631504104 0 -0.042757288185200103 -0.00028488391506871301 0 -0.041429287612369664 -0.0015076881623905013 0 -0.042592253121703012 -0.00099343744600512477 0 -0.041648077439494474 -0.00069073127631504104 0 -0.041648077439494474 -0.00069073127631504104 0 -0.042757288185200103 -0.00028488391506871301 0 -0.04147971433269388 0.00057855158822292996 0 -0.042309095689381571 5.8329325032026566e-05 0 -0.043234288300734426 -0.00066130562536860624 0 -0.041829455623442882 -0.001509486225838077 0 -0.043234288300734426 -0.00066130562536860624 0 -0.040664938428090561 -0.00036126149860442504 0 -0.041648077439494474 -0.00069073127631504104 0 -0.04147971433269388 0.00057855158822292996 0 -0.044974827383366285 -4.5876543765725473e-05 0 -0.044984111984190209 -2.2955071050556036e-05 0 -0.044972190007800179 -3.7378893899493265e-05 0 -0.043234288300734426 -0.00066130562536860624 0 -0.044276694723448404 -0.0012706296360659075 0 -0.042966159023286953 -0.00023595965998319298 0 -0.043049470384687448 -0.00021579010995618369 0 -0.043203012004791944 -4.7236835037926582e-05 0 -0.042757288185200103 -0.00028488391506871301 0 -0.042966159023286953 -0.00023595965998319298 0 -0.043049470384687448 -0.00021579010995618369 0 -0.043234288300734426 -0.00066130562536860624 0 -0.044246700468405967 8.2114814678794511e-05 0 -0.044993329274463353 -2.1733130527486789e-05 0 -0.044984111984190209 -2.2955071050556036e-05 0 -0.044993452454835832 -7.3637466497343348e-06 0 -0.044974827383366285 -4.5876543765725473e-05 0 -0.044993329274463353 -2.1733130527486789e-05 0 -0.044984111984190209 -2.2955071050556036e-05 0 -0.043842441089119666 -0.00028099354095571588 0 -0.043377737304317134 -0.00021094212893616341 0 -0.0440043183826778 -7.0557169262720778e-05 0 -0.043337429087611318 -0.00043522254375867895 0 -0.043842441089119666 -0.00028099354095571588 0 -0.043377737304317134 -0.00021094212893616341 0 -0.043049470384687448 -0.00021579010995618369 0 -0.043203012004791944 -4.7236835037926582e-05 0 -0.043377737304317134 -0.00021094212893616341 0 -0.042757288185200103 -0.00028488391506871301 0 -0.043049470384687448 -0.00021579010995618369 0 -0.043377737304317134 -0.00021094212893616341 0 -0.043203012004791944 -4.7236835037926582e-05 0 -0.0440043183826778 -7.0557169262720778e-05 0 -0.043965403731753235 0.00016723967063983586 0 -0.043203012004791944 -4.7236835037926582e-05 0 -0.043377737304317134 -0.00021094212893616341 0 -0.0440043183826778 -7.0557169262720778e-05 0 -0.044214314073140026 -0.00018082049623655545 0 -0.043842441089119666 -0.00028099354095571588 0 -0.0440043183826778 -7.0557169262720778e-05 0 -0.0440043183826778 -7.0557169262720778e-05 0 -0.044515762903153129 6.0557699786950835e-05 0 -0.043965403731753235 0.00016723967063983586 0 -0.044487361391875417 -4.4468342325784441e-05 0 -0.0440043183826778 -7.0557169262720778e-05 0 -0.044515762903153129 6.0557699786950835e-05 0 -0.044246700468405967 8.2114814678794511e-05 0 -0.044440520120241092 -2.5663720703329467e-07 0 -0.044999875976451977 -6.8801558741084486e-06 0 -0.045000004734575293 -1.7461279902839887e-09 0 -0.044999995901373283 -4.283032554530224e-09 0 -0.044515762903153129 6.0557699786950835e-05 0 -0.043965403731753235 0.00016723967063983586 0 -0.044998320243268261 4.3693212677540553e-07 0 -0.044440520120241092 -2.5663720703329467e-07 0 -0.044999755987230633 -2.2660122743291375e-11 0 -0.044984111984190209 -2.2955071050556036e-05 0 -0.044993452454835832 -7.3637466497343348e-06 0 -0.044980919994349229 -1.305172093358293e-05 0 -0.044993452454835832 -7.3637466497343348e-06 0 -0.044992574815897309 -6.5803387489995995e-06 0 -0.044980919994349229 -1.305172093358293e-05 0 -0.044993329274463353 -2.1733130527486789e-05 0 -0.044999875976451977 -6.8801558741084486e-06 0 -0.044993452454835832 -7.3637466497343348e-06 0 -0.044999875976451977 -6.8801558741084486e-06 0 -0.044993452454835832 -7.3637466497343348e-06 0 -0.044999995901373283 -4.283032554530224e-09 0 -0.044993452454835832 -7.3637466497343348e-06 0 -0.044999995901373283 -4.283032554530224e-09 0 -0.044999983246210691 -3.6182272111729272e-09 0 -0.044993452454835832 -7.3637466497343348e-06 0 -0.044999983246210691 -3.6182272111729272e-09 0 -0.044992574815897309 -6.5803387489995995e-06 0 -0.044999983246210691 -3.6182272111729272e-09 0 -0.044992574815897309 -6.5803387489995995e-06 0 -0.044999995999404345 -1.4275948254590284e-08 0 -0.044992574815897309 -6.5803387489995995e-06 0 -0.044999995999404345 -1.4275948254590284e-08 0 -0.044992433144541662 -9.5115607548288076e-06 0 -0.044992433144541662 -9.5115607548288076e-06 0 -0.044987683774497418 -6.9941554611509751e-06 0 -0.044997606753389111 -1.0478640793011033e-05 0 -0.044999995999404345 -1.4275948254590284e-08 0 -0.044992433144541662 -9.5115607548288076e-06 0 -0.044997606753389111 -1.0478640793011033e-05 0 -0.044992574815897309 -6.5803387489995995e-06 0 -0.044992433144541662 -9.5115607548288076e-06 0 -0.044980919994349229 -1.305172093358293e-05 0 -0.044984111984190209 -2.2955071050556036e-05 0 -0.044980919994349229 -1.305172093358293e-05 0 -0.044972190007800179 -3.7378893899493265e-05 0 -0.044992433144541662 -9.5115607548288076e-06 0 -0.044980919994349229 -1.305172093358293e-05 0 -0.044987683774497418 -6.9941554611509751e-06 0 -0.044980919994349229 -1.305172093358293e-05 0 -0.044955274451335764 -2.8273837570447804e-05 0 -0.044972190007800179 -3.7378893899493265e-05 0 -0.044361882718832943 -0.00050638189271396176 0 -0.044276694723448404 -0.0012706296360659075 0 -0.045156619262420608 0.0001093319926147713 0 -0.044361882718832943 -0.00050638189271396176 0 -0.045011896851980933 -5.3950553874176622e-05 0 -0.045010135060044434 -5.7380949493020046e-05 0 -0.045009856888461507 -5.9360496609859024e-05 0 -0.044361882718832943 -0.00050638189271396176 0 -0.044392121207402248 -0.0014188863656585582 0 -0.044361882718832943 -0.00050638189271396176 0 -0.045083557595205256 -1.5404676090254098e-05 0 -0.045011896851980933 -5.3950553874176622e-05 0 -0.045010135060044434 -5.7380949493020046e-05 0 -0.045015414730367881 -4.4434311136074467e-05 0 -0.043174593366565185 -0.0022522404857066168 0 -0.043127717535456668 -0.0023523993875879615 0 -0.04307219854000157 -0.0023351307350546508 0 -0.043174593366565185 -0.0022522404857066168 0 -0.043127717535456668 -0.0023523993875879615 0 -0.043197135393246357 -0.0023756823318682478 0 -0.043132288833369399 -0.0024655485464147951 0 -0.043127717535456668 -0.0023523993875879615 0 -0.043197135393246357 -0.0023756823318682478 0 -0.043084018203689331 -0.0018938123627208166 0 -0.044392121207402248 -0.0014188863656585582 0 -0.043341805686826794 -0.0023571120816366707 0 -0.043197135393246357 -0.0023756823318682478 0 -0.043256252630543508 -0.002308169045837243 0 -0.043174593366565185 -0.0022522404857066168 0 -0.043197135393246357 -0.0023756823318682478 0 -0.043256252630543508 -0.002308169045837243 0 -0.045801615282433254 -0.00089774199596579993 0 -0.045770529269262075 -0.00061331733804492825 0 -0.046035838547471022 -0.00069449955104788214 0 -0.045613262410462471 -0.00022666953091596078 0 -0.044392121207402248 -0.0014188863656585582 0 -0.044412468304850718 -0.0017201685631134461 0 -0.044392121207402248 -0.0014188863656585582 0 -0.043058736115999405 -0.0024438392322701733 0 -0.043127717535456668 -0.0023523993875879615 0 -0.043065649903669741 -0.0023505251613610461 0 -0.045011896851980933 -5.3950553874176622e-05 0 -0.045009856888461507 -5.9360496609859024e-05 0 -0.045011283775868216 -5.089664599124778e-05 0 -0.045011896851980933 -5.3950553874176622e-05 0 -0.045011283775868216 -5.089664599124778e-05 0 -0.045015414730367881 -4.4434311136074467e-05 0 -0.04501091962837072 -5.1923949865981833e-05 0 -0.045011283775868216 -5.089664599124778e-05 0 -0.045007169411186425 -4.0216360584706621e-05 0 -0.04501091962837072 -5.1923949865981833e-05 0 -0.045009856888461507 -5.9360496609859024e-05 0 -0.045011283775868216 -5.089664599124778e-05 0 -0.045011283775868216 -5.089664599124778e-05 0 -0.045006558200491459 -1.943581387667699e-05 0 -0.045007169411186425 -4.0216360584706621e-05 0 -0.045011283775868216 -5.089664599124778e-05 0 -0.045006558200491459 -1.943581387667699e-05 0 -0.045015414730367881 -4.4434311136074467e-05 0 -0.044981558588571162 -1.3931444419585281e-05 0 -0.045083557595205256 -1.5404676090254098e-05 0 -0.044999995999404345 -1.4275948254590284e-08 0 -0.045006558200491459 -1.943581387667699e-05 0 -0.044997606753389111 -1.0478640793011033e-05 0 -0.044999995999404345 -1.4275948254590284e-08 0 -0.045006558200491459 -1.943581387667699e-05 0 -0.045000016543484928 -1.8845876543285181e-08 0 -0.045006558200491459 -1.943581387667699e-05 0 -0.045000016543484928 -1.8845876543285181e-08 0 -0.045005102962700591 -2.0635807617879871e-05 0 -0.045000016543484928 -1.8845876543285181e-08 0 -0.045005102962700591 -2.0635807617879871e-05 0 -0.045000012642068037 -2.5939754066331412e-08 0 -0.045000012642068037 -2.5939754066331412e-08 0 -0.045006189580293843 -3.8134970356642936e-05 0 -0.045010649770521882 -5.4950771866993641e-05 0 -0.045005102962700591 -2.0635807617879871e-05 0 -0.045000012642068037 -2.5939754066331412e-08 0 -0.045006189580293843 -3.8134970356642936e-05 0 -0.045006189580293843 -3.8134970356642936e-05 0 -0.045010649770521882 -5.4950771866993641e-05 0 -0.045010267877664017 -5.8697405784085679e-05 0 -0.045005102962700591 -2.0635807617879871e-05 0 -0.045006189580293843 -3.8134970356642936e-05 0 -0.045007169411186425 -4.0216360584706621e-05 0 -0.045006558200491459 -1.943581387667699e-05 0 -0.045005102962700591 -2.0635807617879871e-05 0 -0.045007169411186425 -4.0216360584706621e-05 0 -0.045006189580293843 -3.8134970356642936e-05 0 -0.045007169411186425 -4.0216360584706621e-05 0 -0.045010267877664017 -5.8697405784085679e-05 0 -0.045000038538972977 -6.9666468454256848e-08 0 -0.045010649770521882 -5.4950771866993641e-05 0 -0.044998251022913667 -8.6774673707224075e-05 0 -0.045000012642068037 -2.5939754066331412e-08 0 -0.045000038538972977 -6.9666468454256848e-08 0 -0.045010649770521882 -5.4950771866993641e-05 0 -0.045010649770521882 -5.4950771866993641e-05 0 -0.044998251022913667 -8.6774673707224075e-05 0 -0.045010872290725243 -0.00010571047701342583 0 -0.044998251022913667 -8.6774673707224075e-05 0 -0.045010872290725243 -0.00010571047701342583 0 -0.044924299539563534 -0.00023748079266953476 0 -0.045082337578987795 -0.00039305269556180571 0 -0.044938819287001934 -0.00058787689066784078 0 -0.044924299539563534 -0.00023748079266953476 0 -0.045010649770521882 -5.4950771866993641e-05 0 -0.045010872290725243 -0.00010571047701342583 0 -0.045010267877664017 -5.8697405784085679e-05 0 -0.045049139673816394 -0.00024830981012038359 0 -0.045171418602991613 -0.00028822719197879208 0 -0.045082337578987795 -0.00039305269556180571 0 -0.045211503324811955 -0.00061958465413994388 0 -0.045431762102116177 -0.00049746355622349084 0 -0.045211503324811955 -0.00061958465413994388 0 -0.045456675543123194 -0.00082595971404166946 0 -0.045083759956595991 -0.00086952769286143981 0 -0.045082337578987795 -0.00039305269556180571 0 -0.045211503324811955 -0.00061958465413994388 0 -0.044938819287001934 -0.00058787689066784078 0 -0.045211503324811955 -0.00061958465413994388 0 -0.044938819287001934 -0.00058787689066784078 0 -0.045083759956595991 -0.00086952769286143981 0 -0.045613262410462471 -0.00022666953091596078 0 -0.045171418602991613 -0.00028822719197879208 0 -0.04501091962837072 -5.1923949865981833e-05 0 -0.045007169411186425 -4.0216360584706621e-05 0 -0.045010267877664017 -5.8697405784085679e-05 0 -0.045211503324811955 -0.00061958465413994388 0 -0.045431762102116177 -0.00049746355622349084 0 -0.045456675543123194 -0.00082595971404166946 0 -0.045770529269262075 -0.00061331733804492825 0 -0.045431762102116177 -0.00049746355622349084 0 -0.045456675543123194 -0.00082595971404166946 0 -0.045801615282433254 -0.00089774199596579993 0 -0.045770529269262075 -0.00061331733804492825 0 -0.045456675543123194 -0.00082595971404166946 0 -0.045801615282433254 -0.00089774199596579993 0 -0.045528885489019809 -0.0011926561809744753 0 -0.045456675543123194 -0.00082595971404166946 0 -0.042954944277122833 -0.0025802781457148808 0 -0.043033567202567832 -0.0026772166325744226 0 -0.042925689733154991 -0.0025972323177110138 0 -0.0429569882003938 -0.0025169220046728337 0 -0.042954944277122833 -0.0025802781457148808 0 -0.043033567202567832 -0.0026772166325744226 0 -0.044412468304850718 -0.0017201685631134461 0 -0.044284352029123543 -0.0019356037323834314 0 -0.045528885489019809 -0.0011926561809744753 0 -0.045456675543123194 -0.00082595971404166946 0 -0.045217008301337749 -0.001166196554832361 0 -0.045456675543123194 -0.00082595971404166946 0 -0.045083759956595991 -0.00086952769286143981 0 -0.045217008301337749 -0.001166196554832361 0 -0.044938819287001934 -0.00058787689066784078 0 -0.045083759956595991 -0.00086952769286143981 0 -0.044786518613214983 -0.0008168296624215764 0 -0.045083759956595991 -0.00086952769286143981 0 -0.044789470800189427 -0.0012189042204818787 0 -0.044786518613214983 -0.0008168296624215764 0 -0.045083759956595991 -0.00086952769286143981 0 -0.044789470800189427 -0.0012189042204818787 0 -0.045217008301337749 -0.001166196554832361 0 -0.044789470800189427 -0.0012189042204818787 0 -0.045217008301337749 -0.001166196554832361 0 -0.04512405741128872 -0.0016605334671550293 0 -0.045528885489019809 -0.0011926561809744753 0 -0.045217008301337749 -0.001166196554832361 0 -0.04512405741128872 -0.0016605334671550293 0 -0.044284352029123543 -0.0019356037323834314 0 -0.044276357570879298 -0.0021607511313872243 0 -0.04512405741128872 -0.0016605334671550293 0 -0.04420474845535715 -0.0022710975731438671 0 -0.044203571041634408 -0.0017195303587058152 0 -0.044789470800189427 -0.0012189042204818787 0 -0.04512405741128872 -0.0016605334671550293 0 -0.044203571041634408 -0.0017195303587058152 0 -0.044276357570879298 -0.0021607511313872243 0 -0.044213598342945339 -0.0022620778568511299 0 -0.043433801022733476 -0.0026862134982585202 0 -0.043630990228026904 -0.0023547760287017166 0 -0.04420474845535715 -0.0022710975731438671 0 -0.043630990228026904 -0.0023547760287017166 0 -0.04420474845535715 -0.0022710975731438671 0 -0.043921050827706566 -0.0022708465023343455 0 -0.043433801022733476 -0.0026862134982585202 0 -0.043284245350888123 -0.0023582631237756063 0 -0.043080326031875858 -0.0025432617507361176 0 -0.043433801022733476 -0.0026862134982585202 0 -0.043630990228026904 -0.0023547760287017166 0 -0.043284245350888123 -0.0023582631237756063 0 -0.042931303814718498 -0.002408722987890789 0 -0.043080326031875858 -0.0025432617507361176 0 -0.043020930153063699 -0.0022612731934095885 0 -0.043284245350888123 -0.0023582631237756063 0 -0.043080326031875858 -0.0025432617507361176 0 -0.043020930153063699 -0.0022612731934095885 0 -0.04275303539382426 -0.0024099550538388874 0 -0.042931303814718498 -0.002408722987890789 0 -0.042925689733154991 -0.0025972323177110138 0 -0.042931303814718498 -0.002408722987890789 0 -0.043020930153063699 -0.0022612731934095885 0 -0.042852520960878784 -0.0022091624328926655 0 -0.04275303539382426 -0.0024099550538388874 0 -0.042931303814718498 -0.002408722987890789 0 -0.042852520960878784 -0.0022091624328926655 0 -0.042931303814718498 -0.002408722987890789 0 -0.042925689733154991 -0.0025972323177110138 0 -0.043080326031875858 -0.0025432617507361176 0 -0.043033567202567832 -0.0026772166325744226 0 -0.042925689733154991 -0.0025972323177110138 0 -0.043080326031875858 -0.0025432617507361176 0 -0.043033567202567832 -0.0026772166325744226 0 -0.043433801022733476 -0.0026862134982585202 0 -0.043080326031875858 -0.0025432617507361176 0 -0.044373235176201328 -0.001714113141519739 0 -0.04464887400043157 -0.001476172271010947 0 -0.044559449999444882 -0.0013114215387563374 0 -0.044190890369371134 -0.0018601393088841739 0 -0.044559449999444882 -0.0013114215387563374 0 -0.044398521511178485 -0.0013196024789833328 0 -0.043827681050475589 -0.0016712906536203243 0 -0.044373235176201328 -0.001714113141519739 0 -0.044559449999444882 -0.0013114215387563374 0 -0.044004663695902987 -0.0017656957847795654 0 -0.044522432169586457 -0.0013502190563609835 0 -0.044190890369371134 -0.0018601393088841739 0 -0.044398521511178485 -0.0013196024789833328 0 -0.044015053750632645 -0.0014944260249047413 0 -0.043827681050475589 -0.0016712906536203243 0 -0.044136007771273016 -0.0019426175193915467 0 -0.043858286259786619 -0.0022294904268537535 0 -0.043827681050475589 -0.0016712906536203243 0 -0.044136007771273016 -0.0019426175193915467 0 -0.044373235176201328 -0.001714113141519739 0 -0.044136007771273016 -0.0019426175193915467 0 -0.044373235176201328 -0.001714113141519739 0 -0.044355129265098894 -0.0019803657664702445 0 -0.044604602804211017 -0.0019042969036848142 0 -0.044554928246862448 -0.00180796676307019 0 -0.044840801749977198 -0.0015560955939711431 0 -0.044355129265098894 -0.0019803657664702445 0 -0.044554928246862448 -0.00180796676307019 0 -0.044476885552833315 -0.0020841732746947456 0 -0.044604602804211017 -0.0019042969036848142 0 -0.044554928246862448 -0.00180796676307019 0 -0.044476885552833315 -0.0020841732746947456 0 -0.044373235176201328 -0.001714113141519739 0 -0.044355129265098894 -0.0019803657664702445 0 -0.044554928246862448 -0.00180796676307019 0 -0.044521504708980301 -0.0016473457150484032 0 -0.044341620890753976 -0.0021940405411144041 0 -0.044604602804211017 -0.0019042969036848142 0 -0.044840801749977198 -0.0015560955939711431 0 -0.044586016563928438 -0.0021124702115267097 0 -0.04420474845535715 -0.0022710975731438671 0 -0.044203571041634408 -0.0017195303587058152 0 -0.044108075249698515 -0.0023734558258313534 0 -0.044840801749977198 -0.0015560955939711431 0 -0.04464887400043157 -0.001476172271010947 0 -0.044884333084797154 -0.0010070770306969104 0 -0.044373235176201328 -0.001714113141519739 0 -0.044554928246862448 -0.00180796676307019 0 -0.04464887400043157 -0.001476172271010947 0 -0.044554928246862448 -0.00180796676307019 0 -0.044840801749977198 -0.0015560955939711431 0 -0.04464887400043157 -0.001476172271010947 0 -0.044884333084797154 -0.0010070770306969104 0 -0.044582133994192884 -0.0010873536719881336 0 -0.044559449999444882 -0.0013114215387563374 0 -0.04464887400043157 -0.001476172271010947 0 -0.044884333084797154 -0.0010070770306969104 0 -0.044559449999444882 -0.0013114215387563374 0 -0.044521504708980301 -0.0016473457150484032 0 -0.044673240692888895 -0.0010210941056068008 0 -0.044789470800189427 -0.0012189042204818787 0 -0.044203571041634408 -0.0017195303587058152 0 -0.044457795573430811 -0.0010027279820023821 0 -0.044786518613214983 -0.0008168296624215764 0 -0.044457795573430811 -0.0010027279820023821 0 -0.044798684365670347 -0.00055501871590369733 0 -0.044789470800189427 -0.0012189042204818787 0 -0.044786518613214983 -0.0008168296624215764 0 -0.044457795573430811 -0.0010027279820023821 0 -0.044884333084797154 -0.0010070770306969104 0 -0.044642495340031819 -0.00080824546721767576 0 -0.044798684365670347 -0.00055501871590369733 0 -0.044884333084797154 -0.0010070770306969104 0 -0.044642495340031819 -0.00080824546721767576 0 -0.044582133994192884 -0.0010873536719881336 0 -0.044673240692888895 -0.0010210941056068008 0 -0.044768862073981008 -0.00060667828218335094 0 -0.044642495340031819 -0.00080824546721767576 0 -0.044582133994192884 -0.0010873536719881336 0 -0.044464372836417902 -0.0010081119799189504 0 -0.044582133994192884 -0.0010873536719881336 0 -0.044398521511178485 -0.0013196024789833328 0 -0.044464372836417902 -0.0010081119799189504 0 -0.044582133994192884 -0.0010873536719881336 0 -0.044559449999444882 -0.0013114215387563374 0 -0.044398521511178485 -0.0013196024789833328 0 -0.044398521511178485 -0.0013196024789833328 0 -0.044464372836417902 -0.0010081119799189504 0 -0.044324898564190536 -0.0010580673263361534 0 -0.044399650632833125 -0.0013064838500039038 0 -0.044055056713866295 -0.0011296561035869803 0 -0.044398521511178485 -0.0013196024789833328 0 -0.043777409828527285 -0.0011621559192853974 0 -0.044015053750632645 -0.0014944260249047413 0 -0.044498160269613146 -0.00076227779347861702 0 -0.044464372836417902 -0.0010081119799189504 0 -0.044324898564190536 -0.0010580673263361534 0 -0.044642495340031819 -0.00080824546721767576 0 -0.044498160269613146 -0.00076227779347861702 0 -0.044464372836417902 -0.0010081119799189504 0 -0.044498160269613146 -0.00076227779347861702 0 -0.044717622003878466 -0.00048658888572840011 0 -0.044615071290183134 -0.00038872731433939068 0 -0.044642495340031819 -0.00080824546721767576 0 -0.044498160269613146 -0.00076227779347861702 0 -0.044717622003878466 -0.00048658888572840011 0 -0.044642495340031819 -0.00080824546721767576 0 -0.044717622003878466 -0.00048658888572840011 0 -0.044798684365670347 -0.00055501871590369733 0 -0.044717622003878466 -0.00048658888572840011 0 -0.044824730172000379 -0.00035726442481944225 0 -0.044861292495272875 -0.00016311899274833573 0 -0.044717622003878466 -0.00048658888572840011 0 -0.044615071290183134 -0.00038872731433939068 0 -0.044861292495272875 -0.00016311899274833573 0 -0.044938819287001934 -0.00058787689066784078 0 -0.044786518613214983 -0.0008168296624215764 0 -0.044798684365670347 -0.00055501871590369733 0 -0.044717622003878466 -0.00048658888572840011 0 -0.044798684365670347 -0.00055501871590369733 0 -0.044824730172000379 -0.00035726442481944225 0 -0.044824730172000379 -0.00035726442481944225 0 -0.044924299539563534 -0.00023748079266953476 0 -0.044861292495272875 -0.00016311899274833573 0 -0.044798684365670347 -0.00055501871590369733 0 -0.044824730172000379 -0.00035726442481944225 0 -0.044924299539563534 -0.00023748079266953476 0 -0.045049139673816394 -0.00024830981012038359 0 -0.04491218690007881 -0.00023308772070560442 0 -0.044938819287001934 -0.00058787689066784078 0 -0.044798684365670347 -0.00055501871590369733 0 -0.044924299539563534 -0.00023748079266953476 0 -0.044998251022913667 -8.6774673707224075e-05 0 -0.044924299539563534 -0.00023748079266953476 0 -0.044999907214436904 -3.669066842147361e-08 0 -0.044924299539563534 -0.00023748079266953476 0 -0.044999907214436904 -3.669066842147361e-08 0 -0.044861292495272875 -0.00016311899274833573 0 -0.045000038538972977 -6.9666468454256848e-08 0 -0.044998251022913667 -8.6774673707224075e-05 0 -0.044999907214436904 -3.669066842147361e-08 0 -0.044615071290183134 -0.00038872731433939068 0 -0.044861292495272875 -0.00016311899274833573 0 -0.044749675458325602 -2.4092777965154952e-05 0 -0.044999907214436904 -3.669066842147361e-08 0 -0.044861292495272875 -0.00016311899274833573 0 -0.044999819511759971 -9.6048207075277959e-08 0 -0.044861292495272875 -0.00016311899274833573 0 -0.044999819511759971 -9.6048207075277959e-08 0 -0.044749675458325602 -2.4092777965154952e-05 0 -0.044999819511759971 -9.6048207075277959e-08 0 -0.044749675458325602 -2.4092777965154952e-05 0 -0.044999311063218368 2.4920727374337247e-07 0 -0.044749675458325602 -2.4092777965154952e-05 0 -0.044554704188511422 0.00022320016409182629 0 -0.044281033507783708 -0.00032655422579382749 0 -0.044749675458325602 -2.4092777965154952e-05 0 -0.044554704188511422 0.00022320016409182629 0 -0.044999311063218368 2.4920727374337247e-07 0 -0.044554704188511422 0.00022320016409182629 0 -0.044999311063218368 2.4920727374337247e-07 0 -0.04499963990735862 -8.503171410744761e-08 0 -0.044554704188511422 0.00022320016409182629 0 -0.04499963990735862 -8.503171410744761e-08 0 -0.045001406491707398 0.00012732750723239722 0 -0.04499963990735862 -8.503171410744761e-08 0 -0.045001406491707398 0.00012732750723239722 0 -0.045000333989032776 1.7652340267541497e-07 0 -0.044554704188511422 0.00022320016409182629 0 -0.042912294939572306 0.00068459402352874608 0 -0.043461624808945401 -0.00013527919364574075 0 -0.044558735657880023 0.00025229695687802419 0 -0.043770132225838733 0.00042292646939815978 0 -0.044554704188511422 0.00022320016409182629 0 -0.043461624808945401 -0.00013527919364574075 0 -0.044281033507783708 -0.00032655422579382749 0 -0.042912294939572306 0.00068459402352874608 0 -0.043461624808945401 -0.00013527919364574075 0 -0.042151775619322963 -0.00014425660377182282 0 -0.043461624808945401 -0.00013527919364574075 0 -0.042810680098018014 -0.0007302933981037568 0 -0.042151775619322963 -0.00014425660377182282 0 -0.043461624808945401 -0.00013527919364574075 0 -0.044281033507783708 -0.00032655422579382749 0 -0.043906247693133192 -0.001030162773622396 0 -0.043461624808945401 -0.00013527919364574075 0 -0.042810680098018014 -0.0007302933981037568 0 -0.043906247693133192 -0.001030162773622396 0 -0.044340864078711267 -0.00072499630774675158 0 -0.044281033507783708 -0.00032655422579382749 0 -0.043906247693133192 -0.001030162773622396 0 -0.044498160269613146 -0.00076227779347861702 0 -0.044615071290183134 -0.00038872731433939068 0 -0.044340864078711267 -0.00072499630774675158 0 -0.044615071290183134 -0.00038872731433939068 0 -0.044340864078711267 -0.00072499630774675158 0 -0.044281033507783708 -0.00032655422579382749 0 -0.044615071290183134 -0.00038872731433939068 0 -0.044749675458325602 -2.4092777965154952e-05 0 -0.044281033507783708 -0.00032655422579382749 0 -0.044963283266709779 -1.8808265415835564e-05 0 -0.044999932050640318 4.8142345073266295e-09 0 -0.044999886504895545 -6.2407538404401194e-08 0 -0.044963283266709779 -1.8808265415835564e-05 0 -0.044955598179405386 -3.4020935866842995e-05 0 -0.044901689396037323 -6.4912741637832464e-05 0 -0.044963283266709779 -1.8808265415835564e-05 0 -0.044999932050640318 4.8142345073266295e-09 0 -0.044955598179405386 -3.4020935866842995e-05 0 -0.044999932050640318 4.8142345073266295e-09 0 -0.044955598179405386 -3.4020935866842995e-05 0 -0.044994032911153295 -2.1809998456534364e-05 0 -0.045296758825007569 -2.49342513880471e-05 0 -0.044106720178491071 5.3310296828434298e-05 0 -0.044106720178491071 5.3310296828434298e-05 0 -0.04500067900346278 3.9197354037207723e-07 0 -0.044999932050640318 4.8142345073266295e-09 0 -0.044994032911153295 -2.1809998456534364e-05 0 -0.045000040128310409 -1.5226662122182179e-08 0 -0.045001406491707398 0.00012732750723239722 0 -0.045051055269932465 0.00010176336920203713 0 -0.045000333989032776 1.7652340267541497e-07 0 -0.043770132225838733 0.00042292646939815978 0 -0.044106720178491071 5.3310296828434298e-05 0 -0.042912294939572306 0.00068459402352874608 0 -0.041664450364483435 0.00068188064757889486 0 -0.042151775619322963 -0.00014425660377182282 0 -0.042810680098018014 -0.0007302933981037568 0 -0.042151775619322963 -0.00014425660377182282 0 -0.041567425339975796 -0.00084561815638136415 0 -0.042151775619322963 -0.00014425660377182282 0 -0.041128327590592463 -0.00014228748025274702 0 -0.041567425339975796 -0.00084561815638136415 0 -0.041664450364483435 0.00068188064757889486 0 -0.042151775619322963 -0.00014425660377182282 0 -0.041128327590592463 -0.00014228748025274702 0 -0.044106720178491071 5.3310296828434298e-05 0 -0.042921668967853599 -8.8009221356447892e-05 0 -0.044955598179405386 -3.4020935866842995e-05 0 -0.044958490500441879 -0.00010300017546005321 0 -0.044844425180683101 -0.00012339823003615805 0 -0.044955598179405386 -3.4020935866842995e-05 0 -0.044987649148609234 -3.5992510088028589e-05 0 -0.044958490500441879 -0.00010300017546005321 0 -0.044958490500441879 -0.00010300017546005321 0 -0.044723937023071744 -0.00028412939419238597 0 -0.044793898370880166 -0.00035515492211936355 0 -0.042921668967853599 -8.8009221356447892e-05 0 -0.042783705331391815 -0.00071084058851180333 0 -0.041128327590592463 -0.00014228748025274702 0 -0.040529608122596129 -0.00081586300136183708 0 -0.041567425339975796 -0.00084561815638136415 0 -0.044958490500441879 -0.00010300017546005321 0 -0.044844425180683101 -0.00012339823003615805 0 -0.044723937023071744 -0.00028412939419238597 0 -0.044727151606891523 -0.00027965261711900794 0 -0.044517938971956349 -8.0023443563789149e-05 0 -0.044844425180683101 -0.00012339823003615805 0 -0.044723937023071744 -0.00028412939419238597 0 -0.044857734992939005 -9.008598953185804e-05 0 -0.044844425180683101 -0.00012339823003615805 0 -0.044901689396037323 -6.4912741637832464e-05 0 -0.044857734992939005 -9.008598953185804e-05 0 -0.044955598179405386 -3.4020935866842995e-05 0 -0.044844425180683101 -0.00012339823003615805 0 -0.044901689396037323 -6.4912741637832464e-05 0 -0.040529608122596129 -0.00081586300136183708 0 -0.040246004688294791 -0.0014470300917648893 0 -0.039973686460288635 -0.0014090421396163095 0 -0.042783705331391815 -0.00071084058851180333 0 -0.041160924185465547 -0.00038664270531194424 0 -0.044723937023071744 -0.00028412939419238597 0 -0.044793898370880166 -0.00035515492211936355 0 -0.044426623590269929 -0.00092967079612592588 0 -0.040529608122596129 -0.00081586300136183708 0 -0.040863918398936695 -0.0013379926931787367 0 -0.041567425339975796 -0.00084561815638136415 0 -0.040529608122596129 -0.00081586300136183708 0 -0.040863918398936695 -0.0013379926931787367 0 -0.040246004688294791 -0.0014470300917648893 0 -0.041472715320325933 -0.0015242135918556497 0 -0.041567425339975796 -0.00084561815638136415 0 -0.042129841468378004 -0.0013347060708947863 0 -0.040863918398936695 -0.0013379926931787367 0 -0.041472715320325933 -0.0015242135918556497 0 -0.041567425339975796 -0.00084561815638136415 0 -0.042810680098018014 -0.0007302933981037568 0 -0.041567425339975796 -0.00084561815638136415 0 -0.042129841468378004 -0.0013347060708947863 0 -0.041472715320325933 -0.0015242135918556497 0 -0.042129841468378004 -0.0013347060708947863 0 -0.041833971072220297 -0.0018661957277021051 0 -0.042129841468378004 -0.0013347060708947863 0 -0.041833971072220297 -0.0018661957277021051 0 -0.042305164567230318 -0.0018518353917230323 0 -0.041833971072220297 -0.0018661957277021051 0 -0.041940590518307272 -0.0022458532307562599 0 -0.042305164567230318 -0.0018518353917230323 0 -0.041940590518307272 -0.0022458532307562599 0 -0.042296741255220593 -0.0025224848811148978 0 -0.041656179209995314 -0.0027251871329695416 0 -0.041940590518307272 -0.0022458532307562599 0 -0.041425032010008175 -0.002179943864030072 0 -0.041656179209995314 -0.0027251871329695416 0 -0.041833971072220297 -0.0018661957277021051 0 -0.041940590518307272 -0.0022458532307562599 0 -0.041425032010008175 -0.002179943864030072 0 -0.041425032010008175 -0.002179943864030072 0 -0.041197910242397703 -0.0026212681107641569 0 -0.041656179209995314 -0.0027251871329695416 0 -0.041425032010008175 -0.002179943864030072 0 -0.040902104781478356 -0.0018215300103181507 0 -0.040800737010652892 -0.0023852923729072674 0 -0.041425032010008175 -0.002179943864030072 0 -0.041197910242397703 -0.0026212681107641569 0 -0.040800737010652892 -0.0023852923729072674 0 -0.041472715320325933 -0.0015242135918556497 0 -0.041833971072220297 -0.0018661957277021051 0 -0.041425032010008175 -0.002179943864030072 0 -0.041472715320325933 -0.0015242135918556497 0 -0.041425032010008175 -0.002179943864030072 0 -0.040902104781478356 -0.0018215300103181507 0 -0.040863918398936695 -0.0013379926931787367 0 -0.041472715320325933 -0.0015242135918556497 0 -0.040902104781478356 -0.0018215300103181507 0 -0.040863918398936695 -0.0013379926931787367 0 -0.040463440377911206 -0.0017306793678022261 0 -0.040902104781478356 -0.0018215300103181507 0 -0.040863918398936695 -0.0013379926931787367 0 -0.040463440377911206 -0.0017306793678022261 0 -0.040246004688294791 -0.0014470300917648893 0 -0.040463440377911206 -0.0017306793678022261 0 -0.040902104781478356 -0.0018215300103181507 0 -0.040193566467610152 -0.0021027923394373888 0 -0.040902104781478356 -0.0018215300103181507 0 -0.040800737010652892 -0.0023852923729072674 0 -0.040193566467610152 -0.0021027923394373888 0 -0.041197910242397703 -0.0026212681107641569 0 -0.040800737010652892 -0.0023852923729072674 0 -0.040704241639093627 -0.0028448345485115236 0 -0.040800737010652892 -0.0023852923729072674 0 -0.040162293187640898 -0.0026654143935281472 0 -0.040704241639093627 -0.0028448345485115236 0 -0.040800737010652892 -0.0023852923729072674 0 -0.040162293187640898 -0.0026654143935281472 0 -0.040193566467610152 -0.0021027923394373888 0 -0.040162293187640898 -0.0026654143935281472 0 -0.040193566467610152 -0.0021027923394373888 0 -0.039566784347062206 -0.0023163931944216996 0 -0.040193566467610152 -0.0021027923394373888 0 -0.039566784347062206 -0.0023163931944216996 0 -0.039759908021733452 -0.0017883205756055592 0 -0.040162293187640898 -0.0026654143935281472 0 -0.03954094172921413 -0.0028132437069833794 0 -0.039566784347062206 -0.0023163931944216996 0 -0.03954094172921413 -0.0028132437069833794 0 -0.039566784347062206 -0.0023163931944216996 0 -0.038849353552348906 -0.0026945540560452713 0 -0.039566784347062206 -0.0023163931944216996 0 -0.039759908021733452 -0.0017883205756055592 0 -0.03877218501414377 -0.002021094645251212 0 -0.039759908021733452 -0.0017883205756055592 0 -0.03946134550615809 -0.0012248567668120078 0 -0.03877218501414377 -0.002021094645251212 0 -0.040463440377911206 -0.0017306793678022261 0 -0.040193566467610152 -0.0021027923394373888 0 -0.039759908021733452 -0.0017883205756055592 0 -0.040463440377911206 -0.0017306793678022261 0 -0.039759908021733452 -0.0017883205756055592 0 -0.040246004688294791 -0.0014470300917648893 0 -0.039759908021733452 -0.0017883205756055592 0 -0.040246004688294791 -0.0014470300917648893 0 -0.03946134550615809 -0.0012248567668120078 0 -0.039928808138858261 -0.0010501445004024402 0 -0.041160924185465547 -0.00038664270531194424 0 -0.043777409828527285 -0.0011621559192853974 0 -0.043151067354282382 -0.00095069115062371352 0 -0.043168929188740601 -0.001682568546993061 0 -0.043777409828527285 -0.0011621559192853974 0 -0.043697663986460453 -0.0016708314844876848 0 -0.044015053750632645 -0.0014944260249047413 0 -0.044498160269613146 -0.00076227779347861702 0 -0.044340864078711267 -0.00072499630774675158 0 -0.044324898564190536 -0.0010580673263361534 0 -0.044055056713866295 -0.0011296561035869803 0 -0.043505831176057601 -0.0009745052480299531 0 -0.044340864078711267 -0.00072499630774675158 0 -0.044324898564190536 -0.0010580673263361534 0 -0.043906247693133192 -0.001030162773622396 0 -0.042847398636648958 -0.00073616649371699579 0 -0.043505831176057601 -0.0009745052480299531 0 -0.042810680098018014 -0.0007302933981037568 0 -0.043151067354282382 -0.00095069115062371352 0 -0.042736290232004412 -0.0013545752830162146 0 -0.042810680098018014 -0.0007302933981037568 0 -0.042129841468378004 -0.0013347060708947863 0 -0.042736290232004412 -0.0013545752830162146 0 -0.042129841468378004 -0.0013347060708947863 0 -0.042736290232004412 -0.0013545752830162146 0 -0.042305164567230318 -0.0018518353917230323 0 -0.043151067354282382 -0.00095069115062371352 0 -0.042736290232004412 -0.0013545752830162146 0 -0.043168929188740601 -0.001682568546993061 0 -0.042736290232004412 -0.0013545752830162146 0 -0.042696861397690362 -0.0020376363016357851 0 -0.043168929188740601 -0.001682568546993061 0 -0.042736290232004412 -0.0013545752830162146 0 -0.042305164567230318 -0.0018518353917230323 0 -0.042696861397690362 -0.0020376363016357851 0 -0.041940590518307272 -0.0022458532307562599 0 -0.042305164567230318 -0.0018518353917230323 0 -0.042296741255220593 -0.0025224848811148978 0 -0.042305164567230318 -0.0018518353917230323 0 -0.042296741255220593 -0.0025224848811148978 0 -0.042696861397690362 -0.0020376363016357851 0 -0.042913007362560152 -0.0024465232134859415 0 -0.042696861397690362 -0.0020376363016357851 0 -0.043168929188740601 -0.001682568546993061 0 -0.042296741255220593 -0.0025224848811148978 0 -0.042913007362560152 -0.0024465232134859415 0 -0.042696861397690362 -0.0020376363016357851 0 -0.042913007362560152 -0.0024465232134859415 0 -0.043168929188740601 -0.001682568546993061 0 -0.04347416849556781 -0.0024574953682487796 0 -0.043168929188740601 -0.001682568546993061 0 -0.043697663986460453 -0.0016708314844876848 0 -0.04347416849556781 -0.0024574953682487796 0 -0.043777409828527285 -0.0011621559192853974 0 -0.043168929188740601 -0.001682568546993061 0 -0.043697663986460453 -0.0016708314844876848 0 -0.044190890369371134 -0.0018601393088841739 0 -0.043697663986460453 -0.0016708314844876848 0 -0.044015053750632645 -0.0014944260249047413 0 -0.044004663695902987 -0.0017656957847795654 0 -0.043347580995618883 -0.0023010712000828284 0 -0.044190890369371134 -0.0018601393088841739 0 -0.043697663986460453 -0.0016708314844876848 0 -0.04347416849556781 -0.0024574953682487796 0 -0.043827681050475589 -0.0016712906536203243 0 -0.043219664128701638 -0.002128912592204111 0 -0.043858286259786619 -0.0022294904268537535 0 -0.043452166683576279 -0.0024976732916170393 0 -0.043219664128701638 -0.002128912592204111 0 -0.043858286259786619 -0.0022294904268537535 0 -0.043452166683576279 -0.0024976732916170393 0 -0.043858286259786619 -0.0022294904268537535 0 -0.043727280901634004 -0.0025443998363663049 0 -0.031211197532310775 -0.0015718466435412121 0 -0.031258229042597847 -0.0018678706340502084 0 -0.033046789801100804 -0.0014482839462255353 0 -0.043452166683576279 -0.0024976732916170393 0 -0.043349600750405608 -0.0028509100405742106 0 -0.043727280901634004 -0.0025443998363663049 0 -0.043452166683576279 -0.0024976732916170393 0 -0.043349600750405608 -0.0028509100405742106 0 -0.043065566683194299 -0.0027000341335289466 0 -0.031211197532310775 -0.0015718466435412121 0 -0.030348959926311099 -0.001708453660068252 0 -0.030352107851411406 -0.0017568893363808205 0 -0.037051752435590751 -0.0022082756875707521 0 -0.037554931017915169 -0.0023983357189267082 0 -0.043349600750405608 -0.0028509100405742106 0 -0.043065566683194299 -0.0027000341335289466 0 -0.042689559450850567 -0.0031243992265640634 0 -0.031211197532310775 -0.0015718466435412121 0 -0.030352107851411406 -0.0017568893363808205 0 -0.031258229042597847 -0.0018678706340502084 0 -0.043452166683576279 -0.0024976732916170393 0 -0.043065566683194299 -0.0027000341335289466 0 -0.043219664128701638 -0.002128912592204111 0 -0.043347580995618883 -0.0023010712000828284 0 -0.042708110900980381 -0.0028406093557343365 0 -0.043065566683194299 -0.0027000341335289466 0 -0.043219664128701638 -0.002128912592204111 0 -0.042663178410049497 -0.0028951029201063796 0 -0.042913007362560152 -0.0024465232134859415 0 -0.04347416849556781 -0.0024574953682487796 0 -0.042663178410049497 -0.0028951029201063796 0 -0.042913007362560152 -0.0024465232134859415 0 -0.042552210289231722 -0.0027228171581041515 0 -0.042663178410049497 -0.0028951029201063796 0 -0.042296741255220593 -0.0025224848811148978 0 -0.042913007362560152 -0.0024465232134859415 0 -0.042552210289231722 -0.0027228171581041515 0 -0.042296741255220593 -0.0025224848811148978 0 -0.04234054737053379 -0.0029877109122500665 0 -0.041945594605605908 -0.0029967285328867852 0 -0.042296741255220593 -0.0025224848811148978 0 -0.042552210289231722 -0.0027228171581041515 0 -0.04234054737053379 -0.0029877109122500665 0 -0.042552210289231722 -0.0027228171581041515 0 -0.04234054737053379 -0.0029877109122500665 0 -0.042663178410049497 -0.0028951029201063796 0 -0.023187817505035718 -0.0026014214664638047 0 -0.031429064218115595 -0.0030050041437206655 0 -0.018914804535540012 -0.0036767568884167779 0 -0.01922295319211335 -0.0035541676196937707 0 -0.01980165001432365 -0.0038971104720908569 0 -0.037554931017915169 -0.0023983357189267082 0 -0.031429064218115595 -0.0030050041437206655 0 -0.04234054737053379 -0.0029877109122500665 0 -0.042689559450850567 -0.0031243992265640634 0 -0.041905530390458405 -0.003458853635144964 0 -0.030348959926311099 -0.001708453660068252 0 -0.030352107851411406 -0.0017568893363808205 0 -0.030192796618913442 -0.0018709524370825305 0 -0.043065566683194299 -0.0027000341335289466 0 -0.042663178410049497 -0.0028951029201063796 0 -0.042689559450850567 -0.0031243992265640634 0 -0.04234054737053379 -0.0029877109122500665 0 -0.042663178410049497 -0.0028951029201063796 0 -0.042689559450850567 -0.0031243992265640634 0 -0.018914804535540012 -0.0036767568884167779 0 -0.018765396097992746 -0.0034067734036936099 0 -0.018548352007063156 -0.0033379237205416667 0 -0.018914804535540012 -0.0036767568884167779 0 -0.018765396097992746 -0.0034067734036936099 0 -0.018977072015640296 -0.0034762870198742101 0 -0.018914804535540012 -0.0036767568884167779 0 -0.018977072015640296 -0.0034762870198742101 0 -0.01922295319211335 -0.0035541676196937707 0 -0.018977072015640296 -0.0034762870198742101 0 -0.019004590993263144 -0.0032761080335911154 0 -0.01922295319211335 -0.0035541676196937707 0 -0.018765396097992746 -0.0034067734036936099 0 -0.018977072015640296 -0.0034762870198742101 0 -0.019004590993263144 -0.0032761080335911154 0 -0.018765396097992746 -0.0034067734036936099 0 -0.019004590993263144 -0.0032761080335911154 0 -0.018523347525767248 -0.0031828225818231254 0 -0.019004590993263144 -0.0032761080335911154 0 -0.019456811283086933 -0.0034323068361694796 0 -0.019552810760780154 -0.0030481084186987579 0 -0.01922295319211335 -0.0035541676196937707 0 -0.019456811283086933 -0.0034323068361694796 0 -0.01980165001432365 -0.0038971104720908569 0 -0.019004590993263144 -0.0032761080335911154 0 -0.01922295319211335 -0.0035541676196937707 0 -0.019456811283086933 -0.0034323068361694796 0 -0.017626310152783157 -0.0029672436228102808 0 -0.01774046965646435 -0.0028684743965499233 0 -0.017638866582900356 -0.0029186129136997896 0 -0.018597480513535634 -0.0030209142775780382 0 -0.018301515407413888 -0.0028879963985750249 0 -0.019004590993263144 -0.0032761080335911154 0 -0.019552810760780154 -0.0030481084186987579 0 -0.018864104332435905 -0.0028771793567561148 0 -0.019004590993263144 -0.0032761080335911154 0 -0.018864104332435905 -0.0028771793567561148 0 -0.018523347525767248 -0.0031828225818231254 0 -0.018301515407413888 -0.0028879963985750249 0 -0.018126700008023622 -0.0028763867917922172 0 -0.018864104332435905 -0.0028771793567561148 0 -0.018107467632194084 -0.0028829478453434852 0 -0.018523347525767248 -0.0031828225818231254 0 -0.018107467632194084 -0.0028829478453434852 0 -0.018220843065412651 -0.0030718593953690779 0 -0.018523347525767248 -0.0031828225818231254 0 -0.018107467632194084 -0.0028829478453434852 0 -0.018096451146918366 -0.0029725237179157897 0 -0.018140394900628708 -0.0029468056157230782 0 -0.018107467632194084 -0.0028829478453434852 0 -0.018220843065412651 -0.0030718593953690779 0 -0.018140394900628708 -0.0029468056157230782 0 -0.018220843065412651 -0.0030718593953690779 0 -0.018178631219619434 -0.0030059560609276151 0 -0.018140394900628708 -0.0029468056157230782 0 -0.018220843065412651 -0.0030718593953690779 0 -0.018190304938598752 -0.0032073281825482415 0 -0.018369850716872711 -0.0032125185860106872 0 -0.018220843065412651 -0.0030718593953690779 0 -0.018190304938598752 -0.0032073281825482415 0 -0.018178631219619434 -0.0030059560609276151 0 -0.023187817505035718 -0.0026014214664638047 0 -0.025084081344712333 -0.0025803451409239075 0 -0.018190304938598752 -0.0032073281825482415 0 -0.018548352007063156 -0.0033379237205416667 0 -0.018369850716872711 -0.0032125185860106872 0 -0.018914804535540012 -0.0036767568884167779 0 -0.018190304938598752 -0.0032073281825482415 0 -0.018548352007063156 -0.0033379237205416667 0 -0.018765396097992746 -0.0034067734036936099 0 -0.018548352007063156 -0.0033379237205416667 0 -0.018523347525767248 -0.0031828225818231254 0 -0.018548352007063156 -0.0033379237205416667 0 -0.018523347525767248 -0.0031828225818231254 0 -0.018369850716872711 -0.0032125185860106872 0 -0.018220843065412651 -0.0030718593953690779 0 -0.018523347525767248 -0.0031828225818231254 0 -0.018369850716872711 -0.0032125185860106872 0 -0.021255166412822504 -0.0044635800370005094 0 -0.021333822564126245 -0.003807825066595931 0 -0.021939395426206584 -0.0039931164829394676 0 -0.021255166412822504 -0.0044635800370005094 0 -0.020870801975122547 -0.0040686109434543236 0 -0.021333822564126245 -0.003807825066595931 0 -0.039537730195765508 -0.0040443348963735319 0 -0.039204481205878258 -0.0038370182871260627 0 -0.039657396423586129 -0.0040270223386535001 0 -0.039204481205878258 -0.0038370182871260627 0 -0.039634298956918272 -0.0033446201728594771 0 -0.038906030670788357 -0.0033152559710636791 0 -0.039537730195765508 -0.0040443348963735319 0 -0.039204481205878258 -0.0038370182871260627 0 -0.039634298956918272 -0.0033446201728594771 0 -0.03954094172921413 -0.0028132437069833794 0 -0.039634298956918272 -0.0033446201728594771 0 -0.038906030670788357 -0.0033152559710636791 0 -0.040162293187640898 -0.0026654143935281472 0 -0.03954094172921413 -0.0028132437069833794 0 -0.039634298956918272 -0.0033446201728594771 0 -0.040162293187640898 -0.0026654143935281472 0 -0.039634298956918272 -0.0033446201728594771 0 -0.040216406844499668 -0.003165677384042147 0 -0.039925932658647439 -0.0034832242102139084 0 -0.039634298956918272 -0.0033446201728594771 0 -0.040216406844499668 -0.003165677384042147 0 -0.039537730195765508 -0.0040443348963735319 0 -0.039925932658647439 -0.0034832242102139084 0 -0.040186626030047017 -0.0034663905004582479 0 -0.039537730195765508 -0.0040443348963735319 0 -0.039925932658647439 -0.0034832242102139084 0 -0.039634298956918272 -0.0033446201728594771 0 -0.039537730195765508 -0.0040443348963735319 0 -0.040186626030047017 -0.0034663905004582479 0 -0.040497582763801936 -0.003535620583949827 0 -0.040186626030047017 -0.0034663905004582479 0 -0.040216406844499668 -0.003165677384042147 0 -0.040656856046935225 -0.0032311022979922463 0 -0.039925932658647439 -0.0034832242102139084 0 -0.040186626030047017 -0.0034663905004582479 0 -0.040216406844499668 -0.003165677384042147 0 -0.040162293187640898 -0.0026654143935281472 0 -0.040216406844499668 -0.003165677384042147 0 -0.040704241639093627 -0.0028448345485115236 0 -0.040216406844499668 -0.003165677384042147 0 -0.040704241639093627 -0.0028448345485115236 0 -0.040656856046935225 -0.0032311022979922463 0 -0.040704241639093627 -0.0028448345485115236 0 -0.040656856046935225 -0.0032311022979922463 0 -0.041079362109713073 -0.0030476594933878005 0 -0.040186626030047017 -0.0034663905004582479 0 -0.040656856046935225 -0.0032311022979922463 0 -0.040497582763801936 -0.003535620583949827 0 -0.040656856046935225 -0.0032311022979922463 0 -0.040497582763801936 -0.003535620583949827 0 -0.040950329242675401 -0.00340327123445636 0 -0.040497582763801936 -0.003535620583949827 0 -0.040535994562406259 -0.0036629176506190637 0 -0.040950329242675401 -0.00340327123445636 0 -0.039537730195765508 -0.0040443348963735319 0 -0.040535994562406259 -0.0036629176506190637 0 -0.041088677801159518 -0.003732334357435568 0 -0.040535994562406259 -0.0036629176506190637 0 -0.041088677801159518 -0.003732334357435568 0 -0.040950329242675401 -0.00340327123445636 0 -0.03892719180889314 -0.0038937934266723862 0 -0.040765162521950428 -0.0038706155623232548 0 -0.021255166412822504 -0.0044635800370005094 0 -0.020870801975122547 -0.0040686109434543236 0 -0.020326927693479879 -0.0040695792913710803 0 -0.020870801975122547 -0.0040686109434543236 0 -0.020326927693479879 -0.0040695792913710803 0 -0.020688650081881196 -0.0038244029079650406 0 -0.030593189408123105 -0.0042554842363563498 0 -0.028148489785916248 -0.0037938214683187047 0 -0.039537730195765508 -0.0040443348963735319 0 -0.037868078913503224 -0.0034420663692602965 0 -0.037618092096774518 -0.0037003109617243912 0 -0.039537730195765508 -0.0040443348963735319 0 -0.039657396423586129 -0.0040270223386535001 0 -0.037868078913503224 -0.0034420663692602965 0 -0.039537730195765508 -0.0040443348963735319 0 -0.040497582763801936 -0.003535620583949827 0 -0.040535994562406259 -0.0036629176506190637 0 -0.028148489785916248 -0.0037938214683187047 0 -0.031429064218115595 -0.0030050041437206655 0 -0.041088677801159518 -0.003732334357435568 0 -0.041458636273415186 -0.0032654682535514508 0 -0.041905530390458405 -0.003458853635144964 0 -0.037868078913503224 -0.0034420663692602965 0 -0.037618092096774518 -0.0037003109617243912 0 -0.034457323360190202 -0.0029643632052509384 0 -0.040765162521950428 -0.0038706155623232548 0 -0.031429064218115595 -0.0030050041437206655 0 -0.020326927693479879 -0.0040695792913710803 0 -0.01980165001432365 -0.0038971104720908569 0 -0.020056118298028523 -0.0037927849990347234 0 -0.020326927693479879 -0.0040695792913710803 0 -0.020056118298028523 -0.0037927849990347234 0 -0.020217272155927331 -0.003766282238616591 0 -0.020326927693479879 -0.0040695792913710803 0 -0.020217272155927331 -0.003766282238616591 0 -0.020373731764772127 -0.0037791458151389908 0 -0.041088677801159518 -0.003732334357435568 0 -0.040950329242675401 -0.00340327123445636 0 -0.041458636273415186 -0.0032654682535514508 0 -0.040656856046935225 -0.0032311022979922463 0 -0.040950329242675401 -0.00340327123445636 0 -0.041079362109713073 -0.0030476594933878005 0 -0.040950329242675401 -0.00340327123445636 0 -0.041079362109713073 -0.0030476594933878005 0 -0.041458636273415186 -0.0032654682535514508 0 -0.041197910242397703 -0.0026212681107641569 0 -0.040704241639093627 -0.0028448345485115236 0 -0.041079362109713073 -0.0030476594933878005 0 -0.041197910242397703 -0.0026212681107641569 0 -0.041079362109713073 -0.0030476594933878005 0 -0.041656179209995314 -0.0027251871329695416 0 -0.041079362109713073 -0.0030476594933878005 0 -0.041458636273415186 -0.0032654682535514508 0 -0.041656179209995314 -0.0027251871329695416 0 -0.042296741255220593 -0.0025224848811148978 0 -0.041656179209995314 -0.0027251871329695416 0 -0.041945594605605908 -0.0029967285328867852 0 -0.041458636273415186 -0.0032654682535514508 0 -0.041656179209995314 -0.0027251871329695416 0 -0.041945594605605908 -0.0029967285328867852 0 -0.04234054737053379 -0.0029877109122500665 0 -0.041945594605605908 -0.0029967285328867852 0 -0.041905530390458405 -0.003458853635144964 0 -0.041458636273415186 -0.0032654682535514508 0 -0.041945594605605908 -0.0029967285328867852 0 -0.041905530390458405 -0.003458853635144964 0 -0.019456811283086933 -0.0034323068361694796 0 -0.01980165001432365 -0.0038971104720908569 0 -0.019831043625981683 -0.0034311291726410796 0 -0.01980165001432365 -0.0038971104720908569 0 -0.019831043625981683 -0.0034311291726410796 0 -0.020056118298028523 -0.0037927849990347234 0 -0.019831043625981683 -0.0034311291726410796 0 -0.020073984571517975 -0.0034988504253084017 0 -0.020056118298028523 -0.0037927849990347234 0 -0.019456811283086933 -0.0034323068361694796 0 -0.019552810760780154 -0.0030481084186987579 0 -0.019831043625981683 -0.0034311291726410796 0 -0.019552810760780154 -0.0030481084186987579 0 -0.019831043625981683 -0.0034311291726410796 0 -0.020107924500050296 -0.0032430025525500713 0 -0.017626310152783157 -0.0029672436228102808 0 -0.018363682353152992 -0.0032873101171471825 0 -0.017935972261000847 -0.0027568957266569023 0 -0.018597480513535634 -0.0030209142775780382 0 -0.019275253218625481 -0.0032306580758300224 0 -0.018363682353152992 -0.0032873101171471825 0 -0.019918885745085688 -0.002411614218450004 0 -0.018800097883369334 -0.0024114539529292308 0 -0.018363682353152992 -0.0032873101171471825 0 -0.018800097883369334 -0.0024114539529292308 0 -0.017935972261000847 -0.0027568957266569023 0 -0.020107924500050296 -0.0032430025525500713 0 -0.020247819946561475 -0.0035867989686426956 0 -0.020436453123339082 -0.0035929919434593686 0 -0.020247819946561475 -0.0035867989686426956 0 -0.020073984571517975 -0.0034988504253084017 0 -0.020217272155927331 -0.003766282238616591 0 -0.019831043625981683 -0.0034311291726410796 0 -0.020107924500050296 -0.0032430025525500713 0 -0.020073984571517975 -0.0034988504253084017 0 -0.020107924500050296 -0.0032430025525500713 0 -0.020247819946561475 -0.0035867989686426956 0 -0.020073984571517975 -0.0034988504253084017 0 -0.020073984571517975 -0.0034988504253084017 0 -0.020056118298028523 -0.0037927849990347234 0 -0.020217272155927331 -0.003766282238616591 0 -0.020247819946561475 -0.0035867989686426956 0 -0.020217272155927331 -0.003766282238616591 0 -0.020373731764772127 -0.0037791458151389908 0 -0.020688650081881196 -0.0038244029079650406 0 -0.020436453123339082 -0.0035929919434593686 0 -0.02045794075173886 -0.0032621066313092404 0 -0.020373731764772127 -0.0037791458151389908 0 -0.020688650081881196 -0.0038244029079650406 0 -0.020436453123339082 -0.0035929919434593686 0 -0.020247819946561475 -0.0035867989686426956 0 -0.020373731764772127 -0.0037791458151389908 0 -0.020436453123339082 -0.0035929919434593686 0 -0.020326927693479879 -0.0040695792913710803 0 -0.020373731764772127 -0.0037791458151389908 0 -0.020688650081881196 -0.0038244029079650406 0 -0.020107924500050296 -0.0032430025525500713 0 -0.020436453123339082 -0.0035929919434593686 0 -0.02045794075173886 -0.0032621066313092404 0 -0.019275253218625481 -0.0032306580758300224 0 -0.020345511852426168 -0.0032808486454066659 0 -0.018363682353152992 -0.0032873101171471825 0 -0.02045794075173886 -0.0032621066313092404 0 -0.019918885745085688 -0.002411614218450004 0 -0.02045794075173886 -0.0032621066313092404 0 -0.021042298245024207 -0.0021457096960209318 0 -0.019918885745085688 -0.002411614218450004 0 -0.02045794075173886 -0.0032621066313092404 0 -0.021042298245024207 -0.0021457096960209318 0 -0.021775188095798419 -0.0031575702087418139 0 -0.020688650081881196 -0.0038244029079650406 0 -0.02045794075173886 -0.0032621066313092404 0 -0.021333822564126245 -0.003807825066595931 0 -0.02045794075173886 -0.0032621066313092404 0 -0.021333822564126245 -0.003807825066595931 0 -0.021775188095798419 -0.0031575702087418139 0 -0.020870801975122547 -0.0040686109434543236 0 -0.020688650081881196 -0.0038244029079650406 0 -0.021333822564126245 -0.003807825066595931 0 -0.021188545586307936 -0.00063846206688231686 0 -0.021042298245024207 -0.0021457096960209318 0 -0.020267388028612891 -0.0013858741483860216 0 -0.021188545586307936 -0.00063846206688231686 0 -0.020267388028612891 -0.0013858741483860216 0 -0.020067017316303899 -0.00042836717620971763 0 -0.019918885745085688 -0.002411614218450004 0 -0.019500798540037455 -0.0017321598817819175 0 -0.020267388028612891 -0.0013858741483860216 0 -0.021042298245024207 -0.0021457096960209318 0 -0.019918885745085688 -0.002411614218450004 0 -0.020267388028612891 -0.0013858741483860216 0 -0.019918885745085688 -0.002411614218450004 0 -0.019500798540037455 -0.0017321598817819175 0 -0.018800097883369334 -0.0024114539529292308 0 -0.019500798540037455 -0.0017321598817819175 0 -0.020267388028612891 -0.0013858741483860216 0 -0.019289376871233305 -0.00083101829369805621 0 -0.020267388028612891 -0.0013858741483860216 0 -0.019289376871233305 -0.00083101829369805621 0 -0.020067017316303899 -0.00042836717620971763 0 -0.019289376871233305 -0.00083101829369805621 0 -0.018111874749272856 -0.00077175286099510768 0 -0.018617633024703921 -7.8393521950852473e-05 0 -0.019500798540037455 -0.0017321598817819175 0 -0.019289376871233305 -0.00083101829369805621 0 -0.01834699193589193 -0.0016822726874537381 0 -0.019289376871233305 -0.00083101829369805621 0 -0.018111874749272856 -0.00077175286099510768 0 -0.01834699193589193 -0.0016822726874537381 0 -0.019500798540037455 -0.0017321598817819175 0 -0.018800097883369334 -0.0024114539529292308 0 -0.01834699193589193 -0.0016822726874537381 0 -0.018800097883369334 -0.0024114539529292308 0 -0.01834699193589193 -0.0016822726874537381 0 -0.017935972261000847 -0.0027568957266569023 0 -0.017935972261000847 -0.0027568957266569023 0 -0.017592011309225605 -0.0029856275508333913 0 -0.017638866582900356 -0.0029186129136997896 0 -0.017864567636756503 -0.0027436977513239794 0 -0.017203599165107462 -0.0020327433311353566 0 -0.017626310152783157 -0.0029672436228102808 0 -0.017935972261000847 -0.0027568957266569023 0 -0.017638866582900356 -0.0029186129136997896 0 -0.01834699193589193 -0.0016822726874537381 0 -0.017935972261000847 -0.0027568957266569023 0 -0.016748122291500283 -0.0010475739142656126 0 -0.018111874749272856 -0.00077175286099510768 0 -0.016748122291500283 -0.0010475739142656126 0 -0.017474494879909732 -1.5743068214933952e-06 0 -0.018111874749272856 -0.00077175286099510768 0 -0.01834699193589193 -0.0016822726874537381 0 -0.016748122291500283 -0.0010475739142656126 0 -0.017474494879909732 -1.5743068214933952e-06 0 -0.017099144121877713 0.0011091109690413439 0 -0.015748969598487449 0.00047317343013092227 0 -0.017474494879909732 -1.5743068214933952e-06 0 -0.017099144121877713 0.0011091109690413439 0 -0.018144032819070757 0.00077172411567991248 0 -0.017099144121877713 0.0011091109690413439 0 -0.017791487796617367 0.0015273822065357784 0 -0.017132937196830334 0.001984324080328172 0 -0.017099144121877713 0.0011091109690413439 0 -0.018144032819070757 0.00077172411567991248 0 -0.017791487796617367 0.0015273822065357784 0 -0.018144032819070757 0.00077172411567991248 0 -0.017791487796617367 0.0015273822065357784 0 -0.018783759241908626 0.0015278769942703738 0 -0.018144032819070757 0.00077172411567991248 0 -0.018783759241908626 0.0015278769942703738 0 -0.018980767436559454 0.00056603107572172537 0 -0.018144032819070757 0.00077172411567991248 0 -0.018617633024703921 -7.8393521950852473e-05 0 -0.018980767436559454 0.00056603107572172537 0 -0.017474494879909732 -1.5743068214933952e-06 0 -0.018144032819070757 0.00077172411567991248 0 -0.018617633024703921 -7.8393521950852473e-05 0 -0.018111874749272856 -0.00077175286099510768 0 -0.017474494879909732 -1.5743068214933952e-06 0 -0.018617633024703921 -7.8393521950852473e-05 0 -0.019289376871233305 -0.00083101829369805621 0 -0.018617633024703921 -7.8393521950852473e-05 0 -0.019442753544098912 0.00011233839430601092 0 -0.019289376871233305 -0.00083101829369805621 0 -0.019442753544098912 0.00011233839430601092 0 -0.020067017316303899 -0.00042836717620971763 0 -0.019442753544098912 0.00011233839430601092 0 -0.020067017316303899 -0.00042836717620971763 0 -0.019900566661389837 0.00071237004848693131 0 -0.019446761989106113 0.00037588976885668553 0 -0.01936178399355146 0.0005629027363538582 0 -0.018617633024703921 -7.8393521950852473e-05 0 -0.019442753544098912 0.00011233839430601092 0 -0.018980767436559454 0.00056603107572172537 0 -0.019442753544098912 0.00011233839430601092 0 -0.019773691751079812 0.00063449214882915154 0 -0.018980767436559454 0.00056603107572172537 0 -0.018278977005091387 0.0017884358439866517 0 -0.01936178399355146 0.0005629027363538582 0 -0.018783759241908626 0.0015278769942703738 0 -0.019773691751079812 0.00063449214882915154 0 -0.018980767436559454 0.00056603107572172537 0 -0.01835294534574694 0.0014438881831669236 0 -0.018330743057220603 0.0019442177413991333 0 -0.018860309288138127 0.0021487228875156374 0 -0.017925739588269055 0.0019304560018063974 0 -0.01835294534574694 0.0014438881831669236 0 -0.018330743057220603 0.0019442177413991333 0 -0.01936178399355146 0.0005629027363538582 0 -0.020776689840743431 0.0024521249830254436 0 -0.020209925220612143 0.00037056238282098233 0 -0.021341793042007458 0.00042830974691773939 0 -0.021018874283266209 0.0015108048603871599 0 -0.021207961026007149 -0.00069481331983013077 0 -0.020209925220612143 0.00037056238282098233 0 -0.021341793042007458 0.00042830974691773939 0 -0.021320358335096205 -0.00072404885403248105 0 -0.01936178399355146 0.0005629027363538582 0 -0.021188545586307936 -0.00063846206688231686 0 -0.020067017316303899 -0.00042836717620971763 0 -0.019900566661389837 0.00071237004848693131 0 -0.017941956881834895 -0.0030696635567960934 0 -0.017696164403548202 -0.0030575357491536294 0 -0.017798442145808974 -0.0032256945190904497 0 -0.017941956881834895 -0.0030696635567960934 0 -0.017798442145808974 -0.0032256945190904497 0 -0.017945253347301453 -0.0032217526243436666 0 -0.017941956881834895 -0.0030696635567960934 0 -0.017945253347301453 -0.0032217526243436666 0 -0.018086471117214831 -0.003086789622549475 0 -0.017941956881834895 -0.0030696635567960934 0 -0.018096451146918366 -0.0029725237179157897 0 -0.018086471117214831 -0.003086789622549475 0 -0.018107467632194084 -0.0028829478453434852 0 -0.017941956881834895 -0.0030696635567960934 0 -0.018096451146918366 -0.0029725237179157897 0 -0.01774046965646435 -0.0028684743965499233 0 -0.018107467632194084 -0.0028829478453434852 0 -0.017941956881834895 -0.0030696635567960934 0 -0.01774046965646435 -0.0028684743965499233 0 -0.017638866582900356 -0.0029186129136997896 0 -0.017696164403548202 -0.0030575357491536294 0 -0.01774046965646435 -0.0028684743965499233 0 -0.017941956881834895 -0.0030696635567960934 0 -0.017696164403548202 -0.0030575357491536294 0 -0.017592011309225605 -0.0029856275508333913 0 -0.017638866582900356 -0.0029186129136997896 0 -0.017696164403548202 -0.0030575357491536294 0 -0.017592011309225605 -0.0029856275508333913 0 -0.017696164403548202 -0.0030575357491536294 0 -0.017561525436633068 -0.0032710651900818991 0 -0.017696164403548202 -0.0030575357491536294 0 -0.017669436332681681 -0.0033268956179318956 0 -0.017798442145808974 -0.0032256945190904497 0 -0.017696164403548202 -0.0030575357491536294 0 -0.017669436332681681 -0.0033268956179318956 0 -0.017561525436633068 -0.0032710651900818991 0 -0.016748122291500283 -0.0010475739142656126 0 -0.017474494879909732 -1.5743068214933952e-06 0 -0.015748969598487449 0.00047317343013092227 0 -0.017203599165107462 -0.0020327433311353566 0 -0.016653035675988161 -0.0013988615706019771 0 -0.017099144121877713 0.0011091109690413439 0 -0.015748969598487449 0.00047317343013092227 0 -0.01626512620608472 0.0020826434689282768 0 -0.015748969598487449 0.00047317343013092227 0 -0.014832406349007808 0.0018189541708457763 0 -0.01626512620608472 0.0020826434689282768 0 -0.016653035675988161 -0.0013988615706019771 0 -0.016218627898130208 -0.00087400069584098118 0 -0.017669436332681681 -0.0033268956179318956 0 -0.017561525436633068 -0.0032710651900818991 0 -0.017575891923522234 -0.0035446668654491877 0 -0.017669436332681681 -0.0033268956179318956 0 -0.017732677970205096 -0.0034124033584689828 0 -0.017575891923522234 -0.0035446668654491877 0 -0.017669436332681681 -0.0033268956179318956 0 -0.017798442145808974 -0.0032256945190904497 0 -0.017732677970205096 -0.0034124033584689828 0 -0.017798442145808974 -0.0032256945190904497 0 -0.017945253347301453 -0.0032217526243436666 0 -0.017732677970205096 -0.0034124033584689828 0 -0.017945253347301453 -0.0032217526243436666 0 -0.017732677970205096 -0.0034124033584689828 0 -0.017966668518982841 -0.0033642571033646127 0 -0.017732677970205096 -0.0034124033584689828 0 -0.017737050069965052 -0.0035178134815583217 0 -0.017578802179129875 -0.0036543516789416066 0 -0.017732677970205096 -0.0034124033584689828 0 -0.017737050069965052 -0.0035178134815583217 0 -0.017966668518982841 -0.0033642571033646127 0 -0.017737050069965052 -0.0035178134815583217 0 -0.018044933208926466 -0.0034896434908393828 0 -0.017966668518982841 -0.0033642571033646127 0 -0.018044933208926466 -0.0034896434908393828 0 -0.018192966978517178 -0.0033621657007850349 0 -0.018345772004399304 -0.0034408837812676652 0 -0.018044933208926466 -0.0034896434908393828 0 -0.018192966978517178 -0.0033621657007850349 0 -0.017966668518982841 -0.0033642571033646127 0 -0.018192966978517178 -0.0033621657007850349 0 -0.018172110911963264 -0.0032059179165026814 0 -0.018363550921921382 -0.0032606996370310487 0 -0.018192966978517178 -0.0033621657007850349 0 -0.017966668518982841 -0.0033642571033646127 0 -0.018172110911963264 -0.0032059179165026814 0 -0.017945253347301453 -0.0032217526243436666 0 -0.017966668518982841 -0.0033642571033646127 0 -0.018172110911963264 -0.0032059179165026814 0 -0.017945253347301453 -0.0032217526243436666 0 -0.018086471117214831 -0.003086789622549475 0 -0.018172110911963264 -0.0032059179165026814 0 -0.018086471117214831 -0.003086789622549475 0 -0.018172110911963264 -0.0032059179165026814 0 -0.018284445266056371 -0.0030323847165977282 0 -0.018172110911963264 -0.0032059179165026814 0 -0.018284445266056371 -0.0030323847165977282 0 -0.018381912734374097 -0.0031200423422146129 0 -0.018172110911963264 -0.0032059179165026814 0 -0.018381912734374097 -0.0031200423422146129 0 -0.018363550921921382 -0.0032606996370310487 0 -0.018284445266056371 -0.0030323847165977282 0 -0.018186562527551641 -0.0029698414226015119 0 -0.018377979129507074 -0.0029046819033189696 0 -0.018086471117214831 -0.003086789622549475 0 -0.018284445266056371 -0.0030323847165977282 0 -0.018186562527551641 -0.0029698414226015119 0 -0.018096451146918366 -0.0029725237179157897 0 -0.018086471117214831 -0.003086789622549475 0 -0.018186562527551641 -0.0029698414226015119 0 -0.018742124479246034 -0.0030957321586280975 0 -0.018550379333345565 -0.0029514036391582415 0 -0.018865177347299814 -0.0028010546767896546 0 -0.018742124479246034 -0.0030957321586280975 0 -0.019066327878253859 -0.0030464308904264033 0 -0.018865177347299814 -0.0028010546767896546 0 -0.018742124479246034 -0.0030957321586280975 0 -0.018826198625706884 -0.0032309686904107506 0 -0.019066327878253859 -0.0030464308904264033 0 -0.018284445266056371 -0.0030323847165977282 0 -0.018550379333345565 -0.0029514036391582415 0 -0.018377979129507074 -0.0029046819033189696 0 -0.018284445266056371 -0.0030323847165977282 0 -0.018550379333345565 -0.0029514036391582415 0 -0.018381912734374097 -0.0031200423422146129 0 -0.018550379333345565 -0.0029514036391582415 0 -0.018537129571192461 -0.0031085320502156279 0 -0.018381912734374097 -0.0031200423422146129 0 -0.018742124479246034 -0.0030957321586280975 0 -0.018550379333345565 -0.0029514036391582415 0 -0.018537129571192461 -0.0031085320502156279 0 -0.018537129571192461 -0.0031085320502156279 0 -0.018363550921921382 -0.0032606996370310487 0 -0.018578056475687194 -0.0033105081845383466 0 -0.018537129571192461 -0.0031085320502156279 0 -0.018381912734374097 -0.0031200423422146129 0 -0.018363550921921382 -0.0032606996370310487 0 -0.018742124479246034 -0.0030957321586280975 0 -0.018826198625706884 -0.0032309686904107506 0 -0.018578056475687194 -0.0033105081845383466 0 -0.018742124479246034 -0.0030957321586280975 0 -0.018537129571192461 -0.0031085320502156279 0 -0.018578056475687194 -0.0033105081845383466 0 -0.018826198625706884 -0.0032309686904107506 0 -0.01873258971145083 -0.0033372858703304689 0 -0.018840297061085254 -0.003331898957397909 0 -0.018826198625706884 -0.0032309686904107506 0 -0.01873258971145083 -0.0033372858703304689 0 -0.018578056475687194 -0.0033105081845383466 0 -0.018578056475687194 -0.0033105081845383466 0 -0.018345772004399304 -0.0034408837812676652 0 -0.018564132734398307 -0.0034902321674165444 0 -0.01873258971145083 -0.0033372858703304689 0 -0.018564132734398307 -0.0034902321674165444 0 -0.018907270471461516 -0.003378032553658341 0 -0.01873258971145083 -0.0033372858703304689 0 -0.018578056475687194 -0.0033105081845383466 0 -0.018564132734398307 -0.0034902321674165444 0 -0.0119871257326389 -0.00024271867894766906 0 -0.013118344752386281 -0.0018602751028310891 0 -0.018192966978517178 -0.0033621657007850349 0 -0.018363550921921382 -0.0032606996370310487 0 -0.018345772004399304 -0.0034408837812676652 0 -0.018363550921921382 -0.0032606996370310487 0 -0.018578056475687194 -0.0033105081845383466 0 -0.018345772004399304 -0.0034408837812676652 0 -0.018345772004399304 -0.0034408837812676652 0 -0.018564132734398307 -0.0034902321674165444 0 -0.018302440343176626 -0.0036107447245058355 0 -0.018044933208926466 -0.0034896434908393828 0 -0.018345772004399304 -0.0034408837812676652 0 -0.018302440343176626 -0.0036107447245058355 0 -0.0119871257326389 -0.00024271867894766906 0 -0.012071948327700447 -0.0004275603235467204 0 -0.0054824630553625252 0.0026210089193075821 0 -0.0051727720957548424 0.0026993871764556549 0 -0.0052072964941419731 0.0028151058208937571 0 -0.0051727720957548424 0.0026993871764556549 0 -0.0050219915892653769 0.0027323808311433204 0 -0.0052072964941419731 0.0028151058208937571 0 -0.0051727720957548424 0.0026993871764556549 0 -0.0051268819045480925 0.002691086878511874 0 -0.0050219915892653769 0.0027323808311433204 0 -0.0051727720957548424 0.0026993871764556549 0 -0.0051268819045480925 0.002691086878511874 0 -0.0052671339350720894 0.0026080945726131757 0 -0.0054824630553625252 0.0026210089193075821 0 -0.0051727720957548424 0.0026993871764556549 0 -0.0052671339350720894 0.0026080945726131757 0 -0.01873258971145083 -0.0033372858703304689 0 -0.018907270471461516 -0.003378032553658341 0 -0.018840297061085254 -0.003331898957397909 0 -0.0050457105959983558 0.0026721278343826101 0 -0.0048967631445721999 0.0027235482068198799 0 -0.0050272320316951139 0.0027198160528464003 0 -0.0048967631445721999 0.0027235482068198799 0 -0.0050219915892653769 0.0027323808311433204 0 -0.0050272320316951139 0.0027198160528464003 0 -0.0051268819045480925 0.002691086878511874 0 -0.0050219915892653769 0.0027323808311433204 0 -0.0050961584394742339 0.0027384292110627768 0 -0.0050219915892653769 0.0027323808311433204 0 -0.0050961584394742339 0.0027384292110627768 0 -0.0050272320316951139 0.0027198160528464003 0 -0.0051920277375790995 0.0028301297391770358 0 -0.0050961584394742339 0.0027384292110627768 0 -0.0050272320316951139 0.0027198160528464003 0 -0.0051920277375790995 0.0028301297391770358 0 -0.0053486044199535388 0.0030077020346018432 0 -0.0052009350224216724 0.0028741371912978449 0 -0.0051920277375790995 0.0028301297391770358 0 -0.0050961584394742339 0.0027384292110627768 0 -0.0052009350224216724 0.0028741371912978449 0 -0.0050961584394742339 0.0027384292110627768 0 -0.0052009350224216724 0.0028741371912978449 0 -0.0051704527891549322 0.002960613987358343 0 -0.0050961584394742339 0.0027384292110627768 0 -0.0051704527891549322 0.002960613987358343 0 -0.0051232216966021213 0.0027401310919949245 0 -0.010828095149213835 0.0006868448446877267 0 -0.010399887393880265 -0.00013148253680285768 0 -0.018542283647043866 -0.0013793444631049726 0 -0.016155246103687744 -0.0019733858630664467 0 -0.018362097975487008 0.00064869556049699931 0 -0.016807435600376175 -0.0029254383697587777 0 -0.028770670673768536 -0.0024170954451191201 0 -0.010828095149213835 0.0006868448446877267 0 -0.021700540287000428 -0.0016961326718293165 0 -0.0053486044199535388 0.0030077020346018432 0 -0.0051704527891549322 0.002960613987358343 0 -0.0054115504614991664 0.0032088737543136325 0 -0.0053486044199535388 0.0030077020346018432 0 -0.0052009350224216724 0.0028741371912978449 0 -0.0051704527891549322 0.002960613987358343 0 -0.013118344752386281 -0.0018602751028310891 0 -0.016807435600376175 -0.0029254383697587777 0 -0.018826198625706884 -0.0032309686904107506 0 -0.018907270471461516 -0.003378032553658341 0 -0.019066327878253859 -0.0030464308904264033 0 -0.013118344752386281 -0.0018602751028310891 0 -0.010399887393880265 -0.00013148253680285768 0 -0.018907270471461516 -0.003378032553658341 0 -0.019445307748112334 -0.0031064317117722173 0 -0.019066327878253859 -0.0030464308904264033 0 -0.018826198625706884 -0.0032309686904107506 0 -0.018907270471461516 -0.003378032553658341 0 -0.018840297061085254 -0.003331898957397909 0 -0.014016871854936422 -0.0045047052261352645 0 -0.016249481128158414 -0.002962771674879103 0 -0.016155246103687744 -0.0019733858630664467 0 -0.0051268819045480925 0.002691086878511874 0 -0.0050961584394742339 0.0027384292110627768 0 -0.0051232216966021213 0.0027401310919949245 0 -0.0051268819045480925 0.002691086878511874 0 -0.0052671339350720894 0.0026080945726131757 0 -0.0051232216966021213 0.0027401310919949245 0 -0.018542283647043866 -0.0013793444631049726 0 -0.016249481128158414 -0.002962771674879103 0 -0.016155246103687744 -0.0019733858630664467 0 -0.019445307748112334 -0.0031064317117722173 0 -0.019066327878253859 -0.0030464308904264033 0 -0.019245906476930114 -0.0025566892319447317 0 -0.019066327878253859 -0.0030464308904264033 0 -0.019245906476930114 -0.0025566892319447317 0 -0.018865177347299814 -0.0028010546767896546 0 -0.030090714876835182 -0.0030280518002052371 0 -0.028770670673768536 -0.0024170954451191201 0 -0.019445307748112334 -0.0031064317117722173 0 -0.019245906476930114 -0.0025566892319447317 0 -0.020028113678127551 -0.002608267573335691 0 -0.039774188138593403 -0.0032890557263605441 0 -0.042740019989436259 -0.003356016043150124 0 -0.042638732931986466 -0.0018364872429700767 0 -0.041556781328215296 -0.0016149923554355874 0 -0.042586808207341439 -0.0017895633135741357 0 -0.039774188138593403 -0.0032890557263605441 0 -0.039331703085401556 -0.0014362235123722192 0 -0.042638732931986466 -0.0018364872429700767 0 -0.039774188138593403 -0.0032890557263605441 0 -0.039331703085401556 -0.0014362235123722192 0 -0.036178982760768252 -0.0027913480884365774 0 -0.018542283647043866 -0.0013793444631049726 0 -0.020827526770629098 0.00024118361697903089 0 -0.018362097975487008 0.00064869556049699931 0 -0.033134993117772515 -0.0042675882517695732 0 -0.030746086159741139 -0.0038736743275936381 0 -0.032364266482778084 -0.0019313135239090954 0 -0.021700540287000428 -0.0016961326718293165 0 -0.028770670673768536 -0.0024170954451191201 0 -0.028770670673768536 -0.0024170954451191201 0 -0.038446782616011435 -0.0016811933014966942 0 -0.042740019989436259 -0.003356016043150124 0 -0.042638732931986466 -0.0018364872429700767 0 -0.043092564914105853 -0.0020747479770003227 0 -0.03831064024376564 -0.0010425868814764024 0 -0.038446782616011435 -0.0016811933014966942 0 -0.042831544703941113 -0.0020280386181469354 0 -0.043092564914105853 -0.0020747479770003227 0 -0.042927294748547611 -0.0020117268005112906 0 -0.042638732931986466 -0.0018364872429700767 0 -0.042927294748547611 -0.0020117268005112906 0 -0.043069327785093633 -0.0021130752882547433 0 -0.042638732931986466 -0.0018364872429700767 0 -0.043092564914105853 -0.0020747479770003227 0 -0.042927294748547611 -0.0020117268005112906 0 -0.042927294748547611 -0.0020117268005112906 0 -0.043069327785093633 -0.0021130752882547433 0 -0.043020930153063699 -0.0022612731934095885 0 -0.043284245350888123 -0.0023582631237756063 0 -0.043069327785093633 -0.0021130752882547433 0 -0.043020930153063699 -0.0022612731934095885 0 -0.042831544703941113 -0.0020280386181469354 0 -0.042927294748547611 -0.0020117268005112906 0 -0.042852520960878784 -0.0022091624328926655 0 -0.042927294748547611 -0.0020117268005112906 0 -0.043020930153063699 -0.0022612731934095885 0 -0.042852520960878784 -0.0022091624328926655 0 -0.04369324367127686 -0.0020330305466999417 0 -0.043337966950391812 -0.0020168834536340046 0 -0.043583529252239489 -0.0021975043469519132 0 -0.04369324367127686 -0.0020330305466999417 0 -0.043900777605972503 -0.0021821568914005391 0 -0.044096280900448266 -0.0019804081958006499 0 -0.043781740270819651 -0.0017106491037955493 0 -0.04369324367127686 -0.0020330305466999417 0 -0.044096280900448266 -0.0019804081958006499 0 -0.043781740270819651 -0.0017106491037955493 0 -0.04369324367127686 -0.0020330305466999417 0 -0.043337966950391812 -0.0020168834536340046 0 -0.042638732931986466 -0.0018364872429700767 0 -0.043069327785093633 -0.0021130752882547433 0 -0.043337966950391812 -0.0020168834536340046 0 -0.043781740270819651 -0.0017106491037955493 0 -0.042638732931986466 -0.0018364872429700767 0 -0.043337966950391812 -0.0020168834536340046 0 -0.043069327785093633 -0.0021130752882547433 0 -0.043337966950391812 -0.0020168834536340046 0 -0.043583529252239489 -0.0021975043469519132 0 -0.043284245350888123 -0.0023582631237756063 0 -0.043069327785093633 -0.0021130752882547433 0 -0.043583529252239489 -0.0021975043469519132 0 -0.043630990228026904 -0.0023547760287017166 0 -0.043284245350888123 -0.0023582631237756063 0 -0.043583529252239489 -0.0021975043469519132 0 -0.043630990228026904 -0.0023547760287017166 0 -0.043583529252239489 -0.0021975043469519132 0 -0.043921050827706566 -0.0022708465023343455 0 -0.04369324367127686 -0.0020330305466999417 0 -0.043583529252239489 -0.0021975043469519132 0 -0.043900777605972503 -0.0021821568914005391 0 -0.043583529252239489 -0.0021975043469519132 0 -0.043900777605972503 -0.0021821568914005391 0 -0.043921050827706566 -0.0022708465023343455 0 -0.044586016563928438 -0.0021124702115267097 0 -0.044429768737489869 -0.0021170159551727164 0 -0.044096280900448266 -0.0019804081958006499 0 -0.04420474845535715 -0.0022710975731438671 0 -0.043921050827706566 -0.0022708465023343455 0 -0.044108075249698515 -0.0023734558258313534 0 -0.044341620890753976 -0.0021940405411144041 0 -0.044133963870357812 -0.0019751449087160996 0 -0.043900777605972503 -0.0021821568914005391 0 -0.043921050827706566 -0.0022708465023343455 0 -0.044108075249698515 -0.0023734558258313534 0 -0.043900777605972503 -0.0021821568914005391 0 -0.044108075249698515 -0.0023734558258313534 0 -0.044096280900448266 -0.0019804081958006499 0 -0.044586016563928438 -0.0021124702115267097 0 -0.044429768737489869 -0.0021170159551727164 0 -0.044476885552833315 -0.0020841732746947456 0 -0.044604602804211017 -0.0019042969036848142 0 -0.044586016563928438 -0.0021124702115267097 0 -0.044476885552833315 -0.0020841732746947456 0 -0.043781740270819651 -0.0017106491037955493 0 -0.044096280900448266 -0.0019804081958006499 0 -0.044422281735702285 -0.0021152057655930978 0 -0.044429768737489869 -0.0021170159551727164 0 -0.044361420490451414 -0.0021125699631832236 0 -0.044096280900448266 -0.0019804081958006499 0 -0.044361420490451414 -0.0021125699631832236 0 -0.044096280900448266 -0.0019804081958006499 0 -0.044422281735702285 -0.0021152057655930978 0 -0.044388966235672601 -0.0021708940620218842 0 -0.044267683283915879 -0.0023003252998581151 0 -0.044422281735702285 -0.0021152057655930978 0 -0.044361420490451414 -0.0021125699631832236 0 -0.044388966235672601 -0.0021708940620218842 0 -0.044422281735702285 -0.0021152057655930978 0 -0.044361420490451414 -0.0021125699631832236 0 -0.044388966235672601 -0.0021708940620218842 0 -0.044416051927051503 -0.0021410038288539749 0 -0.044388966235672601 -0.0021708940620218842 0 -0.044416051927051503 -0.0021410038288539749 0 -0.044369612835902857 -0.0021794346536289462 0 -0.044429768737489869 -0.0021170159551727164 0 -0.044361420490451414 -0.0021125699631832236 0 -0.044416051927051503 -0.0021410038288539749 0 -0.044388966235672601 -0.0021708940620218842 0 -0.044369612835902857 -0.0021794346536289462 0 -0.044267683283915879 -0.0023003252998581151 0 -0.044369612835902857 -0.0021794346536289462 0 -0.044476885552833315 -0.0020841732746947456 0 -0.044338622148884635 -0.0021377680056541368 0 -0.044429768737489869 -0.0021170159551727164 0 -0.044416051927051503 -0.0021410038288539749 0 -0.044476885552833315 -0.0020841732746947456 0 -0.044416051927051503 -0.0021410038288539749 0 -0.044369612835902857 -0.0021794346536289462 0 -0.044476885552833315 -0.0020841732746947456 0 -0.044355129265098894 -0.0019803657664702445 0 -0.044476885552833315 -0.0020841732746947456 0 -0.044338622148884635 -0.0021377680056541368 0 -0.044355129265098894 -0.0019803657664702445 0 -0.044172946205598224 -0.0021409909326327247 0 -0.044338622148884635 -0.0021377680056541368 0 -0.044136007771273016 -0.0019426175193915467 0 -0.044355129265098894 -0.0019803657664702445 0 -0.044172946205598224 -0.0021409909326327247 0 -0.044172946205598224 -0.0021409909326327247 0 -0.044084998621423954 -0.0023071728695924516 0 -0.044240706792281384 -0.0022495032596140936 0 -0.044369612835902857 -0.0021794346536289462 0 -0.044240706792281384 -0.0022495032596140936 0 -0.044338622148884635 -0.0021377680056541368 0 -0.044172946205598224 -0.0021409909326327247 0 -0.044240706792281384 -0.0022495032596140936 0 -0.044338622148884635 -0.0021377680056541368 0 -0.044136007771273016 -0.0019426175193915467 0 -0.044172946205598224 -0.0021409909326327247 0 -0.043858286259786619 -0.0022294904268537535 0 -0.044172946205598224 -0.0021409909326327247 0 -0.044084998621423954 -0.0023071728695924516 0 -0.043858286259786619 -0.0022294904268537535 0 -0.044084998621423954 -0.0023071728695924516 0 -0.043858286259786619 -0.0022294904268537535 0 -0.043959043105728193 -0.0024530502792476402 0 -0.037051752435590751 -0.0022082756875707521 0 -0.038600377984006833 -0.0020086976486983722 0 -0.043349600750405608 -0.0028509100405742106 0 -0.043727280901634004 -0.0025443998363663049 0 -0.044047083222650697 -0.0025830972526044273 0 -0.043858286259786619 -0.0022294904268537535 0 -0.043727280901634004 -0.0025443998363663049 0 -0.043959043105728193 -0.0024530502792476402 0 -0.043959043105728193 -0.0024530502792476402 0 -0.044047083222650697 -0.0025830972526044273 0 -0.04413457329580936 -0.002381301728000378 0 -0.043727280901634004 -0.0025443998363663049 0 -0.043959043105728193 -0.0024530502792476402 0 -0.044047083222650697 -0.0025830972526044273 0 -0.044047083222650697 -0.0025830972526044273 0 -0.044267683283915879 -0.0023003252998581151 0 -0.044422281735702285 -0.0021152057655930978 0 -0.038600377984006833 -0.0020086976486983722 0 -0.040115777371383499 -0.0017444867012588097 0 -0.044369612835902857 -0.0021794346536289462 0 -0.044240706792281384 -0.0022495032596140936 0 -0.044267683283915879 -0.0023003252998581151 0 -0.044240706792281384 -0.0022495032596140936 0 -0.04413457329580936 -0.002381301728000378 0 -0.044267683283915879 -0.0023003252998581151 0 -0.044084998621423954 -0.0023071728695924516 0 -0.044240706792281384 -0.0022495032596140936 0 -0.04413457329580936 -0.002381301728000378 0 -0.044084998621423954 -0.0023071728695924516 0 -0.043959043105728193 -0.0024530502792476402 0 -0.04413457329580936 -0.002381301728000378 0 -0.044047083222650697 -0.0025830972526044273 0 -0.04413457329580936 -0.002381301728000378 0 -0.044267683283915879 -0.0023003252998581151 0 -0.018259083569287869 -0.002812286437229034 0 -0.018397140424496 -0.0028125431456382821 0 -0.018669340273362804 -0.0026337299699360226 0 -0.033046789801100804 -0.0014482839462255353 0 -0.033198152782831836 -0.0022417356829491199 0 -0.035875128831160438 -0.0013659837116221938 0 -0.018190304938598752 -0.0032073281825482415 0 -0.018259083569287869 -0.002812286437229034 0 -0.018178631219619434 -0.0030059560609276151 0 -0.018259083569287869 -0.002812286437229034 0 -0.018178631219619434 -0.0030059560609276151 0 -0.018198322960682425 -0.0029201649453071163 0 -0.025084081344712333 -0.0025803451409239075 0 -0.025710631277282684 -0.0025334001971913018 0 -0.031258229042597847 -0.0018678706340502084 0 -0.033046789801100804 -0.0014482839462255353 0 -0.033198152782831836 -0.0022417356829491199 0 -0.018259083569287869 -0.002812286437229034 0 -0.018198322960682425 -0.0029201649453071163 0 -0.018247777469955623 -0.0029017676701716942 0 -0.018186562527551641 -0.0029698414226015119 0 -0.018140394900628708 -0.0029468056157230782 0 -0.018247777469955623 -0.0029017676701716942 0 -0.018140394900628708 -0.0029468056157230782 0 -0.018198322960682425 -0.0029201649453071163 0 -0.018247777469955623 -0.0029017676701716942 0 -0.018178631219619434 -0.0030059560609276151 0 -0.018140394900628708 -0.0029468056157230782 0 -0.018198322960682425 -0.0029201649453071163 0 -0.018096451146918366 -0.0029725237179157897 0 -0.018186562527551641 -0.0029698414226015119 0 -0.018140394900628708 -0.0029468056157230782 0 -0.018186562527551641 -0.0029698414226015119 0 -0.018247777469955623 -0.0029017676701716942 0 -0.018377979129507074 -0.0029046819033189696 0 -0.018397140424496 -0.0028125431456382821 0 -0.018247777469955623 -0.0029017676701716942 0 -0.018377979129507074 -0.0029046819033189696 0 -0.018259083569287869 -0.002812286437229034 0 -0.018397140424496 -0.0028125431456382821 0 -0.018247777469955623 -0.0029017676701716942 0 -0.018397140424496 -0.0028125431456382821 0 -0.018528104365557112 -0.002820609938039057 0 -0.018669340273362804 -0.0026337299699360226 0 -0.018550379333345565 -0.0029514036391582415 0 -0.018377979129507074 -0.0029046819033189696 0 -0.018528104365557112 -0.002820609938039057 0 -0.018397140424496 -0.0028125431456382821 0 -0.018377979129507074 -0.0029046819033189696 0 -0.018528104365557112 -0.002820609938039057 0 -0.018528104365557112 -0.002820609938039057 0 -0.018651350474525805 -0.0028040171981734813 0 -0.018669340273362804 -0.0026337299699360226 0 -0.018550379333345565 -0.0029514036391582415 0 -0.018528104365557112 -0.002820609938039057 0 -0.018651350474525805 -0.0028040171981734813 0 -0.018550379333345565 -0.0029514036391582415 0 -0.018651350474525805 -0.0028040171981734813 0 -0.018865177347299814 -0.0028010546767896546 0 -0.019245906476930114 -0.0025566892319447317 0 -0.018865177347299814 -0.0028010546767896546 0 -0.018669340273362804 -0.0026337299699360226 0 -0.018651350474525805 -0.0028040171981734813 0 -0.018865177347299814 -0.0028010546767896546 0 -0.018669340273362804 -0.0026337299699360226 0 -0.030090714876835182 -0.0030280518002052371 0 -0.027322324292021763 -0.0026902745109081637 0 -0.041556781328215296 -0.0016149923554355874 0 -0.040115777371383499 -0.0017444867012588097 0 -0.039331703085401556 -0.0014362235123722192 0 -0.035875128831160438 -0.0013659837116221938 0 -0.036178982760768252 -0.0027913480884365774 0 -0.033198152782831836 -0.0022417356829491199 0 -0.035875128831160438 -0.0013659837116221938 0 -0.036178982760768252 -0.0027913480884365774 0 -0.025710631277282684 -0.0025334001971913018 0 -0.027322324292021763 -0.0026902745109081637 0 -0.033914749496858035 0.00013390763011919996 0 -0.033605381737524691 -0.00023731223276951085 0 -0.034332038534109544 -0.0008443912848167005 0 -0.035830906860536041 -1.8248209413663355e-06 0 -0.033914749496858035 0.00013390763011919996 0 -0.034332038534109544 -0.0008443912848167005 0 -0.035830906860536041 -1.8248209413663355e-06 0 -0.033914749496858035 0.00013390763011919996 0 -0.033397685817073065 1.1730866005375167e-06 0 -0.034348936931860023 0.00015657576066504294 0 -0.030638522796311435 -0.00045823456819148542 0 -0.033914749496858035 0.00013390763011919996 0 -0.033605381737524691 -0.00023731223276951085 0 -0.033112966536360165 0.00026491696911611361 0 -0.03349321558712761 -0.000391440561844577 0 -0.033605381737524691 -0.00023731223276951085 0 -0.033505458090083297 -0.00025080823589745753 0 -0.033605381737524691 -0.00023731223276951085 0 -0.033505458090083297 -0.00025080823589745753 0 -0.033569014593237669 -0.00022150578425119143 0 -0.03349321558712761 -0.000391440561844577 0 -0.033355094286346657 -0.00031115779097205565 0 -0.033505458090083297 -0.00025080823589745753 0 -0.03349321558712761 -0.000391440561844577 0 -0.033530196342185861 -0.00052845149008611046 0 -0.033417992928252954 -0.00058271859944803448 0 -0.03349321558712761 -0.000391440561844577 0 -0.033530196342185861 -0.00052845149008611046 0 -0.033605381737524691 -0.00023731223276951085 0 -0.033530196342185861 -0.00052845149008611046 0 -0.033605381737524691 -0.00023731223276951085 0 -0.033758063490226871 -0.00068583644581476011 0 -0.033530196342185861 -0.00052845149008611046 0 -0.033531071622151708 -0.00066319896033155575 0 -0.033417992928252954 -0.00058271859944803448 0 -0.033530196342185861 -0.00052845149008611046 0 -0.033758063490226871 -0.00068583644581476011 0 -0.033531071622151708 -0.00066319896033155575 0 -0.043978794338938122 -0.00084160945896210909 0 -0.042501961793966141 -0.00089740425501851583 0 -0.043770336952380445 -0.00031961551918355458 0 -0.038633769930828475 -0.00075293339818981717 0 -0.038522068835555957 -0.00096684688088717445 0 -0.043978794338938122 -0.00084160945896210909 0 -0.042501961793966141 -0.00089740425501851583 0 -0.04230497907042112 -0.0011323418184844324 0 -0.033758063490226871 -0.00068583644581476011 0 -0.033531071622151708 -0.00066319896033155575 0 -0.033900270803265138 -0.0009783051170120878 0 -0.039977994784007903 -0.00024553322217605802 0 -0.038522068835555957 -0.00096684688088717445 0 -0.042173884368511425 -0.0012427770620529557 0 -0.039106051371119756 -3.4509930567890505e-06 0 -0.041346560846814026 2.9328189993450715e-05 0 -0.038522068835555957 -0.00096684688088717445 0 -0.035774865564398156 -0.00038012728067368564 0 -0.037329819214248994 -0.00024185605509847015 0 -0.037962304514882646 0.00013557640973046889 0 -0.038151940715769918 0.00011212682398519902 0 -0.042501961793966141 -0.00089740425501851583 0 -0.042173884368511425 -0.0012427770620529557 0 -0.041346560846814026 2.9328189993450715e-05 0 -0.033605381737524691 -0.00023731223276951085 0 -0.033758063490226871 -0.00068583644581476011 0 -0.034332038534109544 -0.0008443912848167005 0 -0.033758063490226871 -0.00068583644581476011 0 -0.033900270803265138 -0.0009783051170120878 0 -0.034332038534109544 -0.0008443912848167005 0 -0.035836516112164006 4.2183241955314523e-07 0 -0.035774865564398156 -0.00038012728067368564 0 -0.035837560759026742 -9.2376055069576852e-07 0 -0.037962304514882646 0.00013557640973046889 0 -0.037467903239327777 9.1678044055377748e-07 0 -0.037962304514882646 0.00013557640973046889 0 -0.037467903239327777 9.1678044055377748e-07 0 -0.038151940715769918 0.00011212682398519902 0 -0.037467903239327777 9.1678044055377748e-07 0 -0.03909631854823211 -9.3167763279545423e-07 0 -0.038151940715769918 0.00011212682398519902 0 -0.038522068835555957 -0.00096684688088717445 0 -0.039101497210756314 -2.6079142458795111e-07 0 -0.037329819214248994 -0.00024185605509847015 0 -0.03909631854823211 -9.3167763279545423e-07 0 -0.038151940715769918 0.00011212682398519902 0 -0.039106051371119756 -3.4509930567890505e-06 0 -0.041346560846814026 2.9328189993450715e-05 0 -0.041350046899546224 3.1668878447270618e-06 0 -0.044994630932313033 1.7827392182887193e-06 0 -0.04444956238335164 0.00010228122367531735 0 -0.045000125546429008 -2.8232921827360767e-07 0 -0.042501961793966141 -0.00089740425501851583 0 -0.041346560846814026 2.9328189993450715e-05 0 -0.042746853940215247 -8.4740815444336043e-05 0 -0.041346560846814026 2.9328189993450715e-05 0 -0.041810271653200913 0.00057951234172757638 0 -0.042746853940215247 -8.4740815444336043e-05 0 -0.041346560846814026 2.9328189993450715e-05 0 -0.041810271653200913 0.00057951234172757638 0 -0.041350046899546224 3.1668878447270618e-06 0 -0.0428580264180113 0.0002598152424798726 0 -0.041356549873533335 1.3274306065304384e-07 0 -0.043866389754239045 2.5940071977011095e-05 0 -0.041365137158350697 -2.6547975174252501e-06 0 -0.044994630932313033 1.7827392182887193e-06 0 -0.043866389754239045 2.5940071977011095e-05 0 -0.044994630932313033 1.7827392182887193e-06 0 -0.04444956238335164 0.00010228122367531735 0 -0.043866389754239045 2.5940071977011095e-05 0 -0.04444956238335164 0.00010228122367531735 0 -0.044117505672097108 0.00016326817680494202 0 -0.044117505672097108 0.00016326817680494202 0 -0.043770336952380445 -0.00031961551918355458 0 -0.044330904394792814 -4.6198855545985829e-05 0 -0.04444956238335164 0.00010228122367531735 0 -0.044117505672097108 0.00016326817680494202 0 -0.044330904394792814 -4.6198855545985829e-05 0 -0.041810271653200913 0.00057951234172757638 0 -0.044117505672097108 0.00016326817680494202 0 -0.042746853940215247 -8.4740815444336043e-05 0 -0.0428580264180113 0.0002598152424798726 0 -0.044002978575650997 0.00020082796684051015 0 -0.042501961793966141 -0.00089740425501851583 0 -0.042746853940215247 -8.4740815444336043e-05 0 -0.043770336952380445 -0.00031961551918355458 0 -0.043978794338938122 -0.00084160945896210909 0 -0.043770336952380445 -0.00031961551918355458 0 -0.044362419635097294 -0.00030457317424933619 0 -0.044117505672097108 0.00016326817680494202 0 -0.042746853940215247 -8.4740815444336043e-05 0 -0.043770336952380445 -0.00031961551918355458 0 -0.043770336952380445 -0.00031961551918355458 0 -0.044362419635097294 -0.00030457317424933619 0 -0.044330904394792814 -4.6198855545985829e-05 0 -0.044362419635097294 -0.00030457317424933619 0 -0.0444331067836631 -0.00017900615671774983 0 -0.044330904394792814 -4.6198855545985829e-05 0 -0.044362419635097294 -0.00030457317424933619 0 -0.0444331067836631 -0.00017900615671774983 0 -0.044359853727608693 -0.00021636950083153421 0 -0.044362419635097294 -0.00030457317424933619 0 -0.044359853727608693 -0.00021636950083153421 0 -0.044377145273852191 -0.00029676281983736174 0 -0.044537591992580818 -0.00010759381413577085 0 -0.044648977486941424 -3.6428321142225088e-05 0 -0.044581452653922188 1.1057905139660627e-05 0 -0.0444331067836631 -0.00017900615671774983 0 -0.044537591992580818 -0.00010759381413577085 0 -0.044359853727608693 -0.00021636950083153421 0 -0.04444956238335164 0.00010228122367531735 0 -0.044537591992580818 -0.00010759381413577085 0 -0.044330904394792814 -4.6198855545985829e-05 0 -0.0444331067836631 -0.00017900615671774983 0 -0.044537591992580818 -0.00010759381413577085 0 -0.044330904394792814 -4.6198855545985829e-05 0 -0.04444956238335164 0.00010228122367531735 0 -0.044537591992580818 -0.00010759381413577085 0 -0.044648977486941424 -3.6428321142225088e-05 0 -0.04444956238335164 0.00010228122367531735 0 -0.044648977486941424 -3.6428321142225088e-05 0 -0.045000125546429008 -2.8232921827360767e-07 0 -0.044648977486941424 -3.6428321142225088e-05 0 -0.045000125546429008 -2.8232921827360767e-07 0 -0.044957423556257932 -6.1567252351158431e-05 0 -0.044662565863520923 -4.4717052425073098e-05 0 -0.044758525156540302 -6.1944745416547838e-05 0 -0.044648977486941424 -3.6428321142225088e-05 0 -0.044581964785984363 -7.240985162375313e-05 0 -0.044581452653922188 1.1057905139660627e-05 0 -0.045000125546429008 -2.8232921827360767e-07 0 -0.044957423556257932 -6.1567252351158431e-05 0 -0.044996636705617772 -2.1424768038991123e-05 0 -0.044758525156540302 -6.1944745416547838e-05 0 -0.044639124225539471 -6.9104400246569524e-05 0 -0.044581964785984363 -7.240985162375313e-05 0 -0.044581452653922188 1.1057905139660627e-05 0 -0.044288728465989496 -0.00011540277797048158 0 -0.04419838788192143 -0.00039517186203442414 0 -0.043980652732556268 -0.00028665563020466604 0 -0.043747136394787986 -0.0004181885497682407 0 -0.04419838788192143 -0.00039517186203442414 0 -0.043980652732556268 -0.00028665563020466604 0 -0.044165205470163046 -0.00024572847820271881 0 -0.044373473703040664 -0.00018228636544636857 0 -0.043969629613294633 -0.00017010496117400846 0 -0.044513618961315587 -0.0001233634637087969 0 -0.044373473703040664 -0.00018228636544636857 0 -0.044537591992580818 -0.00010759381413577085 0 -0.04419838788192143 -0.00039517186203442414 0 -0.044359853727608693 -0.00021636950083153421 0 -0.04419838788192143 -0.00039517186203442414 0 -0.044359853727608693 -0.00021636950083153421 0 -0.044165205470163046 -0.00024572847820271881 0 -0.044359853727608693 -0.00021636950083153421 0 -0.044165205470163046 -0.00024572847820271881 0 -0.044220461193143872 -0.00016933151300001193 0 -0.043980652732556268 -0.00028665563020466604 0 -0.044165205470163046 -0.00024572847820271881 0 -0.043999112694951034 -0.0001689153453569791 0 -0.044165205470163046 -0.00024572847820271881 0 -0.043999112694951034 -0.0001689153453569791 0 -0.044220461193143872 -0.00016933151300001193 0 -0.043999112694951034 -0.0001689153453569791 0 -0.044058912517958203 3.4024221200311125e-05 0 -0.044220461193143872 -0.00016933151300001193 0 -0.043999112694951034 -0.0001689153453569791 0 -0.044058912517958203 3.4024221200311125e-05 0 -0.043804120430379831 -7.5837831992317013e-05 0 -0.034108375991160594 -0.00036516881085269377 0 -0.034121581730176556 -0.00080164354567912406 0 -0.034591135173220246 -0.0003907814019892574 0 -0.034108375991160594 -0.00036516881085269377 0 -0.033665495071482088 -0.00045527996939111198 0 -0.033807887267351837 -0.00062740268057036373 0 -0.044359853727608693 -0.00021636950083153421 0 -0.044220461193143872 -0.00016933151300001193 0 -0.044377145273852191 -0.00029676281983736174 0 -0.038992955962179977 -0.00016994181498903579 0 -0.039045084926856037 -0.00038965427797912357 0 -0.044058912517958203 3.4024221200311125e-05 0 -0.044220461193143872 -0.00016933151300001193 0 -0.044377145273852191 -0.00029676281983736174 0 -0.033531071622151708 -0.00066319896033155575 0 -0.033665495071482088 -0.00045527996939111198 0 -0.033417992928252954 -0.00058271859944803448 0 -0.043978794338938122 -0.00084160945896210909 0 -0.044362419635097294 -0.00030457317424933619 0 -0.044377145273852191 -0.00029676281983736174 0 -0.038633769930828475 -0.00075293339818981717 0 -0.039045084926856037 -0.00038965427797912357 0 -0.033665495071482088 -0.00045527996939111198 0 -0.033417992928252954 -0.00058271859944803448 0 -0.033807887267351837 -0.00062740268057036373 0 -0.033417992928252954 -0.00058271859944803448 0 -0.033684905014977715 -0.00093637590548261123 0 -0.033807887267351837 -0.00062740268057036373 0 -0.033417992928252954 -0.00058271859944803448 0 -0.033066040295002853 -0.00043066897649943529 0 -0.033355094286346657 -0.00031115779097205565 0 -0.03349321558712761 -0.000391440561844577 0 -0.033417992928252954 -0.00058271859944803448 0 -0.033355094286346657 -0.00031115779097205565 0 -0.033427093748438323 -0.00061214967667202775 0 -0.033323286687266515 -0.00066691082812895912 0 -0.033684905014977715 -0.00093637590548261123 0 -0.034121581730176556 -0.00080164354567912406 0 -0.03397751414597603 -0.0012130779296778977 0 -0.034121581730176556 -0.00080164354567912406 0 -0.034252097178278283 -0.0011582577621756407 0 -0.03397751414597603 -0.0012130779296778977 0 -0.034108375991160594 -0.00036516881085269377 0 -0.034121581730176556 -0.00080164354567912406 0 -0.033807887267351837 -0.00062740268057036373 0 -0.033684905014977715 -0.00093637590548261123 0 -0.034121581730176556 -0.00080164354567912406 0 -0.033807887267351837 -0.00062740268057036373 0 -0.03448924180811451 -0.00084861119265978308 0 -0.034799186239353748 -0.00080200175663189429 0 -0.034591135173220246 -0.0003907814019892574 0 -0.034121581730176556 -0.00080164354567912406 0 -0.03448924180811451 -0.00084861119265978308 0 -0.034591135173220246 -0.0003907814019892574 0 -0.034121581730176556 -0.00080164354567912406 0 -0.03448924180811451 -0.00084861119265978308 0 -0.034252097178278283 -0.0011582577621756407 0 -0.03448924180811451 -0.00084861119265978308 0 -0.034515360955014437 -0.0011423008385739997 0 -0.034252097178278283 -0.0011582577621756407 0 -0.030888040609842543 -0.00063076774874600906 0 -0.030916723445444858 -0.0020544932737916366 0 -0.03448924180811451 -0.00084861119265978308 0 -0.034799186239353748 -0.00080200175663189429 0 -0.034515360955014437 -0.0011423008385739997 0 -0.028679104900138565 -0.0024578385665951323 0 -0.028257589314582103 -0.00035080215392603565 0 -0.027102274264257063 -0.0029940768538295514 0 -0.028679104900138565 -0.0024578385665951323 0 -0.031068994361025663 -0.0017877014272564631 0 -0.028257589314582103 -0.00035080215392603565 0 -0.031068994361025663 -0.0017877014272564631 0 -0.031474629146354981 0.00053062940716306218 0 -0.028257589314582103 -0.00035080215392603565 0 -0.031474629146354981 0.00053062940716306218 0 -0.028257589314582103 -0.00035080215392603565 0 -0.030074415468101516 0.0023242158737937588 0 -0.030888040609842543 -0.00063076774874600906 0 -0.037642713968601985 -7.7025367627440102e-05 0 -0.037642713968601985 -7.7025367627440102e-05 0 -0.039475441369658346 -0.00017306505136453773 0 -0.034799186239353748 -0.00080200175663189429 0 -0.035100234589219785 -0.00043107555923563138 0 -0.034591135173220246 -0.0003907814019892574 0 -0.043335535421795676 8.9678577107727279e-05 0 -0.043437263410762025 -2.9440363908226116e-05 0 -0.043631737785602871 0.00010793917616786889 0 -0.042830536450493166 -0.00064974304227414115 0 -0.043047327368885363 -0.00040550006482496011 0 -0.043342737845364784 -0.00070345616515389521 0 -0.037642713968601985 -7.7025367627440102e-05 0 -0.038040684460023365 0.00075766584151254848 0 -0.031474629146354981 0.00053062940716306218 0 -0.030074415468101516 0.0023242158737937588 0 -0.033379731757573 0.0019784927345477591 0 -0.037642713968601985 -7.7025367627440102e-05 0 -0.043315734848648743 0.00024154867795736187 0 -0.043315734848648743 0.00024154867795736187 0 -0.043184474161653719 -0.00028499965848611706 0 -0.043335535421795676 8.9678577107727279e-05 0 -0.043311831905862942 -4.6351873105635436e-05 0 -0.043437263410762025 -2.9440363908226116e-05 0 -0.043311831905862942 -4.6351873105635436e-05 0 -0.043437263410762025 -2.9440363908226116e-05 0 -0.043394184456967654 -0.00015723853855753925 0 -0.043437263410762025 -2.9440363908226116e-05 0 -0.04357296751946358 -0.00011414063388915857 0 -0.043394184456967654 -0.00015723853855753925 0 -0.043437263410762025 -2.9440363908226116e-05 0 -0.043631737785602871 0.00010793917616786889 0 -0.04357296751946358 -0.00011414063388915857 0 -0.043631737785602871 0.00010793917616786889 0 -0.043804120430379831 -7.5837831992317013e-05 0 -0.04357296751946358 -0.00011414063388915857 0 -0.038992955962179977 -0.00016994181498903579 0 -0.039475441369658346 -0.00017306505136453773 0 -0.044058912517958203 3.4024221200311125e-05 0 -0.043631737785602871 0.00010793917616786889 0 -0.043804120430379831 -7.5837831992317013e-05 0 -0.043999112694951034 -0.0001689153453569791 0 -0.043804120430379831 -7.5837831992317013e-05 0 -0.043775589934032917 -0.00022467963311099054 0 -0.045000125546429008 -2.8232921827360767e-07 0 -0.044996636705617772 -2.1424768038991123e-05 0 -0.044999962396752198 5.9681655054970464e-08 0 -0.043804120430379831 -7.5837831992317013e-05 0 -0.043775589934032917 -0.00022467963311099054 0 -0.04357296751946358 -0.00011414063388915857 0 -0.043980652732556268 -0.00028665563020466604 0 -0.043999112694951034 -0.0001689153453569791 0 -0.043775589934032917 -0.00022467963311099054 0 -0.043775589934032917 -0.00022467963311099054 0 -0.043558396616472893 -0.00023044061330695519 0 -0.04357296751946358 -0.00011414063388915857 0 -0.043969629613294633 -0.00017010496117400846 0 -0.043581392461091974 -9.4032332910610453e-05 0 -0.043558396616472893 -0.00023044061330695519 0 -0.043747136394787986 -0.0004181885497682407 0 -0.043396812696881649 -0.00026278234839929187 0 -0.043775589934032917 -0.00022467963311099054 0 -0.043558396616472893 -0.00023044061330695519 0 -0.043747136394787986 -0.0004181885497682407 0 -0.043980652732556268 -0.00028665563020466604 0 -0.043775589934032917 -0.00022467963311099054 0 -0.043747136394787986 -0.0004181885497682407 0 -0.044581452653922188 1.1057905139660627e-05 0 -0.044187217351163308 7.2388259485296421e-05 0 -0.044288728465989496 -0.00011540277797048158 0 -0.044996636705617772 -2.1424768038991123e-05 0 -0.044995906002697095 -1.1125416072313905e-05 0 -0.044999962396752198 5.9681655054970464e-08 0 -0.044187217351163308 7.2388259485296421e-05 0 -0.044288728465989496 -0.00011540277797048158 0 -0.04390334977012128 -0.00013047791383425091 0 -0.044187217351163308 7.2388259485296421e-05 0 -0.04390334977012128 -0.00013047791383425091 0 -0.043731671912727879 6.9837604070361551e-05 0 -0.044639124225539471 -6.9104400246569524e-05 0 -0.044458578310265277 -6.7223328348776137e-05 0 -0.044999962396752198 5.9681655054970464e-08 0 -0.044993387045477673 -3.5445877585050779e-06 0 -0.044984777415088197 -8.6827344764344898e-06 0 -0.044995906002697095 -1.1125416072313905e-05 0 -0.044999962396752198 5.9681655054970464e-08 0 -0.044993387045477673 -3.5445877585050779e-06 0 -0.044458578310265277 -6.7223328348776137e-05 0 -0.044263849969461401 -4.5508264376482036e-05 0 -0.04390334977012128 -0.00013047791383425091 0 -0.043582298857660531 -8.3174397999348783e-05 0 -0.043731671912727879 6.9837604070361551e-05 0 -0.043582298857660531 -8.3174397999348783e-05 0 -0.043731671912727879 6.9837604070361551e-05 0 -0.04345908063757481 -7.4568480687965453e-06 0 -0.043581392461091974 -9.4032332910610453e-05 0 -0.043476741005389875 -2.1698870940432266e-05 0 -0.043366791033514457 -0.00014440734169351841 0 -0.043396812696881649 -0.00026278234839929187 0 -0.043394184456967654 -0.00015723853855753925 0 -0.043366791033514457 -0.00014440734169351841 0 -0.043396812696881649 -0.00026278234839929187 0 -0.04345908063757481 -7.4568480687965453e-06 0 -0.043558396616472893 -0.00023044061330695519 0 -0.043396812696881649 -0.00026278234839929187 0 -0.043394184456967654 -0.00015723853855753925 0 -0.043558396616472893 -0.00023044061330695519 0 -0.04357296751946358 -0.00011414063388915857 0 -0.043394184456967654 -0.00015723853855753925 0 -0.043366791033514457 -0.00014440734169351841 0 -0.043394184456967654 -0.00015723853855753925 0 -0.043304826811414211 -0.00017857023952818013 0 -0.043311831905862942 -4.6351873105635436e-05 0 -0.043394184456967654 -0.00015723853855753925 0 -0.043304826811414211 -0.00017857023952818013 0 -0.043366791033514457 -0.00014440734169351841 0 -0.043304826811414211 -0.00017857023952818013 0 -0.043496969741872879 -9.3207801004426027e-05 0 -0.043304826811414211 -0.00017857023952818013 0 -0.043496969741872879 -9.3207801004426027e-05 0 -0.043456139203969145 -0.00035774330126171284 0 -0.043496969741872879 -9.3207801004426027e-05 0 -0.043752187962095651 -0.00020956623781358955 0 -0.043456139203969145 -0.00035774330126171284 0 -0.043496969741872879 -9.3207801004426027e-05 0 -0.043556047196166799 3.1612019864790194e-05 0 -0.043732298994854708 8.7326029979275881e-05 0 -0.043496969741872879 -9.3207801004426027e-05 0 -0.043732298994854708 8.7326029979275881e-05 0 -0.043752187962095651 -0.00020956623781358955 0 -0.043366791033514457 -0.00014440734169351841 0 -0.043496969741872879 -9.3207801004426027e-05 0 -0.04345908063757481 -7.4568480687965453e-06 0 -0.043496969741872879 -9.3207801004426027e-05 0 -0.04345908063757481 -7.4568480687965453e-06 0 -0.043556047196166799 3.1612019864790194e-05 0 -0.043582298857660531 -8.3174397999348783e-05 0 -0.04345908063757481 -7.4568480687965453e-06 0 -0.043499744996799053 1.4095843736283892e-05 0 -0.044263849969461401 -4.5508264376482036e-05 0 -0.044401733401013554 5.1372121113554965e-05 0 -0.044993387045477673 -3.5445877585050779e-06 0 -0.044983557701528259 -8.173516164959637e-06 0 -0.044984777415088197 -8.6827344764344898e-06 0 -0.043582298857660531 -8.3174397999348783e-05 0 -0.043501953630371508 3.875766980781797e-05 0 -0.043499744996799053 1.4095843736283892e-05 0 -0.044999962396752198 5.9681655054970464e-08 0 -0.044984777415088197 -8.6827344764344898e-06 0 -0.044999886504895545 -6.2407538404401194e-08 0 -0.044401733401013554 5.1372121113554965e-05 0 -0.044482793811759964 4.2563944024398687e-06 0 -0.043501953630371508 3.875766980781797e-05 0 -0.043499744996799053 1.4095843736283892e-05 0 -0.043556047196166799 3.1612019864790194e-05 0 -0.04345908063757481 -7.4568480687965453e-06 0 -0.043499744996799053 1.4095843736283892e-05 0 -0.043556047196166799 3.1612019864790194e-05 0 -0.044401733401013554 5.1372121113554965e-05 0 -0.044322475486560091 1.8169584863162094e-05 0 -0.044979713675423985 -1.1689062916162597e-05 0 -0.044967082068686333 -1.9921605266731904e-05 0 -0.044940500048381474 -3.3109225454529399e-05 0 -0.043501953630371508 3.875766980781797e-05 0 -0.043556047196166799 3.1612019864790194e-05 0 -0.043732298994854708 8.7326029979275881e-05 0 -0.044984674919298327 -7.8266248613652406e-06 0 -0.044979713675423985 -1.1689062916162597e-05 0 -0.044940500048381474 -3.3109225454529399e-05 0 -0.044983292276648178 -8.5822853443286557e-06 0 -0.044979713675423985 -1.1689062916162597e-05 0 -0.044984777415088197 -8.6827344764344898e-06 0 -0.044401733401013554 5.1372121113554965e-05 0 -0.044792427495611881 5.4241148670956132e-05 0 -0.044979713675423985 -1.1689062916162597e-05 0 -0.044984777415088197 -8.6827344764344898e-06 0 -0.044999886504895545 -6.2407538404401194e-08 0 -0.044963283266709779 -1.8808265415835564e-05 0 -0.044999886504895545 -6.2407538404401194e-08 0 -0.044940092445473936 -3.3993738002085256e-05 0 -0.044979713675423985 -1.1689062916162597e-05 0 -0.044999886504895545 -6.2407538404401194e-08 0 -0.044967082068686333 -1.9921605266731904e-05 0 -0.044999886504895545 -6.2407538404401194e-08 0 -0.044967082068686333 -1.9921605266731904e-05 0 -0.044940092445473936 -3.3993738002085256e-05 0 -0.044967082068686333 -1.9921605266731904e-05 0 -0.044940092445473936 -3.3993738002085256e-05 0 -0.044940500048381474 -3.3109225454529399e-05 0 -0.044963283266709779 -1.8808265415835564e-05 0 -0.044901689396037323 -6.4912741637832464e-05 0 -0.044940092445473936 -3.3993738002085256e-05 0 -0.044901689396037323 -6.4912741637832464e-05 0 -0.044940092445473936 -3.3993738002085256e-05 0 -0.044857734992939005 -9.008598953185804e-05 0 -0.044940092445473936 -3.3993738002085256e-05 0 -0.044940500048381474 -3.3109225454529399e-05 0 -0.044857734992939005 -9.008598953185804e-05 0 -0.044322475486560091 1.8169584863162094e-05 0 -0.044517938971956349 -8.0023443563789149e-05 0 -0.043732298994854708 8.7326029979275881e-05 0 -0.043752187962095651 -0.00020956623781358955 0 -0.044140312667856341 -2.2563569492476764e-05 0 -0.043752187962095651 -0.00020956623781358955 0 -0.044140312667856341 -2.2563569492476764e-05 0 -0.044077510201554398 -0.0004487689765876746 0 -0.044723937023071744 -0.00028412939419238597 0 -0.044140312667856341 -2.2563569492476764e-05 0 -0.044077510201554398 -0.0004487689765876746 0 -0.044723937023071744 -0.00028412939419238597 0 -0.044426623590269929 -0.00092967079612592588 0 -0.044077510201554398 -0.0004487689765876746 0 -0.041160924185465547 -0.00038664270531194424 0 -0.040542137248799404 0.00044077823312348028 0 -0.044426623590269929 -0.00092967079612592588 0 -0.044077510201554398 -0.0004487689765876746 0 -0.043818289239384377 -0.00080630192965287805 0 -0.044077510201554398 -0.0004487689765876746 0 -0.043818289239384377 -0.00080630192965287805 0 -0.043680632580963961 -0.00049968516623703036 0 -0.043752187962095651 -0.00020956623781358955 0 -0.044077510201554398 -0.0004487689765876746 0 -0.043680632580963961 -0.00049968516623703036 0 -0.043752187962095651 -0.00020956623781358955 0 -0.043680632580963961 -0.00049968516623703036 0 -0.043456139203969145 -0.00035774330126171284 0 -0.043680632580963961 -0.00049968516623703036 0 -0.043456139203969145 -0.00035774330126171284 0 -0.043342737845364784 -0.00070345616515389521 0 -0.043047327368885363 -0.00040550006482496011 0 -0.043304826811414211 -0.00017857023952818013 0 -0.043456139203969145 -0.00035774330126171284 0 -0.043047327368885363 -0.00040550006482496011 0 -0.043456139203969145 -0.00035774330126171284 0 -0.043342737845364784 -0.00070345616515389521 0 -0.043818289239384377 -0.00080630192965287805 0 -0.043680632580963961 -0.00049968516623703036 0 -0.043342737845364784 -0.00070345616515389521 0 -0.040542137248799404 0.00044077823312348028 0 -0.038040684460023365 0.00075766584151254848 0 -0.036686337956062826 0.0016175813392848182 0 -0.033379731757573 0.0019784927345477591 0 -0.034050927052135839 -0.00073896329238775618 0 -0.036686337956062826 0.0016175813392848182 0 -0.034050927052135839 -0.00073896329238775618 0 -0.036672158283683927 -0.00094955923473748194 0 -0.031474629146354981 0.00053062940716306218 0 -0.033379731757573 0.0019784927345477591 0 -0.034050927052135839 -0.00073896329238775618 0 -0.031068994361025663 -0.0017877014272564631 0 -0.034050927052135839 -0.00073896329238775618 0 -0.032973430989038974 -0.0030899108470663237 0 -0.031068994361025663 -0.0017877014272564631 0 -0.031474629146354981 0.00053062940716306218 0 -0.034050927052135839 -0.00073896329238775618 0 -0.034050927052135839 -0.00073896329238775618 0 -0.036672158283683927 -0.00094955923473748194 0 -0.035586944027723465 -0.0029276303351425874 0 -0.034050927052135839 -0.00073896329238775618 0 -0.035586944027723465 -0.0029276303351425874 0 -0.032973430989038974 -0.0030899108470663237 0 -0.036672158283683927 -0.00094955923473748194 0 -0.037793208255356418 -0.0028624056743450869 0 -0.035586944027723465 -0.0029276303351425874 0 -0.036672158283683927 -0.00094955923473748194 0 -0.038888705869300266 -0.00080891725395952142 0 -0.037793208255356418 -0.0028624056743450869 0 -0.03872050560435146 -0.0014967909041245162 0 -0.037939979778150196 -0.0027464862404016667 0 -0.038849353552348906 -0.0026945540560452713 0 -0.03877218501414377 -0.002021094645251212 0 -0.037793208255356418 -0.0028624056743450869 0 -0.039566784347062206 -0.0023163931944216996 0 -0.038849353552348906 -0.0026945540560452713 0 -0.03877218501414377 -0.002021094645251212 0 -0.039982041815094987 0.0012297709075312516 0 -0.036686337956062826 0.0016175813392848182 0 -0.038888705869300266 -0.00080891725395952142 0 -0.041160924185465547 -0.00038664270531194424 0 -0.03872050560435146 -0.0014967909041245162 0 -0.036686337956062826 0.0016175813392848182 0 -0.036672158283683927 -0.00094955923473748194 0 -0.038888705869300266 -0.00080891725395952142 0 -0.022721859402908114 -0.0047047045263546869 0 -0.024279177742621956 -0.0047510661413975828 0 -0.022803739658582373 -0.0037974747102518594 0 -0.030043726988478341 -0.0046969440581425739 0 -0.029332275741299263 -0.004820399464407113 0 -0.039204481205878258 -0.0038370182871260627 0 -0.039657396423586129 -0.0040270223386535001 0 -0.037518519521664649 -0.0047659827958310965 0 -0.021255166412822504 -0.0044635800370005094 0 -0.022721859402908114 -0.0047047045263546869 0 -0.021939395426206584 -0.0039931164829394676 0 -0.030593189408123105 -0.0042554842363563498 0 -0.030043726988478341 -0.0046969440581425739 0 -0.022721859402908114 -0.0047047045263546869 0 -0.022803739658582373 -0.0037974747102518594 0 -0.021939395426206584 -0.0039931164829394676 0 -0.037518519521664649 -0.0047659827958310965 0 -0.038906030670788357 -0.0033152559710636791 0 -0.037793208255356418 -0.0028624056743450869 0 -0.039204481205878258 -0.0038370182871260627 0 -0.037518519521664649 -0.0047659827958310965 0 -0.038906030670788357 -0.0033152559710636791 0 -0.03954094172921413 -0.0028132437069833794 0 -0.038849353552348906 -0.0026945540560452713 0 -0.038906030670788357 -0.0033152559710636791 0 -0.038849353552348906 -0.0026945540560452713 0 -0.038906030670788357 -0.0033152559710636791 0 -0.037793208255356418 -0.0028624056743450869 0 -0.037518519521664649 -0.0047659827958310965 0 -0.037793208255356418 -0.0028624056743450869 0 -0.035586944027723465 -0.0029276303351425874 0 -0.035586944027723465 -0.0029276303351425874 0 -0.032973430989038974 -0.0030899108470663237 0 -0.034382255077715418 -0.004911366138096584 0 -0.037518519521664649 -0.0047659827958310965 0 -0.035586944027723465 -0.0029276303351425874 0 -0.034382255077715418 -0.004911366138096584 0 -0.032973430989038974 -0.0030899108470663237 0 -0.034382255077715418 -0.004911366138096584 0 -0.031119343080848832 -0.0047450922820779454 0 -0.029332275741299263 -0.004820399464407113 0 -0.028475979017382087 -0.0046828597187056863 0 -0.024279177742621956 -0.0047510661413975828 0 -0.024711625762724523 -0.0037217088134761313 0 -0.025862077636234798 -0.0047042329729901746 0 -0.024279177742621956 -0.0047510661413975828 0 -0.023656863835786166 -0.0033175287784517463 0 -0.022803739658582373 -0.0037974747102518594 0 -0.024279177742621956 -0.0047510661413975828 0 -0.023656863835786166 -0.0033175287784517463 0 -0.024711625762724523 -0.0037217088134761313 0 -0.024711625762724523 -0.0037217088134761313 0 -0.024715994946392785 -0.0023714842562383162 0 -0.025767656163646405 -0.0033440105382878389 0 -0.023656863835786166 -0.0033175287784517463 0 -0.024711625762724523 -0.0037217088134761313 0 -0.024715994946392785 -0.0023714842562383162 0 -0.023656863835786166 -0.0033175287784517463 0 -0.024715994946392785 -0.0023714842562383162 0 -0.023416830039028138 -0.002057915424013128 0 -0.023656863835786166 -0.0033175287784517463 0 -0.022797453461903233 -0.0028178129831331329 0 -0.023416830039028138 -0.002057915424013128 0 -0.023656863835786166 -0.0033175287784517463 0 -0.022797453461903233 -0.0028178129831331329 0 -0.022803739658582373 -0.0037974747102518594 0 -0.022803739658582373 -0.0037974747102518594 0 -0.021939395426206584 -0.0039931164829394676 0 -0.021775188095798419 -0.0031575702087418139 0 -0.021333822564126245 -0.003807825066595931 0 -0.021939395426206584 -0.0039931164829394676 0 -0.021775188095798419 -0.0031575702087418139 0 -0.022797453461903233 -0.0028178129831331329 0 -0.021775188095798419 -0.0031575702087418139 0 -0.022260773440357769 -0.0017676362070217764 0 -0.022797453461903233 -0.0028178129831331329 0 -0.022803739658582373 -0.0037974747102518594 0 -0.021775188095798419 -0.0031575702087418139 0 -0.021188545586307936 -0.00063846206688231686 0 -0.021042298245024207 -0.0021457096960209318 0 -0.022260773440357769 -0.0017676362070217764 0 -0.021042298245024207 -0.0021457096960209318 0 -0.021775188095798419 -0.0031575702087418139 0 -0.022260773440357769 -0.0017676362070217764 0 -0.022797453461903233 -0.0028178129831331329 0 -0.022260773440357769 -0.0017676362070217764 0 -0.023416830039028138 -0.002057915424013128 0 -0.022260773440357769 -0.0017676362070217764 0 -0.023416830039028138 -0.002057915424013128 0 -0.022825339998099284 -0.00080641038994862973 0 -0.021320358335096205 -0.00072404885403248105 0 -0.022149698117460554 -0.0016725559647994953 0 -0.021207961026007149 -0.00069481331983013077 0 -0.022260773440357769 -0.0017676362070217764 0 -0.022825339998099284 -0.00080641038994862973 0 -0.021207961026007149 -0.00069481331983013077 0 -0.022825339998099284 -0.00080641038994862973 0 -0.022479898833390629 0.00034092802820236948 0 -0.021207961026007149 -0.00069481331983013077 0 -0.021341793042007458 0.00042830974691773939 0 -0.022479898833390629 0.00034092802820236948 0 -0.022825339998099284 -0.00080641038994862973 0 -0.022479898833390629 0.00034092802820236948 0 -0.023641144563559757 0.00029677250478483096 0 -0.022479898833390629 0.00034092802820236948 0 -0.023641144563559757 0.00029677250478483096 0 -0.023159619190575072 0.0018042124038781871 0 -0.022479898833390629 0.00034092802820236948 0 -0.022004758962051025 0.0013595779592360619 0 -0.023159619190575072 0.0018042124038781871 0 -0.021341793042007458 0.00042830974691773939 0 -0.022479898833390629 0.00034092802820236948 0 -0.022004758962051025 0.0013595779592360619 0 -0.021341793042007458 0.00042830974691773939 0 -0.022004758962051025 0.0013595779592360619 0 -0.021018874283266209 0.0015108048603871599 0 -0.02454963062448429 0.00093696819263888438 0 -0.023641144563559757 0.00029677250478483096 0 -0.023159619190575072 0.0018042124038781871 0 -0.022825339998099284 -0.00080641038994862973 0 -0.023641144563559757 0.00029677250478483096 0 -0.024117631029345329 -0.0010564796210594755 0 -0.023641144563559757 0.00029677250478483096 0 -0.024759231968682949 -0.00018148009932218739 0 -0.024117631029345329 -0.0010564796210594755 0 -0.02454963062448429 0.00093696819263888438 0 -0.024759231968682949 -0.00018148009932218739 0 -0.025891151225092047 4.0466213537244258e-05 0 -0.02454963062448429 0.00093696819263888438 0 -0.023641144563559757 0.00029677250478483096 0 -0.024759231968682949 -0.00018148009932218739 0 -0.024759231968682949 -0.00018148009932218739 0 -0.024117631029345329 -0.0010564796210594755 0 -0.025317237102849569 -0.0011552591022650884 0 -0.023416830039028138 -0.002057915424013128 0 -0.022825339998099284 -0.00080641038994862973 0 -0.024117631029345329 -0.0010564796210594755 0 -0.024715994946392785 -0.0023714842562383162 0 -0.023416830039028138 -0.002057915424013128 0 -0.024117631029345329 -0.0010564796210594755 0 -0.024715994946392785 -0.0023714842562383162 0 -0.024117631029345329 -0.0010564796210594755 0 -0.025317237102849569 -0.0011552591022650884 0 -0.024715994946392785 -0.0023714842562383162 0 -0.026148303291306255 -0.0022052143048048507 0 -0.025317237102849569 -0.0011552591022650884 0 -0.026148303291306255 -0.0022052143048048507 0 -0.02630192459853108 -0.0011871895171701803 0 -0.025317237102849569 -0.0011552591022650884 0 -0.026148303291306255 -0.0022052143048048507 0 -0.026987680619659338 -0.0017031239528237383 0 -0.027100733538913929 -0.0024878655230042646 0 -0.026148303291306255 -0.0022052143048048507 0 -0.02630192459853108 -0.0011871895171701803 0 -0.026987680619659338 -0.0017031239528237383 0 -0.02630192459853108 -0.0011871895171701803 0 -0.027116363083390868 -0.00086041153258046513 0 -0.026987680619659338 -0.0017031239528237383 0 -0.02630192459853108 -0.0011871895171701803 0 -0.025891151225092047 4.0466213537244258e-05 0 -0.027116363083390868 -0.00086041153258046513 0 -0.02630192459853108 -0.0011871895171701803 0 -0.025317237102849569 -0.0011552591022650884 0 -0.025891151225092047 4.0466213537244258e-05 0 -0.024759231968682949 -0.00018148009932218739 0 -0.025317237102849569 -0.0011552591022650884 0 -0.025891151225092047 4.0466213537244258e-05 0 -0.013650775860676489 -0.0032345241718538561 0 -0.015343099144622872 -0.0026374051506883249 0 -0.015185997983799588 -0.0040553056068424647 0 -0.019818799788497255 -0.0016030222908384353 0 -0.020844254532518248 -0.0025002269130693375 0 -0.013650775860676489 -0.0032345241718538561 0 -0.014067641633700279 -0.0019095191874919757 0 -0.015343099144622872 -0.0026374051506883249 0 -0.018255252398936689 -0.00071763108335525807 0 -0.019818799788497255 -0.0016030222908384353 0 -0.012045036868604629 -0.002409437811245114 0 -0.013650775860676489 -0.0032345241718538561 0 -0.014067641633700279 -0.0019095191874919757 0 -0.016866541946187228 -0.002219359795680094 0 -0.015343099144622872 -0.0026374051506883249 0 -0.016578366915135104 -0.00317378512917784 0 -0.016866541946187228 -0.002219359795680094 0 -0.015343099144622872 -0.0026374051506883249 0 -0.01623068464582168 -0.0014515315842274796 0 -0.015813313910967488 -0.0034324498970175351 0 -0.016315125021307057 -0.0039257097102959777 0 -0.015185997983799588 -0.0040553056068424647 0 -0.015343099144622872 -0.0026374051506883249 0 -0.015813313910967488 -0.0034324498970175351 0 -0.016578366915135104 -0.00317378512917784 0 -0.015343099144622872 -0.0026374051506883249 0 -0.015813313910967488 -0.0034324498970175351 0 -0.015185997983799588 -0.0040553056068424647 0 -0.015813313910967488 -0.0034324498970175351 0 -0.016578366915135104 -0.00317378512917784 0 -0.016315125021307057 -0.0039257097102959777 0 -0.016578366915135104 -0.00317378512917784 0 -0.016315125021307057 -0.0039257097102959777 0 -0.017417610660798846 -0.003819163751763742 0 -0.016315125021307057 -0.0039257097102959777 0 -0.015185997983799588 -0.0040553056068424647 0 -0.016688752995394185 -0.0049131988905699881 0 -0.016315125021307057 -0.0039257097102959777 0 -0.016688752995394185 -0.0049131988905699881 0 -0.017417610660798846 -0.003819163751763742 0 -0.020844254532518248 -0.0025002269130693375 0 -0.024110602298464338 -0.0023988340581067857 0 -0.027116363083390868 -0.00086041153258046513 0 -0.026987680619659338 -0.0017031239528237383 0 -0.028112553608744418 -0.0015883829901278724 0 -0.026987680619659338 -0.0017031239528237383 0 -0.02767715259395551 -0.0022047939917575923 0 -0.028194527179276879 -0.0017173480348624895 0 -0.028747884732910262 -0.0014759666779174769 0 -0.024110602298464338 -0.0023988340581067857 0 -0.026987680619659338 -0.0017031239528237383 0 -0.02767715259395551 -0.0022047939917575923 0 -0.027100733538913929 -0.0024878655230042646 0 -0.02767715259395551 -0.0022047939917575923 0 -0.028194527179276879 -0.0017173480348624895 0 -0.028185360869327505 -0.0023369758639311278 0 -0.028194527179276879 -0.0017173480348624895 0 -0.028185360869327505 -0.0023369758639311278 0 -0.028786028748735853 -0.0021035166684865011 0 -0.028185360869327505 -0.0023369758639311278 0 -0.027824658838714125 -0.0027778121497909168 0 -0.028510386915116079 -0.0027332055867311032 0 -0.02767715259395551 -0.0022047939917575923 0 -0.028185360869327505 -0.0023369758639311278 0 -0.027824658838714125 -0.0027778121497909168 0 -0.027824658838714125 -0.0027778121497909168 0 -0.02803863247183002 -0.0034113001647613187 0 -0.028510386915116079 -0.0027332055867311032 0 -0.02803863247183002 -0.0034113001647613187 0 -0.028166757261866637 -0.004265097259451121 0 -0.028833654984153526 -0.0033451347376524557 0 -0.027824658838714125 -0.0027778121497909168 0 -0.02803863247183002 -0.0034113001647613187 0 -0.027539115744585001 -0.0033843005079638427 0 -0.02803863247183002 -0.0034113001647613187 0 -0.027539115744585001 -0.0033843005079638427 0 -0.027654535923069698 -0.0039353925568552713 0 -0.027539115744585001 -0.0033843005079638427 0 -0.027654535923069698 -0.0039353925568552713 0 -0.027483392494494854 -0.0038734736158019404 0 -0.027539115744585001 -0.0033843005079638427 0 -0.026913643256994156 -0.0032052656687384423 0 -0.027483392494494854 -0.0038734736158019404 0 -0.027824658838714125 -0.0027778121497909168 0 -0.027539115744585001 -0.0033843005079638427 0 -0.027100733538913929 -0.0024878655230042646 0 -0.02767715259395551 -0.0022047939917575923 0 -0.027824658838714125 -0.0027778121497909168 0 -0.027100733538913929 -0.0024878655230042646 0 -0.027539115744585001 -0.0033843005079638427 0 -0.027100733538913929 -0.0024878655230042646 0 -0.026913643256994156 -0.0032052656687384423 0 -0.026148303291306255 -0.0022052143048048507 0 -0.025767656163646405 -0.0033440105382878389 0 -0.026913643256994156 -0.0032052656687384423 0 -0.026148303291306255 -0.0022052143048048507 0 -0.027100733538913929 -0.0024878655230042646 0 -0.026913643256994156 -0.0032052656687384423 0 -0.024715994946392785 -0.0023714842562383162 0 -0.026148303291306255 -0.0022052143048048507 0 -0.025767656163646405 -0.0033440105382878389 0 -0.024711625762724523 -0.0037217088134761313 0 -0.025767656163646405 -0.0033440105382878389 0 -0.025862077636234798 -0.0047042329729901746 0 -0.025767656163646405 -0.0033440105382878389 0 -0.026913643256994156 -0.0032052656687384423 0 -0.026841423150446554 -0.0038885437474289776 0 -0.026913643256994156 -0.0032052656687384423 0 -0.026841423150446554 -0.0038885437474289776 0 -0.027483392494494854 -0.0038734736158019404 0 -0.026841423150446554 -0.0038885437474289776 0 -0.027483392494494854 -0.0038734736158019404 0 -0.027779265894884421 -0.004278829022687238 0 -0.028475979017382087 -0.0046828597187056863 0 -0.027805496208092674 -0.0043665589247694845 0 -0.026841423150446554 -0.0038885437474289776 0 -0.025862077636234798 -0.0047042329729901746 0 -0.027779265894884421 -0.004278829022687238 0 -0.025767656163646405 -0.0033440105382878389 0 -0.026841423150446554 -0.0038885437474289776 0 -0.025862077636234798 -0.0047042329729901746 0 -0.031068994361025663 -0.0017877014272564631 0 -0.032973430989038974 -0.0030899108470663237 0 -0.031119343080848832 -0.0047450922820779454 0 -0.028679104900138565 -0.0024578385665951323 0 -0.031068994361025663 -0.0017877014272564631 0 -0.031119343080848832 -0.0047450922820779454 0 -0.028679104900138565 -0.0024578385665951323 0 -0.031119343080848832 -0.0047450922820779454 0 -0.027779265894884421 -0.004278829022687238 0 -0.028679104900138565 -0.0024578385665951323 0 -0.027102274264257063 -0.0029940768538295514 0 -0.027779265894884421 -0.004278829022687238 0 -0.027102274264257063 -0.0029940768538295514 0 -0.027779265894884421 -0.004278829022687238 0 -0.027495896825403918 -0.0039562086431397404 0 -0.027102274264257063 -0.0029940768538295514 0 -0.027314115870534582 -0.004020824210028159 0 -0.027495896825403918 -0.0039562086431397404 0 -0.034515360955014437 -0.0011423008385739997 0 -0.034252097178278283 -0.0011582577621756407 0 -0.034257841473459352 -0.0014700532867504724 0 -0.030916723445444858 -0.0020544932737916366 0 -0.030901666936845137 -0.0023045865967435734 0 -0.02803863247183002 -0.0034113001647613187 0 -0.028166757261866637 -0.004265097259451121 0 -0.027654535923069698 -0.0039353925568552713 0 -0.030901666936845137 -0.0023045865967435734 0 -0.028229981130318552 -0.0029070247668202751 0 -0.027314115870534582 -0.004020824210028159 0 -0.027654535923069698 -0.0039353925568552713 0 -0.027495896825403918 -0.0039562086431397404 0 -0.027654535923069698 -0.0039353925568552713 0 -0.027483392494494854 -0.0038734736158019404 0 -0.027495896825403918 -0.0039562086431397404 0 -0.027483392494494854 -0.0038734736158019404 0 -0.027779265894884421 -0.004278829022687238 0 -0.027495896825403918 -0.0039562086431397404 0 -0.032950260594604597 -0.0001028289315547422 0 -0.032759859123882226 -9.8372671085700979e-05 0 -0.032877327330138074 4.9019145847424984e-05 0 -0.032950260594604597 -0.0001028289315547422 0 -0.032759859123882226 -9.8372671085700979e-05 0 -0.032805221196156802 -0.00029410266694409508 0 -0.032558314063108058 -0.00015171198037606859 0 -0.032759859123882226 -9.8372671085700979e-05 0 -0.032698060986888808 5.687184055759963e-05 0 -0.032558314063108058 -0.00015171198037606859 0 -0.032759859123882226 -9.8372671085700979e-05 0 -0.032805221196156802 -0.00029410266694409508 0 -0.030901666936845137 -0.0023045865967435734 0 -0.033740184266854677 -0.00068290165335085299 0 -0.034252097178278283 -0.0011582577621756407 0 -0.034257841473459352 -0.0014700532867504724 0 -0.03397751414597603 -0.0012130779296778977 0 -0.033323286687266515 -0.00066691082812895912 0 -0.033740184266854677 -0.00068290165335085299 0 -0.032950260594604597 -0.0001028289315547422 0 -0.032805221196156802 -0.00029410266694409508 0 -0.033108954126460012 -0.00022967894969353272 0 -0.033066040295002853 -0.00043066897649943529 0 -0.032805221196156802 -0.00029410266694409508 0 -0.033108954126460012 -0.00022967894969353272 0 -0.033066040295002853 -0.00043066897649943529 0 -0.033108954126460012 -0.00022967894969353272 0 -0.033355094286346657 -0.00031115779097205565 0 -0.033108954126460012 -0.00022967894969353272 0 -0.033355094286346657 -0.00031115779097205565 0 -0.03330458944682544 -0.00017899991959754514 0 -0.033108954126460012 -0.00022967894969353272 0 -0.03330458944682544 -0.00017899991959754514 0 -0.03311102090043104 -0.00010978216610325545 0 -0.03330458944682544 -0.00017899991959754514 0 -0.033206179426242648 -4.980743274117464e-05 0 -0.033455804945803969 -0.00010262598400883515 0 -0.03330458944682544 -0.00017899991959754514 0 -0.033206179426242648 -4.980743274117464e-05 0 -0.03311102090043104 -0.00010978216610325545 0 -0.032950260594604597 -0.0001028289315547422 0 -0.033108954126460012 -0.00022967894969353272 0 -0.03311102090043104 -0.00010978216610325545 0 -0.033206179426242648 -4.980743274117464e-05 0 -0.03311102090043104 -0.00010978216610325545 0 -0.033046164809755002 1.3449818196014487e-05 0 -0.032950260594604597 -0.0001028289315547422 0 -0.03311102090043104 -0.00010978216610325545 0 -0.033046164809755002 1.3449818196014487e-05 0 -0.032950260594604597 -0.0001028289315547422 0 -0.033046164809755002 1.3449818196014487e-05 0 -0.032877327330138074 4.9019145847424984e-05 0 -0.029161288571423361 -0.00088756372358555667 0 -0.029141406458628189 -0.0011526965233555008 0 -0.033046164809755002 1.3449818196014487e-05 0 -0.033170638919735859 6.9108614765901966e-05 0 -0.032991224003252523 0.00016267732965224595 0 -0.033046164809755002 1.3449818196014487e-05 0 -0.032991224003252523 0.00016267732965224595 0 -0.032877327330138074 4.9019145847424984e-05 0 -0.025616397005144828 -0.00086437593264986198 0 -0.025681422623089093 -0.00075807827630450003 0 -0.025792419460813253 -0.0008236817670727065 0 -0.033206179426242648 -4.980743274117464e-05 0 -0.033176391088129795 7.3148332134630588e-05 0 -0.033455804945803969 -0.00010262598400883515 0 -0.031957284356046819 2.1189465256528581e-06 0 -0.029161288571423361 -0.00088756372358555667 0 -0.033206179426242648 -4.980743274117464e-05 0 -0.033046164809755002 1.3449818196014487e-05 0 -0.033170638919735859 6.9108614765901966e-05 0 -0.029161288571423361 -0.00088756372358555667 0 -0.025473373855846887 -0.0014515952138606492 0 -0.025616397005144828 -0.00086437593264986198 0 -0.025591484914229294 -0.00068265424722425939 0 -0.025681422623089093 -0.00075807827630450003 0 -0.025591484914229294 -0.00068265424722425939 0 -0.025681422623089093 -0.00075807827630450003 0 -0.025701746991852396 -0.00060597156601438701 0 -0.025351278059047789 -0.0024894431720956221 0 -0.025201629175860638 -0.0024234518554588028 0 -0.025328517314910624 -0.0023493041698081176 0 -0.025450533782997543 -0.0023976809081822045 0 -0.025351278059047789 -0.0024894431720956221 0 -0.025328517314910624 -0.0023493041698081176 0 -0.02549992031700234 -0.0025555039764278364 0 -0.025450533782997543 -0.0023976809081822045 0 -0.025351278059047789 -0.0024894431720956221 0 -0.032991224003252523 0.00016267732965224595 0 -0.032814498787748336 0.00024904697764057993 0 -0.032877327330138074 4.9019145847424984e-05 0 -0.029141406458628189 -0.0011526965233555008 0 -0.029486982581744096 -0.0013249626834966168 0 -0.032759859123882226 -9.8372671085700979e-05 0 -0.032877327330138074 4.9019145847424984e-05 0 -0.032698060986888808 5.687184055759963e-05 0 -0.032814498787748336 0.00024904697764057993 0 -0.032877327330138074 4.9019145847424984e-05 0 -0.032698060986888808 5.687184055759963e-05 0 -0.030901666936845137 -0.0023045865967435734 0 -0.030901864202213625 -0.0015332242444376614 0 -0.02803863247183002 -0.0034113001647613187 0 -0.028833654984153526 -0.0033451347376524557 0 -0.028510386915116079 -0.0027332055867311032 0 -0.029408957514185898 -0.0024854685972543703 0 -0.028510386915116079 -0.0027332055867311032 0 -0.028786028748735853 -0.0021035166684865011 0 -0.029486982581744096 -0.0013249626834966168 0 -0.030901864202213625 -0.0015332242444376614 0 -0.029408957514185898 -0.0024854685972543703 0 -0.028833654984153526 -0.0033451347376524557 0 -0.028510386915116079 -0.0027332055867311032 0 -0.028185360869327505 -0.0023369758639311278 0 -0.028510386915116079 -0.0027332055867311032 0 -0.028786028748735853 -0.0021035166684865011 0 -0.024897917226179133 -0.0022609653411042917 0 -0.025049265305328292 -0.0023505902998223415 0 -0.025161313080414107 -0.0022513988039601332 0 -0.024110602298464338 -0.0023988340581067857 0 -0.020859504337801357 -0.003734874486309778 0 -0.029486982581744096 -0.0013249626834966168 0 -0.027007159868132017 -0.0022602822991709738 0 -0.024110602298464338 -0.0023988340581067857 0 -0.027007159868132017 -0.0022602822991709738 0 -0.025161313080414107 -0.0022513988039601332 0 -0.025254066154373117 -0.0023033886994029734 0 -0.025324509925851887 -0.0022557260109910509 0 -0.025201629175860638 -0.0024234518554588028 0 -0.025161313080414107 -0.0022513988039601332 0 -0.025254066154373117 -0.0023033886994029734 0 -0.025201629175860638 -0.0024234518554588028 0 -0.025049265305328292 -0.0023505902998223415 0 -0.025161313080414107 -0.0022513988039601332 0 -0.025201629175860638 -0.0024234518554588028 0 -0.025254066154373117 -0.0023033886994029734 0 -0.025328517314910624 -0.0023493041698081176 0 -0.018290914608499992 -0.0047652259738619075 0 -0.017417610660798846 -0.003819163751763742 0 -0.018774369089210822 -0.0035379668105194125 0 -0.016688752995394185 -0.0049131988905699881 0 -0.018290914608499992 -0.0047652259738619075 0 -0.017417610660798846 -0.003819163751763742 0 -0.016578366915135104 -0.00317378512917784 0 -0.017417610660798846 -0.003819163751763742 0 -0.017887392448925486 -0.0025582193307889401 0 -0.018774369089210822 -0.0035379668105194125 0 -0.017887392448925486 -0.0025582193307889401 0 -0.01900025429036839 -0.0023085566502709424 0 -0.017417610660798846 -0.003819163751763742 0 -0.018774369089210822 -0.0035379668105194125 0 -0.017887392448925486 -0.0025582193307889401 0 -0.017887392448925486 -0.0025582193307889401 0 -0.01900025429036839 -0.0023085566502709424 0 -0.018562319254908484 -0.0012745729904294725 0 -0.016866541946187228 -0.002219359795680094 0 -0.017887392448925486 -0.0025582193307889401 0 -0.017404456579784143 -0.0011072303423586174 0 -0.016866541946187228 -0.002219359795680094 0 -0.016578366915135104 -0.00317378512917784 0 -0.017887392448925486 -0.0025582193307889401 0 -0.020531644417729658 -0.0014998599005510752 0 -0.019943031250846583 -0.0022882439443899574 0 -0.01980710333030939 -0.0012197595688576088 0 -0.019705335688523808 -0.0029029671785792527 0 -0.019881391339466387 -0.0011989529920476902 0 -0.01900025429036839 -0.0023085566502709424 0 -0.01980710333030939 -0.0012197595688576088 0 -0.018562319254908484 -0.0012745729904294725 0 -0.01900025429036839 -0.0023085566502709424 0 -0.02003270910428227 -0.0029721932655046692 0 -0.01980710333030939 -0.0012197595688576088 0 -0.018774369089210822 -0.0035379668105194125 0 -0.01900025429036839 -0.0023085566502709424 0 -0.02003270910428227 -0.0029721932655046692 0 -0.018774369089210822 -0.0035379668105194125 0 -0.02003270910428227 -0.0029721932655046692 0 -0.019957501626108123 -0.0046259017451821477 0 -0.020531644417729658 -0.0014998599005510752 0 -0.019943031250846583 -0.0022882439443899574 0 -0.020830966603379322 -0.0025078722148807399 0 -0.019943031250846583 -0.0022882439443899574 0 -0.020451930127442491 -0.002883934537027213 0 -0.020830966603379322 -0.0025078722148807399 0 -0.020451930127442491 -0.002883934537027213 0 -0.020074515670411731 -0.0034675469095442955 0 -0.020904654726636017 -0.0032707815618017865 0 -0.022855220292760416 -0.0026465657963111416 0 -0.023338682494864347 -0.0018749418811120488 0 -0.019943031250846583 -0.0022882439443899574 0 -0.020451930127442491 -0.002883934537027213 0 -0.020074515670411731 -0.0034675469095442955 0 -0.019705335688523808 -0.0029029671785792527 0 -0.022855220292760416 -0.0026465657963111416 0 -0.02003270910428227 -0.0029721932655046692 0 -0.020177397536104199 -0.0046073036353360165 0 -0.019957501626108123 -0.0046259017451821477 0 -0.022855220292760416 -0.0026465657963111416 0 -0.023448698386522953 -0.0028254037296964502 0 -0.025161313080414107 -0.0022513988039601332 0 -0.025379645828334831 -0.0022483988697068634 0 -0.025324509925851887 -0.0022557260109910509 0 -0.018290914608499992 -0.0047652259738619075 0 -0.018774369089210822 -0.0035379668105194125 0 -0.019957501626108123 -0.0046259017451821477 0 -0.020859504337801357 -0.003734874486309778 0 -0.023448698386522953 -0.0028254037296964502 0 -0.023448698386522953 -0.0028254037296964502 0 -0.025004505580611396 -0.0024391343392623009 0 -0.025450533782997543 -0.0023976809081822045 0 -0.025379768368367209 -0.0022431582102785817 0 -0.025328517314910624 -0.0023493041698081176 0 -0.025254066154373117 -0.0023033886994029734 0 -0.025324509925851887 -0.0022557260109910509 0 -0.025328517314910624 -0.0023493041698081176 0 -0.025379768368367209 -0.0022431582102785817 0 -0.025324509925851887 -0.0022557260109910509 0 -0.025328517314910624 -0.0023493041698081176 0 -0.025450533782997543 -0.0023976809081822045 0 -0.025404966587097479 -0.0022409992871056622 0 -0.025379768368367209 -0.0022431582102785817 0 -0.025591484914229294 -0.00068265424722425939 0 -0.025561828543298928 -0.0005245561946638789 0 -0.025701746991852396 -0.00060597156601438701 0 -0.025561828543298928 -0.0005245561946638789 0 -0.025701746991852396 -0.00060597156601438701 0 -0.025714373384640513 -0.00048355160306727166 0 -0.025473373855846887 -0.0014515952138606492 0 -0.022855220292760416 -0.0026465657963111416 0 -0.025701746991852396 -0.00060597156601438701 0 -0.02584879429122058 -0.00062055080281669852 0 -0.025775841993090465 -0.00070816699787421738 0 -0.025701746991852396 -0.00060597156601438701 0 -0.025813757764602541 -0.00053484302882208015 0 -0.02584879429122058 -0.00062055080281669852 0 -0.025701746991852396 -0.00060597156601438701 0 -0.025813757764602541 -0.00053484302882208015 0 -0.025714373384640513 -0.00048355160306727166 0 -0.02584879429122058 -0.00062055080281669852 0 -0.025904098074829171 -0.00055965675250492172 0 -0.025963673730326198 -0.00061664577433964295 0 -0.025796743382361841 -0.00038195923928686459 0 -0.025949822988272607 -0.00060272142378436932 0 -0.025813757764602541 -0.00053484302882208015 0 -0.02584879429122058 -0.00062055080281669852 0 -0.025904098074829171 -0.00055965675250492172 0 -0.023718083593460709 -0.0013100943497507199 0 -0.024501246029114389 -0.00053042453221409153 0 -0.025853476869053076 -0.00021264828693245765 0 -0.025862593473538503 -0.00011408541734837273 0 -0.02599067980087447 -0.0001555950770449745 0 -0.025796743382361841 -0.00038195923928686459 0 -0.023718083593460709 -0.0013100943497507199 0 -0.025813757764602541 -0.00053484302882208015 0 -0.025904098074829171 -0.00055965675250492172 0 -0.02585284807964984 -0.00045632456032909007 0 -0.023718083593460709 -0.0013100943497507199 0 -0.023338682494864347 -0.0018749418811120488 0 -0.021753946732280486 -0.0030919799823093497 0 -0.020904654726636017 -0.0032707815618017865 0 -0.020830966603379322 -0.0025078722148807399 0 -0.025813757764602541 -0.00053484302882208015 0 -0.02585284807964984 -0.00045632456032909007 0 -0.025714373384640513 -0.00048355160306727166 0 -0.020451930127442491 -0.002883934537027213 0 -0.020904654726636017 -0.0032707815618017865 0 -0.020830966603379322 -0.0025078722148807399 0 -0.021753946732280486 -0.0030919799823093497 0 -0.020830966603379322 -0.0025078722148807399 0 -0.021373265941207215 -0.0019563198847656715 0 -0.023718083593460709 -0.0013100943497507199 0 -0.02131155726717162 -0.0012963170152447815 0 -0.02203678210879776 -0.0011533630235827472 0 -0.022206652575923705 -0.00050885289112388178 0 -0.022877351831306732 -0.0010353959346070269 0 -0.02203678210879776 -0.0011533630235827472 0 -0.022206652575923705 -0.00050885289112388178 0 -0.021723249021829451 -0.00043149099056145949 0 -0.022206652575923705 -0.00050885289112388178 0 -0.021723249021829451 -0.00043149099056145949 0 -0.021611797428052748 -0.0003605531842320078 0 -0.022206652575923705 -0.00050885289112388178 0 -0.022078050810565391 -0.00010589292591492163 0 -0.021611797428052748 -0.0003605531842320078 0 -0.020531644417729658 -0.0014998599005510752 0 -0.021373265941207215 -0.0019563198847656715 0 -0.020973922997281028 -0.00056391616391235735 0 -0.02131155726717162 -0.0012963170152447815 0 -0.021082771523729626 -0.00050388331847317448 0 -0.021723249021829451 -0.00043149099056145949 0 -0.020973922997281028 -0.00056391616391235735 0 -0.021611797428052748 -0.0003605531842320078 0 -0.020531644417729658 -0.0014998599005510752 0 -0.020830966603379322 -0.0025078722148807399 0 -0.021373265941207215 -0.0019563198847656715 0 -0.023639257165340571 2.1905300369800656e-07 0 -0.023066164286458433 -6.4737066913629287e-05 0 -0.022331153827017142 0.00010625600681786876 0 -0.023066164286458433 -6.4737066913629287e-05 0 -0.022078050810565391 -0.00010589292591492163 0 -0.022331153827017142 0.00010625600681786876 0 -0.022206652575923705 -0.00050885289112388178 0 -0.023066164286458433 -6.4737066913629287e-05 0 -0.022078050810565391 -0.00010589292591492163 0 -0.022206652575923705 -0.00050885289112388178 0 -0.023066164286458433 -6.4737066913629287e-05 0 -0.022877351831306732 -0.0010353959346070269 0 -0.023066164286458433 -6.4737066913629287e-05 0 -0.024894753895055414 -0.00026825630068251358 0 -0.022877351831306732 -0.0010353959346070269 0 -0.023639257165340571 2.1905300369800656e-07 0 -0.023066164286458433 -6.4737066913629287e-05 0 -0.024894753895055414 -0.00026825630068251358 0 -0.023639257165340571 2.1905300369800656e-07 0 -0.024894753895055414 -0.00026825630068251358 0 -0.026078603709691266 -7.4274376462323248e-07 0 -0.024894753895055414 -0.00026825630068251358 0 -0.025999651284732497 4.5639777959759968e-05 0 -0.026078603709691266 -7.4274376462323248e-07 0 -0.025999651284732497 4.5639777959759968e-05 0 -0.026078603709691266 -7.4274376462323248e-07 0 -0.026844798989000909 -7.9368851531535879e-05 0 -0.025999651284732497 4.5639777959759968e-05 0 -0.026013385740272399 -0.00013468460745579477 0 -0.02599067980087447 -0.0001555950770449745 0 -0.024894753895055414 -0.00026825630068251358 0 -0.025999651284732497 4.5639777959759968e-05 0 -0.026013385740272399 -0.00013468460745579477 0 -0.025862593473538503 -0.00011408541734837273 0 -0.026013385740272399 -0.00013468460745579477 0 -0.02599067980087447 -0.0001555950770449745 0 -0.024809204307095524 -0.00036176746469688994 0 -0.024501246029114389 -0.00053042453221409153 0 -0.025853476869053076 -0.00021264828693245765 0 -0.02599067980087447 -0.0001555950770449745 0 -0.025963673730326198 -0.00061664577433964295 0 -0.02599067980087447 -0.0001555950770449745 0 -0.026164876049606347 -0.00037727414500304715 0 -0.025963673730326198 -0.00061664577433964295 0 -0.025999651284732497 4.5639777959759968e-05 0 -0.02599067980087447 -0.0001555950770449745 0 -0.026164876049606347 -0.00037727414500304715 0 -0.026078603709691266 -7.4274376462323248e-07 0 -0.026844798989000909 -7.9368851531535879e-05 0 -0.028519070515386821 -3.5963678057637673e-07 0 -0.026164876049606347 -0.00037727414500304715 0 -0.026844798989000909 -7.9368851531535879e-05 0 -0.026371552448624665 -0.00074972531928766155 0 -0.027160698630356424 -8.7420246328078516e-06 0 -0.027989274183263808 -0.0002545918726395345 0 -0.025999651284732497 4.5639777959759968e-05 0 -0.026164876049606347 -0.00037727414500304715 0 -0.026844798989000909 -7.9368851531535879e-05 0 -0.026844798989000909 -7.9368851531535879e-05 0 -0.028519070515386821 -3.5963678057637673e-07 0 -0.029599634649012885 -8.4011635068276049e-05 0 -0.028519070515386821 -3.5963678057637673e-07 0 -0.029599634649012885 -8.4011635068276049e-05 0 -0.03034228283243345 -1.4907494079271514e-05 0 -0.027989274183263808 -0.0002545918726395345 0 -0.028844273672130997 -0.00044052441487756608 0 -0.029599634649012885 -8.4011635068276049e-05 0 -0.03034228283243345 -1.4907494079271514e-05 0 -0.031616018182494793 -9.4076362081165843e-06 0 -0.03034228283243345 -1.4907494079271514e-05 0 -0.031616018182494793 -9.4076362081165843e-06 0 -0.030957734960351369 4.1725019315212294e-08 0 -0.028519070515386821 -3.5963678057637673e-07 0 -0.03034228283243345 -1.4907494079271514e-05 0 -0.030957734960351369 4.1725019315212294e-08 0 -0.026371552448624665 -0.00074972531928766155 0 -0.026230097471902306 -0.00098575525916674931 0 -0.026125483409819548 -0.00082285984976404006 0 -0.026230097471902306 -0.00098575525916674931 0 -0.026125483409819548 -0.00082285984976404006 0 -0.026069572423652532 -0.0010097882991959631 0 -0.026125483409819548 -0.00082285984976404006 0 -0.026149646406273264 -0.00063999780102149296 0 -0.025963673730326198 -0.00061664577433964295 0 -0.026371552448624665 -0.00074972531928766155 0 -0.026125483409819548 -0.00082285984976404006 0 -0.026149646406273264 -0.00063999780102149296 0 -0.026164876049606347 -0.00037727414500304715 0 -0.026371552448624665 -0.00074972531928766155 0 -0.026149646406273264 -0.00063999780102149296 0 -0.026164876049606347 -0.00037727414500304715 0 -0.026149646406273264 -0.00063999780102149296 0 -0.025963673730326198 -0.00061664577433964295 0 -0.025963673730326198 -0.00061664577433964295 0 -0.025878588386742337 -0.00072567460239330661 0 -0.025957783057573052 -0.00085641694188864361 0 -0.026125483409819548 -0.00082285984976404006 0 -0.025963673730326198 -0.00061664577433964295 0 -0.025957783057573052 -0.00085641694188864361 0 -0.02584879429122058 -0.00062055080281669852 0 -0.025963673730326198 -0.00061664577433964295 0 -0.025878588386742337 -0.00072567460239330661 0 -0.025681422623089093 -0.00075807827630450003 0 -0.025701746991852396 -0.00060597156601438701 0 -0.025775841993090465 -0.00070816699787421738 0 -0.02584879429122058 -0.00062055080281669852 0 -0.025878588386742337 -0.00072567460239330661 0 -0.025775841993090465 -0.00070816699787421738 0 -0.025878588386742337 -0.00072567460239330661 0 -0.025775841993090465 -0.00070816699787421738 0 -0.025792419460813253 -0.0008236817670727065 0 -0.025681422623089093 -0.00075807827630450003 0 -0.025775841993090465 -0.00070816699787421738 0 -0.025792419460813253 -0.0008236817670727065 0 -0.025792419460813253 -0.0008236817670727065 0 -0.025957783057573052 -0.00085641694188864361 0 -0.025866281199135036 -0.0010429083927483462 0 -0.029161288571423361 -0.00088756372358555667 0 -0.029548699642831272 -0.00051690125898931562 0 -0.025616397005144828 -0.00086437593264986198 0 -0.025792419460813253 -0.0008236817670727065 0 -0.025866281199135036 -0.0010429083927483462 0 -0.025878588386742337 -0.00072567460239330661 0 -0.025792419460813253 -0.0008236817670727065 0 -0.025957783057573052 -0.00085641694188864361 0 -0.025957783057573052 -0.00085641694188864361 0 -0.026069572423652532 -0.0010097882991959631 0 -0.025866281199135036 -0.0010429083927483462 0 -0.026125483409819548 -0.00082285984976404006 0 -0.025957783057573052 -0.00085641694188864361 0 -0.026069572423652532 -0.0010097882991959631 0 -0.029548699642831272 -0.00051690125898931562 0 -0.030638522796311435 -0.00045823456819148542 0 -0.026069572423652532 -0.0010097882991959631 0 -0.025866281199135036 -0.0010429083927483462 0 -0.026183595283313654 -0.0012306926361122616 0 -0.033355094286346657 -0.00031115779097205565 0 -0.03330458944682544 -0.00017899991959754514 0 -0.033505458090083297 -0.00025080823589745753 0 -0.03330458944682544 -0.00017899991959754514 0 -0.033455804945803969 -0.00010262598400883515 0 -0.033505458090083297 -0.00025080823589745753 0 -0.033455804945803969 -0.00010262598400883515 0 -0.033505458090083297 -0.00025080823589745753 0 -0.033569014593237669 -0.00022150578425119143 0 -0.033605381737524691 -0.00023731223276951085 0 -0.033112966536360165 0.00026491696911611361 0 -0.033088257976686998 0.00027770695728484543 0 -0.033914749496858035 0.00013390763011919996 0 -0.033112966536360165 0.00026491696911611361 0 -0.033125809448184156 0.00014856728591389887 0 -0.030849308814954016 -0.0005162236737631463 0 -0.030638522796311435 -0.00045823456819148542 0 -0.033112966536360165 0.00026491696911611361 0 -0.032641403967377434 0.00016204142529701893 0 -0.033125809448184156 0.00014856728591389887 0 -0.033112966536360165 0.00026491696911611361 0 -0.033139329974698081 0.00021982660193393957 0 -0.032641403967377434 0.00016204142529701893 0 -0.033914749496858035 0.00013390763011919996 0 -0.033125809448184156 0.00014856728591389887 0 -0.033397685817073065 1.1730866005375167e-06 0 -0.033125809448184156 0.00014856728591389887 0 -0.033397685817073065 1.1730866005375167e-06 0 -0.032277691524872504 0.0001235705552090986 0 -0.032641403967377434 0.00016204142529701893 0 -0.033125809448184156 0.00014856728591389887 0 -0.032277691524872504 0.0001235705552090986 0 -0.031616018182494793 -9.4076362081165843e-06 0 -0.032641403967377434 0.00016204142529701893 0 -0.032277691524872504 0.0001235705552090986 0 -0.033397685817073065 1.1730866005375167e-06 0 -0.032277691524872504 0.0001235705552090986 0 -0.030957734960351369 4.1725019315212294e-08 0 -0.031616018182494793 -9.4076362081165843e-06 0 -0.032277691524872504 0.0001235705552090986 0 -0.030957734960351369 4.1725019315212294e-08 0 -0.031616018182494793 -9.4076362081165843e-06 0 -0.033139329974698081 0.00021982660193393957 0 -0.032641403967377434 0.00016204142529701893 0 -0.026230097471902306 -0.00098575525916674931 0 -0.026069572423652532 -0.0010097882991959631 0 -0.026183595283313654 -0.0012306926361122616 0 -0.028844273672130997 -0.00044052441487756608 0 -0.030638522796311435 -0.00045823456819148542 0 -0.017131431332569981 -0.002144636987758677 0 -0.0162487043747143 -0.0014230638417135283 0 -0.017235205928746861 -0.00085661917531595216 0 -0.017131431332569981 -0.002144636987758677 0 -0.017910040358825888 -0.0013455552453040826 0 -0.017235205928746861 -0.00085661917531595216 0 -0.014867956112106376 7.373273441039287e-06 0 -0.014547752293440529 -0.00064802345310997008 0 -0.01201466322944731 5.8365862461600572e-05 0 -0.011775663226924872 1.471247962074532e-05 0 -0.012755914912213936 -0.00015399405537186992 0 -0.013542070414534365 2.8986975259478986e-06 0 -0.014867956112106376 7.373273441039287e-06 0 -0.012755914912213936 -0.00015399405537186992 0 -0.012821564891618446 6.0481244169829379e-07 0 -0.014694527020695517 -1.2181905225651403e-06 0 -0.012755914912213936 -0.00015399405537186992 0 -0.012821564891618446 6.0481244169829379e-07 0 -0.012347090314910507 2.2070794061491708e-05 0 -0.01201466322944731 5.8365862461600572e-05 0 -0.012755914912213936 -0.00015399405537186992 0 -0.012347090314910507 2.2070794061491708e-05 0 -0.012821564891618446 6.0481244169829379e-07 0 -0.011834053766399559 0.00013231884864724571 0 -0.010952748879881504 1.1666813591299847e-07 0 -0.011834053766399559 0.00013231884864724571 0 -0.011699082541859933 1.4085838040021706e-05 0 -0.010952748879881504 1.1666813591299847e-07 0 -0.01201466322944731 5.8365862461600572e-05 0 -0.011834053766399559 0.00013231884864724571 0 -0.011699082541859933 1.4085838040021706e-05 0 -0.01201466322944731 5.8365862461600572e-05 0 -0.012347090314910507 2.2070794061491708e-05 0 -0.011834053766399559 0.00013231884864724571 0 -0.012821564891618446 6.0481244169829379e-07 0 -0.012347090314910507 2.2070794061491708e-05 0 -0.011834053766399559 0.00013231884864724571 0 -0.01201466322944731 5.8365862461600572e-05 0 -0.011915191752259816 3.3390920642900664e-05 0 -0.011699082541859933 1.4085838040021706e-05 0 -0.011915191752259816 3.3390920642900664e-05 0 -0.011525661437394294 -5.5485649192852092e-05 0 -0.011699082541859933 1.4085838040021706e-05 0 -0.016580335543845633 0.0010377528344989431 0 -0.015846650662003092 0.0010402524687265903 0 -0.015842979462614527 0.0018469596860976193 0 -0.014867956112106376 7.373273441039287e-06 0 -0.013540675451088315 0.0010290568458278726 0 -0.015238520002401362 0.0016576146386227345 0 -0.015846650662003092 0.0010402524687265903 0 -0.015842979462614527 0.0018469596860976193 0 -0.015238520002401362 0.0016576146386227345 0 -0.015086454233724119 0.001030579078480864 0 -0.015846650662003092 0.0010402524687265903 0 -0.019636206876590945 0.0022332131069704836 0 -0.019400558440421625 0.0014336397803332871 0 -0.01959316251859371 0.0022460548993837341 0 -0.019400558440421625 0.0014336397803332871 0 -0.019243229636948682 0.0010820138501487181 0 -0.01959316251859371 0.0022460548993837341 0 -0.019243229636948682 0.0010820138501487181 0 -0.018941349838878966 0.0018929751292130711 0 -0.019152917605353554 0.0026261118358518014 0 -0.019945490724806145 -0.0019638895389170489 0 -0.019230971647796725 -0.001489986555949348 0 -0.019512523139688844 -0.0007977880129314258 0 -0.019655333662693692 0.0012407185096119397 0 -0.018115399118840692 0.0020344664384599567 0 -0.019945490724806145 -0.0019638895389170489 0 -0.019230971647796725 -0.001489986555949348 0 -0.018584431445430698 -0.0020219001072000285 0 -0.01729556635178385 0.0010134060331990454 0 -0.019589236349335466 7.9452780639896052e-05 0 -0.01729556635178385 0.0010134060331990454 0 -0.01762045622241714 -0.00059992481911945114 0 -0.019230971647796725 -0.001489986555949348 0 -0.018684868057084549 -0.0010859805304485864 0 -0.019512523139688844 -0.0007977880129314258 0 -0.014867956112106376 7.373273441039287e-06 0 -0.01762045622241714 -0.00059992481911945114 0 -0.017131431332569981 -0.002144636987758677 0 -0.018584431445430698 -0.0020219001072000285 0 -0.017910040358825888 -0.0013455552453040826 0 -0.019230971647796725 -0.001489986555949348 0 -0.018584431445430698 -0.0020219001072000285 0 -0.018684868057084549 -0.0010859805304485864 0 -0.018584431445430698 -0.0020219001072000285 0 -0.018684868057084549 -0.0010859805304485864 0 -0.017910040358825888 -0.0013455552453040826 0 -0.018684868057084549 -0.0010859805304485864 0 -0.017910040358825888 -0.0013455552453040826 0 -0.018071172920094039 -0.00048205716779492746 0 -0.018684868057084549 -0.0010859805304485864 0 -0.018071172920094039 -0.00048205716779492746 0 -0.018658430691906234 -0.00031001582204537705 0 -0.018071172920094039 -0.00048205716779492746 0 -0.018196545094524195 0.0001914142756258749 0 -0.01750668733412936 0.0001823269521284302 0 -0.018071172920094039 -0.00048205716779492746 0 -0.018658430691906234 -0.00031001582204537705 0 -0.018196545094524195 0.0001914142756258749 0 -0.019589236349335466 7.9452780639896052e-05 0 -0.01902605025266698 0.00071072557949518052 0 -0.019400558440421625 0.0014336397803332871 0 -0.019243229636948682 0.0010820138501487181 0 -0.018974806545522558 0.00055737740610638665 0 -0.018658430691906234 -0.00031001582204537705 0 -0.019512523139688844 -0.0007977880129314258 0 -0.018974806545522558 0.00055737740610638665 0 -0.019243229636948682 0.0010820138501487181 0 -0.018986434327519945 0.0013042038660516352 0 -0.018941349838878966 0.0018929751292130711 0 -0.018684868057084549 -0.0010859805304485864 0 -0.018658430691906234 -0.00031001582204537705 0 -0.019512523139688844 -0.0007977880129314258 0 -0.019243229636948682 0.0010820138501487181 0 -0.019112781972629625 0.00089964171600658829 0 -0.018986434327519945 0.0013042038660516352 0 -0.019112781972629625 0.00089964171600658829 0 -0.018974806545522558 0.00055737740610638665 0 -0.019301518611437689 0.00085524115038496389 0 -0.019243229636948682 0.0010820138501487181 0 -0.019112781972629625 0.00089964171600658829 0 -0.018974806545522558 0.00055737740610638665 0 -0.018196545094524195 0.0001914142756258749 0 -0.018205220581355156 0.00058629961717915813 0 -0.01750668733412936 0.0001823269521284302 0 -0.018974806545522558 0.00055737740610638665 0 -0.018196545094524195 0.0001914142756258749 0 -0.018205220581355156 0.00058629961717915813 0 -0.018658430691906234 -0.00031001582204537705 0 -0.018974806545522558 0.00055737740610638665 0 -0.018196545094524195 0.0001914142756258749 0 -0.01750668733412936 0.0001823269521284302 0 -0.016766419811471062 0.00017648060932571401 0 -0.017866459282037325 0.00052947721451397525 0 -0.018205220581355156 0.00058629961717915813 0 -0.01750668733412936 0.0001823269521284302 0 -0.017866459282037325 0.00052947721451397525 0 -0.01750668733412936 0.0001823269521284302 0 -0.01659025639022128 -0.00023429835529181994 0 -0.016766419811471062 0.00017648060932571401 0 -0.01750668733412936 0.0001823269521284302 0 -0.017235205928746861 -0.00085661917531595216 0 -0.01659025639022128 -0.00023429835529181994 0 -0.018071172920094039 -0.00048205716779492746 0 -0.01750668733412936 0.0001823269521284302 0 -0.017235205928746861 -0.00085661917531595216 0 -0.017910040358825888 -0.0013455552453040826 0 -0.018071172920094039 -0.00048205716779492746 0 -0.017235205928746861 -0.00085661917531595216 0 -0.014547752293440529 -0.00064802345310997008 0 -0.014695613772202529 -1.4236739477590012e-07 0 -0.0162487043747143 -0.0014230638417135283 0 -0.017235205928746861 -0.00085661917531595216 0 -0.01659025639022128 -0.00023429835529181994 0 -0.0162487043747143 -0.0014230638417135283 0 -0.014699687153624613 -2.2416022601476421e-06 0 -0.01659025639022128 -0.00023429835529181994 0 -0.014699687153624613 -2.2416022601476421e-06 0 -0.01659025639022128 -0.00023429835529181994 0 -0.016766419811471062 0.00017648060932571401 0 -0.014699687153624613 -2.2416022601476421e-06 0 -0.016864310423278798 1.3531320789479359e-06 0 -0.016766419811471062 0.00017648060932571401 0 -0.016864310423278798 1.3531320789479359e-06 0 -0.016766419811471062 0.00017648060932571401 0 -0.017866459282037325 0.00052947721451397525 0 -0.016864310423278798 1.3531320789479359e-06 0 -0.017866459282037325 0.00052947721451397525 0 -0.019033430004911294 1.0743116960267956e-06 0 -0.017866459282037325 0.00052947721451397525 0 -0.018419272984377743 0.00013743972758526243 0 -0.018420176274937149 0.00080684454511629447 0 -0.017866459282037325 0.00052947721451397525 0 -0.019033430004911294 1.0743116960267956e-06 0 -0.018419272984377743 0.00013743972758526243 0 -0.019033430004911294 1.0743116960267956e-06 0 -0.018419272984377743 0.00013743972758526243 0 -0.021197650982068137 -1.4535605135194355e-06 0 -0.022001193690338917 -3.4418756899151531e-05 0 -0.022331153827017142 0.00010625600681786876 0 -0.021205128014055032 -2.2638946943396726e-07 0 -0.020205429507954321 0.00014003437089156091 0 -0.021200675845052447 1.345795600290212e-07 0 -0.022001193690338917 -3.4418756899151531e-05 0 -0.022078050810565391 -0.00010589292591492163 0 -0.022331153827017142 0.00010625600681786876 0 -0.023639257165340571 2.1905300369800656e-07 0 -0.022331153827017142 0.00010625600681786876 0 -0.021205128014055032 -2.2638946943396726e-07 0 -0.020973922997281028 -0.00056391616391235735 0 -0.021611797428052748 -0.0003605531842320078 0 -0.021277929565227536 -0.00020295365208606355 0 -0.022078050810565391 -0.00010589292591492163 0 -0.021611797428052748 -0.0003605531842320078 0 -0.021277929565227536 -0.00020295365208606355 0 -0.022001193690338917 -3.4418756899151531e-05 0 -0.022078050810565391 -0.00010589292591492163 0 -0.021277929565227536 -0.00020295365208606355 0 -0.020973922997281028 -0.00056391616391235735 0 -0.021277929565227536 -0.00020295365208606355 0 -0.020422274729668996 -0.0002827432573046199 0 -0.021277929565227536 -0.00020295365208606355 0 -0.020422274729668996 -0.0002827432573046199 0 -0.020142726606034184 0.00020926365409751208 0 -0.020973922997281028 -0.00056391616391235735 0 -0.020422274729668996 -0.0002827432573046199 0 -0.020325249032519751 -0.00066531871912266444 0 -0.021277929565227536 -0.00020295365208606355 0 -0.020142726606034184 0.00020926365409751208 0 -0.021024293626827732 0.00056351466960586716 0 -0.022001193690338917 -3.4418756899151531e-05 0 -0.021277929565227536 -0.00020295365208606355 0 -0.021024293626827732 0.00056351466960586716 0 -0.020205429507954321 0.00014003437089156091 0 -0.019752817910610683 0.00061326575268471283 0 -0.018205220581355156 0.00058629961717915813 0 -0.017866459282037325 0.00052947721451397525 0 -0.018420176274937149 0.00080684454511629447 0 -0.018974806545522558 0.00055737740610638665 0 -0.018205220581355156 0.00058629961717915813 0 -0.018420176274937149 0.00080684454511629447 0 -0.018974806545522558 0.00055737740610638665 0 -0.018420176274937149 0.00080684454511629447 0 -0.019301518611437689 0.00085524115038496389 0 -0.020142726606034184 0.00020926365409751208 0 -0.021024293626827732 0.00056351466960586716 0 -0.019301518611437689 0.00085524115038496389 0 -0.019752817910610683 0.00061326575268471283 0 -0.019382453464883525 0.0008312921802147462 0 -0.020142726606034184 0.00020926365409751208 0 -0.019113876650515661 0.00044211474609675628 0 -0.019301518611437689 0.00085524115038496389 0 -0.019113876650515661 0.00044211474609675628 0 -0.018418943834565715 0.00058594370091260249 0 -0.019301518611437689 0.00085524115038496389 0 -0.019113876650515661 0.00044211474609675628 0 -0.018418943834565715 0.00058594370091260249 0 -0.018489066796312011 0.00032241975726684922 0 -0.019113876650515661 0.00044211474609675628 0 -0.018489066796312011 0.00032241975726684922 0 -0.019310116131938122 -0.00017585195939037016 0 -0.018968165201037061 0.001274445525372263 0 -0.019724129746033089 0.00020871663822938071 0 -0.018849628649200242 0.00037497395278618666 0 -0.018786482007057223 0.0008150871594141694 0 -0.019511492891331798 4.0983867847134648e-05 0 -0.020142726606034184 0.00020926365409751208 0 -0.019113876650515661 0.00044211474609675628 0 -0.019310116131938122 -0.00017585195939037016 0 -0.020422274729668996 -0.0002827432573046199 0 -0.019310116131938122 -0.00017585195939037016 0 -0.020325249032519751 -0.00066531871912266444 0 -0.020422274729668996 -0.0002827432573046199 0 -0.020142726606034184 0.00020926365409751208 0 -0.019310116131938122 -0.00017585195939037016 0 -0.019724129746033089 0.00020871663822938071 0 -0.019718625021088693 -0.00052289263981365416 0 -0.020325249032519751 -0.00066531871912266444 0 -0.019511492891331798 4.0983867847134648e-05 0 -0.020204103598825286 -0.00060865184614086797 0 -0.019724129746033089 0.00020871663822938071 0 -0.018999402953087531 -0.00042366106450937037 0 -0.018849628649200242 0.00037497395278618666 0 -0.019724129746033089 0.00020871663822938071 0 -0.018999402953087531 -0.00042366106450937037 0 -0.019718625021088693 -0.00052289263981365416 0 -0.018999402953087531 -0.00042366106450937037 0 -0.01980710333030939 -0.0012197595688576088 0 -0.018562319254908484 -0.0012745729904294725 0 -0.018999402953087531 -0.00042366106450937037 0 -0.019718625021088693 -0.00052289263981365416 0 -0.01980710333030939 -0.0012197595688576088 0 -0.020531644417729658 -0.0014998599005510752 0 -0.01980710333030939 -0.0012197595688576088 0 -0.020325249032519751 -0.00066531871912266444 0 -0.020531644417729658 -0.0014998599005510752 0 -0.020973922997281028 -0.00056391616391235735 0 -0.020325249032519751 -0.00066531871912266444 0 -0.019718625021088693 -0.00052289263981365416 0 -0.01980710333030939 -0.0012197595688576088 0 -0.020325249032519751 -0.00066531871912266444 0 -0.017887392448925486 -0.0025582193307889401 0 -0.017404456579784143 -0.0011072303423586174 0 -0.018562319254908484 -0.0012745729904294725 0 -0.017404456579784143 -0.0011072303423586174 0 -0.018562319254908484 -0.0012745729904294725 0 -0.018116928617396541 -0.00015977860636267582 0 -0.018999402953087531 -0.00042366106450937037 0 -0.018562319254908484 -0.0012745729904294725 0 -0.018116928617396541 -0.00015977860636267582 0 -0.018999402953087531 -0.00042366106450937037 0 -0.018116928617396541 -0.00015977860636267582 0 -0.018849628649200242 0.00037497395278618666 0 -0.017404456579784143 -0.0011072303423586174 0 -0.018116928617396541 -0.00015977860636267582 0 -0.017285581449014948 0.00036038808984195506 0 -0.017404456579784143 -0.0011072303423586174 0 -0.017285581449014948 0.00036038808984195506 0 -0.01637710266499158 -5.4018316236251043e-05 0 -0.017285581449014948 0.00036038808984195506 0 -0.017812058705705021 0.0011474357615301176 0 -0.016511648643013698 0.0012333517491643197 0 -0.018116928617396541 -0.00015977860636267582 0 -0.017285581449014948 0.00036038808984195506 0 -0.017812058705705021 0.0011474357615301176 0 -0.018116928617396541 -0.00015977860636267582 0 -0.017812058705705021 0.0011474357615301176 0 -0.018849628649200242 0.00037497395278618666 0 -0.018968165201037061 0.001274445525372263 0 -0.017812058705705021 0.0011474357615301176 0 -0.018849628649200242 0.00037497395278618666 0 -0.018968165201037061 0.001274445525372263 0 -0.017812058705705021 0.0011474357615301176 0 -0.018180634108213054 0.0023375229170684844 0 -0.018786482007057223 0.0008150871594141694 0 -0.017546979830686506 0.0011997605617769661 0 -0.018418943834565715 0.00058594370091260249 0 -0.018489066796312011 0.00032241975726684922 0 -0.01816381850926085 0.0006298958103670907 0 -0.017812058705705021 0.0011474357615301176 0 -0.017364913809422997 0.0019313908094255225 0 -0.018180634108213054 0.0023375229170684844 0 -0.017812058705705021 0.0011474357615301176 0 -0.017364913809422997 0.0019313908094255225 0 -0.016511648643013698 0.0012333517491643197 0 -0.017364913809422997 0.0019313908094255225 0 -0.017202644863259169 0.0024886125160703786 0 -0.018180634108213054 0.0023375229170684844 0 -0.01594684428859389 0.0021155616949632529 0 -0.016014365330763891 0.0027113174322121029 0 -0.016731411100454372 0.0015611641404829981 0 -0.016014365330763891 0.0027113174322121029 0 -0.016971776389348523 0.0014283293743345285 0 -0.016731411100454372 0.0015611641404829981 0 -0.017364913809422997 0.0019313908094255225 0 -0.017202644863259169 0.0024886125160703786 0 -0.016620572396452621 0.0024957867296995515 0 -0.016049209700555941 0.0015713050975266075 0 -0.01594684428859389 0.0021155616949632529 0 -0.016731411100454372 0.0015611641404829981 0 -0.01590939180890396 0.0021946048589748285 0 -0.017546979830686506 0.0011997605617769661 0 -0.016049209700555941 0.0015713050975266075 0 -0.01594684428859389 0.0021155616949632529 0 -0.015506711380520987 0.0015818806144651993 0 -0.016503118159473956 0.001839242033256698 0 -0.017546979830686506 0.0011997605617769661 0 -0.016503118159473956 0.001839242033256698 0 -0.016507115001318896 0.0016458748703898152 0 -0.016058012859122877 0.0015746799506363512 0 -0.016971776389348523 0.0014283293743345285 0 -0.016731411100454372 0.0015611641404829981 0 -0.015794465771160664 0.0016994632546099692 0 -0.017099719027232833 0.001709426948567341 0 -0.015945790194345191 0.0026867583821140926 0 -0.015794465771160664 0.0016994632546099692 0 -0.017099719027232833 0.001709426948567341 0 -0.017116034540717577 0.00043107601305271095 0 -0.01594684428859389 0.0021155616949632529 0 -0.016014365330763891 0.0027113174322121029 0 -0.015616911329140018 0.0030259521045425761 0 -0.017099719027232833 0.001709426948567341 0 -0.017742061661878469 0.00099058994319537515 0 -0.018222151510945923 0.0012642359358754443 0 -0.018345765835900717 0.00055969441549700151 0 -0.017546979830686506 0.0011997605617769661 0 -0.018418943834565715 0.00058594370091260249 0 -0.017742061661878469 0.00099058994319537515 0 -0.017116034540717577 0.00043107601305271095 0 -0.017099719027232833 0.001709426948567341 0 -0.017742061661878469 0.00099058994319537515 0 -0.017116034540717577 0.00043107601305271095 0 -0.018418943834565715 0.00058594370091260249 0 -0.017742061661878469 0.00099058994319537515 0 -0.018222151510945923 0.0012642359358754443 0 -0.018418943834565715 0.00058594370091260249 0 -0.018845789275955031 0.00108250219182922 0 -0.018222151510945923 0.0012642359358754443 0 -0.018418943834565715 0.00058594370091260249 0 -0.019301518611437689 0.00085524115038496389 0 -0.018845789275955031 0.00108250219182922 0 -0.019112781972629625 0.00089964171600658829 0 -0.019301518611437689 0.00085524115038496389 0 -0.018845789275955031 0.00108250219182922 0 -0.019112781972629625 0.00089964171600658829 0 -0.018845789275955031 0.00108250219182922 0 -0.018986434327519945 0.0013042038660516352 0 -0.018845789275955031 0.00108250219182922 0 -0.018986434327519945 0.0013042038660516352 0 -0.018618205918483208 0.0016662350649010811 0 -0.018986434327519945 0.0013042038660516352 0 -0.018618205918483208 0.0016662350649010811 0 -0.018941349838878966 0.0018929751292130711 0 -0.017099719027232833 0.001709426948567341 0 -0.018222151510945923 0.0012642359358754443 0 -0.017856140047976202 0.0020769492417721681 0 -0.018845789275955031 0.00108250219182922 0 -0.018618205918483208 0.0016662350649010811 0 -0.018222151510945923 0.0012642359358754443 0 -0.018618205918483208 0.0016662350649010811 0 -0.018222151510945923 0.0012642359358754443 0 -0.017856140047976202 0.0020769492417721681 0 -0.017856140047976202 0.0020769492417721681 0 -0.018114452649935293 0.00285255053991447 0 -0.016629710594684727 0.0031047572317989152 0 -0.018618205918483208 0.0016662350649010811 0 -0.017856140047976202 0.0020769492417721681 0 -0.018114452649935293 0.00285255053991447 0 -0.01797511716071953 0.0030506756498854901 0 -0.018115399118840692 0.0020344664384599567 0 -0.018618205918483208 0.0016662350649010811 0 -0.018114452649935293 0.00285255053991447 0 -0.018941349838878966 0.0018929751292130711 0 -0.018114452649935293 0.00285255053991447 0 -0.018941349838878966 0.0018929751292130711 0 -0.019152917605353554 0.0026261118358518014 0 -0.01729556635178385 0.0010134060331990454 0 -0.018115399118840692 0.0020344664384599567 0 -0.015388453439360133 0.0010617287861548249 0 -0.015294461309195335 0.001059466346183631 0 -0.014784772683627248 0.0019244704730123189 0 -0.01729556635178385 0.0010134060331990454 0 -0.014460676043274445 0.0021353645475185646 0 -0.018115399118840692 0.0020344664384599567 0 -0.016369936544828972 0.0032750768375142568 0 -0.017578580734424094 0.0031645262765835 0 -0.018787076903012928 0.0031687421870587123 0 -0.01821744144059545 0.0044568701469779228 0 -0.015388453439360133 0.0010617287861548249 0 -0.014784772683627248 0.0019244704730123189 0 -0.014838209662549581 0.0020876881768791926 0 -0.015238520002401362 0.0016576146386227345 0 -0.015086454233724119 0.001030579078480864 0 -0.014679924290130812 0.002010142060353833 0 -0.017578580734424094 0.0031645262765835 0 -0.017088859022841227 0.003977849216932317 0 -0.01821744144059545 0.0044568701469779228 0 -0.017578580734424094 0.0031645262765835 0 -0.017088859022841227 0.003977849216932317 0 -0.016629710594684727 0.0031047572317989152 0 -0.017088859022841227 0.003977849216932317 0 -0.016629710594684727 0.0031047572317989152 0 -0.016218172108870457 0.0043216148274660493 0 -0.015221140227030866 0.0037491305218336148 0 -0.016154836264633887 0.0042946617702634199 0 -0.015615101501131446 0.0037057662884113518 0 -0.016629710594684727 0.0031047572317989152 0 -0.016218172108870457 0.0043216148274660493 0 -0.015615101501131446 0.0037057662884113518 0 -0.015945790194345191 0.0026867583821140926 0 -0.016629710594684727 0.0031047572317989152 0 -0.017099719027232833 0.001709426948567341 0 -0.017856140047976202 0.0020769492417721681 0 -0.016629710594684727 0.0031047572317989152 0 -0.017099719027232833 0.001709426948567341 0 -0.015945790194345191 0.0026867583821140926 0 -0.016629710594684727 0.0031047572317989152 0 -0.01797511716071953 0.0030506756498854901 0 -0.016657424660907107 0.0030714767674915261 0 -0.014836083625015187 0.0032134202370694919 0 -0.015076709531505566 0.0039679036819731039 0 -0.013876302225729711 0.0032006527360442846 0 -0.014392617427262258 0.003415166310905039 0 -0.013132405683710388 0.0031996066766446364 0 -0.013428331069888638 0.0036832953861090667 0 -0.012684079846963688 0.0039614122799354109 0 -0.012314174256663188 0.0030768112056666023 0 -0.013579982177181836 0.0034754533477934732 0 -0.013428331069888638 0.0036832953861090667 0 -0.012314174256663188 0.0030768112056666023 0 -0.01590939180890396 0.0021946048589748285 0 -0.014392617427262258 0.003415166310905039 0 -0.015615101501131446 0.0037057662884113518 0 -0.015945790194345191 0.0026867583821140926 0 -0.014675166759620802 0.0031074062492970063 0 -0.016014365330763891 0.0027113174322121029 0 -0.015076709531505566 0.0039679036819731039 0 -0.015616911329140018 0.0030259521045425761 0 -0.015794465771160664 0.0016994632546099692 0 -0.015945790194345191 0.0026867583821140926 0 -0.014675166759620802 0.0031074062492970063 0 -0.014836083625015187 0.0032134202370694919 0 -0.015076709531505566 0.0039679036819731039 0 -0.015616911329140018 0.0030259521045425761 0 -0.01367476263190455 0.0033366782665879336 0 -0.013428331069888638 0.0036832953861090667 0 -0.014021266683236749 0.004126173944447779 0 -0.014851805687041076 0.0037784402204284794 0 -0.014021266683236749 0.004126173944447779 0 -0.014691177341810684 0.0049667382339983425 0 -0.014392617427262258 0.003415166310905039 0 -0.013991877634379328 0.0036900234865915888 0 -0.015221140227030866 0.0037491305218336148 0 -0.014392617427262258 0.003415166310905039 0 -0.014851805687041076 0.0037784402204284794 0 -0.01367476263190455 0.0033366782665879336 0 -0.014021266683236749 0.004126173944447779 0 -0.013428331069888638 0.0036832953861090667 0 -0.014021266683236749 0.004126173944447779 0 -0.013339168920107241 0.004083832735619292 0 -0.014021266683236749 0.004126173944447779 0 -0.013339168920107241 0.004083832735619292 0 -0.013280092571510303 0.0045798321470528862 0 -0.013339168920107241 0.004083832735619292 0 -0.012684079846963688 0.0039614122799354109 0 -0.013280092571510303 0.0045798321470528862 0 -0.012684079846963688 0.0039614122799354109 0 -0.012286182408603363 0.0046698161066204402 0 -0.013280092571510303 0.0045798321470528862 0 -0.013428331069888638 0.0036832953861090667 0 -0.013339168920107241 0.004083832735619292 0 -0.012684079846963688 0.0039614122799354109 0 -0.011629261260300297 0.0038673247689915272 0 -0.011513339631855666 0.0046980899359974791 0 -0.012286182408603363 0.0046698161066204402 0 -0.012684079846963688 0.0039614122799354109 0 -0.011629261260300297 0.0038673247689915272 0 -0.012286182408603363 0.0046698161066204402 0 -0.011629261260300297 0.0038673247689915272 0 -0.010468559251673434 0.0045831385888624714 0 -0.011513339631855666 0.0046980899359974791 0 -0.011629261260300297 0.0038673247689915272 0 -0.010608022092009568 0.0038332958884293345 0 -0.010468559251673434 0.0045831385888624714 0 -0.011629261260300297 0.0038673247689915272 0 -0.011292995234787832 0.0027852394329162884 0 -0.010608022092009568 0.0038332958884293345 0 -0.012684079846963688 0.0039614122799354109 0 -0.011629261260300297 0.0038673247689915272 0 -0.012314174256663188 0.0030768112056666023 0 -0.011629261260300297 0.0038673247689915272 0 -0.012314174256663188 0.0030768112056666023 0 -0.011292995234787832 0.0027852394329162884 0 -0.013876302225729711 0.0032006527360442846 0 -0.01341462924751558 0.0024710034894899948 0 -0.014092112183987775 0.0025520683159440949 0 -0.01341462924751558 0.0024710034894899948 0 -0.012469997437961048 0.0021834260624426552 0 -0.013640964072521126 0.0022588943460439478 0 -0.013132405683710388 0.0031996066766446364 0 -0.011933476311733226 0.0025714630716607866 0 -0.013876302225729711 0.0032006527360442846 0 -0.01341462924751558 0.0024710034894899948 0 -0.012680322603572767 0.0024571632714548456 0 -0.013640964072521126 0.0022588943460439478 0 -0.014090084601322302 0.0022583908982888182 0 -0.014092112183987775 0.0025520683159440949 0 -0.01341462924751558 0.0024710034894899948 0 -0.013640964072521126 0.0022588943460439478 0 -0.014092112183987775 0.0025520683159440949 0 -0.01341462924751558 0.0024710034894899948 0 -0.012680322603572767 0.0024571632714548456 0 -0.012469997437961048 0.0021834260624426552 0 -0.012833201715326852 0.001656960226827775 0 -0.012469997437961048 0.0021834260624426552 0 -0.014093969091705329 0.0019608590082254222 0 -0.012833201715326852 0.001656960226827775 0 -0.012469997437961048 0.0021834260624426552 0 -0.01144883406578622 0.001696514007541205 0 -0.012833201715326852 0.001656960226827775 0 -0.014093969091705329 0.0019608590082254222 0 -0.014278520010637293 0.0016474766940519693 0 -0.012582395265709973 0.0021796962235670976 0 -0.013958195986355547 0.0019094892586118861 0 -0.012469997437961048 0.0021834260624426552 0 -0.013640964072521126 0.0022588943460439478 0 -0.013982954730816418 0.0019351588788121931 0 -0.013143343098564953 0.0020927585117732823 0 -0.014649325616260613 0.0020840166686214609 0 -0.013640964072521126 0.0022588943460439478 0 -0.013982954730816418 0.0019351588788121931 0 -0.014090084601322302 0.0022583908982888182 0 -0.013982954730816418 0.0019351588788121931 0 -0.014488564971179847 0.0022456040264389101 0 -0.0154918473142609 0.0016244358794954669 0 -0.014093969091705329 0.0019608590082254222 0 -0.014278520010637293 0.0016474766940519693 0 -0.015753078766673808 0.001643979473100113 0 -0.013958195986355547 0.0019094892586118861 0 -0.015933662566657021 0.0019708230946683561 0 -0.014964475885215349 0.0025025389465472788 0 -0.0165276750731536 0.0024650778930254791 0 -0.015715975546342541 0.0017845207268261797 0 -0.014649325616260613 0.0020840166686214609 0 -0.015933662566657021 0.0019708230946683561 0 -0.013982954730816418 0.0019351588788121931 0 -0.014488564971179847 0.0022456040264389101 0 -0.014090084601322302 0.0022583908982888182 0 -0.014488564971179847 0.0022456040264389101 0 -0.014092112183987775 0.0025520683159440949 0 -0.014545991110026375 0.0027320088851487774 0 -0.014836083625015187 0.0032134202370694919 0 -0.013876302225729711 0.0032006527360442846 0 -0.014545991110026375 0.0027320088851487774 0 -0.014488564971179847 0.0022456040264389101 0 -0.014090084601322302 0.0022583908982888182 0 -0.014092112183987775 0.0025520683159440949 0 -0.014488564971179847 0.0022456040264389101 0 -0.014855067842554293 0.0024110829444051649 0 -0.014545991110026375 0.0027320088851487774 0 -0.014855067842554293 0.0024110829444051649 0 -0.014545991110026375 0.0027320088851487774 0 -0.015133967862094016 0.0027668795430998679 0 -0.014836083625015187 0.0032134202370694919 0 -0.014545991110026375 0.0027320088851487774 0 -0.015133967862094016 0.0027668795430998679 0 -0.013876302225729711 0.0032006527360442846 0 -0.014092112183987775 0.0025520683159440949 0 -0.014545991110026375 0.0027320088851487774 0 -0.01551282442424658 0.0027870430464360892 0 -0.015933662566657021 0.0019708230946683561 0 -0.015616911329140018 0.0030259521045425761 0 -0.015133967862094016 0.0027668795430998679 0 -0.0154918473142609 0.0016244358794954669 0 -0.014836083625015187 0.0032134202370694919 0 -0.015616911329140018 0.0030259521045425761 0 -0.015133967862094016 0.0027668795430998679 0 -0.014488564971179847 0.0022456040264389101 0 -0.014855067842554293 0.0024110829444051649 0 -0.0154918473142609 0.0016244358794954669 0 -0.014855067842554293 0.0024110829444051649 0 -0.015133967862094016 0.0027668795430998679 0 -0.0154918473142609 0.0016244358794954669 0 -0.01594684428859389 0.0021155616949632529 0 -0.015616911329140018 0.0030259521045425761 0 -0.015506711380520987 0.0015818806144651993 0 -0.016503118159473956 0.001839242033256698 0 -0.015933662566657021 0.0019708230946683561 0 -0.017364913809422997 0.0019313908094255225 0 -0.016620572396452621 0.0024957867296995515 0 -0.016511648643013698 0.0012333517491643197 0 -0.015933662566657021 0.0019708230946683561 0 -0.016501997609143833 0.0012862404172589716 0 -0.0165276750731536 0.0024650778930254791 0 -0.015715975546342541 0.0017845207268261797 0 -0.01641449615271412 0.0011179682551091088 0 -0.015715975546342541 0.0017845207268261797 0 -0.014853379914190076 0.00077622768914276108 0 -0.01641449615271412 0.0011179682551091088 0 -0.014964475885215349 0.0025025389465472788 0 -0.015715975546342541 0.0017845207268261797 0 -0.014853379914190076 0.00077622768914276108 0 -0.014853379914190076 0.00077622768914276108 0 -0.01641449615271412 0.0011179682551091088 0 -0.016302378923313498 -0.00021210298501397217 0 -0.016501997609143833 0.0012862404172589716 0 -0.016336160496872983 -0.00018125105181219996 0 -0.017285581449014948 0.00036038808984195506 0 -0.016511648643013698 0.0012333517491643197 0 -0.01637710266499158 -5.4018316236251043e-05 0 -0.014853379914190076 0.00077622768914276108 0 -0.015338954326841186 -0.00087519222310852276 0 -0.014267302279622375 -0.00069099601131540785 0 -0.014853379914190076 0.00077622768914276108 0 -0.016302378923313498 -0.00021210298501397217 0 -0.015338954326841186 -0.00087519222310852276 0 -0.014067641633700279 -0.0019095191874919757 0 -0.015343099144622872 -0.0026374051506883249 0 -0.015338954326841186 -0.00087519222310852276 0 -0.015343099144622872 -0.0026374051506883249 0 -0.015338954326841186 -0.00087519222310852276 0 -0.01623068464582168 -0.0014515315842274796 0 -0.016336160496872983 -0.00018125105181219996 0 -0.016240394761862141 -0.0013301743170317896 0 -0.017404456579784143 -0.0011072303423586174 0 -0.01637710266499158 -5.4018316236251043e-05 0 -0.01623068464582168 -0.0014515315842274796 0 -0.016302378923313498 -0.00021210298501397217 0 -0.015338954326841186 -0.00087519222310852276 0 -0.01623068464582168 -0.0014515315842274796 0 -0.016866541946187228 -0.002219359795680094 0 -0.017404456579784143 -0.0011072303423586174 0 -0.01623068464582168 -0.0014515315842274796 0 -0.012045036868604629 -0.002409437811245114 0 -0.014067641633700279 -0.0019095191874919757 0 -0.012999230028247346 -0.00091774215040914525 0 -0.014067641633700279 -0.0019095191874919757 0 -0.015338954326841186 -0.00087519222310852276 0 -0.014267302279622375 -0.00069099601131540785 0 -0.014067641633700279 -0.0019095191874919757 0 -0.014267302279622375 -0.00069099601131540785 0 -0.012999230028247346 -0.00091774215040914525 0 -0.014853379914190076 0.00077622768914276108 0 -0.014267302279622375 -0.00069099601131540785 0 -0.013611054921723011 0.0001261200569136951 0 -0.012999230028247346 -0.00091774215040914525 0 -0.013611054921723011 0.0001261200569136951 0 -0.012368399421805426 0.0002501737224537596 0 -0.014267302279622375 -0.00069099601131540785 0 -0.012999230028247346 -0.00091774215040914525 0 -0.013611054921723011 0.0001261200569136951 0 -0.013611054921723011 0.0001261200569136951 0 -0.013526947370273563 0.0012237083948463162 0 -0.012368399421805426 0.0002501737224537596 0 -0.013526947370273563 0.0012237083948463162 0 -0.012069986722821665 0.0015294222671044051 0 -0.012368399421805426 0.0002501737224537596 0 -0.014853379914190076 0.00077622768914276108 0 -0.013611054921723011 0.0001261200569136951 0 -0.013526947370273563 0.0012237083948463162 0 -0.014964475885215349 0.0025025389465472788 0 -0.014853379914190076 0.00077622768914276108 0 -0.013526947370273563 0.0012237083948463162 0 -0.013344360275856655 0.0025475806374254343 0 -0.014964475885215349 0.0025025389465472788 0 -0.013526947370273563 0.0012237083948463162 0 -0.013344360275856655 0.0025475806374254343 0 -0.013526947370273563 0.0012237083948463162 0 -0.012069986722821665 0.0015294222671044051 0 -0.012069986722821665 0.0015294222671044051 0 -0.010629623362672855 0.0019455635719603727 0 -0.011618804455516401 0.0025878293821107305 0 -0.013344360275856655 0.0025475806374254343 0 -0.012069986722821665 0.0015294222671044051 0 -0.011618804455516401 0.0025878293821107305 0 -0.012069986722821665 0.0015294222671044051 0 -0.010629623362672855 0.0019455635719603727 0 -0.010810316158199589 0.00066203058014555364 0 -0.010629623362672855 0.0019455635719603727 0 -0.010810316158199589 0.00066203058014555364 0 -0.0096410650734781705 0.0015656917593208542 0 -0.012069986722821665 0.0015294222671044051 0 -0.010810316158199589 0.00066203058014555364 0 -0.012368399421805426 0.0002501737224537596 0 -0.010810316158199589 0.00066203058014555364 0 -0.012368399421805426 0.0002501737224537596 0 -0.011480275884855621 -0.00071174551017185123 0 -0.012999230028247346 -0.00091774215040914525 0 -0.012368399421805426 0.0002501737224537596 0 -0.011480275884855621 -0.00071174551017185123 0 -0.010810316158199589 0.00066203058014555364 0 -0.011480275884855621 -0.00071174551017185123 0 -0.010184604989539235 -0.00031394967256703028 0 -0.011480275884855621 -0.00071174551017185123 0 -0.010371963452226043 -0.0015192500075601023 0 -0.010184604989539235 -0.00031394967256703028 0 -0.018255252398936689 -0.00071763108335525807 0 -0.016872860987767507 0.00010339686801302391 0 -0.012045036868604629 -0.002409437811245114 0 -0.011480275884855621 -0.00071174551017185123 0 -0.010371963452226043 -0.0015192500075601023 0 -0.012045036868604629 -0.002409437811245114 0 -0.012999230028247346 -0.00091774215040914525 0 -0.011480275884855621 -0.00071174551017185123 0 -0.022004758962051025 0.0013595779592360619 0 -0.023159619190575072 0.0018042124038781871 0 -0.021777983780213884 0.0026372536034748521 0 -0.014809621069218713 0.0011561539299224884 0 -0.020776689840743431 0.0024521249830254436 0 -0.022004758962051025 0.0013595779592360619 0 -0.021777983780213884 0.0026372536034748521 0 -0.021018874283266209 0.0015108048603871599 0 -0.016872860987767507 0.00010339686801302391 0 -0.014809621069218713 0.0011561539299224884 0 -0.010371963452226043 -0.0015192500075601023 0 -0.010184604989539235 -0.00031394967256703028 0 -0.0088407371450692461 -0.00057806365212445402 0 -0.010184604989539235 -0.00031394967256703028 0 -0.0088407371450692461 -0.00057806365212445402 0 -0.0095416731434238011 0.00061106238013359225 0 -0.0084315080511280678 -0.0011602001871524931 0 -0.0081447452787284397 0.00023881697026269675 0 -0.0095416731434238011 0.00061106238013359225 0 -0.014809621069218713 0.0011561539299224884 0 -0.0077272880061269571 -0.00082378411745810112 0 -0.0081447452787284397 0.00023881697026269675 0 -0.0095416731434238011 0.00061106238013359225 0 -0.0086134282482783868 0.0010742067602511935 0 -0.0081447452787284397 0.00023881697026269675 0 -0.0086134282482783868 0.0010742067602511935 0 -0.0073217838934753485 0.0009664980171630468 0 -0.010810316158199589 0.00066203058014555364 0 -0.010184604989539235 -0.00031394967256703028 0 -0.0095416731434238011 0.00061106238013359225 0 -0.010810316158199589 0.00066203058014555364 0 -0.0095416731434238011 0.00061106238013359225 0 -0.0096410650734781705 0.0015656917593208542 0 -0.0096410650734781705 0.0015656917593208542 0 -0.0082388928626104668 0.0019994321247715995 0 -0.0092574681114722633 0.0024758249903127495 0 -0.0095416731434238011 0.00061106238013359225 0 -0.0096410650734781705 0.0015656917593208542 0 -0.0086134282482783868 0.0010742067602511935 0 -0.010629623362672855 0.0019455635719603727 0 -0.0096410650734781705 0.0015656917593208542 0 -0.0092574681114722633 0.0024758249903127495 0 -0.0096410650734781705 0.0015656917593208542 0 -0.0086134282482783868 0.0010742067602511935 0 -0.0082388928626104668 0.0019994321247715995 0 -0.0086134282482783868 0.0010742067602511935 0 -0.0082388928626104668 0.0019994321247715995 0 -0.0073217838934753485 0.0009664980171630468 0 -0.0082388928626104668 0.0019994321247715995 0 -0.0084293124217454992 0.0028261743440706924 0 -0.0069404015945595497 0.0024305973027631258 0 -0.0082388928626104668 0.0019994321247715995 0 -0.0084293124217454992 0.0028261743440706924 0 -0.0092574681114722633 0.0024758249903127495 0 -0.0080506079372041784 0.0034991426457864081 0 -0.0090555457116209687 0.0035369657723866828 0 -0.0079586960898785121 0.004295862380079213 0 -0.0084293124217454992 0.0028261743440706924 0 -0.0080506079372041784 0.0034991426457864081 0 -0.0090555457116209687 0.0035369657723866828 0 -0.0090555457116209687 0.0035369657723866828 0 -0.0092574681114722633 0.0024758249903127495 0 -0.0097790251863057662 0.0029052758796064273 0 -0.0084293124217454992 0.0028261743440706924 0 -0.0090555457116209687 0.0035369657723866828 0 -0.0092574681114722633 0.0024758249903127495 0 -0.010629623362672855 0.0019455635719603727 0 -0.0092574681114722633 0.0024758249903127495 0 -0.011711350917574637 0.0026737394632121705 0 -0.0092574681114722633 0.0024758249903127495 0 -0.010437823438598557 0.002391889445076309 0 -0.0097790251863057662 0.0029052758796064273 0 -0.0092922612157138318 0.0025617696621171885 0 -0.011228922599856583 0.0022476747084205729 0 -0.010915763096736282 0.0021275344108316542 0 -0.011228922599856583 0.0022476747084205729 0 -0.013143343098564953 0.0020927585117732823 0 -0.011228922599856583 0.0022476747084205729 0 -0.011933476311733226 0.0025714630716607866 0 -0.011228922599856583 0.0022476747084205729 0 -0.012680322603572767 0.0024571632714548456 0 -0.012469997437961048 0.0021834260624426552 0 -0.01144883406578622 0.001696514007541205 0 -0.011292995234787832 0.0027852394329162884 0 -0.010293633152969458 0.0033148168574377553 0 -0.010608022092009568 0.0038332958884293345 0 -0.011292995234787832 0.0027852394329162884 0 -0.010437823438598557 0.002391889445076309 0 -0.010293633152969458 0.0033148168574377553 0 -0.010437823438598557 0.002391889445076309 0 -0.0097790251863057662 0.0029052758796064273 0 -0.010293633152969458 0.0033148168574377553 0 -0.0090555457116209687 0.0035369657723866828 0 -0.0097790251863057662 0.0029052758796064273 0 -0.010293633152969458 0.0033148168574377553 0 -0.0090555457116209687 0.0035369657723866828 0 -0.010293633152969458 0.0033148168574377553 0 -0.0099010383329906065 0.0045714860291576048 0 -0.010223546763379467 0.0034780205518587974 0 -0.010201444674423559 0.0040924323061908349 0 -0.010293633152969458 0.0033148168574377553 0 -0.010057422816064429 0.0039778889335675936 0 -0.010608022092009568 0.0038332958884293345 0 -0.010608022092009568 0.0038332958884293345 0 -0.010224885437783861 0.0044004898789712097 0 -0.010468559251673434 0.0045831385888624714 0 -0.010057422816064429 0.0039778889335675936 0 -0.010608022092009568 0.0038332958884293345 0 -0.010224885437783861 0.0044004898789712097 0 -0.010201444674423559 0.0040924323061908349 0 -0.0072712960200484551 0.0053374723796018935 0 -0.010057422816064429 0.0039778889335675936 0 -0.010224885437783861 0.0044004898789712097 0 -0.010019237845427267 0.004487373259595322 0 -0.0099010383329906065 0.0045714860291576048 0 -0.0088468045647926794 0.0053762405307535418 0 -0.0094364709402426587 0.0057455455678651086 0 -0.0099010383329906065 0.0045714860291576048 0 -0.0086608658255138259 0.0047613046562979015 0 -0.0088468045647926794 0.0053762405307535418 0 -0.0086608658255138259 0.0047613046562979015 0 -0.0082384511897514532 0.0055110327908754978 0 -0.0077479962097813018 0.0050660245543474617 0 -0.0086608658255138259 0.0047613046562979015 0 -0.0079586960898785121 0.004295862380079213 0 -0.0077479962097813018 0.0050660245543474617 0 -0.0086608658255138259 0.0047613046562979015 0 -0.0088468045647926794 0.0053762405307535418 0 -0.0082384511897514532 0.0055110327908754978 0 -0.0082384511897514532 0.0055110327908754978 0 -0.0077479962097813018 0.0050660245543474617 0 -0.0075000786812824604 0.0057427092883011923 0 -0.0090555457116209687 0.0035369657723866828 0 -0.0086608658255138259 0.0047613046562979015 0 -0.0079586960898785121 0.004295862380079213 0 -0.0090555457116209687 0.0035369657723866828 0 -0.0099010383329906065 0.0045714860291576048 0 -0.0086608658255138259 0.0047613046562979015 0 -0.0088125056101838808 0.0071999766352775652 0 -0.0082436719988932712 0.0068269450075725321 0 -0.0085816036138969386 0.0059946181775628474 0 -0.0022329155078104081 0.0060627433294138415 0 -0.0072712960200484551 0.0053374723796018935 0 -0.0022329155078104081 0.0060627433294138415 0 -0.0057400356564187727 0.0069695743367933155 0 -0.0057400356564187727 0.0069695743367933155 0 -0.0080182919202282273 0.0065631053664098214 0 -0.0078673079968067522 0.0068777002364957488 0 -0.0079373269299774334 0.0066763816156342149 0 -0.0073347409906687304 0.0062169932954208784 0 -0.00089860668135697077 0.0064442509557258859 0 -0.0028234198055791808 0.006723739428017789 0 -0.002560012147652075 0.0075000049499100285 0 -0.0015865674741918816 0.0070281406112111351 0 -0.0057400356564187727 0.0069695743367933155 0 -0.0057400356564187727 0.0069695743367933155 0 -0.0084603793911591282 0.0057845817818132309 0 -0.0082819774407244216 0.0068476552242969372 0 -0.0079716952700096561 0.0060626284661280134 0 -0.0073347409906687304 0.0062169932954208784 0 -0.0082819774407244216 0.0068476552242969372 0 -0.0085816036138969386 0.0059946181775628474 0 -0.0079716952700096561 0.0060626284661280134 0 -0.0082384511897514532 0.0055110327908754978 0 -0.0079716952700096561 0.0060626284661280134 0 -0.0075000786812824604 0.0057427092883011923 0 -0.0088468045647926794 0.0053762405307535418 0 -0.0082384511897514532 0.0055110327908754978 0 -0.0085816036138969386 0.0059946181775628474 0 -0.0082384511897514532 0.0055110327908754978 0 -0.0085816036138969386 0.0059946181775628474 0 -0.0079716952700096561 0.0060626284661280134 0 -0.0088468045647926794 0.0053762405307535418 0 -0.0085816036138969386 0.0059946181775628474 0 -0.008997095580118443 0.0058970033894136849 0 -0.0088125056101838808 0.0071999766352775652 0 -0.0085816036138969386 0.0059946181775628474 0 -0.008997095580118443 0.0058970033894136849 0 -0.0088125056101838808 0.0071999766352775652 0 -0.008997095580118443 0.0058970033894136849 0 -0.0094364709402426587 0.0057455455678651086 0 -0.0088468045647926794 0.0053762405307535418 0 -0.008997095580118443 0.0058970033894136849 0 -0.0094364709402426587 0.0057455455678651086 0 -0.0072712960200484551 0.0053374723796018935 0 -0.0070716589516721428 0.0050892153756631718 0 -0.010224885437783861 0.0044004898789712097 0 -0.010019237845427267 0.004487373259595322 0 -0.010285503437338878 0.0045994573562564752 0 -0.010224885437783861 0.0044004898789712097 0 -0.010468559251673434 0.0045831385888624714 0 -0.010285503437338878 0.0045994573562564752 0 -0.010162541747770079 0.0045629031705348658 0 -0.010285503437338878 0.0045994573562564752 0 -0.0099784048452286438 0.0043801165269903202 0 -0.010468559251673434 0.0045831385888624714 0 -0.010162541747770079 0.0045629031705348658 0 -0.010285503437338878 0.0045994573562564752 0 -0.003596319301857785 0.0054401318339975619 0 -0.0032838393926027231 0.0063960696454061746 0 -0.0026730906299891693 0.0055887313672150375 0 0.0050521549999967075 0.006064901207317658 0 0.0049007075823982197 0.0057250299323191294 0 0.0040756650217362491 0.0063240175456344659 0 -0.003596319301857785 0.0054401318339975619 0 -0.0026730906299891693 0.0055887313672150375 0 -0.0027975204593646162 0.0049356588414802526 0 -0.010285503437338878 0.0045994573562564752 0 -0.010062633516644498 0.0040710801337839079 0 -0.0099784048452286438 0.0043801165269903202 0 -0.0070716589516721428 0.0050892153756631718 0 -0.0010941004133520208 0.0055023232649655876 0 0.0027674121897992973 0.0056547309285788789 0 -0.0010941004133520208 0.0055023232649655876 0 -0.0026730906299891693 0.0055887313672150375 0 -0.0027975204593646162 0.0049356588414802526 0 -0.00205169459264554 0.0047598940539927493 0 0.0045761468382270023 0.0060404353470871674 0 0.0055210349428434112 0.0058264574598768312 0 0.0055055499869423484 0.0055292792716629697 0 0.0050521549999967075 0.006064901207317658 0 0.0055055499869423484 0.0055292792716629697 0 0.0051929586967796922 0.0056487314883286472 0 0.0027674121897992973 0.0056547309285788789 0 0.0060633053737044577 0.0054495109119412017 0 0.0053122984037946453 0.0054025206605879993 0 0.0055055499869423484 0.0055292792716629697 0 0.0051929586967796922 0.0056487314883286472 0 0.0053122984037946453 0.0054025206605879993 0 0.0055055499869423484 0.0055292792716629697 0 0.0054840841886885146 0.0051978924003646598 0 0.0050521549999967075 0.006064901207317658 0 0.0049007075823982197 0.0057250299323191294 0 0.0051929586967796922 0.0056487314883286472 0 0.0049007075823982197 0.0057250299323191294 0 0.0051929586967796922 0.0056487314883286472 0 0.0050372796616380633 0.0054773796544942159 0 0.0053122984037946453 0.0054025206605879993 0 0.0051929586967796922 0.0056487314883286472 0 0.0050372796616380633 0.0054773796544942159 0 0.0049007075823982197 0.0057250299323191294 0 0.0050372796616380633 0.0054773796544942159 0 0.0047173108995874069 0.0056225202168837191 0 0.0047173108995874069 0.0056225202168837191 0 0.0043254045514062528 0.0056579047482399674 0 0.0045261339157052364 0.0059445662084350514 0 0.0047173108995874069 0.0056225202168837191 0 0.0043254045514062528 0.0056579047482399674 0 0.0048195492622582874 0.0053189621647475099 0 0.0043254045514062528 0.0056579047482399674 0 0.0045261339157052364 0.0059445662084350514 0 0.0041804356171079183 0.005980455191273484 0 0.0045261339157052364 0.0059445662084350514 0 0.0043136775615744806 0.0061553974395858243 0 0.0041804356171079183 0.005980455191273484 0 0.0049007075823982197 0.0057250299323191294 0 0.0047173108995874069 0.0056225202168837191 0 0.0045261339157052364 0.0059445662084350514 0 -0.0022329155078104081 0.0060627433294138415 0 0.0027674121897992973 0.0056547309285788789 0 0.0041657545945317067 0.0066110411450143926 0 0.0050521549999967075 0.006064901207317658 0 0.0040756650217362491 0.0063240175456344659 0 0.0055378486980851536 0.0056432411011278199 0 0.0019053864778378485 0.0060660502875704231 0 0.0049007075823982197 0.0057250299323191294 0 0.0045261339157052364 0.0059445662084350514 0 0.0042996724571209904 0.0064835519507838411 0 0.0043136775615744806 0.0061553974395858243 0 0.0042289639534126783 0.0063241078159924731 0 0.0041804356171079183 0.005980455191273484 0 0.0045261339157052364 0.0059445662084350514 0 0.0043136775615744806 0.0061553974395858243 0 0.0042996724571209904 0.0064835519507838411 0 0.0043136775615744806 0.0061553974395858243 0 0.0042289639534126783 0.0063241078159924731 0 0.0042996724571209904 0.0064835519507838411 0 -0.00089860668135697077 0.0064442509557258859 0 -0.0028234198055791808 0.006723739428017789 0 -0.001299283650756552 0.0053384195126192384 0 0.0024048450251179057 0.0064486751977795229 0 0.0019053864778378485 0.0060660502875704231 0 -0.0022329155078104081 0.0060627433294138415 0 0.0019053864778378485 0.0060660502875704231 0 0.0019743262094986543 0.0068577204253750489 0 0.0016428294818590311 0.0058091831571458552 0 0.0013465632853492549 0.0064779037633929809 0 0.0039347719432609417 0.0067437318251013867 0 0.0042289639534126783 0.0063241078159924731 0 0.0036926274814140167 0.0060054686241664016 0 -0.0015865674741918816 0.0070281406112111351 0 0.0031827833222919837 0.0060232614677789825 0 -0.0015865674741918816 0.0070281406112111351 0 0.0019053864778378485 0.0060660502875704231 0 0.0039347719432609417 0.0067437318251013867 0 0.0042289639534126783 0.0063241078159924731 0 0.0042690790812717483 0.0064563475047294434 0 0.0042289639534126783 0.0063241078159924731 0 0.0036926274814140167 0.0060054686241664016 0 0.0041804356171079183 0.005980455191273484 0 0.0043254045514062528 0.0056579047482399674 0 0.0036926274814140167 0.0060054686241664016 0 0.0040934384590741264 0.0052698381196546957 0 0.0043254045514062528 0.0056579047482399674 0 0.0036926274814140167 0.0060054686241664016 0 0.0041804356171079183 0.005980455191273484 0 0.0036926274814140167 0.0060054686241664016 0 0.0040934384590741264 0.0052698381196546957 0 0.0032293210840029624 0.0053758100145077673 0 0.0043254045514062528 0.0056579047482399674 0 0.0040934384590741264 0.0052698381196546957 0 0.0048195492622582874 0.0053189621647475099 0 0.0040934384590741264 0.0052698381196546957 0 0.0048195492622582874 0.0053189621647475099 0 0.0049803195222249443 0.0048248957925185309 0 0.0040934384590741264 0.0052698381196546957 0 0.0046228459141600432 0.0045640726881520169 0 0.0049803195222249443 0.0048248957925185309 0 0.0046228459141600432 0.0045640726881520169 0 0.0052921952524512261 0.004321455259215041 0 0.0049803195222249443 0.0048248957925185309 0 0.0040934384590741264 0.0052698381196546957 0 0.0046228459141600432 0.0045640726881520169 0 0.0038068195371999364 0.0044408508269561638 0 0.0040934384590741264 0.0052698381196546957 0 0.0038068195371999364 0.0044408508269561638 0 0.0032293210840029624 0.0053758100145077673 0 0.0038068195371999364 0.0044408508269561638 0 0.0048069865381744686 0.004113084655740013 0 0.0039089945987117814 0.0033766487335653494 0 0.0046228459141600432 0.0045640726881520169 0 0.0038068195371999364 0.0044408508269561638 0 0.0048069865381744686 0.004113084655740013 0 0.0048069865381744686 0.004113084655740013 0 0.0057355675542391186 0.0037613500774063709 0 0.0052921952524512261 0.004321455259215041 0 0.0046228459141600432 0.0045640726881520169 0 0.0048069865381744686 0.004113084655740013 0 0.0052921952524512261 0.004321455259215041 0 0.0048069865381744686 0.004113084655740013 0 0.0057355675542391186 0.0037613500774063709 0 0.0039089945987117814 0.0033766487335653494 0 0.0057355675542391186 0.0037613500774063709 0 0.0039089945987117814 0.0033766487335653494 0 0.005067115306104591 0.0026810868944724914 0 0.0055992201554255112 0.0041999745230594738 0 0.0056354320904370156 0.0042206013771628019 0 0.0055963836451301749 0.0041701747853299994 0 0.0055607245234660209 0.0041301021084745905 0 0.0055992201554255112 0.0041999745230594738 0 0.0055963836451301749 0.0041701747853299994 0 0.0055607245234660209 0.0041301021084745905 0 0.0055992201554255112 0.0041999745230594738 0 0.0056088688847890688 0.0043319759943078896 0 0.0057355675542391186 0.0037613500774063709 0 0.0055607245234660209 0.0041301021084745905 0 0.0052921952524512261 0.004321455259215041 0 0.0057355675542391186 0.0037613500774063709 0 0.0055607245234660209 0.0041301021084745905 0 0.0055963836451301749 0.0041701747853299994 0 0.0055607245234660209 0.0041301021084745905 0 0.0052921952524512261 0.004321455259215041 0 0.0055142833942499287 0.0044483709411483443 0 0.0055607245234660209 0.0041301021084745905 0 0.0055142833942499287 0.0044483709411483443 0 0.0056088688847890688 0.0043319759943078896 0 0.0055142833942499287 0.0044483709411483443 0 0.0056155421473302767 0.0045559920537740226 0 0.0056088688847890688 0.0043319759943078896 0 0.0055142833942499287 0.0044483709411483443 0 0.0055293658166512688 0.0048213113238321044 0 0.0053289363183149831 0.0047178957272366985 0 0.0055142833942499287 0.0044483709411483443 0 0.0055293658166512688 0.0048213113238321044 0 0.0056155421473302767 0.0045559920537740226 0 0.0052921952524512261 0.004321455259215041 0 0.0055142833942499287 0.0044483709411483443 0 0.0053289363183149831 0.0047178957272366985 0 0.0052921952524512261 0.004321455259215041 0 0.0053289363183149831 0.0047178957272366985 0 0.0049803195222249443 0.0048248957925185309 0 0.0053289363183149831 0.0047178957272366985 0 0.0049803195222249443 0.0048248957925185309 0 0.0052560750887175696 0.0051612336211433523 0 0.0048195492622582874 0.0053189621647475099 0 0.0049803195222249443 0.0048248957925185309 0 0.0052560750887175696 0.0051612336211433523 0 0.0050372796616380633 0.0054773796544942159 0 0.0048195492622582874 0.0053189621647475099 0 0.0052560750887175696 0.0051612336211433523 0 0.0053122984037946453 0.0054025206605879993 0 0.0050372796616380633 0.0054773796544942159 0 0.0052560750887175696 0.0051612336211433523 0 0.0050372796616380633 0.0054773796544942159 0 0.0047173108995874069 0.0056225202168837191 0 0.0048195492622582874 0.0053189621647475099 0 0.0055293658166512688 0.0048213113238321044 0 0.0052560750887175696 0.0051612336211433523 0 0.0054840841886885146 0.0051978924003646598 0 0.0055293658166512688 0.0048213113238321044 0 0.0053289363183149831 0.0047178957272366985 0 0.0052560750887175696 0.0051612336211433523 0 0.0053122984037946453 0.0054025206605879993 0 0.0052560750887175696 0.0051612336211433523 0 0.0054840841886885146 0.0051978924003646598 0 0.0055293658166512688 0.0048213113238321044 0 0.0057925370514140583 0.0051147708104448721 0 0.0056771670416513684 0.0047122829032928007 0 0.0057925370514140583 0.0051147708104448721 0 0.0056854814127738221 0.0046533606537728367 0 0.0056771670416513684 0.0047122829032928007 0 0.0055293658166512688 0.0048213113238321044 0 0.0054840841886885146 0.0051978924003646598 0 0.0057925370514140583 0.0051147708104448721 0 0.004859307412240073 0.005345097433040142 0 0.0054766029384088486 0.0052238597946340686 0 0.0056854814127738221 0.0046533606537728367 0 0.0054766029384088486 0.0052238597946340686 0 0.0059368852915530025 0.0047315967272294531 0 0.0055561063688238108 0.005926894412515888 0 0.0058808241785352627 0.0052464198318415024 0 -0.0020413421626688357 0.0048918889891319322 0 0.0059245231544887674 0.004945529429710712 0 0.0054727778436846593 0.0049017157821282433 0 0.004859307412240073 0.005345097433040142 0 0.0054766029384088486 0.0052238597946340686 0 0.0051890991423887084 0.00560641379694046 0 0.0054766029384088486 0.0052238597946340686 0 0.0056854814127738221 0.0046533606537728367 0 0.0059368852915530025 0.0047315967272294531 0 0.0056854814127738221 0.0046533606537728367 0 0.0057828325498422749 0.0045120929040482535 0 0.0059368852915530025 0.0047315967272294531 0 0.0056854814127738221 0.0046533606537728367 0 0.0057828325498422749 0.0045120929040482535 0 0.0056804933182578541 0.0044942855969192811 0 0.0056854814127738221 0.0046533606537728367 0 0.0056771670416513684 0.0047122829032928007 0 0.0056804933182578541 0.0044942855969192811 0 0.0055293658166512688 0.0048213113238321044 0 0.0056771670416513684 0.0047122829032928007 0 0.0056155421473302767 0.0045559920537740226 0 0.0056771670416513684 0.0047122829032928007 0 0.0056155421473302767 0.0045559920537740226 0 0.0056804933182578541 0.0044942855969192811 0 0.0056088688847890688 0.0043319759943078896 0 0.0056804933182578541 0.0044942855969192811 0 0.0056623098595845077 0.0042928452474038222 0 0.0056155421473302767 0.0045559920537740226 0 0.0056088688847890688 0.0043319759943078896 0 0.0056804933182578541 0.0044942855969192811 0 0.0057242698190874165 0.0043944976846784839 0 0.0056623098595845077 0.0042928452474038222 0 0.0057014113172946185 0.0042908321952390034 0 0.0056804933182578541 0.0044942855969192811 0 0.0057242698190874165 0.0043944976846784839 0 0.0056623098595845077 0.0042928452474038222 0 0.0057828325498422749 0.0045120929040482535 0 0.0057242698190874165 0.0043944976846784839 0 0.0057418714466607968 0.004363676632610859 0 0.0057828325498422749 0.0045120929040482535 0 0.0056804933182578541 0.0044942855969192811 0 0.0057242698190874165 0.0043944976846784839 0 0.0057242698190874165 0.0043944976846784839 0 0.0057014113172946185 0.0042908321952390034 0 0.0057418714466607968 0.004363676632610859 0 0.0056575845940594468 0.0042460416211042044 0 0.0056623098595845077 0.0042928452474038222 0 0.0057014113172946185 0.0042908321952390034 0 0.0056575845940594468 0.0042460416211042044 0 0.0056444182130048204 0.0042595353406189151 0 0.0057014113172946185 0.0042908321952390034 0 0.0055992201554255112 0.0041999745230594738 0 0.0056088688847890688 0.0043319759943078896 0 0.0056623098595845077 0.0042928452474038222 0 0.0056575845940594468 0.0042460416211042044 0 0.0056354320904370156 0.0042206013771628019 0 0.0056623098595845077 0.0042928452474038222 0 0.0055992201554255112 0.0041999745230594738 0 0.0056354320904370156 0.0042206013771628019 0 0.0056623098595845077 0.0042928452474038222 0 0.0050150898166339943 0.0046975552932141959 0 0.0052972469208381664 0.0043509331331743895 0 0.0053539981344511139 0.0042775013593470647 0 0.0050080677815590889 0.0047038617311664799 0 0.0053439936725926483 0.0043161939899543098 0 0.0052972469208381664 0.0043509331331743895 0 0.005129610973785434 0.0048744352413239355 0 0.0053977508962947439 0.0048801455833487025 0 0.0050150898166339943 0.0046975552932141959 0 0.0052972469208381664 0.0043509331331743895 0 0.005129610973785434 0.0048744352413239355 0 0.0050150898166339943 0.0046975552932141959 0 0.0044794332840811784 0.0049891833866433418 0 0.0053539981344511139 0.0042775013593470647 0 0.0056261054501507242 0.0042670333932328802 0 0.0057625589316120844 0.0042857771869319059 0 0.0053539981344511139 0.0042775013593470647 0 0.0056261054501507242 0.0042670333932328802 0 0.0056444182130048204 0.0042595353406189151 0 0.0055564118254074245 0.0042749971317718035 0 0.0056261054501507242 0.0042670333932328802 0 0.0056444182130048204 0.0042595353406189151 0 0.0057014113172946185 0.0042908321952390034 0 0.0056261054501507242 0.0042670333932328802 0 0.0057014113172946185 0.0042908321952390034 0 0.0057625589316120844 0.0042857771869319059 0 0.0044794332840811784 0.0049891833866433418 0 0.004563016494000747 0.0053684695067322029 0 0.0043931080158473605 0.0055277523326291503 0 0.0057014113172946185 0.0042908321952390034 0 0.0057625589316120844 0.0042857771869319059 0 0.0057418714466607968 0.004363676632610859 0 0.0057828325498422749 0.0045120929040482535 0 0.0057625589316120844 0.0042857771869319059 0 0.0057418714466607968 0.004363676632610859 0 0.0044794332840811784 0.0049891833866433418 0 0.0048500140426988294 0.0051281493195948491 0 0.004563016494000747 0.0053684695067322029 0 0.0048500140426988294 0.0051281493195948491 0 0.0047084434316422893 0.0053832185136305014 0 0.004563016494000747 0.0053684695067322029 0 0.0050150898166339943 0.0046975552932141959 0 0.0044794332840811784 0.0049891833866433418 0 0.0048500140426988294 0.0051281493195948491 0 0.005129610973785434 0.0048744352413239355 0 0.0051898731696777018 0.0054519772965667202 0 0.0053977508962947439 0.0048801455833487025 0 0.0050150898166339943 0.0046975552932141959 0 0.0048500140426988294 0.0051281493195948491 0 0.005129610973785434 0.0048744352413239355 0 0.0048500140426988294 0.0051281493195948491 0 0.005129610973785434 0.0048744352413239355 0 0.0051898731696777018 0.0054519772965667202 0 0.0046859136627259721 0.0054731399087103423 0 0.0039723982219971874 0.0058827283121861253 0 0.0048500140426988294 0.0051281493195948491 0 0.0049436934111189556 0.0053849954884994467 0 0.0047084434316422893 0.0053832185136305014 0 0.0039723982219971874 0.0058827283121861253 0 0.0043901522735529733 0.0061895433745727301 0 0.0049436934111189556 0.0053849954884994467 0 0.0047084434316422893 0.0053832185136305014 0 0.00447985181356744 0.005628524768990153 0 0.0049436934111189556 0.0053849954884994467 0 0.0044805261963081384 0.0057140045559580417 0 0.0042636708388410815 0.0059928161567119253 0 0.0038121802901530167 0.0074191918812598224 0 0.0038939895910429885 0.0065588898681965329 0 0.0036898423509808954 0.0068462005870142733 0 0.004563016494000747 0.0053684695067322029 0 0.00447985181356744 0.005628524768990153 0 0.0043931080158473605 0.0055277523326291503 0 0.0047084434316422893 0.0053832185136305014 0 0.004563016494000747 0.0053684695067322029 0 0.00447985181356744 0.005628524768990153 0 0.0049436934111189556 0.0053849954884994467 0 0.00447985181356744 0.005628524768990153 0 0.0044805261963081384 0.0057140045559580417 0 0.0057828325498422749 0.0045120929040482535 0 0.0057625589316120844 0.0042857771869319059 0 0.0059368852915530025 0.0047315967272294531 0 0.0044794332840811784 0.0049891833866433418 0 0.0043931080158473605 0.0055277523326291503 0 0.0040982201859615323 0.0057175546733099084 0 0.0050080677815590889 0.0047038617311664799 0 0.0058808241785352627 0.0052464198318415024 0 0.0043931080158473605 0.0055277523326291503 0 0.0040982201859615323 0.0057175546733099084 0 0.0042939153350552775 0.0058371395046559358 0 0.00447985181356744 0.005628524768990153 0 0.0043931080158473605 0.0055277523326291503 0 0.0042939153350552775 0.0058371395046559358 0 0.0040982201859615323 0.0057175546733099084 0 0.0042704636544404215 0.0060364437856207619 0 0.0038861288121883439 0.0061216829833384868 0 0.0040982201859615323 0.0057175546733099084 0 0.0042939153350552775 0.0058371395046559358 0 0.0042704636544404215 0.0060364437856207619 0 0.0042939153350552775 0.0058371395046559358 0 0.0042636708388410815 0.0059928161567119253 0 0.0042704636544404215 0.0060364437856207619 0 0.0038121802901530167 0.0074191918812598224 0 0.0038939895910429885 0.0065588898681965329 0 0.0042636708388410815 0.0059928161567119253 0 0.0038939895910429885 0.0065588898681965329 0 0.003926709289217384 0.0061921240486863495 0 0.00364392339648861 0.0064755959468014756 0 0.0042939153350552775 0.0058371395046559358 0 0.0044805261963081384 0.0057140045559580417 0 0.0042636708388410815 0.0059928161567119253 0 0.00447985181356744 0.005628524768990153 0 0.0042939153350552775 0.0058371395046559358 0 0.0044805261963081384 0.0057140045559580417 0 0.0038939895910429885 0.0065588898681965329 0 0.0042636708388410815 0.0059928161567119253 0 0.003926709289217384 0.0061921240486863495 0 0.0042636708388410815 0.0059928161567119253 0 0.003926709289217384 0.0061921240486863495 0 0.0040246619802561268 0.0058899167041616242 0 -0.0083717697290743923 0.0061394459188881638 0 -0.0072066170489015653 0.005830430496857112 0 -0.014527330877241292 0.0082836451080550641 0 -0.014403188273673097 0.008263314361093798 0 -0.01457107426679183 0.0081349261055803177 0 -0.014533926766529058 0.007831403823237517 0 -0.014570900606416838 0.0072531678704981523 0 -0.013009380729028443 0.0070259520578977502 0 -0.0072066170489015653 0.005830430496857112 0 -0.0014668807534090748 0.004643786133115526 0 -0.014403188273673097 0.008263314361093798 0 -0.014533926766529058 0.007831403823237517 0 -0.01457107426679183 0.0081349261055803177 0 -0.014403188273673097 0.008263314361093798 0 -0.014533926766529058 0.007831403823237517 0 -0.013009380729028443 0.0070259520578977502 0 -0.0072066170489015653 0.005830430496857112 0 -0.011732175910617863 0.0057899115016289467 0 0.0042636708388410815 0.0059928161567119253 0 0.0040246619802561268 0.0058899167041616242 0 0.0042704636544404215 0.0060364437856207619 0 -0.014233940656864921 0.0065104481123307032 0 -0.013009380729028443 0.0070259520578977502 0 -0.013483095855763122 0.0060689981118051935 0 -0.014570900606416838 0.0072531678704981523 0 -0.014233940656864921 0.0065104481123307032 0 -0.013009380729028443 0.0070259520578977502 0 -0.013009380729028443 0.0070259520578977502 0 -0.013483095855763122 0.0060689981118051935 0 -0.01274188936946378 0.0059546489154661195 0 -0.0014668807534090748 0.004643786133115526 0 -0.0020413421626688357 0.0048918889891319322 0 -0.008918399418654582 0.0041936253460702864 0 -0.0087418520548317499 0.0036447009355619351 0 -0.009213138200257839 0.0040631562470403691 0 -0.0087418520548317499 0.0036447009355619351 0 -0.0093788363420446077 0.0038007112972046589 0 -0.009213138200257839 0.0040631562470403691 0 -0.0080509436193855217 0.0035139658850959579 0 -0.008918399418654582 0.0041936253460702864 0 -0.0087418520548317499 0.0036447009355619351 0 0.0054766029384088486 0.0052238597946340686 0 0.0051890991423887084 0.00560641379694046 0 0.0055561063688238108 0.005926894412515888 0 -0.0020413421626688357 0.0048918889891319322 0 -0.0062730495278658658 0.0052704781051004226 0 -0.0093788363420446077 0.0038007112972046589 0 -0.009213138200257839 0.0040631562470403691 0 -0.009501023669094083 0.0040769025903875152 0 0.0055210349428434112 0.0058264574598768312 0 0.0055055499869423484 0.0055292792716629697 0 0.0057925370514140583 0.0051147708104448721 0 -0.0010941004133520208 0.0055023232649655876 0 -0.0020413421626688357 0.0048918889891319322 0 -0.010062633516644498 0.0040710801337839079 0 -0.0093847155851921032 0.0038549683146006509 0 -0.009501023669094083 0.0040769025903875152 0 -0.0010941004133520208 0.0055023232649655876 0 0.0059245231544887674 0.004945529429710712 0 0.0041007454148042147 0.0063147856299567403 0 0.0051890991423887084 0.00560641379694046 0 0.0055561063688238108 0.005926894412515888 0 0.0041007454148042147 0.0063147856299567403 0 0.004859307412240073 0.005345097433040142 0 0.0051890991423887084 0.00560641379694046 0 0.0055055499869423484 0.0055292792716629697 0 0.0054840841886885146 0.0051978924003646598 0 0.0057925370514140583 0.0051147708104448721 0 -0.0099784048452286438 0.0043801165269903202 0 -0.009501023669094083 0.0040769025903875152 0 -0.0097461343285539011 0.0046471051614974225 0 -0.010062633516644498 0.0040710801337839079 0 -0.0099784048452286438 0.0043801165269903202 0 -0.009501023669094083 0.0040769025903875152 0 -0.011732175910617863 0.0057899115016289467 0 -0.010542875086376429 0.0051056298099345287 0 -0.008918399418654582 0.0041936253460702864 0 -0.009213138200257839 0.0040631562470403691 0 -0.0097461343285539011 0.0046471051614974225 0 -0.009213138200257839 0.0040631562470403691 0 -0.009501023669094083 0.0040769025903875152 0 -0.0097461343285539011 0.0046471051614974225 0 -0.013009380729028443 0.0070259520578977502 0 -0.011671993237397441 0.0057697457361754398 0 -0.01274188936946378 0.0059546489154661195 0 -0.011671993237397441 0.0057697457361754398 0 -0.012941532551608828 0.0051466704943493591 0 -0.01274188936946378 0.0059546489154661195 0 -0.010162541747770079 0.0045629031705348658 0 -0.0099784048452286438 0.0043801165269903202 0 -0.0097461343285539011 0.0046471051614974225 0 -0.010468559251673434 0.0045831385888624714 0 -0.010162541747770079 0.0045629031705348658 0 -0.0097461343285539011 0.0046471051614974225 0 -0.010468559251673434 0.0045831385888624714 0 -0.011671993237397441 0.0057697457361754398 0 -0.011513339631855666 0.0046980899359974791 0 -0.010504726060150002 0.0046614755239666348 0 -0.010542875086376429 0.0051056298099345287 0 -0.011671993237397441 0.0057697457361754398 0 -0.012286182408603363 0.0046698161066204402 0 -0.012941532551608828 0.0051466704943493591 0 -0.011671993237397441 0.0057697457361754398 0 -0.011513339631855666 0.0046980899359974791 0 -0.012286182408603363 0.0046698161066204402 0 -0.012286182408603363 0.0046698161066204402 0 -0.012941532551608828 0.0051466704943493591 0 -0.013280092571510303 0.0045798321470528862 0 -0.012941532551608828 0.0051466704943493591 0 -0.013280092571510303 0.0045798321470528862 0 -0.013689297402480059 0.0053715153601641358 0 -0.014021266683236749 0.004126173944447779 0 -0.013280092571510303 0.0045798321470528862 0 -0.013917062391681938 0.0047606704525789073 0 -0.014021266683236749 0.004126173944447779 0 -0.013917062391681938 0.0047606704525789073 0 -0.014691177341810684 0.0049667382339983425 0 -0.013917062391681938 0.0047606704525789073 0 -0.013689297402480059 0.0053715153601641358 0 -0.014691177341810684 0.0049667382339983425 0 -0.013280092571510303 0.0045798321470528862 0 -0.013917062391681938 0.0047606704525789073 0 -0.013689297402480059 0.0053715153601641358 0 -0.013689297402480059 0.0053715153601641358 0 -0.014235507452131655 0.0058542532746228993 0 -0.013483095855763122 0.0060689981118051935 0 -0.013689297402480059 0.0053715153601641358 0 -0.014235507452131655 0.0058542532746228993 0 -0.014691177341810684 0.0049667382339983425 0 -0.014233940656864921 0.0065104481123307032 0 -0.014235507452131655 0.0058542532746228993 0 -0.01504324037094191 0.005996251049804985 0 -0.014233940656864921 0.0065104481123307032 0 -0.014235507452131655 0.0058542532746228993 0 -0.013483095855763122 0.0060689981118051935 0 -0.012941532551608828 0.0051466704943493591 0 -0.013483095855763122 0.0060689981118051935 0 -0.01274188936946378 0.0059546489154661195 0 -0.012941532551608828 0.0051466704943493591 0 -0.013689297402480059 0.0053715153601641358 0 -0.013483095855763122 0.0060689981118051935 0 -0.016122719460645866 0.0062550113287863076 0 -0.016874244446828477 0.0050326228766041274 0 -0.017539874646383669 0.00591571207405861 0 -0.015821946141859951 0.005328007025242487 0 -0.016122719460645866 0.0062550113287863076 0 -0.016874244446828477 0.0050326228766041274 0 -0.015821946141859951 0.005328007025242487 0 -0.01504324037094191 0.005996251049804985 0 -0.014691177341810684 0.0049667382339983425 0 -0.015821946141859951 0.005328007025242487 0 -0.016122719460645866 0.0062550113287863076 0 -0.01504324037094191 0.005996251049804985 0 -0.014235507452131655 0.0058542532746228993 0 -0.01504324037094191 0.005996251049804985 0 -0.014691177341810684 0.0049667382339983425 0 -0.015821946141859951 0.005328007025242487 0 -0.014691177341810684 0.0049667382339983425 0 -0.016218172108870457 0.0043216148274660493 0 -0.014851805687041076 0.0037784402204284794 0 -0.014691177341810684 0.0049667382339983425 0 -0.016218172108870457 0.0043216148274660493 0 -0.017088859022841227 0.003977849216932317 0 -0.016218172108870457 0.0043216148274660493 0 -0.016874244446828477 0.0050326228766041274 0 -0.015821946141859951 0.005328007025242487 0 -0.016218172108870457 0.0043216148274660493 0 -0.016874244446828477 0.0050326228766041274 0 -0.016874244446828477 0.0050326228766041274 0 -0.01821744144059545 0.0044568701469779228 0 -0.017539874646383669 0.00591571207405861 0 -0.016369936544828972 0.0032750768375142568 0 -0.015926981185481012 0.0042400528769891898 0 -0.017088859022841227 0.003977849216932317 0 -0.016874244446828477 0.0050326228766041274 0 -0.01821744144059545 0.0044568701469779228 0 -0.014784772683627248 0.0019244704730123189 0 -0.014838209662549581 0.0020876881768791926 0 -0.014287469872537747 0.0027256338658406911 0 -0.015238520002401362 0.0016576146386227345 0 -0.014679924290130812 0.002010142060353833 0 -0.015074366043549071 0.0026942539386351784 0 -0.014460676043274445 0.0021353645475185646 0 -0.014422458389753744 0.0029247996313811046 0 -0.014679924290130812 0.002010142060353833 0 -0.014302728914274501 0.0030329959944909381 0 -0.015074366043549071 0.0026942539386351784 0 -0.014838209662549581 0.0020876881768791926 0 -0.014287469872537747 0.0027256338658406911 0 -0.014302728914274501 0.0030329959944909381 0 -0.015926981185481012 0.0042400528769891898 0 -0.01543463860982722 0.0058103686826794778 0 -0.016122719460645866 0.0062550113287863076 0 -0.017539874646383669 0.00591571207405861 0 -0.016724747107025238 0.0073588044986877916 0 -0.014287469872537747 0.0027256338658406911 0 -0.014302728914274501 0.0030329959944909381 0 -0.013851540162392746 0.0035446284898623098 0 -0.014302728914274501 0.0030329959944909381 0 -0.013851540162392746 0.0035446284898623098 0 -0.014289940094453635 0.0035465161110723046 0 -0.012504758042016385 0.0016253225379173558 0 -0.013151656345885878 0.0013699959964348625 0 -0.014302728914274501 0.0030329959944909381 0 -0.014289940094453635 0.0035465161110723046 0 -0.015074366043549071 0.0026942539386351784 0 -0.010784840897594537 0.00023519358326088506 0 -0.011198636625873082 0.00020333934141599828 0 -0.011192193603977859 -1.2673560295171679e-05 0 -0.010784840897594537 0.00023519358326088506 0 -0.011021132530706849 0.00051944042061334063 0 -0.010836639814343844 0.00057245984503971397 0 -0.010784840897594537 0.00023519358326088506 0 -0.011021132530706849 0.00051944042061334063 0 -0.011198636625873082 0.00020333934141599828 0 -0.012504758042016385 0.0016253225379173558 0 -0.012405979334385352 0.0040823942252619797 0 -0.013851540162392746 0.0035446284898623098 0 -0.014289940094453635 0.0035465161110723046 0 -0.013433819889602436 0.004412730547281616 0 -0.01543463860982722 0.0058103686826794778 0 -0.012405979334385352 0.0040823942252619797 0 -0.016724747107025238 0.0073588044986877916 0 -0.015681077115955351 0.0073113249614730437 0 -0.015987356454441319 0.0086650895338892149 0 -0.016122719460645866 0.0062550113287863076 0 -0.016724747107025238 0.0073588044986877916 0 -0.015681077115955351 0.0073113249614730437 0 -0.016122719460645866 0.0062550113287863076 0 -0.015681077115955351 0.0073113249614730437 0 -0.015125871816272172 0.0067434457129583432 0 -0.014570900606416838 0.0072531678704981523 0 -0.015681077115955351 0.0073113249614730437 0 -0.015125871816272172 0.0067434457129583432 0 -0.014233940656864921 0.0065104481123307032 0 -0.01504324037094191 0.005996251049804985 0 -0.015125871816272172 0.0067434457129583432 0 -0.016122719460645866 0.0062550113287863076 0 -0.01504324037094191 0.005996251049804985 0 -0.015125871816272172 0.0067434457129583432 0 -0.014570900606416838 0.0072531678704981523 0 -0.014233940656864921 0.0065104481123307032 0 -0.015125871816272172 0.0067434457129583432 0 -0.015681077115955351 0.0073113249614730437 0 -0.014973344846251957 0.0077956236962829452 0 -0.015061731649714208 0.0082581986868986157 0 -0.017269750447143083 0.0084603644764918735 0 -0.0097577254205143734 0.0065077841057258248 0 -0.014533926766529058 0.007831403823237517 0 -0.014570900606416838 0.0072531678704981523 0 -0.014973344846251957 0.0077956236962829452 0 -0.015681077115955351 0.0073113249614730437 0 -0.015061731649714208 0.0082581986868986157 0 -0.015289269524712368 0.0091096630450323204 0 -0.014570900606416838 0.0072531678704981523 0 -0.015681077115955351 0.0073113249614730437 0 -0.014973344846251957 0.0077956236962829452 0 -0.014973344846251957 0.0077956236962829452 0 -0.014803096298477533 0.0081555882003980559 0 -0.015061731649714208 0.0082581986868986157 0 -0.014533926766529058 0.007831403823237517 0 -0.014973344846251957 0.0077956236962829452 0 -0.014803096298477533 0.0081555882003980559 0 -0.014533926766529058 0.007831403823237517 0 -0.014803096298477533 0.0081555882003980559 0 -0.01457107426679183 0.0081349261055803177 0 -0.014527330877241292 0.0082836451080550641 0 -0.014803096298477533 0.0081555882003980559 0 -0.01457107426679183 0.0081349261055803177 0 -0.014527330877241292 0.0082836451080550641 0 -0.014803096298477533 0.0081555882003980559 0 -0.014733155080855365 0.0084436408501815368 0 -0.014733155080855365 0.0084436408501815368 0 -0.015061731649714208 0.0082581986868986157 0 -0.014922490697803933 0.008731136303191521 0 -0.014527330877241292 0.0082836451080550641 0 -0.014413454559044367 0.0082581363560161412 0 -0.014733155080855365 0.0084436408501815368 0 -0.0072066170489015653 0.005830430496857112 0 -0.0082216815876598008 0.0073168804785015695 0 -0.014413454559044367 0.0082581363560161412 0 -0.014733155080855365 0.0084436408501815368 0 -0.014900473951531625 0.008693814389966064 0 0.003926709289217384 0.0061921240486863495 0 0.0040246619802561268 0.0058899167041616242 0 0.0033575422932368461 0.0062681847948098503 0 -0.011137686443624922 0.0093275413782973431 0 -0.0082216815876598008 0.0073168804785015695 0 -0.014803096298477533 0.0081555882003980559 0 -0.014733155080855365 0.0084436408501815368 0 -0.015061731649714208 0.0082581986868986157 0 -0.015061731649714208 0.0082581986868986157 0 -0.015289269524712368 0.0091096630450323204 0 -0.014922490697803933 0.008731136303191521 0 -0.0097577254205143734 0.0065077841057258248 0 -0.0082216815876598008 0.0073168804785015695 0 -0.0059971521900578162 0.0062886802582670228 0 -0.0078826366983840747 0.0080278529416922938 0 -0.0064204053442146504 0.0058484113257294716 0 0.0033783399154339562 0.0066349850714080049 0 0.0033575422932368461 0.0062681847948098503 0 0.0030147410804918437 0.0067249535293111241 0 -0.0082216815876598008 0.0073168804785015695 0 -0.0049552842958402697 0.0063042118694404447 0 -0.0097577254205143734 0.0065077841057258248 0 -0.0049552842958402697 0.0063042118694404447 0 0.003926709289217384 0.0061921240486863495 0 0.00364392339648861 0.0064755959468014756 0 0.0033575422932368461 0.0062681847948098503 0 0.0038939895910429885 0.0065588898681965329 0 0.00364392339648861 0.0064755959468014756 0 0.0036898423509808954 0.0068462005870142733 0 0.0033783399154339562 0.0066349850714080049 0 0.00364392339648861 0.0064755959468014756 0 0.0036898423509808954 0.0068462005870142733 0 0.0033783399154339562 0.0066349850714080049 0 0.00364392339648861 0.0064755959468014756 0 0.0033575422932368461 0.0062681847948098503 0 -0.015681077115955351 0.0073113249614730437 0 -0.015456271587933499 0.009172183319652279 0 -0.015987356454441319 0.0086650895338892149 0 -0.0086160281118146127 0.0056722373978066992 0 -0.010836626018937893 0.0033899589405081147 0 -0.0094360214993706101 0.0064279592738859196 0 -0.010375665980514356 0.00057893949153863238 0 -0.010441094535480727 0.0007276973162185608 0 -0.010243281030693755 0.00080597649888736493 0 -0.0097577254205143734 0.0065077841057258248 0 -0.012405979334385352 0.0040823942252619797 0 -0.012405979334385352 0.0040823942252619797 0 -0.006806899134361155 0.0035606707302357097 0 -0.010375665980514356 0.00057893949153863238 0 -0.010441094535480727 0.0007276973162185608 0 -0.010615867122822328 0.00065437189573581728 0 -0.0068975546734332547 0.0026465839666643242 0 -0.0055347969866021297 0.0013898930024993411 0 -0.0049764645359895651 0.002599674140806306 0 -0.010441094535480727 0.0007276973162185608 0 -0.010279673115609471 0.00083848214939368805 0 -0.010734006812668454 0.00082397895928116921 0 -0.0027641786835414465 0.004505136722773897 0 -0.00060066032643158926 0.0026779841489102878 0 0.00079083775637905267 0.0040176868511829222 0 0.00068359553011845765 0.0037551339959138873 0 0.0012787433213156583 0.0033048432277252801 0 -0.0036359798344414431 0.0043670189414106468 0 -0.0039966499995531517 0.0041809458009221196 0 -0.0025772479245389801 0.0021016194023137616 0 -0.0064899933969067109 0.0033180263769525963 0 -0.0037229175344555181 0.0021273025315073761 0 -0.0064899933969067109 0.0033180263769525963 0 -0.0086003118545509589 0.0010610447448822923 0 -0.0036359798344414431 0.0043670189414106468 0 -0.0025772479245389801 0.0021016194023137616 0 -0.0019110369448224508 0.0027881963922950096 0 -0.010441094535480727 0.0007276973162185608 0 -0.010279673115609471 0.00083848214939368805 0 -0.010243281030693755 0.00080597649888736493 0 -0.0058946636083827214 0.0026548124340338188 0 -0.0070219032295536308 0.0036944116344363284 0 -0.0074779889329553489 0.002688101474750338 0 -0.0064899933969067109 0.0033180263769525963 0 -0.0048909061168836412 0.0040879980125750007 0 -0.006806899134361155 0.0035606707302357097 0 -0.0048909061168836412 0.0040879980125750007 0 -0.0056842182256310499 0.0044693924076948319 0 -0.0059510657220314374 0.0038787190685083293 0 -0.0063701081055864269 0.0044998798366159016 0 -0.0064899933969067109 0.0033180263769525963 0 -0.006806899134361155 0.0035606707302357097 0 -0.0036359798344414431 0.0043670189414106468 0 -0.0039110818087092067 0.0043738350683417094 0 -0.0039966499995531517 0.0041809458009221196 0 0.0033783399154339562 0.0066349850714080049 0 0.0036898423509808954 0.0068462005870142733 0 0.0031777997201646872 0.0068848786520519798 0 0.0034099267876928638 0.0066492706171444047 0 -0.00029805114082059078 0.0065387278904053157 0 0.0038121802901530167 0.0074191918812598224 0 0.0036898423509808954 0.0068462005870142733 0 0.0032240164761801453 0.0068538448710951938 0 0.0033783399154339562 0.0066349850714080049 0 0.0031777997201646872 0.0068848786520519798 0 0.0030147410804918437 0.0067249535293111241 0 -0.0015374415928141327 0.004532098569796892 0 -0.0016398333647803765 0.0046133331866949727 0 -0.0014864822934638235 0.0049287863855780358 0 0.001586291989845859 0.0051799241731368423 0 0.001533279948432017 0.0051806806587707662 0 0.0015592108265527105 0.0053099636256266868 0 -0.00029805114082059078 0.0065387278904053157 0 -0.0049552842958402697 0.0063042118694404447 0 -0.0037157432092280373 0.0059479045614152289 0 -0.0037580546561362558 0.0059100449145212414 0 -0.0037659284177324298 0.005946830202014931 0 -0.00029805114082059078 0.0065387278904053157 0 -0.0029712383113572891 0.0051683393062254054 0 -0.0097577254205143734 0.0065077841057258248 0 -0.006806899134361155 0.0035606707302357097 0 -0.0067959190088007467 0.0054937802975812506 0 -0.0056842182256310499 0.0044693924076948319 0 -0.0063701081055864269 0.0044998798366159016 0 -0.0067959190088007467 0.0054937802975812506 0 -0.0063701081055864269 0.0044998798366159016 0 -0.0073664460338856777 0.0048992779226148505 0 -0.0063701081055864269 0.0044998798366159016 0 -0.0073664460338856777 0.0048992779226148505 0 -0.0071016694316188393 0.0039040875506253315 0 -0.0049552842958402697 0.0063042118694404447 0 -0.0029712383113572891 0.0051683393062254054 0 -0.0059510657220314374 0.0038787190685083293 0 -0.0063701081055864269 0.0044998798366159016 0 -0.0071016694316188393 0.0039040875506253315 0 -0.0048909061168836412 0.0040879980125750007 0 -0.0029712383113572891 0.0051683393062254054 0 -0.0029712383113572891 0.0051683393062254054 0 -0.0027641786835414465 0.004505136722773897 0 -0.0023973184190426507 0.0055497746664116233 0 -0.0035645237538917606 0.0055753967896884395 0 -0.0026958580321948568 0.004890089466829008 0 -0.0048909061168836412 0.0040879980125750007 0 -0.0027641786835414465 0.004505136722773897 0 -0.0029712383113572891 0.0051683393062254054 0 -1.4912785136311424e-05 0.0047234724422826717 0 -0.0027641786835414465 0.004505136722773897 0 -1.4912785136311424e-05 0.0047234724422826717 0 0.0039723982219971874 0.0058827283121861253 0 -0.00029805114082059078 0.0065387278904053157 0 0.0017597919162921924 0.0053349472593533951 0 0.001586291989845859 0.0051799241731368423 0 0.0015592108265527105 0.0053099636256266868 0 -1.4912785136311424e-05 0.0047234724422826717 0 0.003628705795707279 0.0046979180627764487 0 0.0019751165408603611 0.0043274373596127458 0 0.0019277179835515022 0.0041487609549269722 0 0.0019859533142259442 0.0041648864406477254 0 0.0039723982219971874 0.0058827283121861253 0 0.003628705795707279 0.0046979180627764487 0 0.0017597919162921924 0.0053349472593533951 0 0.0015592108265527105 0.0053099636256266868 0 0.0016957133863985177 0.0055503300315395201 0 -1.4912785136311424e-05 0.0047234724422826717 0 0.0013237240563916891 0.0035012881456041997 0 0.00065625625686313409 0.0032002645177825534 0 0.0012787433213156583 0.0033048432277252801 0 0.0011821635666678938 0.0027380421346934287 0 0.00068359553011845765 0.0037551339959138873 0 0.00065625625686313409 0.0032002645177825534 0 0.0012787433213156583 0.0033048432277252801 0 0.0011821635666678938 0.0027380421346934287 0 0.0006310061896097921 0.0026657421831268527 0 0.0013549215947378291 0.0021549680516197017 0 0.0054383245896904471 0.0043506742104782465 0 0.003628705795707279 0.0046979180627764487 0 0.0054245775753136846 0.0041870580748974697 0 0.0053729856762824123 0.0041231074444791202 0 0.0053664518146325025 0.0041745901471573294 0 0.00065625625686313409 0.0032002645177825534 0 0.0011821635666678938 0.0027380421346934287 0 0.0006310061896097921 0.0026657421831268527 0 0.003628705795707279 0.0046979180627764487 0 0.0032592393057270406 0.0038400837310979771 0 0.0019277179835515022 0.0041487609549269722 0 0.0019859533142259442 0.0041648864406477254 0 0.0019909335615940875 0.0040036752964088202 0 0.0013237240563916891 0.0035012881456041997 0 0.0032592393057270406 0.0038400837310979771 0 -0.0011467871971786632 0.00047094534211148396 0 0.00088973166950466801 -0.00043478875328417985 0 -0.0023880308418543121 0.00044879787691666728 0 -0.0012720565151381727 0.0001878261456172968 0 -0.00094550818445392844 -0.0008675399951518758 0 0.0021248141561031925 -0.00053096288381146884 0 0.0021117612531189158 -0.00040551077408600399 0 0.0018909046960759038 -0.00032699298543342222 0 0.0021248141561031925 -0.00053096288381146884 0 0.0021117612531189158 -0.00040551077408600399 0 0.0022359704880003722 -0.00040668429693928505 0 0.0012787433213156583 0.0033048432277252801 0 0.0011821635666678938 0.0027380421346934287 0 0.0017336764047784028 0.0026159200993894913 0 -0.00060066032643158926 0.0026779841489102878 0 0.0010363509862168967 0.00096102845596260453 0 -0.0025772479245389801 0.0021016194023137616 0 -0.00021174603002506909 0.0012269201500500356 0 -0.0011805101815617854 5.0602695971309732e-05 0 -0.0011467871971786632 0.00047094534211148396 0 0.0010363509862168967 0.00096102845596260453 0 -0.0011467871971786632 0.00047094534211148396 0 -0.0037229175344555181 0.0021273025315073761 0 -0.0025772479245389801 0.0021016194023137616 0 -0.00021174603002506909 0.0012269201500500356 0 -0.0019110369448224508 0.0027881963922950096 0 -0.0041570808397440283 0.00013177401012729134 0 -0.0055347969866021297 0.0013898930024993411 0 -0.0035806615309179331 0.00083745932068938122 0 -0.0023880308418543121 0.00044879787691666728 0 -0.0019267370830405534 0.0010133698849502024 0 -0.0012720565151381727 0.0001878261456172968 0 -0.0011467871971786632 0.00047094534211148396 0 -0.0042162192529480013 0.00044770575291380716 0 -0.0042162192529480013 0.00044770575291380716 0 -0.0027908057900953645 0.00017993215667301982 0 -0.0072952954291585119 0.00048784457018472032 0 -0.007309266052244006 0.00083942095391849303 0 -0.0070318470815459869 0.00083130386960623384 0 -0.0072952954291585119 0.00048784457018472032 0 -0.007309266052244006 0.00083942095391849303 0 -0.0075983097376329297 0.00084787539523818495 0 -0.0093799822415658041 0.0007672049790084152 0 -0.0086003118545509589 0.0010610447448822923 0 -0.0042162192529480013 0.00044770575291380716 0 -0.0086003118545509589 0.0010610447448822923 0 -0.0055347969866021297 0.0013898930024993411 0 -0.0035806615309179331 0.00083745932068938122 0 -0.0049764645359895651 0.002599674140806306 0 -0.010784840897594537 0.00023519358326088506 0 -0.010615867122822328 0.00065437189573581728 0 -0.010836639814343844 0.00057245984503971397 0 -0.010784840897594537 0.00023519358326088506 0 -0.010375665980514356 0.00057893949153863238 0 -0.010615867122822328 0.00065437189573581728 0 -0.010441094535480727 0.0007276973162185608 0 -0.010734006812668454 0.00082397895928116921 0 -0.010615867122822328 0.00065437189573581728 0 -0.0086003118545509589 0.0010610447448822923 0 -0.010174879203648544 0.0012007963845930099 0 -0.010721809780057101 0.0007361878597569345 0 -0.010615867122822328 0.00065437189573581728 0 -0.010836639814343844 0.00057245984503971397 0 -0.010935654668707774 0.00067532766387332728 0 -0.011021132530706849 0.00051944042061334063 0 -0.010836639814343844 0.00057245984503971397 0 -0.010935654668707774 0.00067532766387332728 0 -0.010721809780057101 0.0007361878597569345 0 -0.010836639814343844 0.00057245984503971397 0 -0.010935654668707774 0.00067532766387332728 0 -0.011021132530706849 0.00051944042061334063 0 -0.010997840053061826 0.00058350929567452324 0 -0.011357266057822446 0.00053749918454537842 0 -0.010413833407933141 0.00069785884863450066 0 -0.010997840053061826 0.00058350929567452324 0 -0.01095691565053647 0.00061399746884490509 0 -0.010984149550934859 0.00059275451287000278 0 -0.011021132530706849 0.00051944042061334063 0 -0.011484011750515817 0.00061982661258465203 0 -0.011273962138311264 0.00037958954587996867 0 -0.011021132530706849 0.00051944042061334063 0 -0.010997840053061826 0.00058350929567452324 0 -0.01095691565053647 0.00061399746884490509 0 -0.011406519296629872 0.00026717210910780573 0 -0.011442904649641499 0.00023107277980030069 0 -0.011426142508231324 0.0002211923262720239 0 -0.010413833407933141 0.00069785884863450066 0 -0.01158821277854641 0.0001613081239715391 0 -0.0041691394070956468 0.00017713188727987603 0 -0.0042407050130379206 0.00017895872393859253 0 -0.0041909099405353601 0.00010671223242458159 0 -0.007021660526833823 -9.2352815178732973e-05 0 -0.0078470907835984285 0.00066670601654585094 0 -0.010938173643602781 0.00058560752556408122 0 -0.010984149550934859 0.00059275451287000278 0 -0.010985577882254309 0.00058678070598968204 0 -0.010413833407933141 0.00069785884863450066 0 -0.007021660526833823 -9.2352815178732973e-05 0 -0.01095691565053647 0.00061399746884490509 0 -0.010938173643602781 0.00058560752556408122 0 -0.010984149550934859 0.00059275451287000278 0 -0.0042162192529480013 0.00044770575291380716 0 -0.0078470907835984285 0.00066670601654585094 0 -0.010935654668707774 0.00067532766387332728 0 -0.010997840053061826 0.00058350929567452324 0 -0.010993523444422159 0.00059936822414323509 0 -0.0093799822415658041 0.0007672049790084152 0 -0.0078470907835984285 0.00066670601654585094 0 -0.010997840053061826 0.00058350929567452324 0 -0.010984149550934859 0.00059275451287000278 0 -0.010993523444422159 0.00059936822414323509 0 -0.0083745075470882877 0.00034039304258888769 0 -0.0078470907835984285 0.00066670601654585094 0 -0.0042905321582955725 9.386571866732675e-05 0 -0.0042407050130379206 0.00017895872393859253 0 -0.0042317340534518671 9.2317089173524458e-05 0 -0.0042407050130379206 0.00017895872393859253 0 -0.0042317340534518671 9.2317089173524458e-05 0 -0.0041909099405353601 0.00010671223242458159 0 -0.0042905321582955725 9.386571866732675e-05 0 -0.0042317340534518671 9.2317089173524458e-05 0 -0.0042380081847262878 3.6067313639427884e-05 0 -0.0042317340534518671 9.2317089173524458e-05 0 -0.0041909099405353601 0.00010671223242458159 0 -0.0041782251946982357 4.9307362118547226e-05 0 -0.0041691394070956468 0.00017713188727987603 0 -0.0041909099405353601 0.00010671223242458159 0 -0.0041130013274933569 5.1553993839353708e-05 0 -0.007021660526833823 -9.2352815178732973e-05 0 -0.0022569794048472734 -3.7434671353888478e-05 0 -0.0041909099405353601 0.00010671223242458159 0 -0.0041782251946982357 4.9307362118547226e-05 0 -0.0041130013274933569 5.1553993839353708e-05 0 0.001191005963643868 -0.00013985974582419775 0 0.0011582684458230081 -0.00016107776381299013 0 0.0011544455284843874 0.00016646718864401534 0 -0.0010770151746362273 -0.00022539315240768473 0 -0.00073969591564330614 -0.0004570215529256071 0 -0.0011275263763760655 -0.00011309828911790141 0 0.00097090409049300651 5.7678714317836854e-05 0 -0.0010770151746362273 -0.00022539315240768473 0 0.0014582157965743847 -2.2565688971396144e-05 0 -0.0041782251946982357 4.9307362118547226e-05 0 -0.0041132658815912198 3.3369695811546834e-05 0 -0.0041748095744326211 -2.2404318459531292e-05 0 -0.0041782251946982357 4.9307362118547226e-05 0 -0.0041130013274933569 5.1553993839353708e-05 0 -0.0041132658815912198 3.3369695811546834e-05 0 -0.0022569794048472734 -3.7434671353888478e-05 0 -0.0011275263763760655 -0.00011309828911790141 0 -0.0022569794048472734 -3.7434671353888478e-05 0 -0.0010770151746362273 -0.00022539315240768473 0 -0.0017108445325588523 -0.00016569375552026599 0 -0.0016536312421301499 1.9725775867469415e-05 0 -0.0017220178816839593 -2.6960882419075729e-05 0 -0.0010770151746362273 -0.00022539315240768473 0 -0.0011275263763760655 -0.00011309828911790141 0 -0.0041782251946982357 4.9307362118547226e-05 0 -0.0042380081847262878 3.6067313639427884e-05 0 -0.0041748095744326211 -2.2404318459531292e-05 0 -0.0012720565151381727 0.0001878261456172968 0 -0.00094550818445392844 -0.0008675399951518758 0 -0.00061721648219503094 -0.00063997015614993219 0 -0.0027908057900953645 0.00017993215667301982 0 -0.00073969591564330614 -0.0004570215529256071 0 -0.0042317340534518671 9.2317089173524458e-05 0 -0.0041782251946982357 4.9307362118547226e-05 0 -0.0042380081847262878 3.6067313639427884e-05 0 -0.0006031909854157467 6.8512350525576323e-07 0 0.00036470397795419741 3.4106870659366545e-05 0 -0.00034352536356560976 -0.00032624475647377116 0 -0.0030439383208814836 4.6745050849959552e-05 0 -0.0030426428507785062 5.5992695545799032e-05 0 -0.0030924785999328461 1.9174507131105437e-05 0 0.00089892195730288931 -0.00018119251617615504 0 0.00036470397795419741 3.4106870659366545e-05 0 -0.00034352536356560976 -0.00032624475647377116 0 0.00089892195730288931 -0.00018119251617615504 0 0.00083798068599340108 6.7000606987287976e-05 0 0.0011544455284843874 0.00016646718864401534 0 0.00089892195730288931 -0.00018119251617615504 0 0.00036470397795419741 3.4106870659366545e-05 0 0.00083798068599340108 6.7000606987287976e-05 0 -0.0011275263763760655 -0.00011309828911790141 0 -0.0016731876494196622 -3.2769725940279431e-05 0 -0.0030439383208814836 4.6745050849959552e-05 0 -0.0030924785999328461 1.9174507131105437e-05 0 -0.0030780814009369268 1.5712224831787293e-05 0 -0.0030439383208814836 4.6745050849959552e-05 0 -0.0030780814009369268 1.5712224831787293e-05 0 -0.0030500832954804343 -2.82178891205688e-05 0 -0.0022569794048472734 -3.7434671353888478e-05 0 -0.0054075721830930358 -4.8532049654298782e-05 0 -0.0030924785999328461 1.9174507131105437e-05 0 -0.0029259547463246667 5.5590802819294829e-08 0 -0.0030783679214515555 4.4884536314687206e-05 0 -0.0016731876494196622 -3.2769725940279431e-05 0 -0.0029225683794151156 -2.0701803585611573e-08 0 -0.0030924785999328461 1.9174507131105437e-05 0 -0.0030783679214515555 4.4884536314687206e-05 0 -0.0030780814009369268 1.5712224831787293e-05 0 -0.0006031909854157467 6.8512350525576323e-07 0 -0.00034352536356560976 -0.00032624475647377116 0 -0.0029199734738503407 -1.9800292301546945e-06 0 -0.0030783679214515555 4.4884536314687206e-05 0 -0.0035941850370535327 -5.8488192612327836e-08 0 -0.0031660214912914366 -9.6778791026201329e-05 0 -0.0029259547463246667 5.5590802819294829e-08 0 -0.0030783679214515555 4.4884536314687206e-05 0 -0.0035941850370535327 -5.8488192612327836e-08 0 -0.0038853158966519262 -0.00024876261887705608 0 -0.0054075721830930358 -4.8532049654298782e-05 0 -0.0030783679214515555 4.4884536314687206e-05 0 -0.0031660214912914366 -9.6778791026201329e-05 0 -0.0030780814009369268 1.5712224831787293e-05 0 -0.0038853158966519262 -0.00024876261887705608 0 -0.0073971800882385802 -0.00028340961209870092 0 -0.0035996745385638487 -1.2495339273540782e-06 0 -0.0047658630195573509 -0.00022788173066880897 0 -0.0052528728364793584 6.4346578268930662e-05 0 -0.0035972874185624263 -2.9860597139400483e-07 0 -0.0038853158966519262 -0.00024876261887705608 0 -0.0042127984196165006 -0.00049230080921034401 0 -0.0062064486415791308 0.00011058379746963229 0 -0.0063992780485548125 -0.00054033967434422481 0 -0.0046331210909187877 -0.00022503264177595205 0 -0.004625793646642712 0.00011260879066382977 0 -0.0047621173131226699 -0.0002224168905722587 0 -0.0031660214912914366 -9.6778791026201329e-05 0 -0.0030780814009369268 1.5712224831787293e-05 0 -0.0030500832954804343 -2.82178891205688e-05 0 -0.0073971800882385802 -0.00028340961209870092 0 -0.0054075721830930358 -4.8532049654298782e-05 0 -0.0082205098066484347 -0.00033065879541230764 0 -0.0068540110759730578 0.00018685569287034035 0 -0.0070135409150079526 -0.00035577679248329728 0 -0.0083133904011357344 0.00062813418954921847 0 -0.0082205098066484347 -0.00033065879541230764 0 -0.0068540110759730578 0.00018685569287034035 0 -0.007021660526833823 -9.2352815178732973e-05 0 -0.0054075721830930358 -4.8532049654298782e-05 0 -0.011440383275070895 0.00029332396158080707 0 -0.011442904649641499 0.00023107277980030069 0 -0.011507044612853285 0.00016514997606131002 0 -0.0073971800882385802 -0.00028340961209870092 0 -0.0089742265815778485 0.00025886237728739219 0 -0.011406519296629872 0.00026717210910780573 0 -0.011440383275070895 0.00029332396158080707 0 -0.011442904649641499 0.00023107277980030069 0 -0.010413833407933141 0.00069785884863450066 0 -0.0073971800882385802 -0.00028340961209870092 0 -0.0054730354275716129 -7.3388022289912167e-05 0 -0.0052528728364793584 6.4346578268930662e-05 0 -0.0061153935348691423 0.00012284125431048743 0 -0.0035996745385638487 -1.2495339273540782e-06 0 -0.0052528728364793584 6.4346578268930662e-05 0 -0.0060472911191562428 9.6734371535599091e-07 0 -0.0047658630195573509 -0.00022788173066880897 0 -0.0054730354275716129 -7.3388022289912167e-05 0 -0.0052528728364793584 6.4346578268930662e-05 0 -0.0052528728364793584 6.4346578268930662e-05 0 -0.0060472911191562428 9.6734371535599091e-07 0 -0.0061153935348691423 0.00012284125431048743 0 -0.0060472911191562428 9.6734371535599091e-07 0 -0.0061153935348691423 0.00012284125431048743 0 -0.0084977580690191543 -2.5920302711860607e-07 0 -0.0089742265815778485 0.00025886237728739219 0 -0.0098430879272994095 8.2141410787041968e-05 0 -0.0061153935348691423 0.00012284125431048743 0 -0.0084977580690191543 -2.5920302711860607e-07 0 -0.0083293283389161699 -5.0161033401450879e-05 0 -0.011507044612853285 0.00016514997606131002 0 -0.011487856797589447 2.3884586349707022e-05 0 -0.011490358135263321 -0.00010193616338039082 0 -0.011507044612853285 0.00016514997606131002 0 -0.011426142508231324 0.0002211923262720239 0 -0.011487856797589447 2.3884586349707022e-05 0 -0.011442904649641499 0.00023107277980030069 0 -0.011507044612853285 0.00016514997606131002 0 -0.011426142508231324 0.0002211923262720239 0 -0.011484011750515817 0.00061982661258465203 0 -0.011426142508231324 0.0002211923262720239 0 -0.011273962138311264 0.00037958954587996867 0 -0.011021132530706849 0.00051944042061334063 0 -0.011273962138311264 0.00037958954587996867 0 -0.011198636625873082 0.00020333934141599828 0 -0.011426142508231324 0.0002211923262720239 0 -0.011273962138311264 0.00037958954587996867 0 -0.011198636625873082 0.00020333934141599828 0 -0.011198636625873082 0.00020333934141599828 0 -0.011487856797589447 2.3884586349707022e-05 0 -0.011192193603977859 -1.2673560295171679e-05 0 -0.011426142508231324 0.0002211923262720239 0 -0.011198636625873082 0.00020333934141599828 0 -0.011487856797589447 2.3884586349707022e-05 0 -0.011487856797589447 2.3884586349707022e-05 0 -0.011192193603977859 -1.2673560295171679e-05 0 -0.011525661437394294 -5.5485649192852092e-05 0 -0.013151656345885878 0.0013699959964348625 0 -0.013540675451088315 0.0010290568458278726 0 -0.015238520002401362 0.0016576146386227345 0 -0.015074366043549071 0.0026942539386351784 0 -0.015842979462614527 0.0018469596860976193 0 -0.011487856797589447 2.3884586349707022e-05 0 -0.011525661437394294 -5.5485649192852092e-05 0 -0.011699082541859933 1.4085838040021706e-05 0 -0.011699082541859933 1.4085838040021706e-05 0 -0.010952748879881504 1.1666813591299847e-07 0 -0.011490358135263321 -0.00010193616338039082 0 -0.010948453366917806 -1.7174799702729304e-07 0 -0.0084977580690191543 -2.5920302711860607e-07 0 -0.0083293283389161699 -5.0161033401450879e-05 0 -0.0109486927476356 4.0027192532826245e-07 0 -0.0098430879272994095 8.2141410787041968e-05 0 -0.011487856797589447 2.3884586349707022e-05 0 -0.011699082541859933 1.4085838040021706e-05 0 -0.011490358135263321 -0.00010193616338039082 0 -0.0069374107259600054 0.0048305839781255409 0 -0.0088056566598149356 0.0032639530173599893 0 -0.0090837047038161475 0.0060211638651237335 0 -0.0071901401025704021 0.0052745104148244782 0 -0.0072258838817589001 0.0064565154885282555 0 -0.0069374107259600054 0.0048305839781255409 0 -0.0057093509884842799 0.0043196797518560799 0 -0.0055529416383575999 0.0050676099190509454 0 -0.0069374107259600054 0.0048305839781255409 0 -0.0057093509884842799 0.0043196797518560799 0 -0.0058572243876879853 0.0028867011517739144 0 -0.0057093509884842799 0.0043196797518560799 0 -0.0058572243876879853 0.0028867011517739144 0 -0.004934841028103076 0.0044293312253445849 0 -0.0057093509884842799 0.0043196797518560799 0 -0.0055529416383575999 0.0050676099190509454 0 -0.004934841028103076 0.0044293312253445849 0 -0.0056137106323139859 0.0040372829385248677 0 -0.004934841028103076 0.0044293312253445849 0 -0.0052787562661721701 0.0036820221684521525 0 -0.0059250943591449149 0.0033644968215130683 0 -0.0049297532298721962 0.0043438068761158261 0 -0.0069374107259600054 0.0048305839781255409 0 -0.0058572243876879853 0.0028867011517739144 0 -0.0088056566598149356 0.0032639530173599893 0 -0.0058572243876879853 0.0028867011517739144 0 -0.0088056566598149356 0.0032639530173599893 0 -0.0088478300668240143 0.00031962098954536167 0 -0.0059250943591449149 0.0033644968215130683 0 -0.0068254460444714333 0.0023485750792300699 0 -0.0088056566598149356 0.0032639530173599893 0 -0.011579225591945252 0.0010338949127479252 0 -0.0088478300668240143 0.00031962098954536167 0 -0.0088056566598149356 0.0032639530173599893 0 -0.011384170456004384 0.004413629661830119 0 -0.011579225591945252 0.0010338949127479252 0 -0.013861805965574799 0.0025946221718376465 0 -0.011384170456004384 0.004413629661830119 0 -0.011579225591945252 0.0010338949127479252 0 -0.012310900017198546 0.0049989043448187267 0 -0.011254807912348343 0.0052360767621096585 0 -0.011763698788473654 0.0055219751927849262 0 -0.01054275137542829 0.0066168977233119295 0 -0.010233214012565056 0.0079726987198828429 0 -0.012310900017198546 0.0049989043448187267 0 -0.010032612676177119 0.0082484632382105565 0 -0.011823922764715805 0.0073998597967592583 0 -0.010233214012565056 0.0079726987198828429 0 -0.011255780596680797 0.0081232483830631832 0 -0.011580256598041912 0.0060421015960313157 0 -0.011823922764715805 0.0073998597967592583 0 -0.010233214012565056 0.0079726987198828429 0 -0.0088056566598149356 0.0032639530173599893 0 -0.011384170456004384 0.004413629661830119 0 -0.0090837047038161475 0.0060211638651237335 0 -0.011254807912348343 0.0052360767621096585 0 -0.0072258838817589001 0.0064565154885282555 0 -0.01054275137542829 0.0066168977233119295 0 -0.0093906382424663714 0.0077215224702074136 0 -0.010233214012565056 0.0079726987198828429 0 -0.0040037446377894836 0.0072441983306193126 0 -0.0039553686500710039 0.0068067553529873835 0 -0.0035754470745689242 0.0069935041708950232 0 -0.0039553686500710039 0.0068067553529873835 0 -0.0035754470745689242 0.0069935041708950232 0 -0.0037214028595632782 0.006468542453698739 0 -0.0093906382424663714 0.0077215224702074136 0 -0.010233214012565056 0.0079726987198828429 0 -0.010701389807759186 0.008297960702939769 0 -0.0072258838817589001 0.0064565154885282555 0 -0.0075711881805993839 0.0078136247678715718 0 -0.0035754470745689242 0.0069935041708950232 0 -0.0037214028595632782 0.006468542453698739 0 -0.0032580157151451397 0.0068476234497903106 0 -0.011823922764715805 0.0073998597967592583 0 -0.011255780596680797 0.0081232483830631832 0 -0.011854151480129775 0.0087937303731421279 0 -0.011255780596680797 0.0081232483830631832 0 -0.010701389807759186 0.008297960702939769 0 -0.011854151480129775 0.0087937303731421279 0 -0.010233214012565056 0.0079726987198828429 0 -0.011255780596680797 0.0081232483830631832 0 -0.010701389807759186 0.008297960702939769 0 -0.0075711881805993839 0.0078136247678715718 0 -0.0046861098900529904 0.0068006613756300821 0 -0.0030123768010147127 0.0067231964480086934 0 -0.0046861098900529904 0.0068006613756300821 0 -0.0037214028595632782 0.006468542453698739 0 -0.0026886531873895488 0.0072889004067704733 0 -0.0024233381249443562 0.0067299071235694318 0 -0.0039553686500710039 0.0068067553529873835 0 -0.0037214028595632782 0.006468542453698739 0 -0.0042890204108694272 0.0064433264064892894 0 -0.0037214028595632782 0.006468542453698739 0 -0.0042890204108694272 0.0064433264064892894 0 -0.004435442795409715 0.0060648498123098389 0 -0.0042890204108694272 0.0064433264064892894 0 -0.0051829806987171816 0.0060878625286345323 0 -0.004435442795409715 0.0060648498123098389 0 -0.0042890204108694272 0.0064433264064892894 0 -0.0044508223083854041 0.0069310050894944271 0 -0.0051829806987171816 0.0060878625286345323 0 -0.0039553686500710039 0.0068067553529873835 0 -0.0042890204108694272 0.0064433264064892894 0 -0.0044508223083854041 0.0069310050894944271 0 -0.0054477079309294745 0.0063253397534342067 0 -0.0053533417510687161 0.0061213621818882544 0 -0.0069374107259600054 0.0048305839781255409 0 -0.006627368928825028 0.0055643452807142696 0 -0.0055529416383575999 0.0050676099190509454 0 -0.0069374107259600054 0.0048305839781255409 0 -0.0073598584193212118 0.0050869027060651681 0 -0.006627368928825028 0.0055643452807142696 0 -0.0072258838817589001 0.0064565154885282555 0 -0.0054477079309294745 0.0063253397534342067 0 -0.0040037446377894836 0.0072441983306193126 0 -0.0039553686500710039 0.0068067553529873835 0 -0.0044508223083854041 0.0069310050894944271 0 -0.006627368928825028 0.0055643452807142696 0 -0.0055529416383575999 0.0050676099190509454 0 -0.0051829806987171816 0.0060878625286345323 0 -0.0055529416383575999 0.0050676099190509454 0 -0.0051829806987171816 0.0060878625286345323 0 -0.0049231236125339894 0.0053770485658942574 0 -0.0051829806987171816 0.0060878625286345323 0 -0.0048739596427501818 0.0057431452056661341 0 -0.0049231236125339894 0.0053770485658942574 0 -0.0051829806987171816 0.0060878625286345323 0 -0.0048283352894744553 0.0059046956836271433 0 -0.004435442795409715 0.0060648498123098389 0 -0.0051829806987171816 0.0060878625286345323 0 -0.0048739596427501818 0.0057431452056661341 0 -0.0048283352894744553 0.0059046956836271433 0 -0.0048739596427501818 0.0057431452056661341 0 -0.0046442381359087619 0.005471867763668343 0 -0.0047149154863555037 0.0057366758499823216 0 -0.0048739596427501818 0.0057431452056661341 0 -0.0046442381359087619 0.005471867763668343 0 -0.0049231236125339894 0.0053770485658942574 0 -0.0046442381359087619 0.005471867763668343 0 -0.0044346862549692594 0.0052196881953245101 0 -0.0046195879117310488 0.0050171812566895757 0 -0.0046442381359087619 0.005471867763668343 0 -0.0044346862549692594 0.0052196881953245101 0 -0.0044097179881872747 0.0054332046188755017 0 -0.0046195879117310488 0.0050171812566895757 0 -0.0043319001096303695 0.0048861998736288229 0 -0.0045703012838409461 0.0044337713070809782 0 -0.0044346862549692594 0.0052196881953245101 0 -0.0046195879117310488 0.0050171812566895757 0 -0.0043319001096303695 0.0048861998736288229 0 -0.0046442381359087619 0.005471867763668343 0 -0.0046195879117310488 0.0050171812566895757 0 -0.0049231236125339894 0.0053770485658942574 0 -0.0055529416383575999 0.0050676099190509454 0 -0.0049231236125339894 0.0053770485658942574 0 -0.004934841028103076 0.0044293312253445849 0 -0.0046195879117310488 0.0050171812566895757 0 -0.0049231236125339894 0.0053770485658942574 0 -0.004934841028103076 0.0044293312253445849 0 -0.0038281845558284029 0.0051050296634166841 0 -0.0041554534694639858 0.005243193040034632 0 -0.0040118177050193736 0.0047800733508430674 0 -0.0036500104429998338 0.0046978849996823771 0 -0.0038281845558284029 0.0051050296634166841 0 -0.0040118177050193736 0.0047800733508430674 0 -0.0044346862549692594 0.0052196881953245101 0 -0.0041554534694639858 0.005243193040034632 0 -0.0043319001096303695 0.0048861998736288229 0 -0.0041554534694639858 0.005243193040034632 0 -0.0043319001096303695 0.0048861998736288229 0 -0.0040118177050193736 0.0047800733508430674 0 -0.0044346862549692594 0.0052196881953245101 0 -0.0041554534694639858 0.005243193040034632 0 -0.0044097179881872747 0.0054332046188755017 0 -0.0043319001096303695 0.0048861998736288229 0 -0.0040118177050193736 0.0047800733508430674 0 -0.0042114166762334581 0.0043129479412245767 0 -0.0038809308944294284 0.0043550007888704207 0 -0.0040118177050193736 0.0047800733508430674 0 -0.0042114166762334581 0.0043129479412245767 0 -0.0036500104429998338 0.0046978849996823771 0 -0.0038809308944294284 0.0043550007888704207 0 -0.0040118177050193736 0.0047800733508430674 0 -0.0038809308944294284 0.0043550007888704207 0 -0.0040074694706254844 0.0037973886998914318 0 -0.0042114166762334581 0.0043129479412245767 0 -0.0042114166762334581 0.0043129479412245767 0 -0.0045172428370882254 0.003921362580746191 0 -0.0045703012838409461 0.0044337713070809782 0 -0.0043319001096303695 0.0048861998736288229 0 -0.0042114166762334581 0.0043129479412245767 0 -0.0045703012838409461 0.0044337713070809782 0 -0.0040074694706254844 0.0037973886998914318 0 -0.0042114166762334581 0.0043129479412245767 0 -0.0045172428370882254 0.003921362580746191 0 -0.0040074694706254844 0.0037973886998914318 0 -0.0045172428370882254 0.003921362580746191 0 -0.0044385239829489356 0.0035219897319166767 0 -0.004934841028103076 0.0044293312253445849 0 -0.0045703012838409461 0.0044337713070809782 0 -0.00484807478987091 0.0038645847201133191 0 -0.0046195879117310488 0.0050171812566895757 0 -0.004934841028103076 0.0044293312253445849 0 -0.0045703012838409461 0.0044337713070809782 0 -0.0045172428370882254 0.003921362580746191 0 -0.0045703012838409461 0.0044337713070809782 0 -0.00484807478987091 0.0038645847201133191 0 -0.004934841028103076 0.0044293312253445849 0 -0.00484807478987091 0.0038645847201133191 0 -0.0052787562661721701 0.0036820221684521525 0 -0.00484807478987091 0.0038645847201133191 0 -0.0052787562661721701 0.0036820221684521525 0 -0.0050706770759261256 0.0033889017658000832 0 -0.0045172428370882254 0.003921362580746191 0 -0.00484807478987091 0.0038645847201133191 0 -0.0047329114132021836 0.0034815388786367391 0 -0.00484807478987091 0.0038645847201133191 0 -0.0050706770759261256 0.0033889017658000832 0 -0.0047329114132021836 0.0034815388786367391 0 -0.0050706770759261256 0.0033889017658000832 0 -0.0047329114132021836 0.0034815388786367391 0 -0.0049199175506424381 0.0031438229798068044 0 -0.0050706770759261256 0.0033889017658000832 0 -0.0051885408046620897 0.0030686544156173609 0 -0.0049199175506424381 0.0031438229798068044 0 -0.0050706770759261256 0.0033889017658000832 0 -0.0051885408046620897 0.0030686544156173609 0 -0.0054119990692830288 0.003287780396530101 0 -0.0052787562661721701 0.0036820221684521525 0 -0.0050706770759261256 0.0033889017658000832 0 -0.0054119990692830288 0.003287780396530101 0 -0.0040074694706254844 0.0037973886998914318 0 -0.004344234760529116 0.0032620270351518309 0 -0.0044385239829489356 0.0035219897319166767 0 -0.0045172428370882254 0.003921362580746191 0 -0.0044385239829489356 0.0035219897319166767 0 -0.0047329114132021836 0.0034815388786367391 0 -0.0047329114132021836 0.0034815388786367391 0 -0.004652072128228232 0.0031645914599003578 0 -0.0049199175506424381 0.0031438229798068044 0 -0.0044385239829489356 0.0035219897319166767 0 -0.0047329114132021836 0.0034815388786367391 0 -0.004652072128228232 0.0031645914599003578 0 -0.004344234760529116 0.0032620270351518309 0 -0.0044385239829489356 0.0035219897319166767 0 -0.004652072128228232 0.0031645914599003578 0 -0.004344234760529116 0.0032620270351518309 0 -0.004652072128228232 0.0031645914599003578 0 -0.004662064219085417 0.0029263777376977245 0 -0.004652072128228232 0.0031645914599003578 0 -0.004662064219085417 0.0029263777376977245 0 -0.0048498035078770657 0.0029035164088512789 0 -0.0048498035078770657 0.0029035164088512789 0 -0.0049199175506424381 0.0031438229798068044 0 -0.0050215306608552904 0.0029288104150317932 0 -0.004652072128228232 0.0031645914599003578 0 -0.0048498035078770657 0.0029035164088512789 0 -0.0049199175506424381 0.0031438229798068044 0 -0.0048967631445721999 0.0027235482068198799 0 -0.0050219915892653769 0.0027323808311433204 0 -0.0048498035078770657 0.0029035164088512789 0 -0.0050219915892653769 0.0027323808311433204 0 -0.0048498035078770657 0.0029035164088512789 0 -0.0050215306608552904 0.0029288104150317932 0 -0.0048967631445721999 0.0027235482068198799 0 -0.004662064219085417 0.0029263777376977245 0 -0.0048498035078770657 0.0029035164088512789 0 -0.0051885408046620897 0.0030686544156173609 0 -0.0054739864810018435 0.0029257573226064248 0 -0.0054119990692830288 0.003287780396530101 0 -0.0051885408046620897 0.0030686544156173609 0 -0.0049199175506424381 0.0031438229798068044 0 -0.0050215306608552904 0.0029288104150317932 0 -0.0050219915892653769 0.0027323808311433204 0 -0.0050215306608552904 0.0029288104150317932 0 -0.0052072964941419731 0.0028151058208937571 0 -0.0051885408046620897 0.0030686544156173609 0 -0.0050215306608552904 0.0029288104150317932 0 -0.0052072964941419731 0.0028151058208937571 0 -0.0054824630553625252 0.0026210089193075821 0 -0.0052072964941419731 0.0028151058208937571 0 -0.0054739864810018435 0.0029257573226064248 0 -0.0051885408046620897 0.0030686544156173609 0 -0.0052072964941419731 0.0028151058208937571 0 -0.0054739864810018435 0.0029257573226064248 0 -0.0054824630553625252 0.0026210089193075821 0 -0.0057921655648593409 0.0027614849933696207 0 -0.0054739864810018435 0.0029257573226064248 0 -0.012071948327700447 -0.0004275603235467204 0 -0.012015231681150403 -0.00043168569102025882 0 -0.0057921655648593409 0.0027614849933696207 0 -0.0057728056681751886 0.0031225259771568994 0 -0.0061671969456982669 0.0030102502313141925 0 -0.0057728056681751886 0.0031225259771568994 0 -0.0061514381853463897 0.003345597024281281 0 -0.0061671969456982669 0.0030102502313141925 0 -0.0057921655648593409 0.0027614849933696207 0 -0.0057728056681751886 0.0031225259771568994 0 -0.0054739864810018435 0.0029257573226064248 0 -0.0057728056681751886 0.0031225259771568994 0 -0.0054739864810018435 0.0029257573226064248 0 -0.0054119990692830288 0.003287780396530101 0 -0.0057728056681751886 0.0031225259771568994 0 -0.0054119990692830288 0.003287780396530101 0 -0.0056892597069203377 0.0035956096325238762 0 -0.0057728056681751886 0.0031225259771568994 0 -0.0056892597069203377 0.0035956096325238762 0 -0.0061514381853463897 0.003345597024281281 0 -0.0056137106323139859 0.0040372829385248677 0 -0.0056892597069203377 0.0035956096325238762 0 -0.0060788814126763189 0.0036971545989043036 0 -0.0056892597069203377 0.0035956096325238762 0 -0.0060788814126763189 0.0036971545989043036 0 -0.0061514381853463897 0.003345597024281281 0 -0.0052787562661721701 0.0036820221684521525 0 -0.0054119990692830288 0.003287780396530101 0 -0.0056892597069203377 0.0035956096325238762 0 -0.0056137106323139859 0.0040372829385248677 0 -0.0052787562661721701 0.0036820221684521525 0 -0.0056892597069203377 0.0035956096325238762 0 -0.013815696636767861 -0.00089757223570646088 0 -0.011579225591945252 0.0010338949127479252 0 -0.012631437981285102 -0.0022893200512567134 0 -0.013861805965574799 0.0025946221718376465 0 -0.013815696636767861 -0.00089757223570646088 0 -0.011579225591945252 0.0010338949127479252 0 -0.0068254460444714333 0.0023485750792300699 0 -0.013036083255483503 -0.00048704921801386497 0 -0.011579225591945252 0.0010338949127479252 0 -0.0088478300668240143 0.00031962098954536167 0 -0.012631437981285102 -0.0022893200512567134 0 -0.0060788814126763189 0.0036971545989043036 0 -0.0061514381853463897 0.003345597024281281 0 -0.0065621182481273325 0.0033674483631532855 0 -0.013036083255483503 -0.00048704921801386497 0 -0.012015231681150403 -0.00043168569102025882 0 -0.0061514381853463897 0.003345597024281281 0 -0.0065621182481273325 0.0033674483631532855 0 -0.0061671969456982669 0.0030102502313141925 0 -0.017786856026834313 -0.004228894048159397 0 -0.01768335995467079 -0.003783604201998051 0 -0.017071103271352209 -0.0037105580497695258 0 -0.013815696636767861 -0.00089757223570646088 0 -0.013080382731900946 -0.0019684635069392126 0 -0.016429276995851731 -0.0011617134124845335 0 -0.013185654222709061 -0.0010490379187131648 0 -0.013036083255483503 -0.00048704921801386497 0 -0.017786856026834313 -0.004228894048159397 0 -0.01768335995467079 -0.003783604201998051 0 -0.018076666245603574 -0.0038009808828129168 0 -0.01768335995467079 -0.003783604201998051 0 -0.017777259599803474 -0.0035957973012813171 0 -0.01753790213372939 -0.0036191610511590601 0 -0.01768335995467079 -0.003783604201998051 0 -0.018076666245603574 -0.0038009808828129168 0 -0.0180181691051832 -0.0036310101836191152 0 -0.018302440343176626 -0.0036107447245058355 0 -0.018076666245603574 -0.0038009808828129168 0 -0.0180181691051832 -0.0036310101836191152 0 -0.018044933208926466 -0.0034896434908393828 0 -0.018302440343176626 -0.0036107447245058355 0 -0.0180181691051832 -0.0036310101836191152 0 -0.017737050069965052 -0.0035178134815583217 0 -0.018044933208926466 -0.0034896434908393828 0 -0.017777259599803474 -0.0035957973012813171 0 -0.01768335995467079 -0.003783604201998051 0 -0.0180181691051832 -0.0036310101836191152 0 -0.017777259599803474 -0.0035957973012813171 0 -0.018044933208926466 -0.0034896434908393828 0 -0.0180181691051832 -0.0036310101836191152 0 -0.017777259599803474 -0.0035957973012813171 0 -0.017737050069965052 -0.0035178134815583217 0 -0.017777259599803474 -0.0035957973012813171 0 -0.01753790213372939 -0.0036191610511590601 0 -0.017737050069965052 -0.0035178134815583217 0 -0.017578802179129875 -0.0036543516789416066 0 -0.01753790213372939 -0.0036191610511590601 0 -0.017578802179129875 -0.0036543516789416066 0 -0.01753790213372939 -0.0036191610511590601 0 -0.017071103271352209 -0.0037105580497695258 0 -0.01768335995467079 -0.003783604201998051 0 -0.01753790213372939 -0.0036191610511590601 0 -0.017071103271352209 -0.0037105580497695258 0 -0.017578802179129875 -0.0036543516789416066 0 -0.017071103271352209 -0.0037105580497695258 0 -0.017755393914528874 -0.0036724752060118544 0 -0.013855021540108134 0.003126927772519304 0 -0.014663775911258194 0.0029209721383257324 0 -0.014540713396000493 0.0036121033219724073 0 -0.017578802179129875 -0.0036543516789416066 0 -0.017755393914528874 -0.0036724752060118544 0 -0.017575891923522234 -0.0035446668654491877 0 -0.015750202828081677 -0.00017459447275452344 0 -0.016218627898130208 -0.00087400069584098118 0 -0.017732677970205096 -0.0034124033584689828 0 -0.017578802179129875 -0.0036543516789416066 0 -0.017575891923522234 -0.0035446668654491877 0 -0.014832406349007808 0.0018189541708457763 0 -0.01626512620608472 0.0020826434689282768 0 -0.01542654996777104 0.0031410733939823878 0 -0.01626512620608472 0.0020826434689282768 0 -0.01632530996896649 0.0032237793503870518 0 -0.01542654996777104 0.0031410733939823878 0 -0.01626512620608472 0.0020826434689282768 0 -0.01632530996896649 0.0032237793503870518 0 -0.016910883154299998 0.0027626031282160326 0 -0.01632530996896649 0.0032237793503870518 0 -0.01542654996777104 0.0031410733939823878 0 -0.015833024020799228 0.0040876435704219035 0 -0.014832406349007808 0.0018189541708457763 0 -0.014663775911258194 0.0029209721383257324 0 -0.01542654996777104 0.0031410733939823878 0 -0.013855021540108134 0.003126927772519304 0 -0.014832406349007808 0.0018189541708457763 0 -0.014663775911258194 0.0029209721383257324 0 -0.014663775911258194 0.0029209721383257324 0 -0.01542654996777104 0.0031410733939823878 0 -0.014540713396000493 0.0036121033219724073 0 -0.014540713396000493 0.0036121033219724073 0 -0.015123245229711483 0.0039455188841540437 0 -0.014388537838661239 0.0042156387853945617 0 -0.01542654996777104 0.0031410733939823878 0 -0.014540713396000493 0.0036121033219724073 0 -0.015123245229711483 0.0039455188841540437 0 -0.015123245229711483 0.0039455188841540437 0 -0.015833024020799228 0.0040876435704219035 0 -0.014891366377554777 0.0046120791990091805 0 -0.015123245229711483 0.0039455188841540437 0 -0.014388537838661239 0.0042156387853945617 0 -0.014891366377554777 0.0046120791990091805 0 -0.014388537838661239 0.0042156387853945617 0 -0.014891366377554777 0.0046120791990091805 0 -0.014246277529957444 0.0047008130314116475 0 -0.01542654996777104 0.0031410733939823878 0 -0.015123245229711483 0.0039455188841540437 0 -0.015833024020799228 0.0040876435704219035 0 -0.015618882812303662 0.0049982552038998814 0 -0.01504894662267066 0.0053890380020573348 0 -0.01574977659114353 0.0062869508935714247 0 -0.015618882812303662 0.0049982552038998814 0 -0.016556291864055661 0.0048734250202810726 0 -0.01574977659114353 0.0062869508935714247 0 -0.016861888349406731 0.0046094612997854747 0 -0.0086856670656938438 0.0051048019630018085 0 -0.015833024020799228 0.0040876435704219035 0 -0.015618882812303662 0.0049982552038998814 0 -0.016556291864055661 0.0048734250202810726 0 -0.015833024020799228 0.0040876435704219035 0 -0.015618882812303662 0.0049982552038998814 0 -0.014891366377554777 0.0046120791990091805 0 -0.014891366377554777 0.0046120791990091805 0 -0.01446662289897579 0.0052153948130666721 0 -0.014246277529957444 0.0047008130314116475 0 -0.015618882812303662 0.0049982552038998814 0 -0.014891366377554777 0.0046120791990091805 0 -0.01504894662267066 0.0053890380020573348 0 -0.014891366377554777 0.0046120791990091805 0 -0.01504894662267066 0.0053890380020573348 0 -0.01446662289897579 0.0052153948130666721 0 -0.01504894662267066 0.0053890380020573348 0 -0.01446662289897579 0.0052153948130666721 0 -0.014720593193832898 0.0058250699658409138 0 -0.01446662289897579 0.0052153948130666721 0 -0.013765834082615863 0.0050334681930078902 0 -0.014154005631395038 0.0057362893344415 0 -0.013765834082615863 0.0050334681930078902 0 -0.01345061049543262 0.0055907017962798762 0 -0.014154005631395038 0.0057362893344415 0 -0.013765834082615863 0.0050334681930078902 0 -0.014246277529957444 0.0047008130314116475 0 -0.01392356995123277 0.0044501394212052899 0 -0.01446662289897579 0.0052153948130666721 0 -0.013765834082615863 0.0050334681930078902 0 -0.014246277529957444 0.0047008130314116475 0 -0.013765834082615863 0.0050334681930078902 0 -0.013479631254158454 0.00454508465665838 0 -0.013012989095874583 0.0049429296530089928 0 -0.013765834082615863 0.0050334681930078902 0 -0.013479631254158454 0.00454508465665838 0 -0.01392356995123277 0.0044501394212052899 0 -0.013765834082615863 0.0050334681930078902 0 -0.013012989095874583 0.0049429296530089928 0 -0.01345061049543262 0.0055907017962798762 0 -0.012310900017198546 0.0049989043448187267 0 -0.014748604871018089 0.0015097775259839889 0 -0.013861805965574799 0.0025946221718376465 0 -0.013815696636767861 -0.00089757223570646088 0 -0.016429276995851731 -0.0011617134124845335 0 -0.012118159761930996 0.0057550865974101183 0 -0.013012989095874583 0.0049429296530089928 0 -0.012826955121197248 0.0045594913283540216 0 -0.012310900017198546 0.0049989043448187267 0 -0.01267765152866861 0.0053027924243039572 0 -0.013479631254158454 0.00454508465665838 0 -0.013012989095874583 0.0049429296530089928 0 -0.012826955121197248 0.0045594913283540216 0 -0.013080382731900946 -0.0019684635069392126 0 -0.017071103271352209 -0.0037105580497695258 0 -0.016429276995851731 -0.0011617134124845335 0 -0.013036083255483503 -0.00048704921801386497 0 -0.018029287892496592 -0.0047134286484283305 0 -0.017071103271352209 -0.0037105580497695258 0 -0.017755393914528874 -0.0036724752060118544 0 -0.016429276995851731 -0.0011617134124845335 0 -0.015750202828081677 -0.00017459447275452344 0 -0.014748604871018089 0.0015097775259839889 0 -0.013855021540108134 0.003126927772519304 0 -0.012826955121197248 0.0045594913283540216 0 -0.013829458577336999 0.0040812001263389516 0 -0.013855021540108134 0.003126927772519304 0 -0.014540713396000493 0.0036121033219724073 0 -0.013829458577336999 0.0040812001263389516 0 -0.014540713396000493 0.0036121033219724073 0 -0.014388537838661239 0.0042156387853945617 0 -0.013829458577336999 0.0040812001263389516 0 -0.014388537838661239 0.0042156387853945617 0 -0.013829458577336999 0.0040812001263389516 0 -0.01392356995123277 0.0044501394212052899 0 -0.014388537838661239 0.0042156387853945617 0 -0.014246277529957444 0.0047008130314116475 0 -0.01392356995123277 0.0044501394212052899 0 -0.013479631254158454 0.00454508465665838 0 -0.012826955121197248 0.0045594913283540216 0 -0.013829458577336999 0.0040812001263389516 0 -0.013479631254158454 0.00454508465665838 0 -0.013829458577336999 0.0040812001263389516 0 -0.01392356995123277 0.0044501394212052899 0 -0.014809621069218713 0.0011561539299224884 0 -0.01239875091681367 0.0017057869325702035 0 -0.01936549118196491 0.0028707758022721258 0 -0.018781534933542957 0.002859007492160177 0 -0.018860309288138127 0.0021487228875156374 0 -0.01936549118196491 0.0028707758022721258 0 -0.018781534933542957 0.002859007492160177 0 -0.018645685622637728 0.0034262305688897731 0 -0.018781534933542957 0.002859007492160177 0 -0.018227459806187993 0.0031066416617883705 0 -0.018645685622637728 0.0034262305688897731 0 -0.018781534933542957 0.002859007492160177 0 -0.018860309288138127 0.0021487228875156374 0 -0.018360404505164116 0.0026650044273281363 0 -0.018330743057220603 0.0019442177413991333 0 -0.018860309288138127 0.0021487228875156374 0 -0.018104322379886989 0.0022896942352669796 0 -0.018860309288138127 0.0021487228875156374 0 -0.018104322379886989 0.0022896942352669796 0 -0.018360404505164116 0.0026650044273281363 0 -0.017925739588269055 0.0019304560018063974 0 -0.018330743057220603 0.0019442177413991333 0 -0.018104322379886989 0.0022896942352669796 0 -0.018104322379886989 0.0022896942352669796 0 -0.018007232376282399 0.0026620325570033423 0 -0.018360404505164116 0.0026650044273281363 0 -0.018007232376282399 0.0026620325570033423 0 -0.018360404505164116 0.0026650044273281363 0 -0.018227459806187993 0.0031066416617883705 0 -0.018781534933542957 0.002859007492160177 0 -0.018360404505164116 0.0026650044273281363 0 -0.018227459806187993 0.0031066416617883705 0 -0.018007232376282399 0.0026620325570033423 0 -0.018227459806187993 0.0031066416617883705 0 -0.017702051774833034 0.003079803165043582 0 -0.017702051774833034 0.003079803165043582 0 -0.017755715240299369 0.0023885857124080288 0 -0.016781743500471367 0.0032878488662147157 0 -0.017702617957224276 0.0024444280043690834 0 -0.01694357728896298 0.003479132947917578 0 -0.018007232376282399 0.0026620325570033423 0 -0.017702051774833034 0.003079803165043582 0 -0.017755715240299369 0.0023885857124080288 0 -0.017755715240299369 0.0023885857124080288 0 -0.017607315814638261 0.0023193279976766882 0 -0.017302859126429693 0.0035130496934953274 0 -0.018104322379886989 0.0022896942352669796 0 -0.018007232376282399 0.0026620325570033423 0 -0.017755715240299369 0.0023885857124080288 0 -0.018278977005091387 0.0017884358439866517 0 -0.017758234913768271 0.0022286265968148112 0 -0.017925739588269055 0.0019304560018063974 0 -0.017755715240299369 0.0023885857124080288 0 -0.017607315814638261 0.0023193279976766882 0 -0.017925739588269055 0.0019304560018063974 0 -0.018104322379886989 0.0022896942352669796 0 -0.017755715240299369 0.0023885857124080288 0 -0.017791487796617367 0.0015273822065357784 0 -0.018783759241908626 0.0015278769942703738 0 -0.017607315814638261 0.0023193279976766882 0 -0.017099144121877713 0.0011091109690413439 0 -0.01626512620608472 0.0020826434689282768 0 -0.017132937196830334 0.001984324080328172 0 -0.017607315814638261 0.0023193279976766882 0 -0.017132937196830334 0.001984324080328172 0 -0.016910883154299998 0.0027626031282160326 0 -0.017791487796617367 0.0015273822065357784 0 -0.017607315814638261 0.0023193279976766882 0 -0.017132937196830334 0.001984324080328172 0 -0.01626512620608472 0.0020826434689282768 0 -0.017132937196830334 0.001984324080328172 0 -0.016910883154299998 0.0027626031282160326 0 -0.017607315814638261 0.0023193279976766882 0 -0.016910883154299998 0.0027626031282160326 0 -0.017302859126429693 0.0035130496934953274 0 -0.01632530996896649 0.0032237793503870518 0 -0.016910883154299998 0.0027626031282160326 0 -0.017302859126429693 0.0035130496934953274 0 -0.01694357728896298 0.003479132947917578 0 -0.016861888349406731 0.0046094612997854747 0 -0.01632530996896649 0.0032237793503870518 0 -0.015833024020799228 0.0040876435704219035 0 -0.017302859126429693 0.0035130496934953274 0 -0.015833024020799228 0.0040876435704219035 0 -0.017302859126429693 0.0035130496934953274 0 -0.016556291864055661 0.0048734250202810726 0 -0.016781743500471367 0.0032878488662147157 0 -0.016784991087746802 0.0041825811798576924 0 -0.015758600607257679 0.0045648064219256856 0 -0.015758600607257679 0.0045648064219256856 0 -0.016414537128105477 0.0051835045254557009 0 -0.014665661964883968 0.0062507865044659694 0 -0.016784991087746802 0.0041825811798576924 0 -0.015758600607257679 0.0045648064219256856 0 -0.016414537128105477 0.0051835045254557009 0 -0.0026090115338411749 0.0026585824315406197 0 -0.0039820274099240209 0.0027298607520691979 0 -0.004278928433931713 0.0012807447026840311 0 -0.0094130324240394771 0.0039292196351630006 0 -0.011062808425970197 0.0027315216886319238 0 -0.016784991087746802 0.0041825811798576924 0 -0.016414537128105477 0.0051835045254557009 0 -0.017741250987759288 0.0041942872962764154 0 -0.017702051774833034 0.003079803165043582 0 -0.016781743500471367 0.0032878488662147157 0 -0.017741250987759288 0.0041942872962764154 0 -0.016781743500471367 0.0032878488662147157 0 -0.016784991087746802 0.0041825811798576924 0 -0.017741250987759288 0.0041942872962764154 0 -0.004278928433931713 0.0012807447026840311 0 -0.0055514078429975211 0.0016580078205677637 0 -0.0064819138340132627 -8.4890702072208728e-05 0 -0.018227459806187993 0.0031066416617883705 0 -0.017702051774833034 0.003079803165043582 0 -0.017741250987759288 0.0041942872962764154 0 -0.018227459806187993 0.0031066416617883705 0 -0.017741250987759288 0.0041942872962764154 0 -0.018645685622637728 0.0034262305688897731 0 -0.011062808425970197 0.0027315216886319238 0 -0.01239875091681367 0.0017057869325702035 0 -0.0039820274099240209 0.0027298607520691979 0 -0.004278928433931713 0.0012807447026840311 0 -0.0055514078429975211 0.0016580078205677637 0 -0.0039820274099240209 0.0027298607520691979 0 -0.0055514078429975211 0.0016580078205677637 0 -0.0058788434689709722 0.0032467585508908436 0 -0.0082388928626104668 0.0019994321247715995 0 -0.0073217838934753485 0.0009664980171630468 0 -0.0069404015945595497 0.0024305973027631258 0 -0.0072814052314587024 0.001026627778439624 0 -0.0063817481125601067 0.0028326275870477107 0 -0.0055514078429975211 0.0016580078205677637 0 -0.0073217838934753485 0.0009664980171630468 0 -0.0058788434689709722 0.0032467585508908436 0 -0.0081447452787284397 0.00023881697026269675 0 -0.0073217838934753485 0.0009664980171630468 0 -0.0064819138340132627 -8.4890702072208728e-05 0 -0.0055514078429975211 0.0016580078205677637 0 -0.0073217838934753485 0.0009664980171630468 0 -0.0064819138340132627 -8.4890702072208728e-05 0 -0.0084315080511280678 -0.0011602001871524931 0 -0.0081447452787284397 0.00023881697026269675 0 -0.0064819138340132627 -8.4890702072208728e-05 0 -0.0080506079372041784 0.0034991426457864081 0 -0.0069404015945595497 0.0024305973027631258 0 -0.0072419037840088197 0.0038893499705448076 0 -0.0084293124217454992 0.0028261743440706924 0 -0.0080506079372041784 0.0034991426457864081 0 -0.0069404015945595497 0.0024305973027631258 0 -0.0039820274099240209 0.0027298607520691979 0 -0.0058788434689709722 0.0032467585508908436 0 -0.0038114529048127355 0.0040513199945512871 0 -0.0063817481125601067 0.0028326275870477107 0 -0.0057450751934648809 0.0040279541528580173 0 -0.0069404015945595497 0.0024305973027631258 0 -0.0064149101309986644 0.0036720662975876601 0 -0.0072419037840088197 0.0038893499705448076 0 -0.0058788434689709722 0.0032467585508908436 0 -0.0045634361854990264 0.0049389003245734198 0 -0.0038114529048127355 0.0040513199945512871 0 -0.0045634361854990264 0.0049389003245734198 0 -0.0033918309102304611 0.0048946598729431613 0 -0.0038114529048127355 0.0040513199945512871 0 -0.0033918309102304611 0.0048946598729431613 0 -0.0028637777685903997 0.0044915472469651161 0 -0.0027224837258818155 0.005220329376947142 0 -0.0038114529048127355 0.0040513199945512871 0 -0.0030783958587009977 0.0036323107148877004 0 -0.0028637777685903997 0.0044915472469651161 0 -0.0033918309102304611 0.0048946598729431613 0 -0.0038114529048127355 0.0040513199945512871 0 -0.0028637777685903997 0.0044915472469651161 0 -0.0039820274099240209 0.0027298607520691979 0 -0.0038114529048127355 0.0040513199945512871 0 -0.0030783958587009977 0.0036323107148877004 0 -0.0026090115338411749 0.0026585824315406197 0 -0.0039820274099240209 0.0027298607520691979 0 -0.0030783958587009977 0.0036323107148877004 0 -0.0026090115338411749 0.0026585824315406197 0 -0.0022556081909170015 0.0040951854389228689 0 -0.0014319149420315143 0.0037759783686209056 0 -0.0026090115338411749 0.0026585824315406197 0 -0.0030783958587009977 0.0036323107148877004 0 -0.0022556081909170015 0.0040951854389228689 0 -0.0094130324240394771 0.0039292196351630006 0 -0.0086856670656938438 0.0051048019630018085 0 -0.0022556081909170015 0.0040951854389228689 0 -0.0028637777685903997 0.0044915472469651161 0 -0.0022826307993898676 0.0049809588561825022 0 -0.0030783958587009977 0.0036323107148877004 0 -0.0022556081909170015 0.0040951854389228689 0 -0.0028637777685903997 0.0044915472469651161 0 -0.0028637777685903997 0.0044915472469651161 0 -0.0022826307993898676 0.0049809588561825022 0 -0.0027224837258818155 0.005220329376947142 0 -0.0022556081909170015 0.0040951854389228689 0 -0.0022826307993898676 0.0049809588561825022 0 -0.001714420750435004 0.0048105022887753391 0 -0.0022826307993898676 0.0049809588561825022 0 -0.0027224837258818155 0.005220329376947142 0 -0.0021277293112964119 0.0055508891226207563 0 -0.0022826307993898676 0.0049809588561825022 0 -0.0021277293112964119 0.0055508891226207563 0 -0.0019003950503590058 0.0052340227676600662 0 -0.0027224837258818155 0.005220329376947142 0 -0.0025562491655213276 0.0057120976755539107 0 -0.0021277293112964119 0.0055508891226207563 0 -0.0021277293112964119 0.0055508891226207563 0 -0.0019787938704335069 0.0061432592701135729 0 -0.0016859331851997769 0.0056219792506365654 0 -0.0025562491655213276 0.0057120976755539107 0 -0.0021277293112964119 0.0055508891226207563 0 -0.0019787938704335069 0.0061432592701135729 0 -0.0019787938704335069 0.0061432592701135729 0 -0.0025948353247053275 0.0062959674394868102 0 -0.0020125824265923471 0.0064594135749558006 0 -0.0019787938704335069 0.0061432592701135729 0 -0.0026287615888306508 0.0060163670325569371 0 -0.0025948353247053275 0.0062959674394868102 0 -0.0025562491655213276 0.0057120976755539107 0 -0.0019787938704335069 0.0061432592701135729 0 -0.0026287615888306508 0.0060163670325569371 0 -0.0026287615888306508 0.0060163670325569371 0 -0.0031751116894920121 0.0060488838467291335 0 -0.0028837656561208768 0.0058122378873533024 0 -0.00032120768012969622 0.0090186540720181667 0 4.7192771907688625e-05 0.0081324738149503584 0 -0.00077041521808729311 0.0080327117112582828 0 -0.0025948353247053275 0.0062959674394868102 0 -0.0032049627091864635 0.0061186876343885966 0 -0.0023134349368782166 0.0065889274068484721 0 -0.0026287615888306508 0.0060163670325569371 0 -0.0025948353247053275 0.0062959674394868102 0 -0.0031751116894920121 0.0060488838467291335 0 -0.0028250243720334424 0.0064224725694436548 0 -0.001426203193008342 0.0074916357378696039 0 -0.0025948353247053275 0.0062959674394868102 0 -0.0032049627091864635 0.0061186876343885966 0 -0.0031751116894920121 0.0060488838467291335 0 -0.0028250243720334424 0.0064224725694436548 0 -0.0028633264738942943 0.0063974271928505235 0 -0.0045634361854990264 0.0049389003245734198 0 -0.0033150887974560113 0.0061825402520645223 0 -0.0031751116894920121 0.0060488838467291335 0 -0.0045634361854990264 0.0049389003245734198 0 -0.0031751116894920121 0.0060488838467291335 0 -0.0031964265714300908 0.0054644254693609912 0 -0.0031751116894920121 0.0060488838467291335 0 -0.0028837656561208768 0.0058122378873533024 0 -0.0031964265714300908 0.0054644254693609912 0 -0.0025562491655213276 0.0057120976755539107 0 -0.0028837656561208768 0.0058122378873533024 0 -0.0031964265714300908 0.0054644254693609912 0 -0.0025562491655213276 0.0057120976755539107 0 -0.0026287615888306508 0.0060163670325569371 0 -0.0028837656561208768 0.0058122378873533024 0 -0.0033918309102304611 0.0048946598729431613 0 -0.0027224837258818155 0.005220329376947142 0 -0.0031964265714300908 0.0054644254693609912 0 -0.0027224837258818155 0.005220329376947142 0 -0.0025562491655213276 0.0057120976755539107 0 -0.0031964265714300908 0.0054644254693609912 0 -0.0045634361854990264 0.0049389003245734198 0 -0.0033918309102304611 0.0048946598729431613 0 -0.0031964265714300908 0.0054644254693609912 0 -0.0064149101309986644 0.0036720662975876601 0 -0.0066664899406463128 0.0049330953995802692 0 -0.0071514877650384733 0.0046123609123419358 0 -0.0064149101309986644 0.0036720662975876601 0 -0.0058393067400263872 0.0049342873573835558 0 -0.0066664899406463128 0.0049330953995802692 0 -0.0057450751934648809 0.0040279541528580173 0 -0.0028250243720334424 0.0064224725694436548 0 -0.0058393067400263872 0.0049342873573835558 0 -0.0066664899406463128 0.0049330953995802692 0 -0.0070489330846797548 0.0060077319196549907 0 -0.0028250243720334424 0.0064224725694436548 0 -0.0033712647665687105 0.0070775311341473614 0 -0.0066664899406463128 0.0049330953995802692 0 -0.0071790072171238175 0.0052988596859359412 0 -0.0070489330846797548 0.0060077319196549907 0 -0.0066664899406463128 0.0049330953995802692 0 -0.0071790072171238175 0.0052988596859359412 0 -0.0071514877650384733 0.0046123609123419358 0 -0.0071790072171238175 0.0052988596859359412 0 -0.0077479962097813018 0.0050660245543474617 0 -0.0075000786812824604 0.0057427092883011923 0 -0.0071790072171238175 0.0052988596859359412 0 -0.0077479962097813018 0.0050660245543474617 0 -0.0071514877650384733 0.0046123609123419358 0 -0.0079586960898785121 0.004295862380079213 0 -0.0077479962097813018 0.0050660245543474617 0 -0.0071514877650384733 0.0046123609123419358 0 -0.0064149101309986644 0.0036720662975876601 0 -0.0071514877650384733 0.0046123609123419358 0 -0.0072419037840088197 0.0038893499705448076 0 -0.0079586960898785121 0.004295862380079213 0 -0.0071514877650384733 0.0046123609123419358 0 -0.0072419037840088197 0.0038893499705448076 0 -0.0080506079372041784 0.0034991426457864081 0 -0.0079586960898785121 0.004295862380079213 0 -0.0072419037840088197 0.0038893499705448076 0 -0.013087696254623801 0.007084298922576701 0 -0.013797072535541372 0.006577689728531599 0 -0.01453027517576526 0.0070909079591869647 0 -0.013087696254623801 0.007084298922576701 0 -0.01453027517576526 0.0070909079591869647 0 -0.013226194991332861 0.0079406234770325879 0 -0.0013099857288732498 0.0048661204664653609 0 -0.0011355884691089985 0.0053862438677336234 0 -0.00067848132496965328 0.0054021229692087945 0 -0.0079477252398434603 0.0059878066914407953 0 -0.0071333959497168293 0.0066166110751958692 0 -0.011823922764715805 0.0073998597967592583 0 -0.013087696254623801 0.007084298922576701 0 -0.012906211150245163 0.00623306953714835 0 -0.011823922764715805 0.0073998597967592583 0 -0.013087696254623801 0.007084298922576701 0 -0.013226194991332861 0.0079406234770325879 0 -0.011580256598041912 0.0060421015960313157 0 -0.011823922764715805 0.0073998597967592583 0 -0.012906211150245163 0.00623306953714835 0 -0.013012989095874583 0.0049429296530089928 0 -0.012906211150245163 0.00623306953714835 0 -0.01345061049543262 0.0055907017962798762 0 -0.011580256598041912 0.0060421015960313157 0 -0.013012989095874583 0.0049429296530089928 0 -0.012906211150245163 0.00623306953714835 0 -0.012906211150245163 0.00623306953714835 0 -0.01345061049543262 0.0055907017962798762 0 -0.013662023970335007 0.0060257449149755116 0 -0.013087696254623801 0.007084298922576701 0 -0.012906211150245163 0.00623306953714835 0 -0.013797072535541372 0.006577689728531599 0 -0.012906211150245163 0.00623306953714835 0 -0.013662023970335007 0.0060257449149755116 0 -0.013797072535541372 0.006577689728531599 0 -0.013662023970335007 0.0060257449149755116 0 -0.013797072535541372 0.006577689728531599 0 -0.01450106530068751 0.0063600737107170858 0 -0.013662023970335007 0.0060257449149755116 0 -0.014154005631395038 0.0057362893344415 0 -0.01450106530068751 0.0063600737107170858 0 -0.01345061049543262 0.0055907017962798762 0 -0.013662023970335007 0.0060257449149755116 0 -0.014154005631395038 0.0057362893344415 0 -0.0086856670656938438 0.0051048019630018085 0 -0.0079477252398434603 0.0059878066914407953 0 -0.01446662289897579 0.0052153948130666721 0 -0.014154005631395038 0.0057362893344415 0 -0.014720593193832898 0.0058250699658409138 0 -0.01450106530068751 0.0063600737107170858 0 -0.01574977659114353 0.0062869508935714247 0 -0.01453027517576526 0.0070909079591869647 0 -0.014154005631395038 0.0057362893344415 0 -0.014720593193832898 0.0058250699658409138 0 -0.01450106530068751 0.0063600737107170858 0 -0.014720593193832898 0.0058250699658409138 0 -0.01450106530068751 0.0063600737107170858 0 -0.01574977659114353 0.0062869508935714247 0 -0.01504894662267066 0.0053890380020573348 0 -0.014720593193832898 0.0058250699658409138 0 -0.01574977659114353 0.0062869508935714247 0 -0.013797072535541372 0.006577689728531599 0 -0.01450106530068751 0.0063600737107170858 0 -0.01453027517576526 0.0070909079591869647 0 -0.0022556081909170015 0.0040951854389228689 0 -0.0014319149420315143 0.0037759783686209056 0 -0.001714420750435004 0.0048105022887753391 0 -0.0086856670656938438 0.0051048019630018085 0 -0.00092741009385031016 0.0053106883494068342 0 -0.0014319149420315143 0.0037759783686209056 0 -0.001714420750435004 0.0048105022887753391 0 -0.0010858175623844394 0.0049567319838655921 0 -0.001714420750435004 0.0048105022887753391 0 -0.0010858175623844394 0.0049567319838655921 0 -0.0014948010076540079 0.0052280033730440914 0 -0.001714420750435004 0.0048105022887753391 0 -0.0019003950503590058 0.0052340227676600662 0 -0.0014948010076540079 0.0052280033730440914 0 -0.0022826307993898676 0.0049809588561825022 0 -0.001714420750435004 0.0048105022887753391 0 -0.0019003950503590058 0.0052340227676600662 0 -0.0023663130898738914 0.004222957937462044 0 -0.0013099857288732498 0.0048661204664653609 0 -0.0016905047134483367 0.0052018494699417788 0 -0.0013099857288732498 0.0048661204664653609 0 -0.0016905047134483367 0.0052018494699417788 0 -0.0011355884691089985 0.0053862438677336234 0 -0.0016905047134483367 0.0052018494699417788 0 -0.0011355884691089985 0.0053862438677336234 0 -0.0010540500058116844 0.0057952177175185256 0 -0.00092741009385031016 0.0053106883494068342 0 -0.0012001642574215061 0.0055537538327466492 0 -0.0010858175623844394 0.0049567319838655921 0 -0.0013383517245329109 0.0055313241374977942 0 -0.0010540500058116844 0.0057952177175185256 0 -0.0010858175623844394 0.0049567319838655921 0 -0.0013383517245329109 0.0055313241374977942 0 -0.0014948010076540079 0.0052280033730440914 0 -0.0013383517245329109 0.0055313241374977942 0 -0.0010540500058116844 0.0057952177175185256 0 -0.0014792142229720557 0.0059483849194627136 0 -0.0021277293112964119 0.0055508891226207563 0 -0.0019003950503590058 0.0052340227676600662 0 -0.0016859331851997769 0.0056219792506365654 0 -0.0019003950503590058 0.0052340227676600662 0 -0.0014948010076540079 0.0052280033730440914 0 -0.0016859331851997769 0.0056219792506365654 0 -0.0013383517245329109 0.0055313241374977942 0 -0.0014948010076540079 0.0052280033730440914 0 -0.0016859331851997769 0.0056219792506365654 0 -0.0013383517245329109 0.0055313241374977942 0 -0.0016859331851997769 0.0056219792506365654 0 -0.0014792142229720557 0.0059483849194627136 0 -0.0019787938704335069 0.0061432592701135729 0 -0.0014792142229720557 0.0059483849194627136 0 -0.001422662857608738 0.006421653873680459 0 -0.0019787938704335069 0.0061432592701135729 0 -0.001422662857608738 0.006421653873680459 0 -0.0016285244630268865 0.006577911135199151 0 -0.0019787938704335069 0.0061432592701135729 0 -0.0016859331851997769 0.0056219792506365654 0 -0.0014792142229720557 0.0059483849194627136 0 -0.0010540500058116844 0.0057952177175185256 0 -0.001422662857608738 0.006421653873680459 0 -0.00077018988402474697 0.0059931448175810625 0 -0.0016869015605468186 0.0065317806625960154 0 -0.00068856971228592207 0.0062555270383599327 0 -0.0010540500058116844 0.0057952177175185256 0 -0.0014792142229720557 0.0059483849194627136 0 -0.001422662857608738 0.006421653873680459 0 -0.0018700478093898975 0.0068783107564026969 0 -0.0024233381249443562 0.0067299071235694318 0 -0.0017657443823537236 0.0064564573262590828 0 -0.001422662857608738 0.006421653873680459 0 -0.0018700478093898975 0.0068783107564026969 0 -0.0017657443823537236 0.0064564573262590828 0 -0.0011355884691089985 0.0053862438677336234 0 -0.0010540500058116844 0.0057952177175185256 0 -0.00077990099265142691 0.0056839216345854621 0 -0.0010540500058116844 0.0057952177175185256 0 -0.00077018988402474697 0.0059931448175810625 0 -0.00077990099265142691 0.0056839216345854621 0 -0.0011355884691089985 0.0053862438677336234 0 -0.00077990099265142691 0.0056839216345854621 0 -0.00067848132496965328 0.0054021229692087945 0 -0.011823922764715805 0.0073998597967592583 0 -0.013226194991332861 0.0079406234770325879 0 -0.011854151480129775 0.0087937303731421279 0 -0.00077018988402474697 0.0059931448175810625 0 -0.00077990099265142691 0.0056839216345854621 0 -0.00028226035687589022 0.0057265271283511747 0 -0.0071333959497168293 0.0066166110751958692 0 -0.0046861098900529904 0.0068006613756300821 0 -0.00077990099265142691 0.0056839216345854621 0 -0.00067848132496965328 0.0054021229692087945 0 -0.00028226035687589022 0.0057265271283511747 0 -0.00068856971228592207 0.0062555270383599327 0 -0.0046861098900529904 0.0068006613756300821 0 -0.0018700478093898975 0.0068783107564026969 0 -0.0026886531873895488 0.0072889004067704733 0 -0.0024233381249443562 0.0067299071235694318 0 -0.0024233381249443562 0.0067299071235694318 0 -0.0024986969345449669 0.006244511285313047 0 -0.0017657443823537236 0.0064564573262590828 0 -0.0024986969345449669 0.006244511285313047 0 -0.0015809912722359327 0.0062155791000162615 0 -0.0024532528127084456 0.0057575752056095641 0 -0.0024986969345449669 0.006244511285313047 0 -0.0015809912722359327 0.0062155791000162615 0 -0.0017657443823537236 0.0064564573262590828 0 -0.0015809912722359327 0.0062155791000162615 0 -0.0017657443823537236 0.0064564573262590828 0 -0.0015191108621304187 0.006431533920413535 0 -0.001422662857608738 0.006421653873680459 0 -0.0017657443823537236 0.0064564573262590828 0 -0.0015191108621304187 0.006431533920413535 0 -0.001422662857608738 0.006421653873680459 0 -0.0016285244630268865 0.006577911135199151 0 -0.0015191108621304187 0.006431533920413535 0 -0.0016285244630268865 0.006577911135199151 0 -0.0015019105702426022 0.0065528449919807184 0 -0.0015191108621304187 0.006431533920413535 0 -0.0015019105702426022 0.0065528449919807184 0 -0.0015191108621304187 0.006431533920413535 0 -0.0016546130260174006 0.0062501373250061385 0 -0.0015809912722359327 0.0062155791000162615 0 -0.0015191108621304187 0.006431533920413535 0 -0.0016546130260174006 0.0062501373250061385 0 -0.0015289948830331398 0.0062086318976807076 0 -0.0010499072935429275 0.0058968474680447421 0 -0.00045203200339009268 0.0056019926835178041 0 -0.0009177166685147523 0.0049387506326404786 0 -0.0018745322772108549 0.0052509605087341137 0 -0.0015809912722359327 0.0062155791000162615 0 -0.00045203200339009268 0.0056019926835178041 0 -0.0018745322772108549 0.0052509605087341137 0 -0.0015019105702426022 0.0065528449919807184 0 -0.0016546130260174006 0.0062501373250061385 0 -0.0011183311466753285 0.0062445897591441122 0 -0.0010499072935429275 0.0058968474680447421 0 -0.00029187948956494277 0.0052454387785796624 0 -0.00045203200339009268 0.0056019926835178041 0 0.00044128298705442819 0.0050452369686497921 0 -0.00033546762575297265 0.0045200445728723476 0 -0.00045203200339009268 0.0056019926835178041 0 -0.0009177166685147523 0.0049387506326404786 0 -0.00033546762575297265 0.0045200445728723476 0 -0.0018745322772108549 0.0052509605087341137 0 -0.0023518411181496085 0.0045354728723561505 0 -0.0030629426775142356 0.0051794564715239612 0 -0.0018745322772108549 0.0052509605087341137 0 -0.0024532528127084456 0.0057575752056095641 0 -0.0030629426775142356 0.0051794564715239612 0 -0.0015809912722359327 0.0062155791000162615 0 -0.0018745322772108549 0.0052509605087341137 0 -0.0024532528127084456 0.0057575752056095641 0 0.0011843468744963579 0.0070436918115076678 0 0.00092213968625457551 0.0078745238722313614 0 0.00067538486526715871 0.0072713402638005416 0 0.0019743262094986543 0.0068577204253750489 0 0.0011843468744963579 0.0070436918115076678 0 0.0013465632853492549 0.0064779037633929809 0 0.0019743262094986543 0.0068577204253750489 0 0.0011843468744963579 0.0070436918115076678 0 0.00092213968625457551 0.0078745238722313614 0 -0.0078673079968067522 0.0068777002364957488 0 -0.0073347409906687304 0.0062169932954208784 0 -0.0070489330846797548 0.0060077319196549907 0 -0.0015865674741918816 0.0070281406112111351 0 -0.0033712647665687105 0.0070775311341473614 0 0.0011843468744963579 0.0070436918115076678 0 0.00075864353069355131 0.0066078500029424642 0 0.0013465632853492549 0.0064779037633929809 0 0.0011843468744963579 0.0070436918115076678 0 0.00067538486526715871 0.0072713402638005416 0 0.00075864353069355131 0.0066078500029424642 0 -0.0079716952700096561 0.0060626284661280134 0 -0.0073347409906687304 0.0062169932954208784 0 -0.0075000786812824604 0.0057427092883011923 0 -0.0073347409906687304 0.0062169932954208784 0 -0.0075000786812824604 0.0057427092883011923 0 -0.0070489330846797548 0.0060077319196549907 0 -0.0071790072171238175 0.0052988596859359412 0 -0.0075000786812824604 0.0057427092883011923 0 -0.0070489330846797548 0.0060077319196549907 0 0.00092213968625457551 0.0078745238722313614 0 0.00031250135611336218 0.0076230043273284144 0 0.00067538486526715871 0.0072713402638005416 0 -0.00032120768012969622 0.0090186540720181667 0 0.00092213968625457551 0.0078745238722313614 0 4.7192771907688625e-05 0.0081324738149503584 0 0.00092213968625457551 0.0078745238722313614 0 4.7192771907688625e-05 0.0081324738149503584 0 0.00031250135611336218 0.0076230043273284144 0 4.7192771907688625e-05 0.0081324738149503584 0 0.00031250135611336218 0.0076230043273284144 0 -0.00024363625644021808 0.0076556842822583021 0 0.00031250135611336218 0.0076230043273284144 0 8.5438439188293335e-05 0.0071057874477355567 0 -0.00024363625644021808 0.0076556842822583021 0 8.5438439188293335e-05 0.0071057874477355567 0 -0.00020284693717942265 0.0063870305510390314 0 0.00075864353069355131 0.0066078500029424642 0 0.00031250135611336218 0.0076230043273284144 0 8.5438439188293335e-05 0.0071057874477355567 0 0.00067538486526715871 0.0072713402638005416 0 8.5438439188293335e-05 0.0071057874477355567 0 0.00067538486526715871 0.0072713402638005416 0 0.00075864353069355131 0.0066078500029424642 0 8.5438439188293335e-05 0.0071057874477355567 0 -0.001301471876318899 0.0068470076195085144 0 -0.00020284693717942265 0.0063870305510390314 0 8.5438439188293335e-05 0.0071057874477355567 0 -0.00024363625644021808 0.0076556842822583021 0 -0.001301471876318899 0.0068470076195085144 0 -0.00024363625644021808 0.0076556842822583021 0 -0.00077041521808729311 0.0080327117112582828 0 -0.001301471876318899 0.0068470076195085144 0 -0.001426203193008342 0.0074916357378696039 0 -0.0014594334616557559 0.0067835840506548532 0 4.7192771907688625e-05 0.0081324738149503584 0 -0.00024363625644021808 0.0076556842822583021 0 -0.00077041521808729311 0.0080327117112582828 0 -0.0025948353247053275 0.0062959674394868102 0 -0.0023134349368782166 0.0065889274068484721 0 -0.0020125824265923471 0.0064594135749558006 0 -0.0023134349368782166 0.0065889274068484721 0 -0.0020125824265923471 0.0064594135749558006 0 -0.001301471876318899 0.0068470076195085144 0 -0.0019787938704335069 0.0061432592701135729 0 -0.0016285244630268865 0.006577911135199151 0 -0.0020125824265923471 0.0064594135749558006 0 -0.0016285244630268865 0.006577911135199151 0 -0.0020125824265923471 0.0064594135749558006 0 -0.001301471876318899 0.0068470076195085144 0 -0.0016285244630268865 0.006577911135199151 0 -0.0015019105702426022 0.0065528449919807184 0 -0.001301471876318899 0.0068470076195085144 0 -0.0015019105702426022 0.0065528449919807184 0 -0.001301471876318899 0.0068470076195085144 0 -0.0011183311466753285 0.0062445897591441122 0 -0.0011183311466753285 0.0062445897591441122 0 -0.0010818911792654668 0.0054386686166584533 0 -0.00030336137863199282 0.0057631629104822188 0 -0.0016546130260174006 0.0062501373250061385 0 -0.0011183311466753285 0.0062445897591441122 0 -0.0010818911792654668 0.0054386686166584533 0 -0.00030336137863199282 0.0057631629104822188 0 -0.00020284693717942265 0.0063870305510390314 0 0.00069214769310838671 0.0055960996600737129 0 -0.0011183311466753285 0.0062445897591441122 0 -0.00030336137863199282 0.0057631629104822188 0 -0.00020284693717942265 0.0063870305510390314 0 -0.001301471876318899 0.0068470076195085144 0 -0.0011183311466753285 0.0062445897591441122 0 -0.00020284693717942265 0.0063870305510390314 0 0.00075864353069355131 0.0066078500029424642 0 0.00069214769310838671 0.0055960996600737129 0 0.0011400583382380797 0.0061080062834203462 0 -0.00020284693717942265 0.0063870305510390314 0 0.00075864353069355131 0.0066078500029424642 0 0.00069214769310838671 0.0055960996600737129 0 0.0016428294818590311 0.0058091831571458552 0 0.00069214769310838671 0.0055960996600737129 0 0.0011400583382380797 0.0061080062834203462 0 0.0016428294818590311 0.0058091831571458552 0 0.00069214769310838671 0.0055960996600737129 0 0.0015166880491798776 0.0048633748041566503 0 0.0016428294818590311 0.0058091831571458552 0 0.0011400583382380797 0.0061080062834203462 0 0.0013465632853492549 0.0064779037633929809 0 0.00075864353069355131 0.0066078500029424642 0 0.0011400583382380797 0.0061080062834203462 0 0.0013465632853492549 0.0064779037633929809 0 0.0022934464049432189 0.0050047688024788158 0 0.0020756495298009047 0.0040852790965723567 0 0.0038068195371999364 0.0044408508269561638 0 0.0032293210840029624 0.0053758100145077673 0 0.0020750267984861984 0.0040696700537067969 0 0.0015166880491798776 0.0048633748041566503 0 0.0012146251704237357 0.0045690342286258141 0 0.0020750267984861984 0.0040696700537067969 0 0.0031827833222919837 0.0060232614677789825 0 0.0022934464049432189 0.0050047688024788158 0 0.00069214769310838671 0.0055960996600737129 0 0.0015166880491798776 0.0048633748041566503 0 0.0012146251704237357 0.0045690342286258141 0 0.00069214769310838671 0.0055960996600737129 0 0.0012146251704237357 0.0045690342286258141 0 0.00016628613343111129 0.0046033312350110553 0 0.00076842374706603996 0.0046177972344639004 0 0.002231864906430086 0.0040569939597646723 0 0.0013561856763160008 0.0045806891275238393 0 0.0018946328939170498 0.0039959235115963219 0 0.002496687180020613 0.0040546719511063822 0 0.0012146251704237357 0.0045690342286258141 0 0.00016628613343111129 0.0046033312350110553 0 0.001932944557095109 0.0040422572118251543 0 0.0012146251704237357 0.0045690342286258141 0 0.001932944557095109 0.0040422572118251543 0 0.0020750267984861984 0.0040696700537067969 0 0.0013561856763160008 0.0045806891275238393 0 0.0013804054414881719 0.003864825449111885 0 0.0018946328939170498 0.0039959235115963219 0 0.0013561856763160008 0.0045806891275238393 0 0.00071586550300653637 0.0039179675744359854 0 0.0013804054414881719 0.003864825449111885 0 -0.00029187948956494277 0.0052454387785796624 0 0.00076842374706603996 0.0046177972344639004 0 -0.0010818911792654668 0.0054386686166584533 0 -0.00030336137863199282 0.0057631629104822188 0 0.00016628613343111129 0.0046033312350110553 0 -0.00030336137863199282 0.0057631629104822188 0 0.00069214769310838671 0.0055960996600737129 0 0.00016628613343111129 0.0046033312350110553 0 0.00044128298705442819 0.0050452369686497921 0 0.0013561856763160008 0.0045806891275238393 0 0.0002439222227553222 0.0042758735010804683 0 0.00071586550300653637 0.0039179675744359854 0 0.0002439222227553222 0.0042758735010804683 0 2.5881213146350133e-05 0.0037039348726252141 0 0.0013561856763160008 0.0045806891275238393 0 0.00071586550300653637 0.0039179675744359854 0 0.0002439222227553222 0.0042758735010804683 0 0.00071586550300653637 0.0039179675744359854 0 0.00049829678222412777 0.0035313805674883122 0 2.5881213146350133e-05 0.0037039348726252141 0 0.00071586550300653637 0.0039179675744359854 0 0.00095820662396228415 0.0035529972701307819 0 0.00049829678222412777 0.0035313805674883122 0 0.00095820662396228415 0.0035529972701307819 0 0.00049829678222412777 0.0035313805674883122 0 0.00067659870061490739 0.0032185754398840827 0 0.00049829678222412777 0.0035313805674883122 0 0.00067659870061490739 0.0032185754398840827 0 0.0002055100001288113 0.0031440063566842459 0 0.00055090001171682608 0.0029051106321628709 0 0.00067659870061490739 0.0032185754398840827 0 0.0002055100001288113 0.0031440063566842459 0 0.00055090001171682608 0.0029051106321628709 0 0.00030596522838633182 0.0028344787515493706 0 0.0002055100001288113 0.0031440063566842459 0 0.00055090001171682608 0.0029051106321628709 0 0.00080286447609533159 0.0026752921393856256 0 0.00046969115845447876 0.0026105174628987967 0 0.00055090001171682608 0.0029051106321628709 0 0.00030596522838633182 0.0028344787515493706 0 0.00046969115845447876 0.0026105174628987967 0 0.00080286447609533159 0.0026752921393856256 0 0.00084908112651492669 0.0029801000302782875 0 0.0011649029613557545 0.0028824551368655262 0 0.00055090001171682608 0.0029051106321628709 0 0.00080286447609533159 0.0026752921393856256 0 0.00084908112651492669 0.0029801000302782875 0 0.00055090001171682608 0.0029051106321628709 0 0.00084908112651492669 0.0029801000302782875 0 0.00067659870061490739 0.0032185754398840827 0 0.00095820662396228415 0.0035529972701307819 0 0.00067659870061490739 0.0032185754398840827 0 0.0010642932752475715 0.003209455446763832 0 0.00084908112651492669 0.0029801000302782875 0 0.00067659870061490739 0.0032185754398840827 0 0.0010642932752475715 0.003209455446763832 0 0.00095820662396228415 0.0035529972701307819 0 0.0010642932752475715 0.003209455446763832 0 0.0013874099870818805 0.0034402178961245814 0 0.0013370050446104094 0.0031574902538436941 0 0.0010642932752475715 0.003209455446763832 0 0.0013874099870818805 0.0034402178961245814 0 0.0013370050446104094 0.0031574902538436941 0 0.0010642932752475715 0.003209455446763832 0 0.0011649029613557545 0.0028824551368655262 0 0.0011649029613557545 0.0028824551368655262 0 0.0015613992244471514 0.002639780990480936 0 0.0011148485338764661 0.0025235927542157453 0 0.00084908112651492669 0.0029801000302782875 0 0.0010642932752475715 0.003209455446763832 0 0.0011649029613557545 0.0028824551368655262 0 0.0013370050446104094 0.0031574902538436941 0 0.0011649029613557545 0.0028824551368655262 0 0.0015215847843295972 0.0029848601801650432 0 0.00080286447609533159 0.0026752921393856256 0 0.0011649029613557545 0.0028824551368655262 0 0.0011148485338764661 0.0025235927542157453 0 0.0018431531117463376 0.0029818335327563708 0 0.0020260907191253 0.0026985593452555604 0 0.0015613992244471514 0.002639780990480936 0 0.0015215847843295972 0.0029848601801650432 0 0.0018431531117463376 0.0029818335327563708 0 0.0015613992244471514 0.002639780990480936 0 0.0011649029613557545 0.0028824551368655262 0 0.0015215847843295972 0.0029848601801650432 0 0.0015613992244471514 0.002639780990480936 0 0.0015215847843295972 0.0029848601801650432 0 0.001673043121240529 0.0032320530176154832 0 0.0018431531117463376 0.0029818335327563708 0 0.001673043121240529 0.0032320530176154832 0 0.0013874099870818805 0.0034402178961245814 0 0.0019507720130915876 0.003569653021494324 0 0.0013370050446104094 0.0031574902538436941 0 0.0015215847843295972 0.0029848601801650432 0 0.001673043121240529 0.0032320530176154832 0 0.0013370050446104094 0.0031574902538436941 0 0.001673043121240529 0.0032320530176154832 0 0.0013874099870818805 0.0034402178961245814 0 0.0013874099870818805 0.0034402178961245814 0 0.0013804054414881719 0.003864825449111885 0 0.0019507720130915876 0.003569653021494324 0 0.00095820662396228415 0.0035529972701307819 0 0.0013874099870818805 0.0034402178961245814 0 0.0013804054414881719 0.003864825449111885 0 0.00071586550300653637 0.0039179675744359854 0 0.00095820662396228415 0.0035529972701307819 0 0.0013804054414881719 0.003864825449111885 0 0.0013804054414881719 0.003864825449111885 0 0.0018946328939170498 0.0039959235115963219 0 0.0019507720130915876 0.003569653021494324 0 0.0018946328939170498 0.0039959235115963219 0 0.002496687180020613 0.0040546719511063822 0 0.0021813853833593713 0.003808919067480545 0 0.002496687180020613 0.0040546719511063822 0 0.0023873451466291063 0.0036073531777310671 0 0.0029278473550095629 0.0034385960692963303 0 0.002496687180020613 0.0040546719511063822 0 0.0023873451466291063 0.0036073531777310671 0 0.0021813853833593713 0.003808919067480545 0 0.0023873451466291063 0.0036073531777310671 0 0.0019507720130915876 0.003569653021494324 0 0.0022226849685561007 0.0034057486763140483 0 0.0023873451466291063 0.0036073531777310671 0 0.0021813853833593713 0.003808919067480545 0 0.0019507720130915876 0.003569653021494324 0 0.0018946328939170498 0.0039959235115963219 0 0.0021813853833593713 0.003808919067480545 0 0.0019507720130915876 0.003569653021494324 0 0.001673043121240529 0.0032320530176154832 0 0.0019507720130915876 0.003569653021494324 0 0.002042749256793536 0.0032237965792783797 0 0.0019507720130915876 0.003569653021494324 0 0.0022226849685561007 0.0034057486763140483 0 0.002042749256793536 0.0032237965792783797 0 0.001673043121240529 0.0032320530176154832 0 0.002042749256793536 0.0032237965792783797 0 0.0018431531117463376 0.0029818335327563708 0 0.002042749256793536 0.0032237965792783797 0 0.0018431531117463376 0.0029818335327563708 0 0.0022602166734432697 0.0029633904718879239 0 0.0018431531117463376 0.0029818335327563708 0 0.0022602166734432697 0.0029633904718879239 0 0.0020260907191253 0.0026985593452555604 0 0.0022602166734432697 0.0029633904718879239 0 0.0026401385413446356 0.0026907206851940592 0 0.0020260907191253 0.0026985593452555604 0 0.0022602166734432697 0.0029633904718879239 0 0.0025156477215756375 0.0032160017536541096 0 0.0026401385413446356 0.0026907206851940592 0 0.0023873451466291063 0.0036073531777310671 0 0.0025156477215756375 0.0032160017536541096 0 0.0029278473550095629 0.0034385960692963303 0 0.002042749256793536 0.0032237965792783797 0 0.0022602166734432697 0.0029633904718879239 0 0.0025156477215756375 0.0032160017536541096 0 0.0023873451466291063 0.0036073531777310671 0 0.0022226849685561007 0.0034057486763140483 0 0.0025156477215756375 0.0032160017536541096 0 0.0022226849685561007 0.0034057486763140483 0 0.002042749256793536 0.0032237965792783797 0 0.0025156477215756375 0.0032160017536541096 0 0.0025156477215756375 0.0032160017536541096 0 0.0032335942008470484 0.002925020040636024 0 0.0026401385413446356 0.0026907206851940592 0 0.0025156477215756375 0.0032160017536541096 0 0.0029278473550095629 0.0034385960692963303 0 0.0032335942008470484 0.002925020040636024 0 0.0039089945987117814 0.0033766487335653494 0 0.0029278473550095629 0.0034385960692963303 0 0.0032335942008470484 0.002925020040636024 0 0.0039089945987117814 0.0033766487335653494 0 0.002496687180020613 0.0040546719511063822 0 0.0029278473550095629 0.0034385960692963303 0 0.0038068195371999364 0.0044408508269561638 0 0.0039089945987117814 0.0033766487335653494 0 0.0020750267984861984 0.0040696700537067969 0 0.0039089945987117814 0.0033766487335653494 0 0.001932944557095109 0.0040422572118251543 0 0.0020750267984861984 0.0040696700537067969 0 0.0037448447939767765 0.0033664261734935685 0 0.002231864906430086 0.0040569939597646723 0 -0.0011056614754553955 0.0041645637869439237 0 -0.00056891330218229686 0.0039197385615940992 0 -0.00083648047213239287 0.0038353244359364907 0 -0.00072397732995659145 0.0038226926204737838 0 -0.0011056614754553955 0.0041645637869439237 0 -0.00083648047213239287 0.0038353244359364907 0 -0.001481155855624382 0.0038060442300238422 0 -0.0010746499743542364 0.0041358297933261571 0 -0.0022202012952692936 0.0037279861199237311 0 -0.0023518411181496085 0.0045354728723561505 0 -0.0011056614754553955 0.0041645637869439237 0 -0.0022202012952692936 0.0037279861199237311 0 -0.0023518411181496085 0.0045354728723561505 0 -0.0027920216635179082 0.0039989177624010332 0 -0.0018745322772108549 0.0052509605087341137 0 -0.0023518411181496085 0.0045354728723561505 0 -0.0011056614754553955 0.0041645637869439237 0 -0.0009177166685147523 0.0049387506326404786 0 -0.0018745322772108549 0.0052509605087341137 0 -0.0011056614754553955 0.0041645637869439237 0 -0.0009177166685147523 0.0049387506326404786 0 -0.0011056614754553955 0.0041645637869439237 0 -0.00033546762575297265 0.0045200445728723476 0 0.00044128298705442819 0.0050452369686497921 0 -0.00033546762575297265 0.0045200445728723476 0 0.0002439222227553222 0.0042758735010804683 0 0.0002439222227553222 0.0042758735010804683 0 -0.00056891330218229686 0.0039197385615940992 0 2.5881213146350133e-05 0.0037039348726252141 0 -0.00033546762575297265 0.0045200445728723476 0 0.0002439222227553222 0.0042758735010804683 0 -0.00056891330218229686 0.0039197385615940992 0 -0.0011056614754553955 0.0041645637869439237 0 -0.00033546762575297265 0.0045200445728723476 0 -0.00056891330218229686 0.0039197385615940992 0 -0.00056891330218229686 0.0039197385615940992 0 -0.00044919732458491009 0.0036503263986690294 0 2.5881213146350133e-05 0.0037039348726252141 0 -0.00056891330218229686 0.0039197385615940992 0 -0.00044919732458491009 0.0036503263986690294 0 -0.00072237075436742233 0.0035691916053769571 0 -0.00056891330218229686 0.0039197385615940992 0 -0.00072237075436742233 0.0035691916053769571 0 -0.00083648047213239287 0.0038353244359364907 0 -0.00044919732458491009 0.0036503263986690294 0 2.5881213146350133e-05 0.0037039348726252141 0 -0.00019276291740684149 0.003276819085626579 0 0.00049829678222412777 0.0035313805674883122 0 2.5881213146350133e-05 0.0037039348726252141 0 0.0002055100001288113 0.0031440063566842459 0 2.5881213146350133e-05 0.0037039348726252141 0 0.0002055100001288113 0.0031440063566842459 0 -0.00019276291740684149 0.003276819085626579 0 0.0002055100001288113 0.0031440063566842459 0 -0.00019276291740684149 0.003276819085626579 0 -0.00014732747054385978 0.0029303241938240764 0 -0.00019276291740684149 0.003276819085626579 0 -0.00014732747054385978 0.0029303241938240764 0 -0.00056301726548848338 0.002912288488541837 0 -0.00014732747054385978 0.0029303241938240764 0 -0.00056301726548848338 0.002912288488541837 0 -0.00021022924388918785 0.0026247020921947935 0 -0.00014732747054385978 0.0029303241938240764 0 5.1861476390982947e-05 0.0026874019773293397 0 -0.00021022924388918785 0.0026247020921947935 0 0.0002055100001288113 0.0031440063566842459 0 -0.00014732747054385978 0.0029303241938240764 0 5.1861476390982947e-05 0.0026874019773293397 0 0.00030596522838633182 0.0028344787515493706 0 0.0002055100001288113 0.0031440063566842459 0 5.1861476390982947e-05 0.0026874019773293397 0 -0.00044919732458491009 0.0036503263986690294 0 -0.00072237075436742233 0.0035691916053769571 0 -0.00056301726548848338 0.002912288488541837 0 -0.00044919732458491009 0.0036503263986690294 0 -0.00019276291740684149 0.003276819085626579 0 -0.00056301726548848338 0.002912288488541837 0 -0.00072237075436742233 0.0035691916053769571 0 -0.00077819785388387279 0.003737402970080217 0 -0.00066435989369852534 0.0037903941340771343 0 -0.0007087674411001755 0.0034908149865812903 0 -0.00069050788380830685 0.0033908922635548875 0 -0.00030693511995464468 0.0036686970603073171 0 6.6193308254296039e-06 0.0036148570176774935 0 -0.00072237075436742233 0.0035691916053769571 0 -0.00037601168804899136 0.0036813401276589953 0 -0.00066435989369852534 0.0037903941340771343 0 -0.00072237075436742233 0.0035691916053769571 0 -0.00083648047213239287 0.0038353244359364907 0 -0.00062301009900898961 0.0037680536085636885 0 -0.00072237075436742233 0.0035691916053769571 0 -0.00062301009900898961 0.0037680536085636885 0 -0.00037601168804899136 0.0036813401276589953 0 -0.00072397732995659145 0.0038226926204737838 0 -0.00083648047213239287 0.0038353244359364907 0 -0.00062301009900898961 0.0037680536085636885 0 -0.00072397732995659145 0.0038226926204737838 0 -0.00062301009900898961 0.0037680536085636885 0 -0.00069964939802120464 0.0037762030802165909 0 -0.00062301009900898961 0.0037680536085636885 0 -0.00064334693229136058 0.0037006329752913136 0 -0.00069964939802120464 0.0037762030802165909 0 -0.00062301009900898961 0.0037680536085636885 0 -0.00037601168804899136 0.0036813401276589953 0 -0.00064334693229136058 0.0037006329752913136 0 -0.00037601168804899136 0.0036813401276589953 0 -0.00064334693229136058 0.0037006329752913136 0 -0.00043057297416788622 0.0033670780522034854 0 -0.00064334693229136058 0.0037006329752913136 0 -0.00077246477412262456 0.0035670979786348151 0 -0.00043057297416788622 0.0033670780522034854 0 -0.00077246477412262456 0.0035670979786348151 0 -0.00086318167018707747 0.003396221573370255 0 -0.00043057297416788622 0.0033670780522034854 0 -0.00064334693229136058 0.0037006329752913136 0 -0.00080724201117819585 0.0036596101413520509 0 -0.00075514194279836398 0.003743814690646136 0 -0.00064334693229136058 0.0037006329752913136 0 -0.00080724201117819585 0.0036596101413520509 0 -0.00077246477412262456 0.0035670979786348151 0 -0.00080724201117819585 0.0036596101413520509 0 -0.00077246477412262456 0.0035670979786348151 0 -0.00088138018509370866 0.0035791976761946121 0 -0.00077246477412262456 0.0035670979786348151 0 -0.00088138018509370866 0.0035791976761946121 0 -0.00086318167018707747 0.003396221573370255 0 -0.00029823505059027036 0.0028172737851618087 0 -0.00025100059831573862 0.0027464863216897072 0 -0.00024854940798340821 0.0027656323066611635 0 -0.00028063674912555208 0.0028275078407234431 0 -0.00029823505059027036 0.0028172737851618087 0 -0.00024854940798340821 0.0027656323066611635 0 0.0011910123129869011 0.0031743250639733708 0 -0.00081142354905753276 0.0027445029089693137 0 -0.0002923214130153331 0.0037482961645071014 0 -0.00055966805889241323 0.0030307175524331483 0 -0.00088138018509370866 0.0035791976761946121 0 -0.0010805147986376815 0.0037251970521492649 0 -0.00086318167018707747 0.003396221573370255 0 -0.00038586920775220091 0.0028159549785338736 0 -0.00034191195966682433 0.0027534733696417055 0 -0.00025100059831573862 0.0027464863216897072 0 -0.00088138018509370866 0.0035791976761946121 0 -0.00090713919029026624 0.0036683860231961174 0 -0.0010805147986376815 0.0037251970521492649 0 -0.00080724201117819585 0.0036596101413520509 0 -0.00088138018509370866 0.0035791976761946121 0 -0.00090713919029026624 0.0036683860231961174 0 -0.00080724201117819585 0.0036596101413520509 0 -0.00090713919029026624 0.0036683860231961174 0 -0.00085849588600556332 0.0037418282738342396 0 -0.00085849588600556332 0.0037418282738342396 0 -0.0010805147986376815 0.0037251970521492649 0 -0.00082696716014957965 0.0038272808365967938 0 -0.00090713919029026624 0.0036683860231961174 0 -0.00085849588600556332 0.0037418282738342396 0 -0.0010805147986376815 0.0037251970521492649 0 -0.0018084465911854897 0.0036584394698613181 0 -0.0028135450354465023 0.0038383695826944633 0 -0.0012677484609399257 0.0038947913354441363 0 -0.0015075617457078402 0.003763217647229586 0 -0.0011886114615499996 0.0036384110729628639 0 -0.0002923214130153331 0.0037482961645071014 0 -0.0018084465911854897 0.0036584394698613181 0 -0.00072397732995659145 0.0038226926204737838 0 -0.00078709567159186407 0.0038081182263665532 0 -0.00078060488111538298 0.0038052723487463575 0 -0.00072397732995659145 0.0038226926204737838 0 -0.00069964939802120464 0.0037762030802165909 0 -0.00078060488111538298 0.0038052723487463575 0 -0.001481155855624382 0.0038060442300238422 0 -0.0018084465911854897 0.0036584394698613181 0 -0.0018084465911854897 0.0036584394698613181 0 -0.0016627082357073 0.0036248459053119324 0 -0.00064334693229136058 0.0037006329752913136 0 -0.00069964939802120464 0.0037762030802165909 0 -0.00075514194279836398 0.003743814690646136 0 -0.00069964939802120464 0.0037762030802165909 0 -0.00075514194279836398 0.003743814690646136 0 -0.00078060488111538298 0.0038052723487463575 0 -0.00080724201117819585 0.0036596101413520509 0 -0.00085849588600556332 0.0037418282738342396 0 -0.00075514194279836398 0.003743814690646136 0 -0.00085849588600556332 0.0037418282738342396 0 -0.00082696716014957965 0.0038272808365967938 0 -0.00078060488111538298 0.0038052723487463575 0 -0.00085849588600556332 0.0037418282738342396 0 -0.00075514194279836398 0.003743814690646136 0 -0.00078060488111538298 0.0038052723487463575 0 0.0039764440153396514 0.0029025061924833739 0 0.0038683397798895385 0.0028885563514594093 0 0.0038294477155544019 0.0027556238301047384 0 0.0039607424592893485 0.0029443919205536925 0 0.0039546623323651608 0.0029985915795953532 0 0.0040609238152671933 0.0029488235876194259 0 0.0039005135386160571 0.0029390316978154473 0 0.0038801547495096928 0.0030114683638496806 0 0.0038109031795111972 0.0030017629785282465 0 0.0039005135386160571 0.0029390316978154473 0 0.0039546623323651608 0.0029985915795953532 0 0.0038801547495096928 0.0030114683638496806 0 0.0039005135386160571 0.0029390316978154473 0 0.0039607424592893485 0.0029443919205536925 0 0.0039546623323651608 0.0029985915795953532 0 0.0039005135386160571 0.0029390316978154473 0 0.0039764440153396514 0.0029025061924833739 0 0.0038683397798895385 0.0028885563514594093 0 0.0031086864355369575 0.0027505110118737322 0 0.0033520194739860296 0.0027098626741532852 0 0.0039005135386160571 0.0029390316978154473 0 0.0039764440153396514 0.0029025061924833739 0 0.0039607424592893485 0.0029443919205536925 0 0.0031086864355369575 0.0027505110118737322 0 0.0011910123129869011 0.0031743250639733708 0 0.003974711787032229 0.0029097093720268584 0 0.0039607424592893485 0.0029443919205536925 0 0.0040609238152671933 0.0029488235876194259 0 -0.00042880722427502766 0.0027824769248216779 0 -0.00038586920775220091 0.0028159549785338736 0 -0.00039421775747600703 0.0027552240493693525 0 -0.00038586920775220091 0.0028159549785338736 0 -0.00039421775747600703 0.0027552240493693525 0 -0.00034191195966682433 0.0027534733696417055 0 -0.0002923214130153331 0.0037482961645071014 0 0.0011910123129869011 0.0031743250639733708 0 0.0020940992742559043 0.0044808727688824988 0 0.0022393662725614973 0.0040468385834058927 0 0.0026809107560315341 0.0040722000731757343 0 0.001877968421185787 0.0043638337221042229 0 0.0020940992742559043 0.0044808727688824988 0 0.0022393662725614973 0.0040468385834058927 0 -0.0012677484609399257 0.0038947913354441363 0 -0.0010697193055129858 0.0037035809025145359 0 -0.0011886114615499996 0.0036384110729628639 0 -0.0002923214130153331 0.0037482961645071014 0 0.00078133256158812868 0.0037069276444098172 0 0.0039546623323651608 0.0029985915795953532 0 0.0040609238152671933 0.0029488235876194259 0 0.0039479595937614133 0.0031607168446043635 0 0.0011910123129869011 0.0031743250639733708 0 0.0036298482705992845 0.0036061721632328729 0 0.0039479595937614133 0.0031607168446043635 0 0.0038801547495096928 0.0030114683638496806 0 0.0038300457065739554 0.0030571927604229774 0 0.0039546623323651608 0.0029985915795953532 0 0.0039479595937614133 0.0031607168446043635 0 0.0038801547495096928 0.0030114683638496806 0 0.0026809107560315341 0.0040722000731757343 0 0.0025800397810065352 0.0037902508017346069 0 0.0030144419039180173 0.0036972944284380826 0 0.0022393662725614973 0.0040468385834058927 0 0.0026809107560315341 0.0040722000731757343 0 0.0025800397810065352 0.0037902508017346069 0 -0.0043415657174206423 0.0042573564420736046 0 -0.0042794186894149358 0.0045677441322968491 0 -0.0044975324182688998 0.0045301037367913412 0 0.00078133256158812868 0.0037069276444098172 0 -0.0010074455083363431 0.0037322863127225107 0 -0.0010074455083363431 0.0037322863127225107 0 -0.0028135450354465023 0.0038383695826944633 0 -0.0010697193055129858 0.0037035809025145359 0 -0.00087324331576237642 0.0035221601673118604 0 -0.0011886114615499996 0.0036384110729628639 0 -0.0037239740824166916 0.0038432866963542703 0 -0.0040072555160155648 0.004608663087758094 0 -0.0035549680624155397 0.0046389621168730927 0 -0.0043415657174206423 0.0042573564420736046 0 -0.0037239740824166916 0.0038432866963542703 0 -0.0040072555160155648 0.004608663087758094 0 -0.0040072555160155648 0.004608663087758094 0 -0.0035549680624155397 0.0046389621168730927 0 -0.0038918519271004741 0.0051619854294645386 0 -0.0040072555160155648 0.004608663087758094 0 -0.0038918519271004741 0.0051619854294645386 0 -0.004383154446451416 0.0050797214013084575 0 -0.0043415657174206423 0.0042573564420736046 0 -0.0040072555160155648 0.004608663087758094 0 -0.0042794186894149358 0.0045677441322968491 0 -0.0040072555160155648 0.004608663087758094 0 -0.0042794186894149358 0.0045677441322968491 0 -0.004383154446451416 0.0050797214013084575 0 -0.0042794186894149358 0.0045677441322968491 0 -0.0045296688596289866 0.0046689628071210137 0 -0.004383154446451416 0.0050797214013084575 0 -0.0045296688596289866 0.0046689628071210137 0 -0.004383154446451416 0.0050797214013084575 0 -0.0046380590958183072 0.0047637260670347677 0 -0.0042794186894149358 0.0045677441322968491 0 -0.0045296688596289866 0.0046689628071210137 0 -0.0044975324182688998 0.0045301037367913412 0 -0.003030753097994584 0.0034378727172955873 0 -0.0027920216635179082 0.0039989177624010332 0 -0.0032367152113734932 0.0040839068159281974 0 -0.0022202012952692936 0.0037279861199237311 0 -0.003030753097994584 0.0034378727172955873 0 -0.0027920216635179082 0.0039989177624010332 0 -0.0027920216635179082 0.0039989177624010332 0 -0.0032367152113734932 0.0040839068159281974 0 -0.0030205697702162808 0.0044584859447227686 0 -0.0037239740824166916 0.0038432866963542703 0 -0.0032367152113734932 0.0040839068159281974 0 -0.0035549680624155397 0.0046389621168730927 0 -0.003030753097994584 0.0034378727172955873 0 -0.0037239740824166916 0.0038432866963542703 0 -0.0032367152113734932 0.0040839068159281974 0 -0.0035549680624155397 0.0046389621168730927 0 -0.0030205697702162808 0.0044584859447227686 0 -0.0030629426775142356 0.0051794564715239612 0 -0.0032367152113734932 0.0040839068159281974 0 -0.0035549680624155397 0.0046389621168730927 0 -0.0030205697702162808 0.0044584859447227686 0 -0.0023518411181496085 0.0045354728723561505 0 -0.0027920216635179082 0.0039989177624010332 0 -0.0030205697702162808 0.0044584859447227686 0 -0.0023518411181496085 0.0045354728723561505 0 -0.0030205697702162808 0.0044584859447227686 0 -0.0030629426775142356 0.0051794564715239612 0 -0.0024532528127084456 0.0057575752056095641 0 -0.0030629426775142356 0.0051794564715239612 0 -0.003260307012663739 0.0058374640845228042 0 -0.0030629426775142356 0.0051794564715239612 0 -0.0036280715296467627 0.0054787821460234925 0 -0.003260307012663739 0.0058374640845228042 0 -0.0030629426775142356 0.0051794564715239612 0 -0.0036280715296467627 0.0054787821460234925 0 -0.0038918519271004741 0.0051619854294645386 0 -0.0035549680624155397 0.0046389621168730927 0 -0.0030629426775142356 0.0051794564715239612 0 -0.0038918519271004741 0.0051619854294645386 0 -0.0038918519271004741 0.0051619854294645386 0 -0.004383154446451416 0.0050797214013084575 0 -0.0043368984183769716 0.0053993236832858013 0 -0.004383154446451416 0.0050797214013084575 0 -0.0043368984183769716 0.0053993236832858013 0 -0.0044924940648497424 0.0054266537273450783 0 -0.0043368984183769716 0.0053993236832858013 0 -0.0044731466132921088 0.0055281388657346751 0 -0.0044924940648497424 0.0054266537273450783 0 -0.0043368984183769716 0.0053993236832858013 0 -0.0044379327190858771 0.0055883258674390233 0 -0.0044731466132921088 0.0055281388657346751 0 -0.0043368984183769716 0.0053993236832858013 0 -0.0044379327190858771 0.0055883258674390233 0 -0.0041383816172187674 0.0055670224810093162 0 -0.0038918519271004741 0.0051619854294645386 0 -0.0043368984183769716 0.0053993236832858013 0 -0.0041383816172187674 0.0055670224810093162 0 -0.0036280715296467627 0.0054787821460234925 0 -0.0038918519271004741 0.0051619854294645386 0 -0.0041383816172187674 0.0055670224810093162 0 -0.0036280715296467627 0.0054787821460234925 0 -0.0041383816172187674 0.0055670224810093162 0 -0.0041088150988281835 0.0058323747436551509 0 -0.0041383816172187674 0.0055670224810093162 0 -0.0041088150988281835 0.0058323747436551509 0 -0.0043975768883661136 0.0056968084735678839 0 -0.0041088150988281835 0.0058323747436551509 0 -0.0043975768883661136 0.0056968084735678839 0 -0.0045959105586966462 0.0058123852009196522 0 -0.0044379327190858771 0.0055883258674390233 0 -0.0043975768883661136 0.0056968084735678839 0 -0.0045642086618713027 0.0056931147269457007 0 -0.0044379327190858771 0.0055883258674390233 0 -0.0041383816172187674 0.0055670224810093162 0 -0.0043975768883661136 0.0056968084735678839 0 -0.0043975768883661136 0.0056968084735678839 0 -0.0045959105586966462 0.0058123852009196522 0 -0.0045642086618713027 0.0056931147269457007 0 -0.0045959105586966462 0.0058123852009196522 0 -0.0047149154863555037 0.0057366758499823216 0 -0.0045642086618713027 0.0056931147269457007 0 -0.0045959105586966462 0.0058123852009196522 0 -0.0048283352894744553 0.0059046956836271433 0 -0.004435442795409715 0.0060648498123098389 0 -0.0045959105586966462 0.0058123852009196522 0 -0.0048283352894744553 0.0059046956836271433 0 -0.0047149154863555037 0.0057366758499823216 0 -0.0041088150988281835 0.0058323747436551509 0 -0.0045959105586966462 0.0058123852009196522 0 -0.004435442795409715 0.0060648498123098389 0 -0.0037214028595632782 0.006468542453698739 0 -0.0041088150988281835 0.0058323747436551509 0 -0.004435442795409715 0.0060648498123098389 0 -0.0037214028595632782 0.006468542453698739 0 -0.0041088150988281835 0.0058323747436551509 0 -0.003260307012663739 0.0058374640845228042 0 -0.0037214028595632782 0.006468542453698739 0 -0.0024986969345449669 0.006244511285313047 0 -0.003260307012663739 0.0058374640845228042 0 -0.0037214028595632782 0.006468542453698739 0 -0.0024233381249443562 0.0067299071235694318 0 -0.0024986969345449669 0.006244511285313047 0 -0.0024986969345449669 0.006244511285313047 0 -0.0024532528127084456 0.0057575752056095641 0 -0.003260307012663739 0.0058374640845228042 0 -0.0036280715296467627 0.0054787821460234925 0 -0.0041088150988281835 0.0058323747436551509 0 -0.003260307012663739 0.0058374640845228042 0 -0.0043594439515789061 0.0055827610207763506 0 -0.0041621226688598615 0.0056966573797087895 0 -0.0040353896967785753 0.0054953943282501872 0 -0.0043594439515789061 0.0055827610207763506 0 -0.0043558385544135523 0.0056695904272284466 0 -0.0041621226688598615 0.0056966573797087895 0 -0.0041621226688598615 0.0056966573797087895 0 -0.0038625309572258657 0.0056778665195082005 0 -0.0040353896967785753 0.0054953943282501872 0 -0.0038625309572258657 0.0056778665195082005 0 -0.0037744642939954057 0.0055315960396779022 0 -0.0040353896967785753 0.0054953943282501872 0 -0.0036389809359817908 0.0053262408885467443 0 -0.0038281845558284029 0.0051050296634166841 0 -0.0040353896967785753 0.0054953943282501872 0 -0.0036389809359817908 0.0053262408885467443 0 -0.0037744642939954057 0.0055315960396779022 0 -0.0040353896967785753 0.0054953943282501872 0 -0.0038281845558284029 0.0051050296634166841 0 -0.0041554534694639858 0.005243193040034632 0 -0.0040353896967785753 0.0054953943282501872 0 -0.0041554534694639858 0.005243193040034632 0 -0.0040353896967785753 0.0054953943282501872 0 -0.0042477114893365239 0.0054427352193262835 0 -0.0041554534694639858 0.005243193040034632 0 -0.0042477114893365239 0.0054427352193262835 0 -0.0044097179881872747 0.0054332046188755017 0 -0.0043594439515789061 0.0055827610207763506 0 -0.0040353896967785753 0.0054953943282501872 0 -0.0042477114893365239 0.0054427352193262835 0 -0.0043594439515789061 0.0055827610207763506 0 -0.0042477114893365239 0.0054427352193262835 0 -0.0044097179881872747 0.0054332046188755017 0 -0.0046442381359087619 0.005471867763668343 0 -0.0044097179881872747 0.0054332046188755017 0 -0.004546449760817254 0.0056068788388784459 0 -0.0043594439515789061 0.0055827610207763506 0 -0.0044097179881872747 0.0054332046188755017 0 -0.004546449760817254 0.0056068788388784459 0 -0.0046442381359087619 0.005471867763668343 0 -0.004546449760817254 0.0056068788388784459 0 -0.0047149154863555037 0.0057366758499823216 0 -0.0048739596427501818 0.0057431452056661341 0 -0.0048283352894744553 0.0059046956836271433 0 -0.0047149154863555037 0.0057366758499823216 0 -0.004546449760817254 0.0056068788388784459 0 -0.0047149154863555037 0.0057366758499823216 0 -0.0045680166996702239 0.0056623893962955323 0 -0.0047149154863555037 0.0057366758499823216 0 -0.0045642086618713027 0.0056931147269457007 0 -0.0045680166996702239 0.0056623893962955323 0 -0.0045680166996702239 0.0056623893962955323 0 -0.0044745627947520121 0.0056575953729797327 0 -0.0045259685321025816 0.0056195349870857151 0 -0.0045642086618713027 0.0056931147269457007 0 -0.0045680166996702239 0.0056623893962955323 0 -0.0045259685321025816 0.0056195349870857151 0 -0.0044379327190858771 0.0055883258674390233 0 -0.0045642086618713027 0.0056931147269457007 0 -0.0045259685321025816 0.0056195349870857151 0 -0.0043594439515789061 0.0055827610207763506 0 -0.004546449760817254 0.0056068788388784459 0 -0.0044825587280621637 0.005638981775581137 0 -0.004546449760817254 0.0056068788388784459 0 -0.0045680166996702239 0.0056623893962955323 0 -0.0044825587280621637 0.005638981775581137 0 -0.0045680166996702239 0.0056623893962955323 0 -0.0044825587280621637 0.005638981775581137 0 -0.0044745627947520121 0.0056575953729797327 0 -0.0043594439515789061 0.0055827610207763506 0 -0.0043558385544135523 0.0056695904272284466 0 -0.0044825587280621637 0.005638981775581137 0 -0.0043558385544135523 0.0056695904272284466 0 -0.0044825587280621637 0.005638981775581137 0 -0.0044745627947520121 0.0056575953729797327 0 -0.0043558385544135523 0.0056695904272284466 0 -0.0044745627947520121 0.0056575953729797327 0 -0.0043102151164860778 0.0057402264546178592 0 -0.0044745627947520121 0.0056575953729797327 0 -0.0044220613938181974 0.0056798330189652422 0 -0.004493493216369192 0.0055872058812190825 0 -0.0044745627947520121 0.0056575953729797327 0 -0.0044220613938181974 0.0056798330189652422 0 -0.0043102151164860778 0.0057402264546178592 0 -0.0044220613938181974 0.0056798330189652422 0 -0.0043456380201556972 0.0057456522909014648 0 -0.0043102151164860778 0.0057402264546178592 0 -0.0044379327190858771 0.0055883258674390233 0 -0.0045259685321025816 0.0056195349870857151 0 -0.0044731466132921088 0.0055281388657346751 0 -0.0044745627947520121 0.0056575953729797327 0 -0.0045259685321025816 0.0056195349870857151 0 -0.004493493216369192 0.0055872058812190825 0 -0.0045259685321025816 0.0056195349870857151 0 -0.004493493216369192 0.0055872058812190825 0 -0.0044731466132921088 0.0055281388657346751 0 -0.004493493216369192 0.0055872058812190825 0 -0.0044924940648497424 0.0054266537273450783 0 -0.0044207445292243708 0.0056830504127426571 0 -0.0044924940648497424 0.0054266537273450783 0 -0.0044207445292243708 0.0056830504127426571 0 -0.0044872387440653416 0.0055654681003030832 0 -0.004383154446451416 0.0050797214013084575 0 -0.0044924940648497424 0.0054266537273450783 0 -0.0044872387440653416 0.0055654681003030832 0 -0.004493493216369192 0.0055872058812190825 0 -0.0044731466132921088 0.0055281388657346751 0 -0.0044924940648497424 0.0054266537273450783 0 -0.0044207445292243708 0.0056830504127426571 0 -0.0042095701310784347 0.005880845752356899 0 -0.0043454464074491987 0.005844615223708177 0 -0.0043456380201556972 0.0057456522909014648 0 -0.0044207445292243708 0.0056830504127426571 0 -0.0042095701310784347 0.005880845752356899 0 -0.0044220613938181974 0.0056798330189652422 0 -0.0043456380201556972 0.0057456522909014648 0 -0.0044207445292243708 0.0056830504127426571 0 -0.0044220613938181974 0.0056798330189652422 0 -0.004493493216369192 0.0055872058812190825 0 -0.0044207445292243708 0.0056830504127426571 0 -0.0042095701310784347 0.005880845752356899 0 -0.0039589037901230258 0.0060876604104011037 0 -0.0043454464074491987 0.005844615223708177 0 -0.0042095701310784347 0.005880845752356899 0 -0.0043102151164860778 0.0057402264546178592 0 -0.0041031245545262171 0.0058596309509210713 0 -0.0042095701310784347 0.005880845752356899 0 -0.0041031245545262171 0.0058596309509210713 0 -0.0040613063365734052 0.0059465727674431132 0 -0.0043456380201556972 0.0057456522909014648 0 -0.0042095701310784347 0.005880845752356899 0 -0.0043102151164860778 0.0057402264546178592 0 -0.0041621226688598615 0.0056966573797087895 0 -0.0043102151164860778 0.0057402264546178592 0 -0.0041031245545262171 0.0058596309509210713 0 -0.0043558385544135523 0.0056695904272284466 0 -0.0041621226688598615 0.0056966573797087895 0 -0.0043102151164860778 0.0057402264546178592 0 -0.0036596345051397314 0.0058563034213151843 0 -0.0038625309572258657 0.0056778665195082005 0 -0.0039066345118103614 0.0058484644255523514 0 -0.0041621226688598615 0.0056966573797087895 0 -0.0041031245545262171 0.0058596309509210713 0 -0.0039066345118103614 0.0058484644255523514 0 -0.0041621226688598615 0.0056966573797087895 0 -0.0038625309572258657 0.0056778665195082005 0 -0.0039066345118103614 0.0058484644255523514 0 -0.0041031245545262171 0.0058596309509210713 0 -0.0039066345118103614 0.0058484644255523514 0 -0.0039578193375820964 0.0059515658074668449 0 -0.0037322501501136918 0.0059959573696854703 0 -0.0039066345118103614 0.0058484644255523514 0 -0.0039578193375820964 0.0059515658074668449 0 -0.0037322501501136918 0.0059959573696854703 0 -0.0036596345051397314 0.0058563034213151843 0 -0.0039066345118103614 0.0058484644255523514 0 -0.0037322501501136918 0.0059959573696854703 0 -0.0039578193375820964 0.0059515658074668449 0 -0.0039589037901230258 0.0060876604104011037 0 -0.0042095701310784347 0.005880845752356899 0 -0.0040613063365734052 0.0059465727674431132 0 -0.0039589037901230258 0.0060876604104011037 0 -0.0039578193375820964 0.0059515658074668449 0 -0.0040613063365734052 0.0059465727674431132 0 -0.0039589037901230258 0.0060876604104011037 0 -0.0041031245545262171 0.0058596309509210713 0 -0.0039578193375820964 0.0059515658074668449 0 -0.0040613063365734052 0.0059465727674431132 0 0.0031554093783000572 0.0035748711816666473 0 0.0031449073712142036 0.0039483309614625978 0 0.0036150932294177897 0.0036760253248865325 0 0.0022506426103453795 0.0044756496598869809 0 0.0019388992079508829 0.0042988580477577318 0 0.0017499062274839534 0.0048305409834406123 0 0.0026177933041375708 0.004262267951925457 0 0.003020473082713289 0.0039923286151632075 0 0.0031419701513021375 0.003568933212137246 0 0.003020473082713289 0.0039923286151632075 0 0.0023766299395509096 0.0038555441162693954 0 0.0028083842414585729 0.0039198044616846027 0 0.0028503678240846338 0.0037770436380043077 0 -0.0011054444564918568 0.005277095443277177 0 -0.0012612042611696609 0.0048110175029677429 0 0.0019388992079508829 0.0042988580477577318 0 0.0017499062274839534 0.0048305409834406123 0 0.00089404385217286674 0.004660914741604693 0 0.003020473082713289 0.0039923286151632075 0 -0.0012612042611696609 0.0048110175029677429 0 0.0033222396499267208 0.0035303347063117677 0 0.0034170745873160313 0.0032520673499083757 0 0.0036401559354704784 0.0032540561212774039 0 0.0034170745873160313 0.0032520673499083757 0 0.0036401559354704784 0.0032540561212774039 0 0.0035384539863257719 0.0030871633461876705 0 0.003020473082713289 0.0039923286151632075 0 0.0032072479577059409 0.0033747256007848137 0 0.0023766299395509096 0.0038555441162693954 0 0.0028503678240846338 0.0037770436380043077 0 0.0028056983297370113 0.0035715080525919882 0 0.0033222396499267208 0.0035303347063117677 0 0.0034170745873160313 0.0032520673499083757 0 0.0031879841571239836 0.0033076426508446702 0 0.0034170745873160313 0.0032520673499083757 0 0.0031879841571239836 0.0033076426508446702 0 0.0033203980276616351 0.0030937140297368783 0 0.0030540136033545191 0.0035154587678805386 0 0.0033222396499267208 0.0035303347063117677 0 0.0031879841571239836 0.0033076426508446702 0 -0.00417764562089404 0.0051734717349128222 0 -0.0051649542263460255 0.0050792478575102341 0 -0.004383154446451416 0.0050797214013084575 0 -0.0046380590958183072 0.0047637260670347677 0 -0.0048025438102552278 0.0048036712255412253 0 -0.0045296688596289866 0.0046689628071210137 0 -0.0044975324182688998 0.0045301037367913412 0 -0.0047858660555650835 0.0046055609716668666 0 -0.0045296688596289866 0.0046689628071210137 0 -0.0046380590958183072 0.0047637260670347677 0 -0.0047858660555650835 0.0046055609716668666 0 -0.0046380590958183072 0.0047637260670347677 0 -0.0048025438102552278 0.0048036712255412253 0 -0.0047858660555650835 0.0046055609716668666 0 -0.0044207445292243708 0.0056830504127426571 0 -0.0044872387440653416 0.0055654681003030832 0 -0.0043454464074491987 0.005844615223708177 0 0.0030144419039180173 0.0036972944284380826 0 0.0028083842414585729 0.0039198044616846027 0 0.0028503678240846338 0.0037770436380043077 0 -0.0048025438102552278 0.0048036712255412253 0 -0.0047858660555650835 0.0046055609716668666 0 -0.0049756893267199022 0.0047450025875341549 0 -0.00083579125668939132 0.0041250325550700922 0 -0.0012612042611696609 0.0048110175029677429 0 -0.0051649542263460255 0.0050792478575102341 0 -0.0012612042611696609 0.0048110175029677429 0 0.0032072479577059409 0.0033747256007848137 0 0.0036875182654940533 0.0031301185086006823 0 0.0030144419039180173 0.0036972944284380826 0 0.0028503678240846338 0.0037770436380043077 0 0.0030661028245786578 0.0037261989757193907 0 0.0028056983297370113 0.0035715080525919882 0 0.0030661028245786578 0.0037261989757193907 0 0.0037144753302931909 0.0030965988629590032 0 0.0028503678240846338 0.0037770436380043077 0 0.0028056983297370113 0.0035715080525919882 0 0.0030661028245786578 0.0037261989757193907 0 0.0026809107560315341 0.0040722000731757343 0 0.0030144419039180173 0.0036972944284380826 0 0.0030661028245786578 0.0037261989757193907 0 -0.0043415657174206423 0.0042573564420736046 0 -0.0044975324182688998 0.0045301037367913412 0 -0.0047858660555650835 0.0046055609716668666 0 -0.0010074455083363431 0.0037322863127225107 0 -0.00083579125668939132 0.0041250325550700922 0 0.0036298482705992845 0.0036061721632328729 0 0.0029689466333655454 0.0037572682543255283 0 0.0039479595937614133 0.0031607168446043635 0 0.0030661028245786578 0.0037261989757193907 0 0.0037144753302931909 0.0030965988629590032 0 0.0038109031795111972 0.0030017629785282465 0 0.0037144753302931909 0.0030965988629590032 0 0.0037345875578558775 0.0030489610463590483 0 0.0038109031795111972 0.0030017629785282465 0 0.0038300457065739554 0.0030571927604229774 0 0.0037144753302931909 0.0030965988629590032 0 0.0038801547495096928 0.0030114683638496806 0 0.0038109031795111972 0.0030017629785282465 0 0.0038300457065739554 0.0030571927604229774 0 0.0039479595937614133 0.0031607168446043635 0 0.0038300457065739554 0.0030571927604229774 0 0.0037144753302931909 0.0030965988629590032 0 0.0037144753302931909 0.0030965988629590032 0 0.0037345875578558775 0.0030489610463590483 0 0.0036789248744384154 0.0031179724895464157 0 0.0037345875578558775 0.0030489610463590483 0 0.0036789248744384154 0.0031179724895464157 0 0.0037481551324785923 0.0029551626361951143 0 0.0036401559354704784 0.0032540561212774039 0 0.0037144753302931909 0.0030965988629590032 0 0.0036789248744384154 0.0031179724895464157 0 0.0036401559354704784 0.0032540561212774039 0 0.0036789248744384154 0.0031179724895464157 0 0.0035384539863257719 0.0030871633461876705 0 0.0036789248744384154 0.0031179724895464157 0 0.0036380596366046387 0.0029652147504625661 0 0.0035384539863257719 0.0030871633461876705 0 0.0036789248744384154 0.0031179724895464157 0 0.0036380596366046387 0.0029652147504625661 0 0.0037481551324785923 0.0029551626361951143 0 0.0036380596366046387 0.0029652147504625661 0 0.0037481551324785923 0.0029551626361951143 0 0.0036932952174128816 0.0027741344480292926 0 0.0037481551324785923 0.0029551626361951143 0 0.0038683397798895385 0.0028885563514594093 0 0.0038294477155544019 0.0027556238301047384 0 0.0038109031795111972 0.0030017629785282465 0 0.0037345875578558775 0.0030489610463590483 0 0.0037481551324785923 0.0029551626361951143 0 0.0038109031795111972 0.0030017629785282465 0 0.0037481551324785923 0.0029551626361951143 0 0.0038683397798895385 0.0028885563514594093 0 0.0039005135386160571 0.0029390316978154473 0 0.0038109031795111972 0.0030017629785282465 0 0.0038683397798895385 0.0028885563514594093 0 0.0030313180806185811 0.0031254343440777228 0 0.0031879841571239836 0.0033076426508446702 0 0.0033203980276616351 0.0030937140297368783 0 0.0030313180806185811 0.0031254343440777228 0 0.0033203980276616351 0.0030937140297368783 0 0.0032073676623025726 0.002917096749506761 0 0.0033203980276616351 0.0030937140297368783 0 0.0035384539863257719 0.0030871633461876705 0 0.003465484773135043 0.002847932724262002 0 0.0034170745873160313 0.0032520673499083757 0 0.0033203980276616351 0.0030937140297368783 0 0.0035384539863257719 0.0030871633461876705 0 0.0036380596366046387 0.0029652147504625661 0 0.0035384539863257719 0.0030871633461876705 0 0.003465484773135043 0.002847932724262002 0 0.0036380596366046387 0.0029652147504625661 0 0.003465484773135043 0.002847932724262002 0 0.0036932952174128816 0.0027741344480292926 0 0.0033203980276616351 0.0030937140297368783 0 0.003465484773135043 0.002847932724262002 0 0.0032073676623025726 0.002917096749506761 0 0.003465484773135043 0.002847932724262002 0 0.0032073676623025726 0.002917096749506761 0 0.0032035685122026791 0.0027426068142522232 0 0.003465484773135043 0.002847932724262002 0 0.0034273811551307994 0.0025982021900869566 0 0.0032035685122026791 0.0027426068142522232 0 0.003465484773135043 0.002847932724262002 0 0.0036587086039782408 0.0026145341572920014 0 0.0034273811551307994 0.0025982021900869566 0 0.003465484773135043 0.002847932724262002 0 0.0036587086039782408 0.0026145341572920014 0 0.0036932952174128816 0.0027741344480292926 0 0.0036587086039782408 0.0026145341572920014 0 0.0034273811551307994 0.0025982021900869566 0 0.0037653176086051487 0.0024474058445019737 0 0.0036587086039782408 0.0026145341572920014 0 0.0038322073022290944 0.0025947702343584083 0 0.0037653176086051487 0.0024474058445019737 0 0.0038294477155544019 0.0027556238301047384 0 0.0038322073022290944 0.0025947702343584083 0 0.0039616178075504672 0.0027276502608646462 0 0.0037481551324785923 0.0029551626361951143 0 0.0038294477155544019 0.0027556238301047384 0 0.0036932952174128816 0.0027741344480292926 0 0.0038294477155544019 0.0027556238301047384 0 0.0036932952174128816 0.0027741344480292926 0 0.0038322073022290944 0.0025947702343584083 0 0.0036587086039782408 0.0026145341572920014 0 0.0036932952174128816 0.0027741344480292926 0 0.0038322073022290944 0.0025947702343584083 0 0.0038322073022290944 0.0025947702343584083 0 0.0038677962782391311 0.0024504542183734919 0 0.0039871795247493893 0.0025192109058870408 0 0.0047752663373692135 0.002981119986241332 0 0.0064568363586758196 0.0036902981531842689 0 0.0038322073022290944 0.0025947702343584083 0 0.0038677962782391311 0.0024504542183734919 0 0.0037653176086051487 0.0024474058445019737 0 0.0059254447289617063 0.0036733811886888574 0 0.0040766813980606447 0.002422591943479384 0 0.005524997203627275 0.0023519892644952227 0 0.0047752663373692135 0.002981119986241332 0 0.0041779244483609417 0.0025237307532188645 0 0.0059254447289617063 0.0036733811886888574 0 0.005524997203627275 0.0023519892644952227 0 0.0071103446597689428 0.002744258246120723 0 0.0059254447289617063 0.0036733811886888574 0 0.0071103446597689428 0.002744258246120723 0 0.007803208548924888 0.0044530296349070755 0 0.0034273811551307994 0.0025982021900869566 0 0.0037653176086051487 0.0024474058445019737 0 0.0033478048993741075 0.0023980508247337961 0 0.0037653176086051487 0.0024474058445019737 0 0.0036621752939260386 0.0023126283324398276 0 0.0033478048993741075 0.0023980508247337961 0 0.0038677962782391311 0.0024504542183734919 0 0.0037653176086051487 0.0024474058445019737 0 0.0040766813980606447 0.002422591943479384 0 0.0037653176086051487 0.0024474058445019737 0 0.0040766813980606447 0.002422591943479384 0 0.0036621752939260386 0.0023126283324398276 0 0.0040766813980606447 0.002422591943479384 0 0.0036621752939260386 0.0023126283324398276 0 0.0036823747428350452 0.0020572003278867485 0 0.0040766813980606447 0.002422591943479384 0 0.0036823747428350452 0.0020572003278867485 0 0.0040153282231472466 0.0016690631267419459 0 0.0036823747428350452 0.0020572003278867485 0 0.0040153282231472466 0.0016690631267419459 0 0.003320225836448574 0.0017457344267266469 0 0.0040153282231472466 0.0016690631267419459 0 0.0043068336478625669 0.00047601931791163674 0 0.003669806422070581 0.00079953319354617795 0 0.0040153282231472466 0.0016690631267419459 0 0.0043068336478625669 0.00047601931791163674 0 0.005605482910250344 0.0005413253995823293 0 0.0041435238707815151 0.0016584043810294563 0 0.0055693933904340165 0.0013997883329598209 0 0.0040153282231472466 0.0016690631267419459 0 0.0061496181209134701 0.0016103201087589315 0 0.005605482910250344 0.0005413253995823293 0 0.0040766813980606447 0.002422591943479384 0 0.0040153282231472466 0.0016690631267419459 0 0.0049641757440552735 0.0012162028605770007 0 0.0040766813980606447 0.002422591943479384 0 0.005524997203627275 0.0023519892644952227 0 0.0049641757440552735 0.0012162028605770007 0 0.005524997203627275 0.0023519892644952227 0 0.0062442101524999832 0.0017477412195668098 0 0.0049641757440552735 0.0012162028605770007 0 0.005524997203627275 0.0023519892644952227 0 0.0071103446597689428 0.002744258246120723 0 0.0062442101524999832 0.0017477412195668098 0 0.0071103446597689428 0.002744258246120723 0 0.0062442101524999832 0.0017477412195668098 0 0.0073775010229766057 0.0016691068906646218 0 0.0062442101524999832 0.0017477412195668098 0 0.0068156082476993358 0.00071140673442978081 0 0.0073775010229766057 0.0016691068906646218 0 0.0075593116181811469 0.00094767348961353082 0 0.0055693933904340165 0.0013997883329598209 0 0.0062442101524999832 0.0017477412195668098 0 0.0068156082476993358 0.00071140673442978081 0 0.0049641757440552735 0.0012162028605770007 0 0.0083012688514139347 0.001201622710162247 0 0.0061496181209134701 0.0016103201087589315 0 0.007087381380473181 0.00068308757342819845 0 0.0061496181209134701 0.0016103201087589315 0 0.007087381380473181 0.00068308757342819845 0 0.005605482910250344 0.0005413253995823293 0 0.007087381380473181 0.00068308757342819845 0 0.0068949679671280956 -8.3239574587734455e-05 0 0.005605482910250344 0.0005413253995823293 0 0.007087381380473181 0.00068308757342819845 0 0.0068949679671280956 -8.3239574587734455e-05 0 0.0079732755186785152 7.819276721280224e-05 0 0.0068949679671280956 -8.3239574587734455e-05 0 0.0061069983226829348 -0.00060962121481157876 0 0.005605482910250344 0.0005413253995823293 0 0.0079732755186785152 7.819276721280224e-05 0 0.0084755309555351807 -0.0010598045998283802 0 0.0091917188663168774 0.00059232568482404794 0 0.0083012688514139347 0.001201622710162247 0 0.0079732755186785152 7.819276721280224e-05 0 0.0091917188663168774 0.00059232568482404794 0 0.0083012688514139347 0.001201622710162247 0 0.007087381380473181 0.00068308757342819845 0 0.0079732755186785152 7.819276721280224e-05 0 0.0068949679671280956 -8.3239574587734455e-05 0 0.0079732755186785152 7.819276721280224e-05 0 0.0076327512211163649 -0.00065203498847711625 0 0.0076327512211163649 -0.00065203498847711625 0 0.0084755309555351807 -0.0010598045998283802 0 0.0072014860962003775 -0.0013920738588641915 0 0.0079732755186785152 7.819276721280224e-05 0 0.0076327512211163649 -0.00065203498847711625 0 0.0084755309555351807 -0.0010598045998283802 0 0.0068949679671280956 -8.3239574587734455e-05 0 0.0072014860962003775 -0.0013920738588641915 0 0.0061069983226829348 -0.00060962121481157876 0 0.0072014860962003775 -0.0013920738588641915 0 0.0061069983226829348 -0.00060962121481157876 0 0.0059225597939138201 -0.0018635885116221782 0 0.0068949679671280956 -8.3239574587734455e-05 0 0.0076327512211163649 -0.00065203498847711625 0 0.0072014860962003775 -0.0013920738588641915 0 0.0061069983226829348 -0.00060962121481157876 0 0.0049306373144268204 -0.00030349947214754279 0 0.0059225597939138201 -0.0018635885116221782 0 0.0088968610917081695 -0.00041720167083911269 0 0.010371358193520849 -0.00010443181815543338 0 0.0049306373144268204 -0.00030349947214754279 0 0.0040060397998301755 -0.00069825392517436228 0 0.0059225597939138201 -0.0018635885116221782 0 0.012973067999113398 0.0017397195078667745 0 0.013951947820664102 0.0010733263722031634 0 0.012767010998585872 0.0015136459509085892 0 0.0088968610917081695 -0.00041720167083911269 0 0.011925747350946011 -0.00015986758548966281 0 0.0040060397998301755 -0.00069825392517436228 0 0.0040306176507114962 -0.00029277731928931442 0 0.0038364772359135257 -6.0238106715993079e-05 0 0.0040060397998301755 -0.00069825392517436228 0 0.0040306176507114962 -0.00029277731928931442 0 0.0043043920783820445 -0.00016402022174215688 0 0.0040306176507114962 -0.00029277731928931442 0 0.0040301811250874212 7.8130236432756212e-05 0 0.0038364772359135257 -6.0238106715993079e-05 0 0.0040306176507114962 -0.00029277731928931442 0 0.0043043920783820445 -0.00016402022174215688 0 0.0040301811250874212 7.8130236432756212e-05 0 0.0049306373144268204 -0.00030349947214754279 0 0.0040060397998301755 -0.00069825392517436228 0 0.0043043920783820445 -0.00016402022174215688 0 0.0049306373144268204 -0.00030349947214754279 0 0.0043043920783820445 -0.00016402022174215688 0 0.0043068336478625669 0.00047601931791163674 0 0.0040301811250874212 7.8130236432756212e-05 0 0.0043068336478625669 0.00047601931791163674 0 0.0037479187873213781 0.00037031494445436428 0 0.0043043920783820445 -0.00016402022174215688 0 0.0040301811250874212 7.8130236432756212e-05 0 0.0043068336478625669 0.00047601931791163674 0 0.0043068336478625669 0.00047601931791163674 0 0.0037479187873213781 0.00037031494445436428 0 0.003669806422070581 0.00079953319354617795 0 0.0049306373144268204 -0.00030349947214754279 0 0.0043068336478625669 0.00047601931791163674 0 0.005605482910250344 0.0005413253995823293 0 0.0061069983226829348 -0.00060962121481157876 0 0.0049306373144268204 -0.00030349947214754279 0 0.005605482910250344 0.0005413253995823293 0 0.012146210774200212 -4.1696204395507351e-05 0 0.012315962815154256 0.0011355982339489787 0 0.014186483779535509 0.00026318454514747118 0 0.012146210774200212 -4.1696204395507351e-05 0 0.013580290295763294 -0.0012006908087825825 0 0.014186483779535509 0.00026318454514747118 0 0.012146210774200212 -4.1696204395507351e-05 0 0.013580290295763294 -0.0012006908087825825 0 0.012045024338246139 -0.0014041947104073155 0 0.013580290295763294 -0.0012006908087825825 0 0.012045024338246139 -0.0014041947104073155 0 0.012600790531664897 -0.0026939243078174576 0 0.012146210774200212 -4.1696204395507351e-05 0 0.012045024338246139 -0.0014041947104073155 0 0.011112664264032649 -0.00062846233880800161 0 0.012045024338246139 -0.0014041947104073155 0 0.011238506954421267 -0.0015718931907878989 0 0.011112664264032649 -0.00062846233880800161 0 0.011238506954421267 -0.0015718931907878989 0 0.01060769720842852 -0.0014435128469530889 0 0.011112664264032649 -0.00062846233880800161 0 0.01060769720842852 -0.0014435128469530889 0 0.011112664264032649 -0.00062846233880800161 0 0.01003333627493277 -0.00039016104328649796 0 0.0095122705976792912 -0.0013303849236311644 0 0.0096052621988583185 -0.00082719655016744479 0 0.0098417341003075413 -0.0016830706116631961 0 0.0096052621988583185 -0.00082719655016744479 0 0.01003333627493277 -0.00039016104328649796 0 0.0098417341003075413 -0.0016830706116631961 0 0.0091428472514983802 -0.0010842526688585395 0 0.0096052621988583185 -0.00082719655016744479 0 0.0091917188663168774 0.00059232568482404794 0 0.01060769720842852 -0.0014435128469530889 0 0.01003333627493277 -0.00039016104328649796 0 0.0098822800870310111 -0.0022499406115394274 0 0.010106698536793308 -0.00037815547296062691 0 0.0094727761383956114 -0.0022000354187748867 0 0.0091428472514983802 -0.0010842526688585395 0 0.0095122705976792912 -0.0013303849236311644 0 0.0096052621988583185 -0.00082719655016744479 0 0.0083012688514139347 0.001201622710162247 0 0.0091917188663168774 0.00059232568482404794 0 0.010497246583251928 0.00055716836806966679 0 0.0086136809233490399 -0.0011594186015305209 0 0.00923789114532007 0.00057472777382897348 0 0.0096052621988583185 -0.00082719655016744479 0 0.01003333627493277 -0.00039016104328649796 0 0.0091917188663168774 0.00059232568482404794 0 0.01003333627493277 -0.00039016104328649796 0 0.0091917188663168774 0.00059232568482404794 0 0.010497246583251928 0.00055716836806966679 0 0.011959011300088444 -2.3743509980919541e-05 0 0.009818434153318463 0.00038954810962974482 0 0.012146210774200212 -4.1696204395507351e-05 0 0.0091073569500558088 0.00018459303111066522 0 0.0097924018665751945 0.001278473446257186 0 0.012146210774200212 -4.1696204395507351e-05 0 0.011112664264032649 -0.00062846233880800161 0 0.010497246583251928 0.00055716836806966679 0 0.011112664264032649 -0.00062846233880800161 0 0.01003333627493277 -0.00039016104328649796 0 0.010497246583251928 0.00055716836806966679 0 0.0091073569500558088 0.00018459303111066522 0 0.0097924018665751945 0.001278473446257186 0 0.008280764745522735 0.0011617788941292045 0 0.0097924018665751945 0.001278473446257186 0 0.008280764745522735 0.0011617788941292045 0 0.0087820334149176834 0.002024832641052268 0 0.0097924018665751945 0.001278473446257186 0 0.010677960201938376 0.0029017442735517767 0 0.011021588098534978 0.0017544640024080233 0 0.008280764745522735 0.0011617788941292045 0 0.0073775010229766057 0.0016691068906646218 0 0.0087820334149176834 0.002024832641052268 0 0.0075593116181811469 0.00094767348961353082 0 0.009818434153318463 0.00038954810962974482 0 0.0068156082476993358 0.00071140673442978081 0 0.0091073569500558088 0.00018459303111066522 0 0.008280764745522735 0.0011617788941292045 0 0.0068156082476993358 0.00071140673442978081 0 0.008280764745522735 0.0011617788941292045 0 0.0073775010229766057 0.0016691068906646218 0 0.0071103446597689428 0.002744258246120723 0 0.0087820334149176834 0.002024832641052268 0 0.00867938770111038 0.003172439585575608 0 0.0071103446597689428 0.002744258246120723 0 0.0073775010229766057 0.0016691068906646218 0 0.0087820334149176834 0.002024832641052268 0 0.0087820334149176834 0.002024832641052268 0 0.0095752795296152916 0.0024716322325114624 0 0.00867938770111038 0.003172439585575608 0 0.0097924018665751945 0.001278473446257186 0 0.0087820334149176834 0.002024832641052268 0 0.010677960201938376 0.0029017442735517767 0 0.0086491413809458035 0.0019932493648916849 0 0.010975686387773775 0.0030491505467418428 0 0.0095752795296152916 0.0024716322325114624 0 0.010479289767263589 0.0028887616991783022 0 0.009453703488213689 0.0032914665414027953 0 0.010677960201938376 0.0029017442735517767 0 0.011666605684225841 0.0025210745070392477 0 0.012054476891556455 0.0034132244914028857 0 0.010975686387773775 0.0030491505467418428 0 0.0054551175534176223 0.0023664356113603222 0 0.010677960201938376 0.0029017442735517767 0 0.011666605684225841 0.0025210745070392477 0 0.011021588098534978 0.0017544640024080233 0 0.012146210774200212 -4.1696204395507351e-05 0 0.012315962815154256 0.0011355982339489787 0 0.011021588098534978 0.0017544640024080233 0 0.012146210774200212 -4.1696204395507351e-05 0 0.0097924018665751945 0.001278473446257186 0 0.011021588098534978 0.0017544640024080233 0 0.011666605684225841 0.0025210745070392477 0 0.011021588098534978 0.0017544640024080233 0 0.012819934008973667 0.0019066268723728005 0 0.012471222136041604 0.0017555927086330854 0 0.0097657648674358988 0.002253126081831936 0 0.012315962815154256 0.0011355982339489787 0 0.011021588098534978 0.0017544640024080233 0 0.013388975061017184 0.0018916394172142652 0 0.0097657648674358988 0.002253126081831936 0 0.014644796687259876 -0.00018924759559569613 0 0.012315962815154256 0.0011355982339489787 0 0.013388975061017184 0.0018916394172142652 0 0.014186483779535509 0.00026318454514747118 0 0.00098111256971401481 0.0016673453347473808 0 0.00095965174215057467 0.0017126798769632008 0 0.0009538380728878283 0.0017010766243104249 0 0.0097657648674358988 0.002253126081831936 0 0.0054551175534176223 0.0023664356113603222 0 0.011666605684225841 0.0025210745070392477 0 0.012819934008973667 0.0019066268723728005 0 0.012054476891556455 0.0034132244914028857 0 -0.00020620345253633085 0.0017557266326980771 0 -0.00012399489883325212 0.00208411419971464 0 -0.00037889501616242971 0.0021319363242528668 0 -0.00020620345253633085 0.0017557266326980771 0 -0.00012399489883325212 0.00208411419971464 0 0.00017762756453336111 0.0018499935771487583 0 0.00095965174215057467 0.0017126798769632008 0 0.00092234768476373824 0.0017795084395870932 0 0.0009538380728878283 0.0017010766243104249 0 0.0054551175534176223 0.0023664356113603222 0 -0.00041190905472867853 0.0015094780361895805 0 0.010479289767263589 0.0028887616991783022 0 0.0099591102438575767 0.0039529265479754166 0 0.009453703488213689 0.0032914665414027953 0 0.0054551175534176223 0.0023664356113603222 0 0.0047515864380242778 0.0031454579118660821 0 0.0099591102438575767 0.0039529265479754166 0 0.009453703488213689 0.0032914665414027953 0 0.0090586543224350329 0.0040347401056404584 0 -0.00037889501616242971 0.0021319363242528668 0 -0.0004721212785121279 0.0024923025062852677 0 -0.00039674557861213211 0.0025279847737579232 0 0.0047515864380242778 0.0031454579118660821 0 0.0041523072533778821 0.0030370784933158655 0 0.0099591102438575767 0.0039529265479754166 0 0.0090586543224350329 0.0040347401056404584 0 0.0093947952002360006 0.0050607634243435206 0 -0.00037889501616242971 0.0021319363242528668 0 -0.00027232977792501892 0.0023711850206349517 0 -0.00039674557861213211 0.0025279847737579232 0 -0.00012399489883325212 0.00208411419971464 0 -0.00037889501616242971 0.0021319363242528668 0 -0.00027232977792501892 0.0023711850206349517 0 -0.00027232977792501892 0.0023711850206349517 0 -0.00021718615171161711 0.0026015607865694629 0 4.1883993120355448e-05 0.0023208687420434417 0 -0.00012399489883325212 0.00208411419971464 0 0.00017762756453336111 0.0018499935771487583 0 4.1883993120355448e-05 0.0023208687420434417 0 -0.00012399489883325212 0.00208411419971464 0 -0.00027232977792501892 0.0023711850206349517 0 4.1883993120355448e-05 0.0023208687420434417 0 0.0071103446597689428 0.002744258246120723 0 0.00867938770111038 0.003172439585575608 0 0.007803208548924888 0.0044530296349070755 0 0.00867938770111038 0.003172439585575608 0 0.0090586543224350329 0.0040347401056404584 0 0.007803208548924888 0.0044530296349070755 0 0.0095752795296152916 0.0024716322325114624 0 0.00867938770111038 0.003172439585575608 0 0.009453703488213689 0.0032914665414027953 0 0.00867938770111038 0.003172439585575608 0 0.009453703488213689 0.0032914665414027953 0 0.0090586543224350329 0.0040347401056404584 0 0.0039871795247493893 0.0025192109058870408 0 0.0040189256689911173 0.0026193170523277666 0 0.004147134202960188 0.0025957127717531571 0 0.0090586543224350329 0.0040347401056404584 0 0.007803208548924888 0.0044530296349070755 0 0.0093947952002360006 0.0050607634243435206 0 0.0064568363586758196 0.0036902981531842689 0 0.0041523072533778821 0.0030370784933158655 0 0.0038322073022290944 0.0025947702343584083 0 0.0039871795247493893 0.0025192109058870408 0 0.0040189256689911173 0.0026193170523277666 0 0.0040189256689911173 0.0026193170523277666 0 0.0040801866569000235 0.0027173429442084659 0 0.0039616178075504672 0.0027276502608646462 0 0.0038322073022290944 0.0025947702343584083 0 0.0040189256689911173 0.0026193170523277666 0 0.0039616178075504672 0.0027276502608646462 0 0.0041523072533778821 0.0030370784933158655 0 0.001626211099306511 0.0028513524349379105 0 -0.00040965473403164581 0.0025235240596507974 0 -0.00042165754206510513 0.002685135176762977 0 -0.00037765555584847517 0.0026148548659228796 0 0.0040189256689911173 0.0026193170523277666 0 0.004147134202960188 0.0025957127717531571 0 0.0040801866569000235 0.0027173429442084659 0 0.0031086864355369575 0.0027505110118737322 0 0.001626211099306511 0.0028513524349379105 0 -0.00042880722427502766 0.0027824769248216779 0 -0.00039421775747600703 0.0027552240493693525 0 -0.00042165754206510513 0.002685135176762977 0 -0.00042165754206510513 0.002685135176762977 0 -0.00037765555584847517 0.0026148548659228796 0 -0.00036423161884678145 0.0027021715734405882 0 -0.00039421775747600703 0.0027552240493693525 0 -0.00036423161884678145 0.0027021715734405882 0 -0.00034191195966682433 0.0027534733696417055 0 -0.00039421775747600703 0.0027552240493693525 0 -0.00042165754206510513 0.002685135176762977 0 -0.00036423161884678145 0.0027021715734405882 0 0.0031086864355369575 0.0027505110118737322 0 0.0041752016435061979 0.0028708947681252038 0 0.0040145262257893491 0.0028519245991816943 0 0.0040801866569000235 0.0027173429442084659 0 0.0039616178075504672 0.0027276502608646462 0 0.0040145262257893491 0.0028519245991816943 0 0.0038294477155544019 0.0027556238301047384 0 0.0039616178075504672 0.0027276502608646462 0 -0.00021718615171161711 0.0026015607865694629 0 -0.00012501902397124454 0.0027675647343713486 0 4.1883993120355448e-05 0.0023208687420434417 0 -0.00021718615171161711 0.0026015607865694629 0 -0.00031438059621392313 0.0025830593604419185 0 -0.00026756458572895018 0.0026592241996916243 0 -0.00021718615171161711 0.0026015607865694629 0 -0.00026756458572895018 0.0026592241996916243 0 -0.00020473906761544529 0.0027249319669933312 0 -0.00021718615171161711 0.0026015607865694629 0 -0.00020473906761544529 0.0027249319669933312 0 -0.00012501902397124454 0.0027675647343713486 0 -0.00027232977792501892 0.0023711850206349517 0 -0.00039674557861213211 0.0025279847737579232 0 -0.00031438059621392313 0.0025830593604419185 0 -0.00027232977792501892 0.0023711850206349517 0 -0.00021718615171161711 0.0026015607865694629 0 -0.00031438059621392313 0.0025830593604419185 0 -0.00040965473403164581 0.0025235240596507974 0 -0.00039674557861213211 0.0025279847737579232 0 -0.00037765555584847517 0.0026148548659228796 0 -0.00039674557861213211 0.0025279847737579232 0 -0.00037765555584847517 0.0026148548659228796 0 -0.00031438059621392313 0.0025830593604419185 0 0.0041523072533778821 0.0030370784933158655 0 0.0018803231241764104 0.0023225470917413644 0 -0.00037765555584847517 0.0026148548659228796 0 -0.00031438059621392313 0.0025830593604419185 0 -0.00031968037533779359 0.0026665314964141166 0 -0.00031438059621392313 0.0025830593604419185 0 -0.00026756458572895018 0.0026592241996916243 0 -0.00031968037533779359 0.0026665314964141166 0 -0.00031176091368296128 0.0027158992009150705 0 -0.00027659724374294847 0.002706040247908389 0 -0.00025100059831573862 0.0027464863216897072 0 -0.00026756458572895018 0.0026592241996916243 0 -0.00031968037533779359 0.0026665314964141166 0 -0.00027659724374294847 0.002706040247908389 0 -0.00031968037533779359 0.0026665314964141166 0 -0.00031176091368296128 0.0027158992009150705 0 -0.00027659724374294847 0.002706040247908389 0 -0.00037765555584847517 0.0026148548659228796 0 -0.00031968037533779359 0.0026665314964141166 0 -0.00036423161884678145 0.0027021715734405882 0 -0.00031968037533779359 0.0026665314964141166 0 -0.00031176091368296128 0.0027158992009150705 0 -0.00036423161884678145 0.0027021715734405882 0 -0.00031176091368296128 0.0027158992009150705 0 -0.00036423161884678145 0.0027021715734405882 0 -0.00034191195966682433 0.0027534733696417055 0 -0.00031176091368296128 0.0027158992009150705 0 -0.00034191195966682433 0.0027534733696417055 0 -0.00025100059831573862 0.0027464863216897072 0 -0.00025100059831573862 0.0027464863216897072 0 -0.00024854940798340821 0.0027656323066611635 0 -0.00020473906761544529 0.0027249319669933312 0 -0.00055966805889241323 0.0030307175524331483 0 -0.00016409390214479667 0.002792249494480782 0 -0.00024854940798340821 0.0027656323066611635 0 -0.00020473906761544529 0.0027249319669933312 0 -0.00012501902397124454 0.0027675647343713486 0 -0.00086318167018707747 0.003396221573370255 0 -0.00043057297416788622 0.0033670780522034854 0 -0.00012501902397124454 0.0027675647343713486 0 -0.00027659724374294847 0.002706040247908389 0 -0.00025100059831573862 0.0027464863216897072 0 -0.00020473906761544529 0.0027249319669933312 0 -0.00026756458572895018 0.0026592241996916243 0 -0.00027659724374294847 0.002706040247908389 0 -0.00020473906761544529 0.0027249319669933312 0 -0.00037601168804899136 0.0036813401276589953 0 -0.00043057297416788622 0.0033670780522034854 0 0.00034241143696114466 0.0029215788245061896 0 -0.00043057297416788622 0.0033670780522034854 0 -0.00012501902397124454 0.0027675647343713486 0 0.00034241143696114466 0.0029215788245061896 0 -0.00012501902397124454 0.0027675647343713486 0 0.00047077162967933459 0.0024404535169520909 0 4.1883993120355448e-05 0.0023208687420434417 0 -0.00012501902397124454 0.0027675647343713486 0 0.00047077162967933459 0.0024404535169520909 0 0.00034241143696114466 0.0029215788245061896 0 0.00047077162967933459 0.0024404535169520909 0 0.00034241143696114466 0.0029215788245061896 0 0.00089646511841686674 0.0025204985167730908 0 0.00034241143696114466 0.0029215788245061896 0 0.00091630850470344398 0.002860861151772563 0 0.00089646511841686674 0.0025204985167730908 0 0.00034241143696114466 0.0029215788245061896 0 0.00074586571537688779 0.0033673662618575154 0 0.00091630850470344398 0.002860861151772563 0 -0.00037601168804899136 0.0036813401276589953 0 0.00034241143696114466 0.0029215788245061896 0 0.00074586571537688779 0.0033673662618575154 0 6.6193308254296039e-06 0.0036148570176774935 0 0.00027608008955044432 0.0029400189381655144 0 0.00074586571537688779 0.0033673662618575154 0 0.0010905989615548754 0.0029730626884598823 0 0.0014310134753368539 0.0029985580448176779 0 -0.00077819785388387279 0.003737402970080217 0 -0.00066435989369852534 0.0037903941340771343 0 -0.00083982076412227405 0.0038471848326625821 0 -0.00069050788380830685 0.0033908922635548875 0 0.00027608008955044432 0.0029400189381655144 0 0.0010905989615548754 0.0029730626884598823 0 0.0014310134753368539 0.0029985580448176779 0 0.0012589086107112548 0.002691262804635418 0 0.00074586571537688779 0.0033673662618575154 0 0.0010905989615548754 0.0029730626884598823 0 0.00091630850470344398 0.002860861151772563 0 0.00013419923220498413 0.0023588997775933836 0 0.00026531491570023602 0.0025489210384977362 0 0.00036958630901333595 0.0023037815816686212 0 0.00013419923220498413 0.0023588997775933836 0 0.00026531491570023602 0.0025489210384977362 0 5.1861476390982947e-05 0.0026874019773293397 0 0.00030596522838633182 0.0028344787515493706 0 0.00026531491570023602 0.0025489210384977362 0 5.1861476390982947e-05 0.0026874019773293397 0 0.00013419923220498413 0.0023588997775933836 0 5.1861476390982947e-05 0.0026874019773293397 0 -8.2933572125422586e-05 0.0023299875545879484 0 -0.00056301726548848338 0.002912288488541837 0 -0.00021022924388918785 0.0026247020921947935 0 -0.00029138427752649359 0.0021986059179330514 0 -0.00021022924388918785 0.0026247020921947935 0 -0.00029138427752649359 0.0021986059179330514 0 -8.2933572125422586e-05 0.0023299875545879484 0 5.1861476390982947e-05 0.0026874019773293397 0 -0.00021022924388918785 0.0026247020921947935 0 -8.2933572125422586e-05 0.0023299875545879484 0 0.00054868992260603139 0.0028385246535097405 0 0.00082974214521552955 0.0027053553298061316 0 0.00091030575576957857 0.0022368194549640384 0 0.00027608008955044432 0.0029400189381655144 0 0.00060020233783056147 0.0024609348633358847 0 -0.00029138427752649359 0.0021986059179330514 0 -9.2256118388997125e-05 0.0020777788659088921 0 -8.2933572125422586e-05 0.0023299875545879484 0 -9.2256118388997125e-05 0.0020777788659088921 0 0.00018011753489805438 0.0021440631042121258 0 0.00050601820424423264 0.0018242027087565014 0 0.00013419923220498413 0.0023588997775933836 0 -8.2933572125422586e-05 0.0023299875545879484 0 0.00018011753489805438 0.0021440631042121258 0 -9.2256118388997125e-05 0.0020777788659088921 0 -8.2933572125422586e-05 0.0023299875545879484 0 0.00018011753489805438 0.0021440631042121258 0 0.00013419923220498413 0.0023588997775933836 0 0.00018011753489805438 0.0021440631042121258 0 0.00036958630901333595 0.0023037815816686212 0 0.0012044051612500625 0.0022769613655050022 0 0.0017199762153686569 0.0019275617145215959 0 0.00071873954045647474 0.0023803702686292349 0 0.00079908268827215813 0.0019067423151480759 0 0.0017792053881743306 0.0018495914981942366 0 0.00060020233783056147 0.0024609348633358847 0 0.0012044051612500625 0.0022769613655050022 0 0.00027608008955044432 0.0029400189381655144 0 0.0012044051612500625 0.0022769613655050022 0 0.0014310134753368539 0.0029985580448176779 0 0.0015890353074426873 0.0026743684327235396 0 0.0012589086107112548 0.002691262804635418 0 0.0015890353074426873 0.0026743684327235396 0 0.0012589086107112548 0.002691262804635418 0 0.0013113499166734878 0.0023113860930636452 0 0.0012044051612500625 0.0022769613655050022 0 0.0016724949885318448 0.0014114974389060368 0 0.0010905989615548754 0.0029730626884598823 0 0.00091630850470344398 0.002860861151772563 0 0.0012589086107112548 0.002691262804635418 0 0.00091630850470344398 0.002860861151772563 0 0.0012589086107112548 0.002691262804635418 0 0.00089646511841686674 0.0025204985167730908 0 0.0012589086107112548 0.002691262804635418 0 0.00089646511841686674 0.0025204985167730908 0 0.0013113499166734878 0.0023113860930636452 0 0.00089646511841686674 0.0025204985167730908 0 0.0013113499166734878 0.0023113860930636452 0 0.00085214334302836448 0.0019905305589870519 0 0.0013113499166734878 0.0023113860930636452 0 0.0013256360061422621 0.0019617604401571489 0 0.00085214334302836448 0.0019905305589870519 0 0.0016797487560900317 0.0023840770385758444 0 0.0018211195410036442 0.0016002068542867209 0 0.0020873018683428253 0.001715929119182088 0 0.0015890353074426873 0.0026743684327235396 0 0.0013113499166734878 0.0023113860930636452 0 0.0016339723824428929 0.0021863767909947522 0 0.0013113499166734878 0.0023113860930636452 0 0.0016339723824428929 0.0021863767909947522 0 0.0013256360061422621 0.0019617604401571489 0 0.0016339723824428929 0.0021863767909947522 0 0.0016655182923671658 0.0018247622325311059 0 0.0013256360061422621 0.0019617604401571489 0 0.0023852063199068592 0.0014363759493635276 0 0.0012661638211229715 0.001800694444471173 0 0.0017199762153686569 0.0019275617145215959 0 0.0023852063199068592 0.0014363759493635276 0 0.0018211195410036442 0.0016002068542867209 0 0.0019586222797622517 0.00082049621883774674 0 0.0021047270564440537 0.0012897015247087537 0 0.0016655182923671658 0.0018247622325311059 0 0.0013256360061422621 0.0019617604401571489 0 0.0013341022804119378 0.0016993926583789777 0 0.0011247138725302129 0.0018414890101401851 0 0.0013256360061422621 0.0019617604401571489 0 0.0013341022804119378 0.0016993926583789777 0 0.0011247138725302129 0.0018414890101401851 0 0.0013256360061422621 0.0019617604401571489 0 0.00085214334302836448 0.0019905305589870519 0 0.0011247138725302129 0.0018414890101401851 0 0.00085214334302836448 0.0019905305589870519 0 0.0010073236380654933 0.0017429011745020934 0 0.00092234768476373824 0.0017795084395870932 0 0.00085214334302836448 0.0019905305589870519 0 0.0010073236380654933 0.0017429011745020934 0 -0.00041190905472867853 0.0015094780361895805 0 0.001222248922144695 0.0021254474945013938 0 0.00017762756453336111 0.0018499935771487583 0 4.1883993120355448e-05 0.0023208687420434417 0 0.00085214334302836448 0.0019905305589870519 0 0.00047077162967933459 0.0024404535169520909 0 4.1883993120355448e-05 0.0023208687420434417 0 0.00085214334302836448 0.0019905305589870519 0 0.00047077162967933459 0.0024404535169520909 0 0.00089646511841686674 0.0025204985167730908 0 0.00085214334302836448 0.0019905305589870519 0 0.0031438285145641625 0.0014276645681912542 0 0.004077710892316619 0.002168932458685748 0 0.004126600912094971 0.00065770771219595249 0 0.0031438285145641625 0.0014276645681912542 0 0.0031823875908427064 0.00044637275985081394 0 0.004126600912094971 0.00065770771219595249 0 0.0031438285145641625 0.0014276645681912542 0 0.0025027852390423896 0.00080383967224432551 0 0.0031823875908427064 0.00044637275985081394 0 0.0039089945987117814 0.0033766487335653494 0 0.0032335942008470484 0.002925020040636024 0 0.004077710892316619 0.002168932458685748 0 0.0031438285145641625 0.0014276645681912542 0 0.0031274725327923377 0.0022877361548446448 0 0.004077710892316619 0.002168932458685748 0 0.0032335942008470484 0.002925020040636024 0 0.0031274725327923377 0.0022877361548446448 0 0.004077710892316619 0.002168932458685748 0 0.0032335942008470484 0.002925020040636024 0 0.0031274725327923377 0.0022877361548446448 0 0.0026401385413446356 0.0026907206851940592 0 0.0031438285145641625 0.0014276645681912542 0 0.0031274725327923377 0.0022877361548446448 0 0.0025342149749483021 0.0020869858998512516 0 0.0031274725327923377 0.0022877361548446448 0 0.0025342149749483021 0.0020869858998512516 0 0.0026401385413446356 0.0026907206851940592 0 0.0025342149749483021 0.0020869858998512516 0 0.0026401385413446356 0.0026907206851940592 0 0.0019256151524488809 0.0021896411639222616 0 0.0026401385413446356 0.0026907206851940592 0 0.0020260907191253 0.0026985593452555604 0 0.0019256151524488809 0.0021896411639222616 0 0.0025342149749483021 0.0020869858998512516 0 0.0019256151524488809 0.0021896411639222616 0 0.0021263198799312349 0.0017444690368696579 0 0.0019256151524488809 0.0021896411639222616 0 0.0021263198799312349 0.0017444690368696579 0 0.0016477659799855517 0.0017843306107058331 0 0.0021263198799312349 0.0017444690368696579 0 0.0025440549602453672 0.0014132341153023495 0 0.0020131943709193051 0.0012302856927180709 0 0.0021263198799312349 0.0017444690368696579 0 0.0020131943709193051 0.0012302856927180709 0 0.0016477659799855517 0.0017843306107058331 0 0.0025342149749483021 0.0020869858998512516 0 0.0021263198799312349 0.0017444690368696579 0 0.0025440549602453672 0.0014132341153023495 0 0.0031438285145641625 0.0014276645681912542 0 0.0025342149749483021 0.0020869858998512516 0 0.0025440549602453672 0.0014132341153023495 0 0.0025440549602453672 0.0014132341153023495 0 0.0025027852390423896 0.00080383967224432551 0 0.0020131943709193051 0.0012302856927180709 0 0.0031438285145641625 0.0014276645681912542 0 0.0025440549602453672 0.0014132341153023495 0 0.0025027852390423896 0.00080383967224432551 0 0.0020131943709193051 0.0012302856927180709 0 0.0016253296930411742 0.0010771779265264421 0 0.0019584016806350312 0.00060147810543653029 0 0.0025027852390423896 0.00080383967224432551 0 0.0020131943709193051 0.0012302856927180709 0 0.0019584016806350312 0.00060147810543653029 0 0.0016253296930411742 0.0010771779265264421 0 0.00081132970137726373 0.0014118462718154753 0 0.0019584016806350312 0.00060147810543653029 0 0.00094659650977435659 0.0013317053530306545 0 0.0018637275880822605 0.00065200137164008452 0 0.0016253296930411742 0.0010771779265264421 0 0.0011908701200467223 0.0013576818913967211 0 0.0015939115916545656 0.0013844825581948686 0 0.0020131943709193051 0.0012302856927180709 0 0.0016253296930411742 0.0010771779265264421 0 0.0015939115916545656 0.0013844825581948686 0 0.0016253296930411742 0.0010771779265264421 0 0.0011908701200467223 0.0013576818913967211 0 0.00081132970137726373 0.0014118462718154753 0 0.0013480728015323336 0.0016341921790706065 0 0.0016477659799855517 0.0017843306107058331 0 0.0012221179231470885 0.0019693521635576017 0 0.0011908701200467223 0.0013576818913967211 0 0.0013480728015323336 0.0016341921790706065 0 0.0015939115916545656 0.0013844825581948686 0 0.0011908701200467223 0.0013576818913967211 0 0.0009855462406370022 0.001512025892823181 0 0.00081132970137726373 0.0014118462718154753 0 0.0011908701200467223 0.0013576818913967211 0 0.001060309210851085 0.0016793453552220686 0 0.0009855462406370022 0.001512025892823181 0 0.0011908701200467223 0.0013576818913967211 0 0.001060309210851085 0.0016793453552220686 0 0.0013480728015323336 0.0016341921790706065 0 0.001060309210851085 0.0016793453552220686 0 0.0013480728015323336 0.0016341921790706065 0 0.0012221179231470885 0.0019693521635576017 0 0.0020131943709193051 0.0012302856927180709 0 0.0015939115916545656 0.0013844825581948686 0 0.0016477659799855517 0.0017843306107058331 0 0.0013480728015323336 0.0016341921790706065 0 0.0015939115916545656 0.0013844825581948686 0 0.0016477659799855517 0.0017843306107058331 0 0.0016477659799855517 0.0017843306107058331 0 0.0014134384124142401 0.0022256182565762151 0 0.0012221179231470885 0.0019693521635576017 0 0.0019256151524488809 0.0021896411639222616 0 0.0016477659799855517 0.0017843306107058331 0 0.0014134384124142401 0.0022256182565762151 0 0.0020260907191253 0.0026985593452555604 0 0.0019256151524488809 0.0021896411639222616 0 0.0015613992244471514 0.002639780990480936 0 0.0019256151524488809 0.0021896411639222616 0 0.0014134384124142401 0.0022256182565762151 0 0.0015613992244471514 0.002639780990480936 0 0.0014134384124142401 0.0022256182565762151 0 0.0015613992244471514 0.002639780990480936 0 0.0011148485338764661 0.0025235927542157453 0 0.0014134384124142401 0.0022256182565762151 0 0.0011148485338764661 0.0025235927542157453 0 0.0010468020435395321 0.0022190825821013279 0 0.0011148485338764661 0.0025235927542157453 0 0.0010468020435395321 0.0022190825821013279 0 0.00088224986900142994 0.0023900330183486088 0 0.0014134384124142401 0.0022256182565762151 0 0.0010468020435395321 0.0022190825821013279 0 0.0012221179231470885 0.0019693521635576017 0 0.0010468020435395321 0.0022190825821013279 0 0.0012221179231470885 0.0019693521635576017 0 0.00098667463628876548 0.0019458558864535484 0 0.001060309210851085 0.0016793453552220686 0 0.0012221179231470885 0.0019693521635576017 0 0.00098667463628876548 0.0019458558864535484 0 0.00098667463628876548 0.0019458558864535484 0 0.00081432845743871528 0.0021528103268780678 0 0.0007833146337648195 0.0018363162232428237 0 0.00081432845743871528 0.0021528103268780678 0 0.00057962484152398552 0.0020869788905724051 0 0.0007833146337648195 0.0018363162232428237 0 0.00081432845743871528 0.0021528103268780678 0 0.00064199891035067447 0.0023729632186370465 0 0.00057962484152398552 0.0020869788905724051 0 0.0010468020435395321 0.0022190825821013279 0 0.00081432845743871528 0.0021528103268780678 0 0.00088224986900142994 0.0023900330183486088 0 0.0010468020435395321 0.0022190825821013279 0 0.00098667463628876548 0.0019458558864535484 0 0.00081432845743871528 0.0021528103268780678 0 0.00081432845743871528 0.0021528103268780678 0 0.00088224986900142994 0.0023900330183486088 0 0.00064199891035067447 0.0023729632186370465 0 0.00080286447609533159 0.0026752921393856256 0 0.00088224986900142994 0.0023900330183486088 0 0.00064199891035067447 0.0023729632186370465 0 0.00080286447609533159 0.0026752921393856256 0 0.0011148485338764661 0.0025235927542157453 0 0.00088224986900142994 0.0023900330183486088 0 0.00030596522838633182 0.0028344787515493706 0 0.00026531491570023602 0.0025489210384977362 0 0.00046969115845447876 0.0026105174628987967 0 0.00080286447609533159 0.0026752921393856256 0 0.00064199891035067447 0.0023729632186370465 0 0.00046969115845447876 0.0026105174628987967 0 0.00064199891035067447 0.0023729632186370465 0 0.00046969115845447876 0.0026105174628987967 0 0.00036958630901333595 0.0023037815816686212 0 0.00026531491570023602 0.0025489210384977362 0 0.00046969115845447876 0.0026105174628987967 0 0.00036958630901333595 0.0023037815816686212 0 0.00036958630901333595 0.0023037815816686212 0 0.00057962484152398552 0.0020869788905724051 0 0.00040067763855002292 0.0020712368915448889 0 0.00018011753489805438 0.0021440631042121258 0 0.00036958630901333595 0.0023037815816686212 0 0.00040067763855002292 0.0020712368915448889 0 0.00064199891035067447 0.0023729632186370465 0 0.00036958630901333595 0.0023037815816686212 0 0.00057962484152398552 0.0020869788905724051 0 0.00057962484152398552 0.0020869788905724051 0 0.00040067763855002292 0.0020712368915448889 0 0.00050601820424423264 0.0018242027087565014 0 0.00057962484152398552 0.0020869788905724051 0 0.00050601820424423264 0.0018242027087565014 0 0.0007833146337648195 0.0018363162232428237 0 0.00018011753489805438 0.0021440631042121258 0 0.00040067763855002292 0.0020712368915448889 0 0.00050601820424423264 0.0018242027087565014 0 0.00079908268827215813 0.0019067423151480759 0 0.0017792053881743306 0.0018495914981942366 0 0.0013558065310019594 0.00097455849644467708 0 0.00060020233783056147 0.0024609348633358847 0 0.00095029094553192935 0.0014543483493909548 0 -9.2256118388997125e-05 0.0020777788659088921 0 0.00050601820424423264 0.0018242027087565014 0 0.00066882021780357746 0.0015233200970308958 0 0.00050601820424423264 0.0018242027087565014 0 0.00074557622000210276 0.0016655075593618642 0 0.0007833146337648195 0.0018363162232428237 0 0.00074557622000210276 0.0016655075593618642 0 0.0007833146337648195 0.0018363162232428237 0 0.00088302044888165622 0.0015971259390742492 0 0.001060309210851085 0.0016793453552220686 0 0.0007833146337648195 0.0018363162232428237 0 0.00088302044888165622 0.0015971259390742492 0 0.001060309210851085 0.0016793453552220686 0 0.00098667463628876548 0.0019458558864535484 0 0.0007833146337648195 0.0018363162232428237 0 0.00074557622000210276 0.0016655075593618642 0 0.00088302044888165622 0.0015971259390742492 0 0.00081132970137726373 0.0014118462718154753 0 0.001060309210851085 0.0016793453552220686 0 0.00088302044888165622 0.0015971259390742492 0 0.0009855462406370022 0.001512025892823181 0 0.00088302044888165622 0.0015971259390742492 0 0.0009855462406370022 0.001512025892823181 0 0.00081132970137726373 0.0014118462718154753 0 0.00050601820424423264 0.0018242027087565014 0 0.00066882021780357746 0.0015233200970308958 0 0.00081132970137726373 0.0014118462718154753 0 0.00050601820424423264 0.0018242027087565014 0 0.00074557622000210276 0.0016655075593618642 0 0.00081132970137726373 0.0014118462718154753 0 0.00095029094553192935 0.0014543483493909548 0 0.00094659650977435659 0.0013317053530306545 0 0.00063649927986985332 0.0012380395947183722 0 0.00081441714789068592 0.0011485430567192414 0 0.0011714985591577195 0.00049397844381215874 0 0.00063649927986985332 0.0012380395947183722 0 0.000910320854658923 -0.00031867844609133968 0 0.0011714985591577195 0.00049397844381215874 0 0.0017792053881743306 0.0018495914981942366 0 0.0013558065310019594 0.00097455849644467708 0 0.0020909759502417014 0.0001161335284676524 0 0.00095029094553192935 0.0014543483493909548 0 0.0019756426438284455 -0.0001363227854806071 0 0.0013558065310019594 0.00097455849644467708 0 0.0020909759502417014 0.0001161335284676524 0 0.0019170348959216845 4.0161863851954383e-05 0 0.0016724949885318448 0.0014114974389060368 0 0.0031215941233914205 0.00037954892297345109 0 0.0020873018683428253 0.001715929119182088 0 0.0021047270564440537 0.0012897015247087537 0 0.0024899098324885766 0.0010484224749505717 0 0.0018211195410036442 0.0016002068542867209 0 0.0020873018683428253 0.001715929119182088 0 0.0021047270564440537 0.0012897015247087537 0 0.0019586222797622517 0.00082049621883774674 0 0.0021047270564440537 0.0012897015247087537 0 0.0024899098324885766 0.0010484224749505717 0 0.0023852063199068592 0.0014363759493635276 0 0.0031215941233914205 0.00037954892297345109 0 0.004896367932542646 -7.2035470332467807e-05 0 0.0053688051182686153 -6.5331604275845469e-05 0 0.0054333208306734972 0.00014622589348048037 0 0.004896367932542646 -7.2035470332467807e-05 0 0.0052159955295359725 -0.00022029333892487632 0 0.0053688051182686153 -6.5331604275845469e-05 0 0.0052159955295359725 -0.00022029333892487632 0 0.0053688051182686153 -6.5331604275845469e-05 0 0.0055766491397504286 -0.00010351311883847839 0 0.0053810247447710615 -3.7184742827837952e-05 0 0.0035892313236294947 -0.00041184877884450812 0 0.0052159955295359725 -0.00022029333892487632 0 0.0056416926079386328 -9.3957182304982384e-05 0 0.005689991426347546 -0.00017344150545851866 0 0.0035892313236294947 -0.00041184877884450812 0 0.0041746377626062491 -0.00066849578039689301 0 0.0053688051182686153 -6.5331604275845469e-05 0 0.0055766491397504286 -0.00010351311883847839 0 0.0054333208306734972 0.00014622589348048037 0 0.0035892313236294947 -0.00041184877884450812 0 0.0031215941233914205 0.00037954892297345109 0 0.003096724717439213 -0.00041095067446631644 0 0.0030095674882416414 0.00055809468888615881 0 0.0026191698582752319 0.00038768070568134686 0 0.0035892313236294947 -0.00041184877884450812 0 0.0019756426438284455 -0.0001363227854806071 0 0.0019756426438284455 -0.0001363227854806071 0 0.0031215941233914205 0.00037954892297345109 0 0.0010326080825941179 -0.00067478971938374492 0 0.0019812853832987367 -0.00021605632196125429 0 0.0019079007942937041 -0.00078960116655559865 0 0.0010703822021914092 -0.0010290583224490482 0 0.0010326080825941179 -0.00067478971938374492 0 0.0019079007942937041 -0.00078960116655559865 0 0.0035892313236294947 -0.00041184877884450812 0 0.0026564049597095586 -0.0011098383821718147 0 0.0038096669772631634 -0.0012920879353357122 0 0.0039127183938882605 -0.001331967712175004 0 0.0039752848136320549 -0.0012462068601525578 0 0.0038096669772631634 -0.0012920879353357122 0 0.0038196487318980276 -0.001309193452279054 0 0.0039127183938882605 -0.001331967712175004 0 0.0039127183938882605 -0.001331967712175004 0 0.0039752848136320549 -0.0012462068601525578 0 0.0040277080695487553 -0.0013357614368087031 0 0.0019756426438284455 -0.0001363227854806071 0 0.0018044061910068574 -0.00012318367385562767 0 0.00081441714789068592 0.0011485430567192414 0 0.0011714985591577195 0.00049397844381215874 0 0.0019584016806350312 0.00060147810543653029 0 0.000910320854658923 -0.00031867844609133968 0 0.0015887730963992327 0.00035946535072732544 0 0.0019497357647907487 0.00011389429513955477 0 0.000910320854658923 -0.00031867844609133968 0 0.0011714985591577195 0.00049397844381215874 0 0.0015887730963992327 0.00035946535072732544 0 0.0015887730963992327 0.00035946535072732544 0 0.0019584016806350312 0.00060147810543653029 0 0.0019497357647907487 0.00011389429513955477 0 0.0011714985591577195 0.00049397844381215874 0 0.0015887730963992327 0.00035946535072732544 0 0.0019584016806350312 0.00060147810543653029 0 0.0018044061910068574 -0.00012318367385562767 0 0.003169377904787136 0.00044948944811238256 0 0.0019812853832987367 -0.00021605632196125429 0 0.0028817284496493317 -0.00055802706250176787 0 0.0030480793665728684 -0.00036491891995114433 0 0.0025027852390423896 0.00080383967224432551 0 0.0019497357647907487 0.00011389429513955477 0 0.0031823875908427064 0.00044637275985081394 0 0.0019812853832987367 -0.00021605632196125429 0 0.0030480793665728684 -0.00036491891995114433 0 0.0031823875908427064 0.00044637275985081394 0 0.0025027852390423896 0.00080383967224432551 0 0.0019584016806350312 0.00060147810543653029 0 0.0019497357647907487 0.00011389429513955477 0 0.0026564049597095586 -0.0011098383821718147 0 0.0040265564576769507 -0.00085449570653932437 0 0.0039752848136320549 -0.0012462068601525578 0 0.0040277080695487553 -0.0013357614368087031 0 0.004132523433658733 -0.0011982166252518184 0 0.0049476561703192604 -0.0018170054822600739 0 0.005400881054881226 -0.0011164891320857037 0 0.0057010136770999078 -0.0016803098638469138 0 0.0019812853832987367 -0.00021605632196125429 0 0.0019079007942937041 -0.00078960116655559865 0 0.0028817284496493317 -0.00055802706250176787 0 0.0044798720075967143 -0.0015762308227168251 0 0.0040265564576769507 -0.00085449570653932437 0 0.005400881054881226 -0.0011164891320857037 0 0.0060757227229431858 -0.0012583333703476685 0 0.0065897200432377435 -0.00049289198808699349 0 0.005400881054881226 -0.0011164891320857037 0 0.0057010136770999078 -0.0016803098638469138 0 0.0060757227229431858 -0.0012583333703476685 0 0.0057010136770999078 -0.0016803098638469138 0 0.0060345862933971943 -0.0021003886563924082 0 0.0061855965491152262 -0.001713558688864372 0 0.0057010136770999078 -0.0016803098638469138 0 0.0060757227229431858 -0.0012583333703476685 0 0.0061855965491152262 -0.001713558688864372 0 0.0040265564576769507 -0.00085449570653932437 0 0.0058006180121198923 -0.00035723179771519035 0 0.0028420781638435911 -0.00057632551899984943 0 0.0030480793665728684 -0.00036491891995114433 0 0.0048176374585198224 -0.00030670633799616807 0 0.0040265564576769507 -0.00085449570653932437 0 0.0037988490534390244 -0.00087169379835560286 0 0.0030480793665728684 -0.00036491891995114433 0 0.0031823875908427064 0.00044637275985081394 0 0.004126600912094971 0.00065770771219595249 0 0.0058665349946899984 -0.0029179514958024978 0 0.0058097587094386414 -0.0031119850875780002 0 0.0065615983337929829 -0.0029955054530689186 0 0.0058097587094386414 -0.0031119850875780002 0 0.0056067181371493415 -0.0034143832417729602 0 0.0065615983337929829 -0.0029955054530689186 0 0.0058665349946899984 -0.0029179514958024978 0 0.0058097587094386414 -0.0031119850875780002 0 0.0054292653180853688 -0.0030507274646937462 0 0.0058665349946899984 -0.0029179514958024978 0 0.0058822914344889548 -0.0024894633757727427 0 0.0053290957115189009 -0.0025829820653405092 0 0.0058665349946899984 -0.0029179514958024978 0 0.0053290957115189009 -0.0025829820653405092 0 0.0054292653180853688 -0.0030507274646937462 0 0.0058665349946899984 -0.0029179514958024978 0 0.0058822914344889548 -0.0024894633757727427 0 0.0062333773512122945 -0.0027366194018138422 0 0.0058822914344889548 -0.0024894633757727427 0 0.0063368736909033335 -0.0024861198550481592 0 0.0062333773512122945 -0.0027366194018138422 0 0.0058822914344889548 -0.0024894633757727427 0 0.0060345862933971943 -0.0021003886563924082 0 0.0055323213755987428 -0.0021708715545450674 0 0.0058822914344889548 -0.0024894633757727427 0 0.0060345862933971943 -0.0021003886563924082 0 0.0063368736909033335 -0.0024861198550481592 0 0.0057010136770999078 -0.0016803098638469138 0 0.0060345862933971943 -0.0021003886563924082 0 0.0055323213755987428 -0.0021708715545450674 0 0.0058822914344889548 -0.0024894633757727427 0 0.0055323213755987428 -0.0021708715545450674 0 0.0053290957115189009 -0.0025829820653405092 0 0.0049476561703192604 -0.0018170054822600739 0 0.0057010136770999078 -0.0016803098638469138 0 0.0055323213755987428 -0.0021708715545450674 0 0.0049476561703192604 -0.0018170054822600739 0 0.0053290957115189009 -0.0025829820653405092 0 0.0044501109022852857 -0.0026167793126286375 0 0.0051285228326241952 -0.0025976378629769836 0 0.0050788124928035803 -0.0024881659379001023 0 0.0049476561703192604 -0.0018170054822600739 0 0.0055323213755987428 -0.0021708715545450674 0 0.0053290957115189009 -0.0025829820653405092 0 0.0053290957115189009 -0.0025829820653405092 0 0.0050707498311949361 -0.002924108054864284 0 0.0049119117041262258 -0.0026597089168674021 0 0.0053290957115189009 -0.0025829820653405092 0 0.0054292653180853688 -0.0030507274646937462 0 0.0050707498311949361 -0.002924108054864284 0 0.0054292653180853688 -0.0030507274646937462 0 0.0050707498311949361 -0.002924108054864284 0 0.0051907780525845141 -0.0033079263825265123 0 0.0082169863875118983 -0.002508762529912654 0 0.0083473452797188132 -0.0027557688307904586 0 0.0047672485008655886 -0.0028212663089490337 0 0.004912693288546939 -0.0028291056531098433 0 0.0048715117063400284 -0.0033189498452656217 0 0.0050707498311949361 -0.002924108054864284 0 0.004912693288546939 -0.0028291056531098433 0 0.0048715117063400284 -0.0033189498452656217 0 0.0082169863875118983 -0.002508762529912654 0 0.0070767368327458481 -0.0019887351764402155 0 0.007290512397126598 -0.0021253394518477727 0 0.0070815880980352958 -0.0023780680567023612 0 0.0073327822872200623 -0.0023686326488573536 0 0.0047672485008655886 -0.0028212663089490337 0 0.004912693288546939 -0.0028291056531098433 0 0.0048766870538213521 -0.0026885190669526183 0 0.0082169863875118983 -0.002508762529912654 0 0.0056856510563725506 -0.002452065742109101 0 0.0051102266178918131 -0.0028250125008970166 0 0.0050788124928035803 -0.0024881659379001023 0 0.0050707498311949361 -0.002924108054864284 0 0.004912693288546939 -0.0028291056531098433 0 0.0049409765836498695 -0.0026877645092530794 0 0.004912693288546939 -0.0028291056531098433 0 0.0048766870538213521 -0.0026885190669526183 0 0.0049409765836498695 -0.0026877645092530794 0 0.0041746377626062491 -0.00066849578039689301 0 0.0070767368327458481 -0.0019887351764402155 0 0.0049476561703192604 -0.0018170054822600739 0 0.0044501109022852857 -0.0026167793126286375 0 0.004398305886373367 -0.0025300925876139166 0 0.0041746377626062491 -0.00066849578039689301 0 0.005018045051395287 -0.0023486373657841037 0 0.0038196487318980276 -0.001309193452279054 0 0.0039127183938882605 -0.001331967712175004 0 0.0039233697470634245 -0.0014802944751864486 0 0.0049206055909474609 -0.00062002518870237975 0 0.0059059632834937712 -0.0022645798834743909 0 0.0052645438732253158 -0.0024622659022372553 0 0.0050064886124349195 -0.0026899481621984658 0 0.0052469216588023216 -0.0026815604244326816 0 0.0051474655021827567 -0.0025143780636692143 0 0.0056856510563725506 -0.002452065742109101 0 0.0050788124928035803 -0.0024881659379001023 0 0.0056856510563725506 -0.002452065742109101 0 0.005018045051395287 -0.0023486373657841037 0 0.0050788124928035803 -0.0024881659379001023 0 0.005018045051395287 -0.0023486373657841037 0 0.0044798720075967143 -0.0015762308227168251 0 0.005018045051395287 -0.0023486373657841037 0 0.0039127183938882605 -0.001331967712175004 0 0.0040277080695487553 -0.0013357614368087031 0 0.0039233697470634245 -0.0014802944751864486 0 0.0057612580159454958 -0.0024450388673919305 0 0.0059059632834937712 -0.0022645798834743909 0 0.0052645438732253158 -0.0024622659022372553 0 0.0056856510563725506 -0.002452065742109101 0 0.0070767368327458481 -0.0019887351764402155 0 0.0052159955295359725 -0.00022029333892487632 0 0.0054772846249626951 -0.00063525837628250297 0 0.0050869120863570004 -0.001062301404616777 0 0.005689991426347546 -0.00017344150545851866 0 0.0058646689958024136 -0.0010455260671588574 0 0.0054772846249626951 -0.00063525837628250297 0 0.004896367932542646 -7.2035470332467807e-05 0 0.0052159955295359725 -0.00022029333892487632 0 0.0050869120863570004 -0.001062301404616777 0 0.0058646689958024136 -0.0010455260671588574 0 0.0054772846249626951 -0.00063525837628250297 0 0.0050869120863570004 -0.001062301404616777 0 0.0023852063199068592 0.0014363759493635276 0 0.0095126102336250875 -0.00044565818370103364 0 0.0052159955295359725 -0.00022029333892487632 0 0.005689991426347546 -0.00017344150545851866 0 0.0054772846249626951 -0.00063525837628250297 0 0.0070767368327458481 -0.0019887351764402155 0 0.0095126102336250875 -0.00044565818370103364 0 0.0097427666172568081 -0.0015555462196710174 0 0.01136791906058369 -0.0019460843127697409 0 0.011065949641927907 4.1490042900512899e-05 0 0.0097427666172568081 -0.0015555462196710174 0 0.0098202795758878404 -0.0020064022793541358 0 0.01136791906058369 -0.0019460843127697409 0 0.0082169863875118983 -0.002508762529912654 0 0.015423622329317379 -0.00069512726017997796 0 0.0095126102336250875 -0.00044565818370103364 0 0.015423622329317379 -0.00069512726017997796 0 0.015423622329317379 -0.00069512726017997796 0 0.018839218572900242 8.4584848895349714e-05 0 0.018389208196455269 -0.00080994550669795981 0 0.019424198652608419 -0.0019718391982247721 0 0.018761168305285816 -0.0018373454889660037 0 0.015423622329317379 -0.00069512726017997796 0 0.016274121319542773 -0.0016714912133993366 0 0.012654790944627084 -0.0022184400202789963 0 0.01171074932667069 -0.0014152834544674247 0 0.012462294240212057 -0.00091625334928603945 0 0.019046525289624538 3.580856735523682e-05 0 0.018389208196455269 -0.00080994550669795981 0 0.019424198652608419 -0.0019718391982247721 0 0.010006946108750581 -0.0028168770296028885 0 0.016274121319542773 -0.0016714912133993366 0 0.010006946108750581 -0.0028168770296028885 0 0.014356863981429966 -0.0030869218515857553 0 0.010006946108750581 -0.0028168770296028885 0 0.0083473452797188132 -0.0027557688307904586 0 0.012654790944627084 -0.0022184400202789963 0 0.01171074932667069 -0.0014152834544674247 0 0.011841751386002092 -0.0022172987944849049 0 0.011965657615005013 -0.0030238983781647687 0 0.012654790944627084 -0.0022184400202789963 0 0.011841751386002092 -0.0022172987944849049 0 0.0049898781981244167 -0.0037860347110177427 0 0.0048715117063400284 -0.0033189498452656217 0 0.0051907780525845141 -0.0033079263825265123 0 0.0050707498311949361 -0.002924108054864284 0 0.0048715117063400284 -0.0033189498452656217 0 0.0051907780525845141 -0.0033079263825265123 0 0.0049898781981244167 -0.0037860347110177427 0 0.0051907780525845141 -0.0033079263825265123 0 0.0056067181371493415 -0.0034143832417729602 0 0.0054292653180853688 -0.0030507274646937462 0 0.0051907780525845141 -0.0033079263825265123 0 0.0056067181371493415 -0.0034143832417729602 0 0.011760507609682622 -0.0026530695014165035 0 0.011755086280578956 -0.0028031590156162799 0 0.011467643846197698 -0.0029136817448063078 0 0.010272193647412747 -0.0030500793272989594 0 0.010497738373130013 -0.0029942970448817358 0 0.010472811036749801 -0.0028451959389017936 0 0.010272193647412747 -0.0030500793272989594 0 0.010497738373130013 -0.0029942970448817358 0 0.01031426419716365 -0.0031737502307548171 0 0.010474499127574243 -0.0029758610823959583 0 0.014356863981429966 -0.0030869218515857553 0 0.010006946108750581 -0.0028168770296028885 0 0.0075633114208858336 -0.0033282678498892013 0 0.011760507609682622 -0.0026530695014165035 0 0.011755086280578956 -0.0028031590156162799 0 0.01183569868954765 -0.0026876609039999367 0 0.011755086280578956 -0.0028031590156162799 0 0.01183569868954765 -0.0026876609039999367 0 0.01187893371117818 -0.0028170842036083269 0 0.011760507609682622 -0.0026530695014165035 0 0.01183569868954765 -0.0026876609039999367 0 0.011838761899228291 -0.0025941316702978437 0 0.010497738373130013 -0.0029942970448817358 0 0.010472811036749801 -0.0028451959389017936 0 0.010915948967651442 -0.0026691965897781668 0 0.0075633114208858336 -0.0033282678498892013 0 0.0088658609349976884 -0.0026977392478865925 0 0.010474499127574243 -0.0029758610823959583 0 0.011523278960392637 -0.0024896058746422581 0 0.011760507609682622 -0.0026530695014165035 0 0.011853730449167814 -0.002481706999156444 0 0.011838761899228291 -0.0025941316702978437 0 0.0058097587094386414 -0.0031119850875780002 0 0.0054292653180853688 -0.0030507274646937462 0 0.0056067181371493415 -0.0034143832417729602 0 0.015283569706002387 0.0016106710860873444 0 0.01665247974494679 0.00059693910959061642 0 0.015553755284993675 0.00029123373357864668 0 0.0075778545167263503 0.0014973262144720916 0 0.0095700960167149594 0.0016708665418015778 0 0.015283569706002387 0.0016106710860873444 0 0.015553755284993675 0.00029123373357864668 0 0.014186483779535509 0.00026318454514747118 0 0.0097657648674358988 0.002253126081831936 0 0.0075778545167263503 0.0014973262144720916 0 0.013452835808339407 0.0015798207840209224 0 0.015283569706002387 0.0016106710860873444 0 0.014186483779535509 0.00026318454514747118 0 0.00092234768476373824 0.0017795084395870932 0 0.0009538380728878283 0.0017010766243104249 0 0.0010073236380654933 0.0017429011745020934 0 0.00098111256971401481 0.0016673453347473808 0 0.0010251493146963906 0.0015680259751003549 0 0.0009538380728878283 0.0017010766243104249 0 0.0010251493146963906 0.0015680259751003549 0 0.0009538380728878283 0.0017010766243104249 0 0.0010073236380654933 0.0017429011745020934 0 0.0010251493146963906 0.0015680259751003549 0 0.0010073236380654933 0.0017429011745020934 0 0.0014105898618838935 0.001375898151988586 0 0.0010073236380654933 0.0017429011745020934 0 0.0013341022804119378 0.0016993926583789777 0 0.0014105898618838935 0.001375898151988586 0 0.0011247138725302129 0.0018414890101401851 0 0.0010073236380654933 0.0017429011745020934 0 0.0013341022804119378 0.0016993926583789777 0 0.0013341022804119378 0.0016993926583789777 0 0.0018433372938302197 0.0015811429109787879 0 0.0014105898618838935 0.001375898151988586 0 0.002394370677766512 0.0012521878005806097 0 0.0018433372938302197 0.0015811429109787879 0 0.0014105898618838935 0.001375898151988586 0 0.0022250072758732702 0.002156466767147995 0 0.002394370677766512 0.0012521878005806097 0 0.0018433372938302197 0.0015811429109787879 0 0.0022250072758732702 0.002156466767147995 0 0.0013341022804119378 0.0016993926583789777 0 0.0018433372938302197 0.0015811429109787879 0 0.0095126102336250875 -0.00044565818370103364 0 0.0095700960167149594 0.0016708665418015778 0 0.018683894352416689 0.0016046574664764625 0 0.017033068674302428 0.0015929453320420201 0 0.017853323765554836 0.00046638622971695613 0 0.018683894352416689 0.0016046574664764625 0 0.019007998082416017 6.9438033665534886e-05 0 0.017853323765554836 0.00046638622971695613 0 0.017033068674302428 0.0015929453320420201 0 0.01665247974494679 0.00059693910959061642 0 0.017853323765554836 0.00046638622971695613 0 0.015283569706002387 0.0016106710860873444 0 0.017033068674302428 0.0015929453320420201 0 0.01665247974494679 0.00059693910959061642 0 0.01665247974494679 0.00059693910959061642 0 0.01727617927330025 -0.00029843512973131033 0 0.017853323765554836 0.00046638622971695613 0 0.01665247974494679 0.00059693910959061642 0 0.01727617927330025 -0.00029843512973131033 0 0.016429309675418252 -0.00045240986891594221 0 0.01727617927330025 -0.00029843512973131033 0 0.017853323765554836 0.00046638622971695613 0 0.018389208196455269 -0.00080994550669795981 0 0.019007998082416017 6.9438033665534886e-05 0 0.017853323765554836 0.00046638622971695613 0 0.018389208196455269 -0.00080994550669795981 0 0.01727617927330025 -0.00029843512973131033 0 0.018389208196455269 -0.00080994550669795981 0 0.017411839749043801 -0.0012176989819299509 0 0.018389208196455269 -0.00080994550669795981 0 0.017411839749043801 -0.0012176989819299509 0 0.018171501915172396 -0.00175069967520717 0 0.018389208196455269 -0.00080994550669795981 0 0.018171501915172396 -0.00175069967520717 0 0.018761168305285816 -0.0018373454889660037 0 0.016429309675418252 -0.00045240986891594221 0 0.017411839749043801 -0.0012176989819299509 0 0.016339029117076114 -0.0018587694189255003 0 0.01727617927330025 -0.00029843512973131033 0 0.016429309675418252 -0.00045240986891594221 0 0.017411839749043801 -0.0012176989819299509 0 0.016429309675418252 -0.00045240986891594221 0 0.015178393070025378 -0.00055981168581354073 0 0.016339029117076114 -0.0018587694189255003 0 0.015178393070025378 -0.00055981168581354073 0 0.014938757989675344 -0.0017165658675620042 0 0.016339029117076114 -0.0018587694189255003 0 0.016429309675418252 -0.00045240986891594221 0 0.015553755284993675 0.00029123373357864668 0 0.015178393070025378 -0.00055981168581354073 0 0.01665247974494679 0.00059693910959061642 0 0.016429309675418252 -0.00045240986891594221 0 0.015553755284993675 0.00029123373357864668 0 0.015553755284993675 0.00029123373357864668 0 0.015178393070025378 -0.00055981168581354073 0 0.014186483779535509 0.00026318454514747118 0 0.013580290295763294 -0.0012006908087825825 0 0.015178393070025378 -0.00055981168581354073 0 0.014186483779535509 0.00026318454514747118 0 0.013580290295763294 -0.0012006908087825825 0 0.015178393070025378 -0.00055981168581354073 0 0.014938757989675344 -0.0017165658675620042 0 0.013580290295763294 -0.0012006908087825825 0 0.014938757989675344 -0.0017165658675620042 0 0.014210994913076379 -0.0029727595953233329 0 0.014938757989675344 -0.0017165658675620042 0 0.014210994913076379 -0.0029727595953233329 0 0.016274998853236966 -0.0032525049834728537 0 0.014210994913076379 -0.0029727595953233329 0 0.016274998853236966 -0.0032525049834728537 0 0.014844386474771688 -0.004696876548240453 0 0.016804249654032839 -0.0028492000901973596 0 0.013675679554211843 -0.0054932711299966958 0 0.014938757989675344 -0.0017165658675620042 0 0.016274998853236966 -0.0032525049834728537 0 0.016339029117076114 -0.0018587694189255003 0 0.016274998853236966 -0.0032525049834728537 0 0.016339029117076114 -0.0018587694189255003 0 0.017599137664296636 -0.0024166177868201635 0 0.017411839749043801 -0.0012176989819299509 0 0.016339029117076114 -0.0018587694189255003 0 0.017599137664296636 -0.0024166177868201635 0 0.017411839749043801 -0.0012176989819299509 0 0.017599137664296636 -0.0024166177868201635 0 0.018171501915172396 -0.00175069967520717 0 0.018171501915172396 -0.00175069967520717 0 0.018574483249276543 -0.0023206348126694745 0 0.018761168305285816 -0.0018373454889660037 0 0.017599137664296636 -0.0024166177868201635 0 0.018171501915172396 -0.00175069967520717 0 0.018574483249276543 -0.0023206348126694745 0 0.017599137664296636 -0.0024166177868201635 0 0.018574483249276543 -0.0023206348126694745 0 0.018536021413136476 -0.0029716123274773974 0 0.017599137664296636 -0.0024166177868201635 0 0.018536021413136476 -0.0029716123274773974 0 0.017507297059648874 -0.0034762370214554386 0 0.018536021413136476 -0.0029716123274773974 0 0.017507297059648874 -0.0034762370214554386 0 0.018311572328715098 -0.0042498673416552736 0 0.016274998853236966 -0.0032525049834728537 0 0.017507297059648874 -0.0034762370214554386 0 0.016889124770030618 -0.0047211155347389932 0 0.016274998853236966 -0.0032525049834728537 0 0.017599137664296636 -0.0024166177868201635 0 0.017507297059648874 -0.0034762370214554386 0 0.017507297059648874 -0.0034762370214554386 0 0.016889124770030618 -0.0047211155347389932 0 0.018311572328715098 -0.0042498673416552736 0 0.016889124770030618 -0.0047211155347389932 0 0.018311572328715098 -0.0042498673416552736 0 0.018815342360138782 -0.0055700480203618582 0 0.016889124770030618 -0.0047211155347389932 0 0.018815342360138782 -0.0055700480203618582 0 0.017652155873292368 -0.0065083007741061826 0 0.016889124770030618 -0.0047211155347389932 0 0.016169125925689934 -0.0057935176924423211 0 0.017652155873292368 -0.0065083007741061826 0 0.016889124770030618 -0.0047211155347389932 0 0.01566745092368866 -0.0042752230288347634 0 0.016169125925689934 -0.0057935176924423211 0 0.029000007836278811 -0.0024436079761000536 0 0.023594010393456627 -0.0028291890680564764 0 0.01566745092368866 -0.0042752230288347634 0 0.016169125925689934 -0.0057935176924423211 0 0.014938701296241761 -0.0052057508651141083 0 0.040055722468738071 0.00087740783215521775 0 0.040360133146227543 0.00098488040903470632 0 0.039680612457695608 0.0012590992069045697 0 0.013675679554211843 -0.0054932711299966958 0 0.023594010393456627 -0.0028291890680564764 0 0.016274998853236966 -0.0032525049834728537 0 0.016889124770030618 -0.0047211155347389932 0 0.01566745092368866 -0.0042752230288347634 0 0.011878440570782602 -0.0032710391572154563 0 0.011779321108298388 -0.0029766710040146503 0 0.011663437385989473 -0.0031397582406184747 0 0.011878440570782602 -0.0032710391572154563 0 0.011779321108298388 -0.0029766710040146503 0 0.012057562279308511 -0.0030140817292057579 0 0.01187893371117818 -0.0028170842036083269 0 0.011779321108298388 -0.0029766710040146503 0 0.012057562279308511 -0.0030140817292057579 0 0.011755086280578956 -0.0028031590156162799 0 0.01187893371117818 -0.0028170842036083269 0 0.011779321108298388 -0.0029766710040146503 0 0.011755086280578956 -0.0028031590156162799 0 0.011779321108298388 -0.0029766710040146503 0 0.011467643846197698 -0.0029136817448063078 0 0.011779321108298388 -0.0029766710040146503 0 0.011663437385989473 -0.0031397582406184747 0 0.011467643846197698 -0.0029136817448063078 0 0.011663437385989473 -0.0031397582406184747 0 0.011467643846197698 -0.0029136817448063078 0 0.011537125241698641 -0.0034177315633374238 0 0.011878440570782602 -0.0032710391572154563 0 0.011663437385989473 -0.0031397582406184747 0 0.011537125241698641 -0.0034177315633374238 0 0.014356863981429966 -0.0030869218515857553 0 0.016770706549358985 -0.003241480246050768 0 0.021157239811304119 -0.0025947389467022059 0 0.020868195930806674 -0.0028810647042873299 0 0.021369074625049458 -0.0031978647554337788 0 0.013998753290946627 -0.0023666396405747627 0 0.015879951045952384 -0.002647753627138566 0 0.015619762775217899 -0.00098463915787203602 0 0.014235173179986552 -0.00376165091513891 0 0.013998753290946627 -0.0023666396405747627 0 0.015879951045952384 -0.002647753627138566 0 0.014356863981429966 -0.0030869218515857553 0 0.019064572809499587 -0.0023858619722751961 0 0.016274121319542773 -0.0016714912133993366 0 0.019064572809499587 -0.0023858619722751961 0 0.019404185066474303 -0.001988726411770652 0 0.019093747655961928 -0.0026253857934052244 0 0.019556649043293226 -0.0030277055511126398 0 0.019404185066474303 -0.001988726411770652 0 0.019205925529327931 -0.0021257089800801872 0 0.019093747655961928 -0.0026253857934052244 0 0.016274121319542773 -0.0016714912133993366 0 0.017178857336585907 -0.0013667182830587488 0 0.019424198652608419 -0.0019718391982247721 0 0.018761168305285816 -0.0018373454889660037 0 0.019205925529327931 -0.0021257089800801872 0 0.018574483249276543 -0.0023206348126694745 0 0.018761168305285816 -0.0018373454889660037 0 0.019205925529327931 -0.0021257089800801872 0 0.018574483249276543 -0.0023206348126694745 0 0.018536021413136476 -0.0029716123274773974 0 0.019093747655961928 -0.0026253857934052244 0 0.018574483249276543 -0.0023206348126694745 0 0.019205925529327931 -0.0021257089800801872 0 0.019093747655961928 -0.0026253857934052244 0 0.018536021413136476 -0.0029716123274773974 0 0.019093747655961928 -0.0026253857934052244 0 0.019556649043293226 -0.0030277055511126398 0 0.019064572809499587 -0.0023858619722751961 0 0.020902957792838548 -0.004032019225814659 0 0.018536021413136476 -0.0029716123274773974 0 0.018311572328715098 -0.0042498673416552736 0 0.019556649043293226 -0.0030277055511126398 0 0.01857915142514225 -0.0043138588690661769 0 0.019064572809499587 -0.0023858619722751961 0 0.018311572328715098 -0.0042498673416552736 0 0.018815342360138782 -0.0055700480203618582 0 0.020270127612609219 -0.004551252453685652 0 0.018311572328715098 -0.0042498673416552736 0 0.019958289514654896 -0.0027660724723126712 0 0.020270127612609219 -0.004551252453685652 0 0.018815342360138782 -0.0055700480203618582 0 0.020270127612609219 -0.004551252453685652 0 0.020643692883963824 -0.0061915859015211549 0 0.020902957792838548 -0.004032019225814659 0 0.019901971803289717 -0.0055496023453348682 0 0.021296631837196704 -0.0036909637902068594 0 0.021025996010858247 -0.0034395455397063087 0 0.021222522429671851 -0.0040332620212325306 0 0.021296631837196704 -0.0036909637902068594 0 0.021647739977731378 -0.0038807048812897925 0 0.021222522429671851 -0.0040332620212325306 0 0.020868195930806674 -0.0028810647042873299 0 0.021025996010858247 -0.0034395455397063087 0 0.021369074625049458 -0.0031978647554337788 0 0.021296631837196704 -0.0036909637902068594 0 0.021025996010858247 -0.0034395455397063087 0 0.021369074625049458 -0.0031978647554337788 0 0.011878440570782602 -0.0032710391572154563 0 0.011537125241698641 -0.0034177315633374238 0 0.011871402110600181 -0.003679114351794543 0 0.011537125241698641 -0.0034177315633374238 0 0.011686802046984159 -0.0041007505207680088 0 0.011871402110600181 -0.003679114351794543 0 0.021296631837196704 -0.0036909637902068594 0 0.021369074625049458 -0.0031978647554337788 0 0.021647739977731378 -0.0038807048812897925 0 0.016770706549358985 -0.003241480246050768 0 0.016219548527007032 -0.0041870177598491943 0 0.011686802046984159 -0.0041007505207680088 0 0.012138039137259011 -0.0043762139258142346 0 0.01231090749750861 -0.0038691526405045282 0 0.011686802046984159 -0.0041007505207680088 0 0.011871402110600181 -0.003679114351794543 0 0.01231090749750861 -0.0038691526405045282 0 0.011904967243738941 -0.0033064901602250555 0 0.012202305589390242 -0.0038320073780049551 0 0.011878440570782602 -0.0032710391572154563 0 0.011871402110600181 -0.003679114351794543 0 0.01231090749750861 -0.0038691526405045282 0 0.012138039137259011 -0.0043762139258142346 0 0.011886935876417992 -0.0047643301492468352 0 0.012388616957193932 -0.0050451557667892215 0 0.021647739977731378 -0.0038807048812897925 0 0.021549217611553879 -0.0042116821044734963 0 0.021726736274218252 -0.0044649752586873523 0 0.011686802046984159 -0.0041007505207680088 0 0.012138039137259011 -0.0043762139258142346 0 0.011886935876417992 -0.0047643301492468352 0 0.016219548527007032 -0.0041870177598491943 0 0.020079929627349273 -0.0035758883857055172 0 0.021647739977731378 -0.0038807048812897925 0 0.021726736274218252 -0.0044649752586873523 0 0.021891339164204798 -0.0045471780431980378 0 0.021549217611553879 -0.0042116821044734963 0 0.021726736274218252 -0.0044649752586873523 0 0.021883337454769832 -0.0047665201100402909 0 0.021549217611553879 -0.0042116821044734963 0 0.021456036590321831 -0.0048259773318003862 0 0.02207001391178098 -0.0050463548280252225 0 0.019758927060980924 -0.0043583293758793964 0 0.029733952942972867 -0.0033312760001768557 0 0.021657334320183779 -0.0044055200347452063 0 0.020079929627349273 -0.0035758883857055172 0 0.021726736274218252 -0.0044649752586873523 0 0.021929257710802806 -0.0045360708842519058 0 0.021883337454769832 -0.0047665201100402909 0 0.021061515271019068 -0.0078593638894058366 0 0.020643692883963824 -0.0061915859015211549 0 0.0193177538193312 -0.0072117468364592315 0 0.031343282971268961 -0.0033187952331033403 0 0.019901971803289717 -0.0055496023453348682 0 0.021549217611553879 -0.0042116821044734963 0 0.021456036590321831 -0.0048259773318003862 0 0.021222522429671851 -0.0040332620212325306 0 0.021647739977731378 -0.0038807048812897925 0 0.021549217611553879 -0.0042116821044734963 0 0.021222522429671851 -0.0040332620212325306 0 0.018815342360138782 -0.0055700480203618582 0 0.020643692883963824 -0.0061915859015211549 0 0.0193177538193312 -0.0072117468364592315 0 0.031343282971268961 -0.0033187952331033403 0 0.030476880382784229 -0.0034796609427116543 0 0.04192902003233507 0.00016135250407740045 0 0.041481648386578425 0.00040237472213943771 0 0.041517236270235597 7.5669674654249916e-05 0 0.04192902003233507 0.00016135250407740045 0 0.041517236270235597 7.5669674654249916e-05 0 0.041731004127677794 -0.00016584176014100614 0 0.041517236270235597 7.5669674654249916e-05 0 0.041731004127677794 -0.00016584176014100614 0 0.041447152142286135 -0.00021403326932765033 0 0.041731004127677794 -0.00016584176014100614 0 0.041838477501907972 -0.00042719345694056376 0 0.041667654605596106 -0.00047911233188820156 0 0.041731004127677794 -0.00016584176014100614 0 0.041447152142286135 -0.00021403326932765033 0 0.041667654605596106 -0.00047911233188820156 0 0.041731004127677794 -0.00016584176014100614 0 0.041838477501907972 -0.00042719345694056376 0 0.042071918695857038 -0.00034527553650148601 0 0.04192902003233507 0.00016135250407740045 0 0.041731004127677794 -0.00016584176014100614 0 0.042071918695857038 -0.00034527553650148601 0 0.031343282971268961 -0.0033187952331033403 0 0.042766467755415039 -0.00011498719316629886 0 0.033347636587728421 -0.0019124734354556633 0 0.032966210151600582 -0.0017686968519278437 0 0.033714776163044344 -0.0034122637394613958 0 0.040869658066883148 -0.00058569304256436173 0 0.041107532073655056 -0.00093492446632362843 0 0.041140783723315755 -0.0006683162736799529 0 0.031343282971268961 -0.0033187952331033403 0 0.029733952942972867 -0.0033312760001768557 0 0.021929257710802806 -0.0045360708842519058 0 0.022025396090381892 -0.0048151205081252502 0 0.021883337454769832 -0.0047665201100402909 0 0.020079929627349273 -0.0035758883857055172 0 0.029559591307362118 -0.0029442432503580663 0 0.029559591307362118 -0.0029442432503580663 0 0.029733952942972867 -0.0033312760001768557 0 0.029733952942972867 -0.0033312760001768557 0 0.03828062569460837 -0.0020071635167293123 0 0.041107532073655056 -0.00093492446632362843 0 0.041140783723315755 -0.0006683162736799529 0 0.041373792513641386 -0.00097043017964005911 0 0.029559591307362118 -0.0029442432503580663 0 0.03828062569460837 -0.0020071635167293123 0 0.037466821970533658 -0.0017947221535800574 0 0.037602669139383038 -0.0020328997471751138 0 0.037777509668893247 -0.0019138092945295553 0 0.029559591307362118 -0.0029442432503580663 0 0.031603021044807361 -0.0028358193712069049 0 0.020079929627349273 -0.0035758883857055172 0 0.018155165087561431 -0.0041807106811578964 0 0.024059158030278392 -0.0030308724724139899 0 0.024150091544985791 -0.0034061577969668609 0 0.024819234551289353 -0.0034240318498249662 0 0.024150091544985791 -0.0034061577969668609 0 0.024819234551289353 -0.0034240318498249662 0 0.024887684284739833 -0.0037054226085717489 0 0.040706463394698827 0.00050122517564548882 0 0.040339700433539537 0.00052253807593830688 0 0.040654467956018313 0.00020327864959704815 0 0.040339700433539537 0.00052253807593830688 0 0.040312058500312747 0.0001027920488041452 0 0.039907826788362674 0.00045062226360864253 0 0.040339700433539537 0.00052253807593830688 0 0.040055722468738071 0.00087740783215521775 0 0.039907826788362674 0.00045062226360864253 0 0.040339700433539537 0.00052253807593830688 0 0.040055722468738071 0.00087740783215521775 0 0.040360133146227543 0.00098488040903470632 0 0.029000007836278811 -0.0024436079761000536 0 0.029148321121589001 -0.0028636150045527812 0 0.040706463394698827 0.00050122517564548882 0 0.040339700433539537 0.00052253807593830688 0 0.040360133146227543 0.00098488040903470632 0 0.040706463394698827 0.00050122517564548882 0 0.040360133146227543 0.00098488040903470632 0 0.040964834399495241 0.00069430940492713278 0 0.030476880382784229 -0.0034796609427116543 0 0.029148321121589001 -0.0028636150045527812 0 0.018815342360138782 -0.0055700480203618582 0 0.0193177538193312 -0.0072117468364592315 0 0.017652155873292368 -0.0065083007741061826 0 0.041481648386578425 0.00040237472213943771 0 0.040964834399495241 0.00069430940492713278 0 0.041151048320698859 0.00014339481647519217 0 0.041481648386578425 0.00040237472213943771 0 0.041517236270235597 7.5669674654249916e-05 0 0.041151048320698859 0.00014339481647519217 0 0.040706463394698827 0.00050122517564548882 0 0.040964834399495241 0.00069430940492713278 0 0.041151048320698859 0.00014339481647519217 0 0.040706463394698827 0.00050122517564548882 0 0.041151048320698859 0.00014339481647519217 0 0.040654467956018313 0.00020327864959704815 0 0.041517236270235597 7.5669674654249916e-05 0 0.041151048320698859 0.00014339481647519217 0 0.041447152142286135 -0.00021403326932765033 0 0.041447152142286135 -0.00021403326932765033 0 0.041175653523712913 -0.00030695030230967226 0 0.041446070614199103 -0.00053372841712048423 0 0.041447152142286135 -0.00021403326932765033 0 0.041446070614199103 -0.00053372841712048423 0 0.041667654605596106 -0.00047911233188820156 0 0.041151048320698859 0.00014339481647519217 0 0.041447152142286135 -0.00021403326932765033 0 0.041175653523712913 -0.00030695030230967226 0 0.041151048320698859 0.00014339481647519217 0 0.041175653523712913 -0.00030695030230967226 0 0.040791746538570761 -0.00016895498287552502 0 0.040791746538570761 -0.00016895498287552502 0 0.040481032876531986 -0.00034975798325113331 0 0.040933515963754628 -0.00047630275705332179 0 0.041175653523712913 -0.00030695030230967226 0 0.040791746538570761 -0.00016895498287552502 0 0.040933515963754628 -0.00047630275705332179 0 0.040791746538570761 -0.00016895498287552502 0 0.040654467956018313 0.00020327864959704815 0 0.040312058500312747 0.0001027920488041452 0 0.041151048320698859 0.00014339481647519217 0 0.040791746538570761 -0.00016895498287552502 0 0.040654467956018313 0.00020327864959704815 0 0.040339700433539537 0.00052253807593830688 0 0.040654467956018313 0.00020327864959704815 0 0.040312058500312747 0.0001027920488041452 0 0.040312058500312747 0.0001027920488041452 0 0.040481032876531986 -0.00034975798325113331 0 0.039841687042250037 -5.5156589776692963e-05 0 0.040791746538570761 -0.00016895498287552502 0 0.040312058500312747 0.0001027920488041452 0 0.040481032876531986 -0.00034975798325113331 0 0.040481032876531986 -0.00034975798325113331 0 0.03999025443247152 -0.00041694322748738892 0 0.039841687042250037 -5.5156589776692963e-05 0 0.039841687042250037 -5.5156589776692963e-05 0 0.039461381703708893 7.1423067925873592e-06 0 0.039346837349090523 -0.00045109326794675226 0 0.03999025443247152 -0.00041694322748738892 0 0.039841687042250037 -5.5156589776692963e-05 0 0.039346837349090523 -0.00045109326794675226 0 0.039461381703708893 7.1423067925873592e-06 0 0.039527710254251149 0.00030342691821893787 0 0.039129993590459697 0.00021386728798881722 0 0.039841687042250037 -5.5156589776692963e-05 0 0.039461381703708893 7.1423067925873592e-06 0 0.039527710254251149 0.00030342691821893787 0 0.039841687042250037 -5.5156589776692963e-05 0 0.039527710254251149 0.00030342691821893787 0 0.039907826788362674 0.00045062226360864253 0 0.040312058500312747 0.0001027920488041452 0 0.039841687042250037 -5.5156589776692963e-05 0 0.039907826788362674 0.00045062226360864253 0 0.039527710254251149 0.00030342691821893787 0 0.039907826788362674 0.00045062226360864253 0 0.039556943368404159 0.00058597341567218303 0 0.039907826788362674 0.00045062226360864253 0 0.039556943368404159 0.00058597341567218303 0 0.039749814277479902 0.00072437054841338556 0 0.039527710254251149 0.00030342691821893787 0 0.03926573567690772 0.00049414138321407541 0 0.039129993590459697 0.00021386728798881722 0 0.039527710254251149 0.00030342691821893787 0 0.039556943368404159 0.00058597341567218303 0 0.03926573567690772 0.00049414138321407541 0 0.039329624110259927 0.00074892150478482228 0 0.039193865344959916 0.00073469895458546308 0 0.03926573567690772 0.00049414138321407541 0 0.039556943368404159 0.00058597341567218303 0 0.039329624110259927 0.00074892150478482228 0 0.03926573567690772 0.00049414138321407541 0 0.039561962232607065 0.00079065848027379249 0 0.039329624110259927 0.00074892150478482228 0 0.03958732455185146 0.00099321677685230698 0 0.039556943368404159 0.00058597341567218303 0 0.039561962232607065 0.00079065848027379249 0 0.039329624110259927 0.00074892150478482228 0 0.039329624110259927 0.00074892150478482228 0 0.039248755387067555 0.000855917327449872 0 0.039193865344959916 0.00073469895458546308 0 0.026002812558997779 -0.00010063714711720211 0 0.026585900632917429 6.3487012076313755e-05 0 0.026208767274178559 0.00027407333082413832 0 0.039329624110259927 0.00074892150478482228 0 0.039248755387067555 0.000855917327449872 0 0.039372302361574629 0.0008791593435843757 0 0.039753077584308016 0.0013642081874238961 0 0.036132621023645194 0.0009651972592406836 0 0.031939003891983328 0.00021268339218694649 0 0.036132621023645194 0.0009651972592406836 0 0.039561962232607065 0.00079065848027379249 0 0.039707866361034905 0.00091370597309615921 0 0.03958732455185146 0.00099321677685230698 0 0.039707866361034905 0.00091370597309615921 0 0.03958732455185146 0.00099321677685230698 0 0.039713020121297897 0.0010552066828674845 0 0.040055722468738071 0.00087740783215521775 0 0.039907826788362674 0.00045062226360864253 0 0.039749814277479902 0.00072437054841338556 0 0.040055722468738071 0.00087740783215521775 0 0.039707866361034905 0.00091370597309615921 0 0.039713020121297897 0.0010552066828674845 0 0.040055722468738071 0.00087740783215521775 0 0.039707866361034905 0.00091370597309615921 0 0.039749814277479902 0.00072437054841338556 0 0.039556943368404159 0.00058597341567218303 0 0.039561962232607065 0.00079065848027379249 0 0.039749814277479902 0.00072437054841338556 0 0.039561962232607065 0.00079065848027379249 0 0.039707866361034905 0.00091370597309615921 0 0.039749814277479902 0.00072437054841338556 0 0.027883452516713307 0.003007609469246868 0 0.026658455279043841 0.0026356835906832863 0 0.02759505289340513 0.0014286406031966828 0 0.03284467031382976 0.0036149470054770345 0 0.025258270802184998 0.0017044703072119577 0 0.033321034499226847 0.0019594015188713508 0 0.026011794793917908 0.0010056119736173562 0 0.03284467031382976 0.0036149470054770345 0 0.033321034499226847 0.0019594015188713508 0 0.031939003891983328 0.00021268339218694649 0 0.033321034499226847 0.0019594015188713508 0 0.026002812558997779 -0.00010063714711720211 0 0.025440065340124933 -0.00026757795459459328 0 0.025704813676954576 0.00021186307061917773 0 0.039248755387067555 0.000855917327449872 0 0.039193865344959916 0.00073469895458546308 0 0.038918563440173755 0.0008143160689418153 0 0.033321034499226847 0.0019594015188713508 0 0.040697044319056609 0.0020981556930502574 0 0.038918563440173755 0.0008143160689418153 0 0.03926573567690772 0.00049414138321407541 0 0.039129993590459697 0.00021386728798881722 0 0.040491339828260003 0.0047264822068949748 0 0.040313948073341224 0.0041522707013886707 0 0.040815420978466882 0.0038498744391366265 0 0.039193865344959916 0.00073469895458546308 0 0.038918563440173755 0.0008143160689418153 0 0.03926573567690772 0.00049414138321407541 0 0.039973454152545433 0.0045723133665194109 0 0.040313948073341224 0.0041522707013886707 0 0.039880644258697084 0.0038504139228353507 0 0.039973454152545433 0.0045723133665194109 0 0.040491339828260003 0.0047264822068949748 0 0.040313948073341224 0.0041522707013886707 0 0.040313948073341224 0.0041522707013886707 0 0.040815420978466882 0.0038498744391366265 0 0.040367075631986778 0.0034851068210870841 0 0.040313948073341224 0.0041522707013886707 0 0.040367075631986778 0.0034851068210870841 0 0.039880644258697084 0.0038504139228353507 0 0.040367075631986778 0.0034851068210870841 0 0.039796605437278212 0.0032782902145147438 0 0.039880644258697084 0.0038504139228353507 0 0.040697044319056609 0.0020981556930502574 0 0.040879527446758816 0.0012172336538243465 0 0.040815420978466882 0.0038498744391366265 0 0.040367075631986778 0.0034851068210870841 0 0.041034617624621191 0.003007562521001891 0 0.039461381703708893 7.1423067925873592e-06 0 0.039129993590459697 0.00021386728798881722 0 0.039346837349090523 -0.00045109326794675226 0 0.040483460062642265 0.0039283961207296448 0 0.040879527446758816 0.0012172336538243465 0 0.040367075631986778 0.0034851068210870841 0 0.040679444292070426 0.0026706585698365827 0 0.041740033264107072 0.0027915470764580085 0 0.039796605437278212 0.0032782902145147438 0 0.039861763916352426 0.002574513202583683 0 0.040679444292070426 0.0026706585698365827 0 0.040367075631986778 0.0034851068210870841 0 0.039796605437278212 0.0032782902145147438 0 0.040679444292070426 0.0026706585698365827 0 0.039774728217248229 0.0034184461425809981 0 0.039839471039864786 0.0029053560947683178 0 0.039796605437278212 0.0032782902145147438 0 0.039051084285611819 0.0033504263935190044 0 0.039861763916352426 0.002574513202583683 0 0.039796605437278212 0.0032782902145147438 0 0.039051084285611819 0.0033504263935190044 0 0.039479265563481906 0.0036338783545046805 0 0.039141802029916004 0.0042262673992177306 0 0.038697586085041376 0.0031535234038105628 0 0.040040774876832122 0.0030265790494811728 0 0.039141802029916004 0.0042262673992177306 0 0.037813488133090704 0.0038908015178391975 0 0.038697586085041376 0.0031535234038105628 0 0.039774728217248229 0.0034184461425809981 0 0.032506672594749687 0.0049309168896405952 0 0.039051084285611819 0.0033504263935190044 0 0.038739471705689789 0.0041494420978561023 0 0.039162949260603132 0.0040810718111452104 0 0.039051084285611819 0.0033504263935190044 0 0.038739471705689789 0.0041494420978561023 0 0.03820149451488522 0.0042375477410034126 0 0.039141802029916004 0.0042262673992177306 0 0.037813488133090704 0.0038908015178391975 0 0.038199132720721757 0.005406002864427403 0 0.038739471705689789 0.0041494420978561023 0 0.039162949260603132 0.0040810718111452104 0 0.038877302088378508 0.0044726877762058352 0 0.039162949260603132 0.0040810718111452104 0 0.039880644258697084 0.0038504139228353507 0 0.03939961482669465 0.0044944150437706467 0 0.039796605437278212 0.0032782902145147438 0 0.039880644258697084 0.0038504139228353507 0 0.039479265563481906 0.0036338783545046805 0 0.039051084285611819 0.0033504263935190044 0 0.039162949260603132 0.0040810718111452104 0 0.039479265563481906 0.0036338783545046805 0 0.039162949260603132 0.0040810718111452104 0 0.039880644258697084 0.0038504139228353507 0 0.039479265563481906 0.0036338783545046805 0 0.028375369464006206 0.006156086044176951 0 0.029557523466230012 0.0057528858299337382 0 0.028912860409264839 0.0065289463444855892 0 0.028375369464006206 0.006156086044176951 0 0.028705366385599361 0.0053598532737580496 0 0.029557523466230012 0.0057528858299337382 0 0.028375369464006206 0.006156086044176951 0 0.028232558709237993 0.0056988047484218454 0 0.027905376658173046 0.0058764038835093929 0 0.028375369464006206 0.006156086044176951 0 0.028232558709237993 0.0056988047484218454 0 0.028705366385599361 0.0053598532737580496 0 0.028232558709237993 0.0056988047484218454 0 0.028705366385599361 0.0053598532737580496 0 0.027942720924616374 0.0054006298931015108 0 0.029270867338304179 0.0068043398155928358 0 0.028119240938152046 0.0069821633566302744 0 0.02960583309646355 0.0073856785104164796 0 0.03387602263178037 0.0051204474548835165 0 0.032506672594749687 0.0049309168896405952 0 0.029557523466230012 0.0057528858299337382 0 0.029879467072304416 0.0070418493805469197 0 0.029270867338304179 0.0068043398155928358 0 0.029557523466230012 0.0057528858299337382 0 0.029270867338304179 0.0068043398155928358 0 0.028912860409264839 0.0065289463444855892 0 0.029879467072304416 0.0070418493805469197 0 0.029270867338304179 0.0068043398155928358 0 0.02960583309646355 0.0073856785104164796 0 0.029270867338304179 0.0068043398155928358 0 0.028912860409264839 0.0065289463444855892 0 0.028119240938152046 0.0069821633566302744 0 0.028375369464006206 0.006156086044176951 0 0.028912860409264839 0.0065289463444855892 0 0.028119240938152046 0.0069821633566302744 0 0.024017539327434591 0.0057157874205917463 0 0.025100283187364524 0.0044072683635217437 0 0.019893087004673699 0.0041021624695241126 0 0.020028588124671055 0.0041758346667209248 0 0.020277039093995843 0.004138805618610397 0 0.019924901974389345 0.0042005104251021811 0 0.020028588124671055 0.0041758346667209248 0 0.019973278057435182 0.004317039531646018 0 0.019924901974389345 0.0042005104251021811 0 0.019973278057435182 0.004317039531646018 0 0.019824391543221583 0.0042750525680824766 0 0.019893087004673699 0.0041021624695241126 0 0.019925550936584172 0.0041467269578878948 0 0.020028588124671055 0.0041758346667209248 0 0.019924901974389345 0.0042005104251021811 0 0.019925550936584172 0.0041467269578878948 0 0.019878371229044754 0.0041126039564477312 0 0.019924901974389345 0.0042005104251021811 0 0.019925550936584172 0.0041467269578878948 0 0.020028588124671055 0.0041758346667209248 0 0.019893087004673699 0.0041021624695241126 0 0.019925550936584172 0.0041467269578878948 0 0.019878371229044754 0.0041126039564477312 0 0.020028588124671055 0.0041758346667209248 0 0.020202551399506198 0.0042274922872331047 0 0.019973278057435182 0.004317039531646018 0 0.018569100825107595 0.0030922511197117178 0 0.017536344464608337 0.0025862710469982818 0 0.020028588124671055 0.0041758346667209248 0 0.020202551399506198 0.0042274922872331047 0 0.020277039093995843 0.004138805618610397 0 0.020804760411267553 0.0042371522511918114 0 0.022408590439398128 0.0021329100896410125 0 0.023982162539472548 0.0026035416130258809 0 0.028201160427371426 0.0040952018882754269 0 0.027965456540122276 0.0043854383352237404 0 0.028168289622352783 0.004443566809593469 0 0.032506672594749687 0.0049309168896405952 0 0.025100283187364524 0.0044072683635217437 0 0.025100283187364524 0.0044072683635217437 0 0.024223015521043032 0.0035500948075620938 0 0.015232428767976845 0.00082702577405503546 0 0.015244996465631783 0.00084699548410323072 0 0.015209869374302984 0.00080681766377482865 0 0.015244996465631783 0.00084699548410323072 0 0.015209869374302984 0.00080681766377482865 0 0.015240045268500237 0.00084708758840983437 0 0.018569100825107595 0.0030922511197117178 0 0.024223015521043032 0.0035500948075620938 0 0.018569100825107595 0.0030922511197117178 0 0.025100283187364524 0.0044072683635217437 0 0.015209869374302984 0.00080681766377482865 0 0.015165082891841097 0.00078068504820267789 0 0.015177109722070285 0.00075892957625465932 0 0.015209869374302984 0.00080681766377482865 0 0.015200742019968069 0.00077579294218049712 0 0.015177109722070285 0.00075892957625465932 0 0.015200742019968069 0.00077579294218049712 0 0.015181805216934397 0.00074980195108983723 0 0.015177109722070285 0.00075892957625465932 0 0.015232428767976845 0.00082702577405503546 0 0.015209869374302984 0.00080681766377482865 0 0.015200742019968069 0.00077579294218049712 0 0.015232428767976845 0.00082702577405503546 0 0.015200742019968069 0.00077579294218049712 0 0.015183916038699188 0.00073161786408172994 0 0.018569100825107595 0.0030922511197117178 0 0.014383637755595277 0.00023921537694973348 0 0.015234370010885014 0.00082857293285536974 0 0.015192153977509688 0.00073844606651727912 0 0.015213085559739159 0.0007840826500090201 0 0.015234370010885014 0.00082857293285536974 0 0.015192153977509688 0.00073844606651727912 0 0.015183916038699188 0.00073161786408172994 0 0.015200742019968069 0.00077579294218049712 0 0.015185583267468484 0.00074787788602076423 0 0.015183916038699188 0.00073161786408172994 0 0.015200742019968069 0.00077579294218049712 0 0.015185583267468484 0.00074787788602076423 0 0.015181805216934397 0.00074980195108983723 0 0.015192153977509688 0.00073844606651727912 0 0.015213085559739159 0.0007840826500090201 0 0.01529606992065353 0.00075883522993965024 0 0.039912390397142859 0.0051399910082111193 0 0.039880644258697084 0.0038504139228353507 0 0.03939961482669465 0.0044944150437706467 0 0.03284467031382976 0.0036149470054770345 0 0.041313793936707435 0.0046046089069558876 0 0.039912390397142859 0.0051399910082111193 0 0.039151896737122695 0.0049103813813288046 0 0.03939961482669465 0.0044944150437706467 0 0.03284467031382976 0.0036149470054770345 0 0.032267979459824174 0.004351420765892235 0 0.039151896737122695 0.0049103813813288046 0 0.03939961482669465 0.0044944150437706467 0 0.038877302088378508 0.0044726877762058352 0 0.039162949260603132 0.0040810718111452104 0 0.03939961482669465 0.0044944150437706467 0 0.038877302088378508 0.0044726877762058352 0 0.039151896737122695 0.0049103813813288046 0 0.038877302088378508 0.0044726877762058352 0 0.038313673595955812 0.0046826462700007582 0 0.024104011708487569 0.0034098275488020514 0 0.024983214711992573 0.0036742479526213558 0 0.024602849338076958 0.0024869072301707314 0 0.038877302088378508 0.0044726877762058352 0 0.038313673595955812 0.0046826462700007582 0 0.038287940346179709 0.0045771985708634331 0 0.038739471705689789 0.0041494420978561023 0 0.038877302088378508 0.0044726877762058352 0 0.038287940346179709 0.0045771985708634331 0 0.038739471705689789 0.0041494420978561023 0 0.03820149451488522 0.0042375477410034126 0 0.038287940346179709 0.0045771985708634331 0 0.028201160427371426 0.0040952018882754269 0 0.028168289622352783 0.004443566809593469 0 0.02827441919187635 0.004389262540284009 0 0.032506672594749687 0.0049309168896405952 0 0.027084473518456144 0.0034243537665632254 0 0.026081092431028303 0.0033421656347760618 0 0.027084473518456144 0.0034243537665632254 0 0.027042242431456434 0.0036986951482964078 0 0.025947671885751256 0.0033681672190064701 0 0.026172190282745589 0.004148692532275752 0 0.024223015521043032 0.0035500948075620938 0 0.026081092431028303 0.0033421656347760618 0 0.024223015521043032 0.0035500948075620938 0 0.027084473518456144 0.0034243537665632254 0 0.032267979459824174 0.004351420765892235 0 0.026081092431028303 0.0033421656347760618 0 0.024104011708487569 0.0034098275488020514 0 0.024602849338076958 0.0024869072301707314 0 0.023824379617469898 0.0024406247105301579 0 0.026081092431028303 0.0033421656347760618 0 0.019436871933678362 0.0011883226137260879 0 0.015209869374302984 0.00080681766377482865 0 0.015240045268500237 0.00084708758840983437 0 0.015165082891841097 0.00078068504820267789 0 0.023232090055873574 0.0031461334331371305 0 0.024104011708487569 0.0034098275488020514 0 0.023824379617469898 0.0024406247105301579 0 0.023232090055873574 0.0031461334331371305 0 0.023824379617469898 0.0024406247105301579 0 0.022979289313788103 0.0018502411854767822 0 0.023824379617469898 0.0024406247105301579 0 0.024203421289286441 0.0013022340969309001 0 0.022979289313788103 0.0018502411854767822 0 0.015165082891841097 0.00078068504820267789 0 0.015144216664801625 0.00074488711797589973 0 0.015177109722070285 0.00075892957625465932 0 0.024602849338076958 0.0024869072301707314 0 0.023824379617469898 0.0024406247105301579 0 0.024203421289286441 0.0013022340969309001 0 0.019436871933678362 0.0011883226137260879 0 0.019888763522109287 0.0011843540426820652 0 0.015165082891841097 0.00078068504820267789 0 0.015144216664801625 0.00074488711797589973 0 0.015108572288444708 0.00072924834066561382 0 0.015144216664801625 0.00074488711797589973 0 0.015108572288444708 0.00072924834066561382 0 0.015118644134441261 0.00072457238034766996 0 0.015108572288444708 0.00072924834066561382 0 0.015118644134441261 0.00072457238034766996 0 0.015081648150910922 0.00069955240653176787 0 0.015108572288444708 0.00072924834066561382 0 0.015081648150910922 0.00069955240653176787 0 0.015075508969170747 0.00069350256448886692 0 0.015118644134441261 0.00072457238034766996 0 0.015081648150910922 0.00069955240653176787 0 0.015096109195581782 0.00070626974991934227 0 0.024203421289286441 0.0013022340969309001 0 0.023801687482438574 0.00012831854366569917 0 0.022741610847012407 0.00056137210825506678 0 0.024203421289286441 0.0013022340969309001 0 0.022979289313788103 0.0018502411854767822 0 0.022741610847012407 0.00056137210825506678 0 0.019888763522109287 0.0011843540426820652 0 0.016453053144605767 0.00061580449389699108 0 0.015134592830537823 0.00071954430036171458 0 0.015148936206746242 0.00072370902354990205 0 0.015140911648757038 0.00071860389888174199 0 0.015134592830537823 0.00071954430036171458 0 0.015148936206746242 0.00072370902354990205 0 0.015142502763460479 0.00072359303978131314 0 0.015148936206746242 0.00072370902354990205 0 0.015162336456221472 0.00072617753816606114 0 0.015161846854354679 0.00072983123691700805 0 0.015148936206746242 0.00072370902354990205 0 0.015161846854354679 0.00072983123691700805 0 0.015142502763460479 0.00072359303978131314 0 0.015148936206746242 0.00072370902354990205 0 0.015162336456221472 0.00072617753816606114 0 0.015140911648757038 0.00071860389888174199 0 0.015162336456221472 0.00072617753816606114 0 0.015156604597954653 0.0007169634191017206 0 0.015140911648757038 0.00071860389888174199 0 0.015192153977509688 0.00073844606651727912 0 0.015183916038699188 0.00073161786408172994 0 0.015156604597954653 0.0007169634191017206 0 0.015162336456221472 0.00072617753816606114 0 0.015183916038699188 0.00073161786408172994 0 0.015156604597954653 0.0007169634191017206 0 0.015162336456221472 0.00072617753816606114 0 0.015183916038699188 0.00073161786408172994 0 0.015171477898873896 0.00073098481057436388 0 0.015162336456221472 0.00072617753816606114 0 0.015171477898873896 0.00073098481057436388 0 0.015161846854354679 0.00072983123691700805 0 0.015171477898873896 0.00073098481057436388 0 0.015175553048161679 0.00073715656935324336 0 0.015161846854354679 0.00072983123691700805 0 0.015183916038699188 0.00073161786408172994 0 0.015171477898873896 0.00073098481057436388 0 0.015175553048161679 0.00073715656935324336 0 0.015185583267468484 0.00074787788602076423 0 0.015183916038699188 0.00073161786408172994 0 0.015175553048161679 0.00073715656935324336 0 0.015175553048161679 0.00073715656935324336 0 0.015181805216934397 0.00074980195108983723 0 0.015168124415397805 0.00073948758617110573 0 0.015185583267468484 0.00074787788602076423 0 0.015175553048161679 0.00073715656935324336 0 0.015181805216934397 0.00074980195108983723 0 0.015175553048161679 0.00073715656935324336 0 0.015168124415397805 0.00073948758617110573 0 0.015161846854354679 0.00072983123691700805 0 0.015168124415397805 0.00073948758617110573 0 0.0151531943982358 0.00072999101363071107 0 0.015161846854354679 0.00072983123691700805 0 0.0151531943982358 0.00072999101363071107 0 0.015161846854354679 0.00072983123691700805 0 0.015142502763460479 0.00072359303978131314 0 0.0151531943982358 0.00072999101363071107 0 0.015142502763460479 0.00072359303978131314 0 0.015139457821707449 0.00072472000010448043 0 0.0151531943982358 0.00072999101363071107 0 0.015145791013580063 0.00073237279184875867 0 0.015139457821707449 0.00072472000010448043 0 0.015168124415397805 0.00073948758617110573 0 0.0151531943982358 0.00072999101363071107 0 0.015145791013580063 0.00073237279184875867 0 0.015181805216934397 0.00074980195108983723 0 0.015168124415397805 0.00073948758617110573 0 0.015177109722070285 0.00075892957625465932 0 0.015168124415397805 0.00073948758617110573 0 0.015145791013580063 0.00073237279184875867 0 0.015177109722070285 0.00075892957625465932 0 0.015144216664801625 0.00074488711797589973 0 0.015145791013580063 0.00073237279184875867 0 0.015177109722070285 0.00075892957625465932 0 0.015144216664801625 0.00074488711797589973 0 0.015118644134441261 0.00072457238034766996 0 0.015145791013580063 0.00073237279184875867 0 0.015118644134441261 0.00072457238034766996 0 0.015120208674317947 0.00071934023170019631 0 0.015096109195581782 0.00070626974991934227 0 0.015118644134441261 0.00072457238034766996 0 0.015145791013580063 0.00073237279184875867 0 0.015120208674317947 0.00071934023170019631 0 0.015120208674317947 0.00071934023170019631 0 0.015096109195581782 0.00070626974991934227 0 0.015100212569373904 0.00070845632746182675 0 0.015100212569373904 0.00070845632746182675 0 0.01512474179522718 0.0007190603901911423 0 0.015110822177177671 0.00071242761572028548 0 0.015120208674317947 0.00071934023170019631 0 0.015100212569373904 0.00070845632746182675 0 0.01512474179522718 0.0007190603901911423 0 0.015145791013580063 0.00073237279184875867 0 0.015120208674317947 0.00071934023170019631 0 0.01512474179522718 0.0007190603901911423 0 0.015145791013580063 0.00073237279184875867 0 0.01512474179522718 0.0007190603901911423 0 0.015139457821707449 0.00072472000010448043 0 0.015142502763460479 0.00072359303978131314 0 0.015139457821707449 0.00072472000010448043 0 0.015126519237570777 0.0007184736359758247 0 0.01512474179522718 0.0007190603901911423 0 0.015139457821707449 0.00072472000010448043 0 0.015126519237570777 0.0007184736359758247 0 0.01512474179522718 0.0007190603901911423 0 0.015126519237570777 0.0007184736359758247 0 0.015110822177177671 0.00071242761572028548 0 0.015126519237570777 0.0007184736359758247 0 0.015110175874975961 0.00071285486569794753 0 0.015122624434367309 0.00071695629861236892 0 0.015126519237570777 0.0007184736359758247 0 0.015110822177177671 0.00071242761572028548 0 0.015110175874975961 0.00071285486569794753 0 0.015142502763460479 0.00072359303978131314 0 0.015126519237570777 0.0007184736359758247 0 0.015122624434367309 0.00071695629861236892 0 0.015134592830537823 0.00071954430036171458 0 0.015142502763460479 0.00072359303978131314 0 0.015122624434367309 0.00071695629861236892 0 0.015086218371534146 0.00069856529960518675 0 0.015100606276859491 0.0007087872192381463 0 0.015092276768322609 0.000705539503908349 0 0.015110822177177671 0.00071242761572028548 0 0.015110175874975961 0.00071285486569794753 0 0.015100606276859491 0.0007087872192381463 0 0.015086218371534146 0.00069856529960518675 0 0.015100606276859491 0.0007087872192381463 0 0.015100383007254548 0.00071098484071423402 0 0.015110175874975961 0.00071285486569794753 0 0.015100606276859491 0.0007087872192381463 0 0.015100383007254548 0.00071098484071423402 0 0.015100212569373904 0.00070845632746182675 0 0.015110822177177671 0.00071242761572028548 0 0.015092276768322609 0.000705539503908349 0 0.015110822177177671 0.00071242761572028548 0 0.015100606276859491 0.0007087872192381463 0 0.015092276768322609 0.000705539503908349 0 0.015092276768322609 0.000705539503908349 0 0.015073647203501484 0.00070234104971036689 0 0.015078978240582481 0.00069759454975112001 0 0.015086218371534146 0.00069856529960518675 0 0.015092276768322609 0.000705539503908349 0 0.015078978240582481 0.00069759454975112001 0 0.015073647203501484 0.00070234104971036689 0 0.015068465053257709 0.00070147007202241672 0 0.015078978240582481 0.00069759454975112001 0 0.015073647203501484 0.00070234104971036689 0 0.015049445709820386 0.00071275161270895808 0 0.015068465053257709 0.00070147007202241672 0 0.015100212569373904 0.00070845632746182675 0 0.015073647203501484 0.00070234104971036689 0 0.015079241230446221 0.00069854996731523564 0 0.015100212569373904 0.00070845632746182675 0 0.015092276768322609 0.000705539503908349 0 0.015073647203501484 0.00070234104971036689 0 0.015096109195581782 0.00070626974991934227 0 0.015100212569373904 0.00070845632746182675 0 0.015079241230446221 0.00069854996731523564 0 0.015096109195581782 0.00070626974991934227 0 0.015079241230446221 0.00069854996731523564 0 0.015074654129759285 0.00068879669752712209 0 0.015079241230446221 0.00069854996731523564 0 0.015050111372856551 0.00069010308277448189 0 0.015074654129759285 0.00068879669752712209 0 0.015073647203501484 0.00070234104971036689 0 0.015050111372856551 0.00069010308277448189 0 0.015049445709820386 0.00071275161270895808 0 0.015050111372856551 0.00069010308277448189 0 0.015049445709820386 0.00071275161270895808 0 0.01501449086998646 0.00076240844212375081 0 0.015073647203501484 0.00070234104971036689 0 0.015079241230446221 0.00069854996731523564 0 0.015050111372856551 0.00069010308277448189 0 0.014802646154474299 0.00087531905419390267 0 0.014862419002420956 0.00078773341058910296 0 0.015049445709820386 0.00071275161270895808 0 0.01506978312530728 0.00068027696862645037 0 0.01501449086998646 0.00076240844212375081 0 0.012973067999113398 0.0017397195078667745 0 0.01454750152043304 0.0011409923762195713 0 0.013951947820664102 0.0010733263722031634 0 0.01454750152043304 0.0011409923762195713 0 0.013951947820664102 0.0010733263722031634 0 0.01501449086998646 0.00076240844212375081 0 0.01506978312530728 0.00068027696862645037 0 0.015068465053257709 0.00070147007202241672 0 0.015078978240582481 0.00069759454975112001 0 0.015049445709820386 0.00071275161270895808 0 0.01506978312530728 0.00068027696862645037 0 0.015068465053257709 0.00070147007202241672 0 0.015086218371534146 0.00069856529960518675 0 0.015076176642142086 0.00068856946255339293 0 0.015067540156240415 0.00067995311749896104 0 0.01506978312530728 0.00068027696862645037 0 0.015076176642142086 0.00068856946255339293 0 0.015067540156240415 0.00067995311749896104 0 0.014802646154474299 0.00087531905419390267 0 0.011925747350946011 -0.00015986758548966281 0 0.01506978312530728 0.00068027696862645037 0 0.015076176642142086 0.00068856946255339293 0 0.015078978240582481 0.00069759454975112001 0 0.015086218371534146 0.00069856529960518675 0 0.015076176642142086 0.00068856946255339293 0 0.015078978240582481 0.00069759454975112001 0 0.016453053144605767 0.00061580449389699108 0 0.018171380489236232 -0.00068788028394449192 0 0.0094187865326225747 -0.0024214101333149968 0 0.0090439326212244514 -0.0024646668981214543 0 0.0097900573214224455 -0.0027655642839142171 0 0.0091710564469304513 -0.0021083653337334342 0 0.0094187865326225747 -0.0024214101333149968 0 0.0094654678471979541 -0.0017203017365000853 0 0.009120126383009193 -0.0020846538641484465 0 0.0091710564469304513 -0.0021083653337334342 0 0.0090439326212244514 -0.0024646668981214543 0 0.010536206081435013 -0.0020821568925306765 0 0.016453053144605767 0.00061580449389699108 0 0.015738326560811026 0.0007022667682794907 0 0.015572557519334135 0.00030076546905348918 0 0.01535004571849698 0.0005979652094292451 0 0.010536206081435013 -0.0020821568925306765 0 0.010418321736100876 -0.0020464483224162931 0 0.0091710564469304513 -0.0021083653337334342 0 0.0094187865326225747 -0.0024214101333149968 0 0.0090439326212244514 -0.0024646668981214543 0 0.015738326560811026 0.0007022667682794907 0 0.01535004571849698 0.0005979652094292451 0 0.01501449086998646 0.00076240844212375081 0 0.016453053144605767 0.00061580449389699108 0 0.01480386489151839 0.00075609818623321946 0 0.015081648150910922 0.00069955240653176787 0 0.015075508969170747 0.00069350256448886692 0 0.015048565698452825 0.00065685943625337932 0 0.015081648150910922 0.00069955240653176787 0 0.015074654129759285 0.00068879669752712209 0 0.015048565698452825 0.00065685943625337932 0 0.015081648150910922 0.00069955240653176787 0 0.015096109195581782 0.00070626974991934227 0 0.015074654129759285 0.00068879669752712209 0 0.015048565698452825 0.00065685943625337932 0 0.01535004571849698 0.0005979652094292451 0 0.01501449086998646 0.00076240844212375081 0 0.015050111372856551 0.00069010308277448189 0 0.015074654129759285 0.00068879669752712209 0 0.015048565698452825 0.00065685943625337932 0 0.015050111372856551 0.00069010308277448189 0 0.015048565698452825 0.00065685943625337932 0 0.01501449086998646 0.00076240844212375081 0 0.015572557519334135 0.00030076546905348918 0 0.015048565698452825 0.00065685943625337932 0 0.01535004571849698 0.0005979652094292451 0 0.010371358193520849 -0.00010443181815543338 0 0.010536206081435013 -0.0020821568925306765 0 0.01454750152043304 0.0011409923762195713 0 0.015738326560811026 0.0007022667682794907 0 0.01501449086998646 0.00076240844212375081 0 0.0072014860962003775 -0.0013920738588641915 0 0.0059225597939138201 -0.0018635885116221782 0 0.0079790495988906161 -0.0028009817200769301 0 0.0084755309555351807 -0.0010598045998283802 0 0.0072014860962003775 -0.0013920738588641915 0 0.0079790495988906161 -0.0028009817200769301 0 0.0086136809233490399 -0.0011594186015305209 0 0.010536206081435013 -0.0020821568925306765 0 0.0091428472514983802 -0.0010842526688585395 0 0.009110898714645245 -0.0020902139548584476 0 0.0094654678471979541 -0.0017203017365000853 0 0.009110898714645245 -0.0020902139548584476 0 0.0091710564469304513 -0.0021083653337334342 0 0.0094654678471979541 -0.0017203017365000853 0 0.0094654678471979541 -0.0017203017365000853 0 0.0098417341003075413 -0.0016830706116631961 0 0.0097741830614605021 -0.0027071886153743271 0 0.0095122705976792912 -0.0013303849236311644 0 0.0094654678471979541 -0.0017203017365000853 0 0.0098417341003075413 -0.0016830706116631961 0 0.0091428472514983802 -0.0010842526688585395 0 0.0095122705976792912 -0.0013303849236311644 0 0.0094654678471979541 -0.0017203017365000853 0 0.0098822800870310111 -0.0022499406115394274 0 0.010214462836371946 -0.0031871125158696879 0 0.010749315292433835 -0.0023759152529567247 0 0.0094187865326225747 -0.0024214101333149968 0 0.0094654678471979541 -0.0017203017365000853 0 0.0098051679623627312 -0.0025762661446000214 0 0.0094727761383956114 -0.0022000354187748867 0 0.01387143388525579 -0.0024737555156126964 0 0.0098822800870310111 -0.0022499406115394274 0 0.010214462836371946 -0.0031871125158696879 0 0.0097385405372542727 -0.0040390672158822161 0 0.0088123157679106737 -0.0016261469815924885 0 0.01387143388525579 -0.0024737555156126964 0 0.010214462836371946 -0.0031871125158696879 0 0.010309504637122857 -0.0038115989481872269 0 0.0097385405372542727 -0.0040390672158822161 0 0.010309504637122857 -0.0038115989481872269 0 0.0098514628532438264 -0.0044621498576822198 0 0.010894271594386721 -0.0041957486084327382 0 0.010309504637122857 -0.0038115989481872269 0 0.0097385405372542727 -0.0040390672158822161 0 0.0098514628532438264 -0.0044621498576822198 0 0.0094187865326225747 -0.0024214101333149968 0 0.0098051679623627312 -0.0025762661446000214 0 0.0097900573214224455 -0.0027655642839142171 0 0.011129070025916886 -0.003313217305659759 0 0.011882456475910248 -0.0039481379301140526 0 0.010894271594386721 -0.0041957486084327382 0 0.010309504637122857 -0.0038115989481872269 0 0.011129070025916886 -0.003313217305659759 0 0.010894271594386721 -0.0041957486084327382 0 0.010214462836371946 -0.0031871125158696879 0 0.010309504637122857 -0.0038115989481872269 0 0.011129070025916886 -0.003313217305659759 0 0.011129070025916886 -0.003313217305659759 0 0.010749315292433835 -0.0023759152529567247 0 0.011642147762191106 -0.0024112098043616637 0 0.010214462836371946 -0.0031871125158696879 0 0.011129070025916886 -0.003313217305659759 0 0.010749315292433835 -0.0023759152529567247 0 0.011238506954421267 -0.0015718931907878989 0 0.01060769720842852 -0.0014435128469530889 0 0.010749315292433835 -0.0023759152529567247 0 0.01060769720842852 -0.0014435128469530889 0 0.0098822800870310111 -0.0022499406115394274 0 0.010749315292433835 -0.0023759152529567247 0 0.011238506954421267 -0.0015718931907878989 0 0.010749315292433835 -0.0023759152529567247 0 0.011642147762191106 -0.0024112098043616637 0 0.011129070025916886 -0.003313217305659759 0 0.012600790531664897 -0.0026939243078174576 0 0.011642147762191106 -0.0024112098043616637 0 0.012045024338246139 -0.0014041947104073155 0 0.012600790531664897 -0.0026939243078174576 0 0.011642147762191106 -0.0024112098043616637 0 0.012045024338246139 -0.0014041947104073155 0 0.011238506954421267 -0.0015718931907878989 0 0.011642147762191106 -0.0024112098043616637 0 0.013580290295763294 -0.0012006908087825825 0 0.014210994913076379 -0.0029727595953233329 0 0.012600790531664897 -0.0026939243078174576 0 0.014210994913076379 -0.0029727595953233329 0 0.012600790531664897 -0.0026939243078174576 0 0.013093169910272382 -0.0043078251916836476 0 0.014210994913076379 -0.0029727595953233329 0 0.014844386474771688 -0.004696876548240453 0 0.013093169910272382 -0.0043078251916836476 0 0.012600790531664897 -0.0026939243078174576 0 0.011882456475910248 -0.0039481379301140526 0 0.013093169910272382 -0.0043078251916836476 0 0.011129070025916886 -0.003313217305659759 0 0.012600790531664897 -0.0026939243078174576 0 0.011882456475910248 -0.0039481379301140526 0 0.011882456475910248 -0.0039481379301140526 0 0.011705035158965307 -0.0052296770772644677 0 0.013093169910272382 -0.0043078251916836476 0 0.011705035158965307 -0.0052296770772644677 0 0.013093169910272382 -0.0043078251916836476 0 0.013611382882045281 -0.005990068786910106 0 0.014844386474771688 -0.004696876548240453 0 0.013093169910272382 -0.0043078251916836476 0 0.013611382882045281 -0.005990068786910106 0 0.026585900632917429 6.3487012076313755e-05 0 0.026922442652258051 0.00042137205054738696 0 0.026208767274178559 0.00027407333082413832 0 0.039320678370217362 0.00096572552451216738 0 0.039680612457695608 0.0012590992069045697 0 0.039713020121297897 0.0010552066828674845 0 0.036132621023645194 0.0009651972592406836 0 0.03971004361623319 0.0014833496274359499 0 0.036132621023645194 0.0009651972592406836 0 0.023594010393456627 -0.0028291890680564764 0 0.040055722468738071 0.00087740783215521775 0 0.039680612457695608 0.0012590992069045697 0 0.039713020121297897 0.0010552066828674845 0 0.017897886488683651 -0.0021088207976615956 0 0.023594010393456627 -0.0028291890680564764 0 0.025942375094409942 0.00082674368364661827 0 0.026922442652258051 0.00042137205054738696 0 0.026208767274178559 0.00027407333082413832 0 0.025942375094409942 0.00082674368364661827 0 0.026208767274178559 0.00027407333082413832 0 0.025704813676954576 0.00021186307061917773 0 0.026002812558997779 -0.00010063714711720211 0 0.026208767274178559 0.00027407333082413832 0 0.025704813676954576 0.00021186307061917773 0 0.025440065340124933 -0.00026757795459459328 0 0.025704813676954576 0.00021186307061917773 0 0.025179078214721047 0.00045918403166716418 0 0.025942375094409942 0.00082674368364661827 0 0.025704813676954576 0.00021186307061917773 0 0.025179078214721047 0.00045918403166716418 0 0.026658455279043841 0.0026356835906832863 0 0.026913837056064822 0.0012745074367543504 0 0.02759505289340513 0.0014286406031966828 0 0.026913837056064822 0.0012745074367543504 0 0.02759505289340513 0.0014286406031966828 0 0.02712267776327764 -8.2160307814081528e-05 0 0.025258270802184998 0.0017044703072119577 0 0.018171380489236232 -0.00068788028394449192 0 0.02759505289340513 0.0014286406031966828 0 0.027258207304479035 -0.00013975465977682342 0 0.02712267776327764 -8.2160307814081528e-05 0 0.026011794793917908 0.0010056119736173562 0 0.018903340291774675 -0.00098835971334173709 0 0.016275214937188556 -0.0017857501230466649 0 0.016363134160889248 -0.001189966518684914 0 0.016119989741460391 -0.00109085873800212 0 0.01387143388525579 -0.0024737555156126964 0 0.018171380489236232 -0.00068788028394449192 0 0.01387143388525579 -0.0024737555156126964 0 0.018903340291774675 -0.00098835971334173709 0 0.018171380489236232 -0.00068788028394449192 0 0.018903340291774675 -0.00098835971334173709 0 0.025942375094409942 0.00082674368364661827 0 0.025179078214721047 0.00045918403166716418 0 0.0249242684992564 0.0012160610212276009 0 0.011882456475910248 -0.0039481379301140526 0 0.011705035158965307 -0.0052296770772644677 0 0.010894271594386721 -0.0041957486084327382 0 0.017897886488683651 -0.0021088207976615956 0 0.018903340291774675 -0.00098835971334173709 0 0.011705035158965307 -0.0052296770772644677 0 0.0098514628532438264 -0.0044621498576822198 0 0.010894271594386721 -0.0041957486084327382 0 0.0089711801542767897 0.00021070095652178907 0 0.0090502904665315121 9.3840996384286597e-05 0 0.0086360660549003859 0.00015442923953810263 0 0.011746450459266344 -0.00068471966238286283 0 0.01156306131629879 -0.00043239792461651161 0 0.0089711801542767897 0.00021070095652178907 0 0.0090502904665315121 9.3840996384286597e-05 0 0.009430793072971403 -7.0414966099751976e-06 0 0.0093438380761111869 1.4471373143748952e-06 0 0.0090502904665315121 9.3840996384286597e-05 0 0.0086360660549003859 0.00015442923953810263 0 0.0093438380761111869 1.4471373143748952e-06 0 0.0090502904665315121 9.3840996384286597e-05 0 0.009430793072971403 -7.0414966099751976e-06 0 0.01156306131629879 -0.00043239792461651161 0 0.011837368670461607 1.3690067206727484e-07 0 0.0093438380761111869 1.4471373143748952e-06 0 0.009430793072971403 -7.0414966099751976e-06 0 0.011835686846127715 -1.3989819619435269e-06 0 0.014518511052700895 -0.0015199357180134382 0 0.013747625480743909 -0.0011650872036051113 0 0.014836801628806096 -0.00094299139790409228 0 0.013747625480743909 -0.0011650872036051113 0 0.014836801628806096 -0.00094299139790409228 0 0.014866822585440065 -0.00015369346442094657 0 0.014836801628806096 -0.00094299139790409228 0 0.015499641959323438 -0.00063968034223902738 0 0.015261356398377219 -0.0012548509165748532 0 0.015499641959323438 -0.00063968034223902738 0 0.015623580004427422 -0.0010812036020145155 0 0.015261356398377219 -0.0012548509165748532 0 0.015623580004427422 -0.0010812036020145155 0 0.015261356398377219 -0.0012548509165748532 0 0.015767641255418647 -0.0014916926025754708 0 0.014518511052700895 -0.0015199357180134382 0 0.014836801628806096 -0.00094299139790409228 0 0.015261356398377219 -0.0012548509165748532 0 0.012322685544301834 -0.000893638987352517 0 0.009139584464051163 -0.00028651956681432231 0 0.011746450459266344 -0.00068471966238286283 0 0.012322685544301834 -0.000893638987352517 0 0.014518511052700895 -0.0015199357180134382 0 0.015261356398377219 -0.0012548509165748532 0 0.01498581296668455 -0.0018775197246657059 0 0.0089711801542767897 0.00021070095652178907 0 0.0094030001554887502 -0.00022969562451690518 0 0.0089623729247502327 -0.00032642359409461937 0 0.012322685544301834 -0.000893638987352517 0 0.014855624459463495 -0.001216562550028613 0 0.015261356398377219 -0.0012548509165748532 0 0.01498581296668455 -0.0018775197246657059 0 0.015767641255418647 -0.0014916926025754708 0 0.012343128593930792 -0.0011533486086394032 0 0.013017141385649151 -0.0013463395477521067 0 0.013411537943034228 -0.00082164723527692642 0 0.012343128593930792 -0.0011533486086394032 0 0.013017141385649151 -0.0013463395477521067 0 0.012924447012655226 -0.0017674818097152653 0 0.012322685544301834 -0.000893638987352517 0 0.012673887126364934 -0.0014820430202977602 0 0.011355997170494585 0.00028376514637380078 0 0.011744568044096541 -0.0010800641953379766 0 0.012924447012655226 -0.0017674818097152653 0 0.011355997170494585 0.00028376514637380078 0 0.010359115099584482 -0.0014725747488377008 0 0.0095980641852157021 -0.0001292346399526726 0 0.010359115099584482 -0.0014725747488377008 0 0.011744568044096541 -0.0010800641953379766 0 0.012798642058449765 -0.0021233979577944544 0 0.011355997170494585 0.00028376514637380078 0 0.010359115099584482 -0.0014725747488377008 0 0.011744568044096541 -0.0010800641953379766 0 0.009139584464051163 -0.00028651956681432231 0 0.0069374659153869662 -0.00030745657232088118 0 0.0040358729572766774 -0.00033979686339833981 0 0.0051682707392740786 -0.00046833968553246073 0 0.0049613884883791381 0.00016390344563846831 0 0.0070841546955936457 -0.00089303587104885742 0 0.0069374659153869662 -0.00030745657232088118 0 0.010359115099584482 -0.0014725747488377008 0 0.0095980641852157021 -0.0001292346399526726 0 0.0078054616866398028 -0.00058535390965661082 0 0.0089623729247502327 -0.00032642359409461937 0 0.0085422783547322769 -8.8137297049483738e-05 0 0.007984906546259515 -0.00063697058913028269 0 0.0089711801542767897 0.00021070095652178907 0 0.0089623729247502327 -0.00032642359409461937 0 0.0085422783547322769 -8.8137297049483738e-05 0 0.0089711801542767897 0.00021070095652178907 0 0.0086360660549003859 0.00015442923953810263 0 0.0085422783547322769 -8.8137297049483738e-05 0 0.0093438380761111869 1.4471373143748952e-06 0 0.0086360660549003859 0.00015442923953810263 0 0.006853936665801039 -1.5345356031822899e-06 0 0.0086360660549003859 0.00015442923953810263 0 0.0085422783547322769 -8.8137297049483738e-05 0 0.006853936665801039 -1.5345356031822899e-06 0 0.0069374659153869662 -0.00030745657232088118 0 0.006311282718501769 -4.4021287018645231e-07 0 0.0068481658391196651 7.6917329733078738e-09 0 0.0065421246464781998 -9.9743574199956423e-07 0 0.0063142354104541035 -8.4459176406723386e-09 0 0.0068509987950612613 -3.1680196891516099e-07 0 0.0069374659153869662 -0.00030745657232088118 0 0.0085422783547322769 -8.8137297049483738e-05 0 0.006853936665801039 -1.5345356031822899e-06 0 0.007984906546259515 -0.00063697058913028269 0 0.0051682707392740786 -0.00046833968553246073 0 0.0063070303247440779 -1.3089907829475985e-06 0 0.0049613884883791381 0.00016390344563846831 0 0.0049613884883791381 0.00016390344563846831 0 0.004669000856730574 0.00038292026829429474 0 0.0040418359333029407 1.2607158094827092e-06 0 0.0063070303247440779 -1.3089907829475985e-06 0 0.0049613884883791381 0.00016390344563846831 0 0.0040418359333029407 1.2607158094827092e-06 0 0.0040358729572766774 -0.00033979686339833981 0 0.0049613884883791381 0.00016390344563846831 0 0.004669000856730574 0.00038292026829429474 0 0.0032530932712607134 5.9046567133884963e-05 0 0.0025719524352913396 0.0002694458343362476 0 0.0018762871505093436 -0.00034282921720196421 0 0.0019065995448677693 0.00021829113801668837 0 0.001561472049956458 6.3020051132922999e-05 0 0.004033421526655436 -1.5126546799654847e-06 0 0.001717881317443444 1.0727815384469825e-06 0 0.0019065995448677693 0.00021829113801668837 0 0.0032530932712607134 5.9046567133884963e-05 0 0.0040371395669730305 6.816984223927626e-09 0 0.0018762871505093436 -0.00034282921720196421 0 0.004033421526655436 -1.5126546799654847e-06 0 0.0019065995448677693 0.00021829113801668837 0 0.001717881317443444 1.0727815384469825e-06 0 0.0019065995448677693 0.00021829113801668837 0 0.0011576933089574484 0.00023731897471635408 0 0.0019065995448677693 0.00021829113801668837 0 0.0014891714074556724 0.00021533397674361514 0 0.0011576933089574484 0.00023731897471635408 0 0.0019065995448677693 0.00021829113801668837 0 0.0014891714074556724 0.00021533397674361514 0 0.001561472049956458 6.3020051132922999e-05 0 0.0014891714074556724 0.00021533397674361514 0 0.0011576933089574484 0.00023731897471635408 0 0.0013057555107202116 0.00021661200177976216 0 0.00036470397795419741 3.4106870659366545e-05 0 0.0011576933089574484 0.00023731897471635408 0 0.00097292314519947321 0.00017848777712260456 0 0.0011576933089574484 0.00023731897471635408 0 0.0013057555107202116 0.00021661200177976216 0 0.00097292314519947321 0.00017848777712260456 0 0.0013057555107202116 0.00021661200177976216 0 0.0011544455284843874 0.00016646718864401534 0 0.00097292314519947321 0.00017848777712260456 0 0.00083798068599340108 6.7000606987287976e-05 0 0.0011544455284843874 0.00016646718864401534 0 0.00097292314519947321 0.00017848777712260456 0 0.00036470397795419741 3.4106870659366545e-05 0 0.00083798068599340108 6.7000606987287976e-05 0 0.00097292314519947321 0.00017848777712260456 0 -0.0006031909854157467 6.8512350525576323e-07 0 0.001717881317443444 1.0727815384469825e-06 0 0.0011576933089574484 0.00023731897471635408 0 -0.0006031909854157467 6.8512350525576323e-07 0 0.00036470397795419741 3.4106870659366545e-05 0 0.0011576933089574484 0.00023731897471635408 0 0.0017024069826554334 -0.00032174685642350344 0 0.0018530678021208343 -0.00021207302044594351 0 0.0018183324075729474 -0.00041071820942723729 0 0.0017024069826554334 -0.00032174685642350344 0 0.0018530678021208343 -0.00021207302044594351 0 0.0017065886949341608 -0.00016589438122097973 0 0.0019883514812555577 -0.00026397028499008826 0 0.0018530678021208343 -0.00021207302044594351 0 0.0018183324075729474 -0.00041071820942723729 0 0.0019883514812555577 -0.00026397028499008826 0 0.0018530678021208343 -0.00021207302044594351 0 0.0020065925385510312 -9.8164235255165816e-05 0 0.0018959052558887065 -9.2359648264330198e-05 0 0.00088973166950466801 -0.00043478875328417985 0 0.0019883514812555577 -0.00026397028499008826 0 0.0018909046960759038 -0.00032699298543342222 0 0.0020613107170033766 -0.00030607358006332601 0 0.0017024069826554334 -0.00032174685642350344 0 0.0018164052133830993 -0.00043563859547267168 0 0.0017007980398612008 -0.00051796262570698683 0 0.00088973166950466801 -0.00043478875328417985 0 -0.00073969591564330614 -0.0004570215529256071 0 0.0013897047617544064 -0.00058894966754631756 0 0.00088973166950466801 -0.00043478875328417985 0 0.0016568407124166913 -0.00051822044362972097 0 0.001417374729981528 -0.00036277980357193981 0 0.0014909842993026461 -0.00026149683435505808 0 -0.00073969591564330614 -0.0004570215529256071 0 0.0014889200643170531 -0.00080242861004605501 0 0.001191005963643868 -0.00013985974582419775 0 0.0011544455284843874 0.00016646718864401534 0 0.0013356908714810694 0.00019485673923117145 0 0.0017024069826554334 -0.00032174685642350344 0 0.0017007980398612008 -0.00051796262570698683 0 0.0014909842993026461 -0.00026149683435505808 0 0.0012619344322275599 -0.00077733619209334243 0 0.0016568407124166913 -0.00051822044362972097 0 0.001417374729981528 -0.00036277980357193981 0 0.001417374729981528 -0.00036277980357193981 0 0.0014909842993026461 -0.00026149683435505808 0 0.0016015377466302232 6.5760318297491534e-05 0 0.0013057555107202116 0.00021661200177976216 0 0.0013356908714810694 0.00019485673923117145 0 0.0016015377466302232 6.5760318297491534e-05 0 0.0013057555107202116 0.00021661200177976216 0 0.0011544455284843874 0.00016646718864401534 0 0.0013356908714810694 0.00019485673923117145 0 0.0017024069826554334 -0.00032174685642350344 0 0.0014909842993026461 -0.00026149683435505808 0 0.0017065886949341608 -0.00016589438122097973 0 0.0014909842993026461 -0.00026149683435505808 0 0.0016015377466302232 6.5760318297491534e-05 0 0.0017065886949341608 -0.00016589438122097973 0 0.0014582157965743847 -2.2565688971396144e-05 0 0.001540182068247116 5.514684860807734e-05 0 0.0014891714074556724 0.00021533397674361514 0 0.0013057555107202116 0.00021661200177976216 0 0.0016015377466302232 6.5760318297491534e-05 0 0.0014891714074556724 0.00021533397674361514 0 0.0016015377466302232 6.5760318297491534e-05 0 0.001561472049956458 6.3020051132922999e-05 0 0.0016015377466302232 6.5760318297491534e-05 0 0.0018343053341800253 4.2801129270413471e-05 0 0.0018485540965092666 -7.8072097575432225e-05 0 0.0016015377466302232 6.5760318297491534e-05 0 0.0017065886949341608 -0.00016589438122097973 0 0.0018485540965092666 -7.8072097575432225e-05 0 0.0018530678021208343 -0.00021207302044594351 0 0.0017065886949341608 -0.00016589438122097973 0 0.0018485540965092666 -7.8072097575432225e-05 0 0.0018530678021208343 -0.00021207302044594351 0 0.0018485540965092666 -7.8072097575432225e-05 0 0.0020065925385510312 -9.8164235255165816e-05 0 0.0018343053341800253 4.2801129270413471e-05 0 0.0018485540965092666 -7.8072097575432225e-05 0 0.0020199927867164849 5.135896218707154e-05 0 0.0018485540965092666 -7.8072097575432225e-05 0 0.0020199927867164849 5.135896218707154e-05 0 0.0020065925385510312 -9.8164235255165816e-05 0 0.0018439025406405249 9.4987020304102126e-05 0 0.0016184893069605042 0.00011918430147991616 0 0.0022408973447786956 0.00024289221320258523 0 0.0018343053341800253 4.2801129270413471e-05 0 0.0018439025406405249 9.4987020304102126e-05 0 0.0020737557116535035 0.00014831741539717762 0 0.0018343053341800253 4.2801129270413471e-05 0 0.0020199927867164849 5.135896218707154e-05 0 0.0020737557116535035 0.00014831741539717762 0 0.0016015377466302232 6.5760318297491534e-05 0 0.0018343053341800253 4.2801129270413471e-05 0 0.0018439025406405249 9.4987020304102126e-05 0 0.0018439025406405249 9.4987020304102126e-05 0 0.0020737557116535035 0.00014831741539717762 0 0.0022408973447786956 0.00024289221320258523 0 0.0018762871505093436 -0.00034282921720196421 0 0.001561472049956458 6.3020051132922999e-05 0 0.0016184893069605042 0.00011918430147991616 0 0.0016015377466302232 6.5760318297491534e-05 0 0.0018439025406405249 9.4987020304102126e-05 0 0.001561472049956458 6.3020051132922999e-05 0 0.0018439025406405249 9.4987020304102126e-05 0 0.001561472049956458 6.3020051132922999e-05 0 0.0016184893069605042 0.00011918430147991616 0 0.0070841546955936457 -0.00089303587104885742 0 0.0076585729937271359 -0.0010144606109736502 0 0.0040358729572766774 -0.00033979686339833981 0 0.004669000856730574 0.00038292026829429474 0 0.003444940856423535 0.000530965327574373 0 0.0040358729572766774 -0.00033979686339833981 0 0.003444940856423535 0.000530965327574373 0 0.0024565775997245926 3.4194312082086036e-05 0 0.003444940856423535 0.000530965327574373 0 0.0022408973447786956 0.00024289221320258523 0 0.0024565775997245926 3.4194312082086036e-05 0 0.0025719524352913396 0.0002694458343362476 0 0.0022737540513585431 0.00026762437310515067 0 0.011744568044096541 -0.0010800641953379766 0 0.012798642058449765 -0.0021233979577944544 0 0.012924447012655226 -0.0017674818097152653 0 0.012798642058449765 -0.0021233979577944544 0 0.012924447012655226 -0.0017674818097152653 0 0.013272051792108663 -0.0018452687133318079 0 0.0076585729937271359 -0.0010144606109736502 0 0.0076357849574477622 -0.00091265000806270077 0 0.0022408973447786956 0.00024289221320258523 0 0.0024565775997245926 3.4194312082086036e-05 0 0.0021647492376726234 0.00028413525496375272 0 0.012798642058449765 -0.0021233979577944544 0 0.013272051792108663 -0.0018452687133318079 0 0.013459819051288196 -0.0019696479070140435 0 0.013272051792108663 -0.0018452687133318079 0 0.01350825309509863 -0.001833389905048502 0 0.013459819051288196 -0.0019696479070140435 0 0.01350825309509863 -0.001833389905048502 0 0.013591295731256744 -0.0019711701288318063 0 0.013597676149884505 -0.0018024930948582264 0 0.01350825309509863 -0.001833389905048502 0 0.013459819051288196 -0.0019696479070140435 0 0.013591295731256744 -0.0019711701288318063 0 0.0022830881792422677 0.000118156232549312 0 0.0025006627806847988 2.817593779447848e-05 0 0.002634723004231765 0.00020552038244791895 0 0.0076357849574477622 -0.00091265000806270077 0 0.0090943203178127444 -0.0001304527346314336 0 0.0021647492376726234 0.00028413525496375272 0 0.0022830881792422677 0.000118156232549312 0 0.002634723004231765 0.00020552038244791895 0 0.0022408973447786956 0.00024289221320258523 0 0.0021647492376726234 0.00028413525496375272 0 0.0021457513348590155 0.00018588523402091885 0 0.0020737557116535035 0.00014831741539717762 0 0.0022408973447786956 0.00024289221320258523 0 0.0021457513348590155 0.00018588523402091885 0 0.0021647492376726234 0.00028413525496375272 0 0.0022830881792422677 0.000118156232549312 0 0.0021457513348590155 0.00018588523402091885 0 0.0022830881792422677 0.000118156232549312 0 0.0021457513348590155 0.00018588523402091885 0 0.0021493334731893655 3.0517107064581772e-05 0 0.0020199927867164849 5.135896218707154e-05 0 0.0021457513348590155 0.00018588523402091885 0 0.0021493334731893655 3.0517107064581772e-05 0 0.0020199927867164849 5.135896218707154e-05 0 0.0020737557116535035 0.00014831741539717762 0 0.0021457513348590155 0.00018588523402091885 0 0.0020199927867164849 5.135896218707154e-05 0 0.0020065925385510312 -9.8164235255165816e-05 0 0.0021493334731893655 3.0517107064581772e-05 0 0.0019883514812555577 -0.00026397028499008826 0 0.0020065925385510312 -9.8164235255165816e-05 0 0.0021362416776630972 -0.00014291875752082535 0 0.0020065925385510312 -9.8164235255165816e-05 0 0.0021362416776630972 -0.00014291875752082535 0 0.0021493334731893655 3.0517107064581772e-05 0 0.0021362416776630972 -0.00014291875752082535 0 0.0021493334731893655 3.0517107064581772e-05 0 0.0022882299419992578 -1.0416860275174447e-05 0 0.0022830881792422677 0.000118156232549312 0 0.0021493334731893655 3.0517107064581772e-05 0 0.0022882299419992578 -1.0416860275174447e-05 0 0.0022882299419992578 -1.0416860275174447e-05 0 0.0024924435109667602 -0.00024989127959866965 0 0.0025006627806847988 2.817593779447848e-05 0 0.0022882299419992578 -1.0416860275174447e-05 0 0.002272615491782978 -0.00017541468380471463 0 0.0024924435109667602 -0.00024989127959866965 0 0.0022830881792422677 0.000118156232549312 0 0.0022882299419992578 -1.0416860275174447e-05 0 0.0025006627806847988 2.817593779447848e-05 0 0.0021362416776630972 -0.00014291875752082535 0 0.0022882299419992578 -1.0416860275174447e-05 0 0.002272615491782978 -0.00017541468380471463 0 0.0022944292845510734 -0.00045940379835726365 0 0.0021900798985247821 -0.00030365605700282945 0 0.0024924435109667602 -0.00024989127959866965 0 0.0011821635666678938 0.0027380421346934287 0 0.0017336764047784028 0.0026159200993894913 0 0.0013549215947378291 0.0021549680516197017 0 0.002272615491782978 -0.00017541468380471463 0 0.0021900798985247821 -0.00030365605700282945 0 0.0024924435109667602 -0.00024989127959866965 0 0.0010363509862168967 0.00096102845596260453 0 0.0017592274214855473 0.00075334262308561907 0 0.0010363509862168967 0.00096102845596260453 0 0.002329538738500348 -0.0006437800907309715 0 0.0021117612531189158 -0.00040551077408600399 0 0.0022359704880003722 -0.00040668429693928505 0 0.0021900798985247821 -0.00030365605700282945 0 0.0021117612531189158 -0.00040551077408600399 0 0.0021900798985247821 -0.00030365605700282945 0 0.0020613107170033766 -0.00030607358006332601 0 0.0021117612531189158 -0.00040551077408600399 0 0.0018909046960759038 -0.00032699298543342222 0 0.0020613107170033766 -0.00030607358006332601 0 0.0019883514812555577 -0.00026397028499008826 0 0.0021362416776630972 -0.00014291875752082535 0 0.0020613107170033766 -0.00030607358006332601 0 0.0021362416776630972 -0.00014291875752082535 0 0.0021900798985247821 -0.00030365605700282945 0 0.0020613107170033766 -0.00030607358006332601 0 0.0021362416776630972 -0.00014291875752082535 0 0.002272615491782978 -0.00017541468380471463 0 0.0021900798985247821 -0.00030365605700282945 0 0.0053593377708756112 0.0041769112729656164 0 0.0053849151370774116 0.004230506128939218 0 0.0053604681060330436 0.0042727908345556462 0 0.0032592393057270406 0.0038400837310979771 0 0.0039029425928650001 0.0020411906001613924 0 0.0053849151370774116 0.004230506128939218 0 0.0054260309122348884 0.0042728816409141786 0 0.0054259200058853485 0.0042422800697216982 0 0.0054245775753136846 0.0041870580748974697 0 0.0053849151370774116 0.004230506128939218 0 0.0054259200058853485 0.0042422800697216982 0 0.0054245775753136846 0.0041870580748974697 0 0.0053664518146325025 0.0041745901471573294 0 0.0053849151370774116 0.004230506128939218 0 0.0032592393057270406 0.0038400837310979771 0 0.0051230178864063759 0.004395582162368651 0 0.0006310061896097921 0.0026657421831268527 0 0.0013549215947378291 0.0021549680516197017 0 0.0009918811978830485 0.0016951721139831764 0 0.0024924435109667602 -0.00024989127959866965 0 0.0025006627806847988 2.817593779447848e-05 0 0.0026990408093683894 -3.9056701758459258e-05 0 0.0017592274214855473 0.00075334262308561907 0 0.0039029425928650001 0.0020411906001613924 0 0.0025006627806847988 2.817593779447848e-05 0 0.0026990408093683894 -3.9056701758459258e-05 0 0.002634723004231765 0.00020552038244791895 0 0.0039029425928650001 0.0020411906001613924 0 0.0090001354574617328 0.001807512614401328 0 0.0053604681060330436 0.0042727908345556462 0 0.0054260309122348884 0.0042728816409141786 0 0.0054060503115292424 0.0043091902984666941 0 0.0053849151370774116 0.004230506128939218 0 0.0053604681060330436 0.0042727908345556462 0 0.0054260309122348884 0.0042728816409141786 0 0.0090001354574617328 0.001807512614401328 0 0.013279919225851122 -0.00015586599519703601 0 0.011649893796696264 0.0003520713569800985 0 0.012283591766319085 0.00012291252116309164 0 0.011865945809627026 -0.0006676172932197547 0 0.0039029425928650001 0.0020411906001613924 0 0.0090943203178127444 -0.0001304527346314336 0 0.0090001354574617328 0.001807512614401328 0 0.0090943203178127444 -0.0001304527346314336 0 0.007288050262215004 0.0016533755421624498 0 0.0068463706510611556 0.0011031440025295676 0 0.0075791310736103767 0.00083267393083456896 0 0.0090943203178127444 -0.0001304527346314336 0 0.014110267498898807 -0.0017561281347336503 0 0.012283591766319085 0.00012291252116309164 0 0.011865945809627026 -0.0006676172932197547 0 0.012677340958450073 -0.00097539094318828986 0 0.013405897969851182 -0.00095575108051625189 0 0.014110267498898807 -0.0017561281347336503 0 0.015194612543398475 -0.0013289942599939591 0 0.015135371711517421 -0.0011288948317280632 0 0.015084130482229684 -0.0009405520334040355 0 0.013405897969851182 -0.00095575108051625189 0 0.013279919225851122 -0.00015586599519703601 0 0.011649893796696264 0.0003520713569800985 0 0.011865945809627026 -0.0006676172932197547 0 0.011081209001072571 -0.00036627070034914188 0 0.015194612543398475 -0.0013289942599939591 0 0.015247300402405252 -0.0013305562443077733 0 0.015135371711517421 -0.0011288948317280632 0 0.015194612543398475 -0.0013289942599939591 0 0.015247300402405252 -0.0013305562443077733 0 0.015129866847176245 -0.0013623962245713117 0 0.015247300402405252 -0.0013305562443077733 0 0.015153942419490309 -0.0012921995625013048 0 0.015129866847176245 -0.0013623962245713117 0 0.015247300402405252 -0.0013305562443077733 0 0.01548469961860649 -0.0012857574001058619 0 0.015153942419490309 -0.0012921995625013048 0 0.01548469961860649 -0.0012857574001058619 0 0.015153942419490309 -0.0012921995625013048 0 0.014779338420619532 -0.00075689871471154829 0 0.015153942419490309 -0.0012921995625013048 0 0.014767272976224061 -0.0011911939412516215 0 0.014779338420619532 -0.00075689871471154829 0 0.014767272976224061 -0.0011911939412516215 0 0.014944035261178866 -0.0013587254224732219 0 0.014562263419077804 -0.0013944853513022568 0 0.015153942419490309 -0.0012921995625013048 0 0.014767272976224061 -0.0011911939412516215 0 0.014944035261178866 -0.0013587254224732219 0 0.015194612543398475 -0.0013289942599939591 0 0.015129866847176245 -0.0013623962245713117 0 0.014837663880269181 -0.0015302054990373162 0 0.014944035261178866 -0.0013587254224732219 0 0.014837663880269181 -0.0015302054990373162 0 0.014562263419077804 -0.0013944853513022568 0 0.015153942419490309 -0.0012921995625013048 0 0.014944035261178866 -0.0013587254224732219 0 0.015129866847176245 -0.0013623962245713117 0 0.014944035261178866 -0.0013587254224732219 0 0.015129866847176245 -0.0013623962245713117 0 0.014837663880269181 -0.0015302054990373162 0 0.01350825309509863 -0.001833389905048502 0 0.013597676149884505 -0.0018024930948582264 0 0.013429487200887902 -0.0015670624981931271 0 0.014801032161206987 -0.0021103228389696784 0 0.014562263419077804 -0.0013944853513022568 0 0.013429487200887902 -0.0015670624981931271 0 0.014110267498898807 -0.0017561281347336503 0 0.013510763202037172 -0.0016507241929413035 0 0.014110267498898807 -0.0017561281347336503 0 0.014508277730616219 -0.0015474524652984525 0 0.014562263419077804 -0.0013944853513022568 0 0.013429487200887902 -0.0015670624981931271 0 0.014162735953144013 -0.0011110040760563189 0 0.012924447012655226 -0.0017674818097152653 0 0.013272051792108663 -0.0018452687133318079 0 0.013429487200887902 -0.0015670624981931271 0 0.013017141385649151 -0.0013463395477521067 0 0.012924447012655226 -0.0017674818097152653 0 0.013429487200887902 -0.0015670624981931271 0 0.013272051792108663 -0.0018452687133318079 0 0.01350825309509863 -0.001833389905048502 0 0.013429487200887902 -0.0015670624981931271 0 0.013017141385649151 -0.0013463395477521067 0 0.013429487200887902 -0.0015670624981931271 0 0.013411537943034228 -0.00082164723527692642 0 0.013429487200887902 -0.0015670624981931271 0 0.013411537943034228 -0.00082164723527692642 0 0.014162735953144013 -0.0011110040760563189 0 0.013411537943034228 -0.00082164723527692642 0 0.014162735953144013 -0.0011110040760563189 0 0.014779338420619532 -0.00075689871471154829 0 0.014855624459463495 -0.001216562550028613 0 0.015406173202556219 -0.00089283744265228088 0 0.014767272976224061 -0.0011911939412516215 0 0.014562263419077804 -0.0013944853513022568 0 0.014162735953144013 -0.0011110040760563189 0 0.014767272976224061 -0.0011911939412516215 0 0.014162735953144013 -0.0011110040760563189 0 0.014779338420619532 -0.00075689871471154829 0 0.015767641255418647 -0.0014916926025754708 0 0.015961050369386508 -0.00092187342722173837 0 0.016243665140484351 -0.00099083888564689367 0 0.015961050369386508 -0.00092187342722173837 0 0.016189822911749863 -0.00082818256902109717 0 0.016243665140484351 -0.00099083888564689367 0 0.015623580004427422 -0.0010812036020145155 0 0.015767641255418647 -0.0014916926025754708 0 0.015961050369386508 -0.00092187342722173837 0 0.015499641959323438 -0.00063968034223902738 0 0.015961050369386508 -0.00092187342722173837 0 0.016158744846528513 -0.00039428848514528843 0 0.015499641959323438 -0.00063968034223902738 0 0.015623580004427422 -0.0010812036020145155 0 0.015961050369386508 -0.00092187342722173837 0 0.016189822911749863 -0.00082818256902109717 0 0.016342391144523891 -0.00060186164269989643 0 0.016158744846528513 -0.00039428848514528843 0 0.015961050369386508 -0.00092187342722173837 0 0.016189822911749863 -0.00082818256902109717 0 0.016158744846528513 -0.00039428848514528843 0 0.016189822911749863 -0.00082818256902109717 0 0.016342391144523891 -0.00060186164269989643 0 0.016143877758315991 -0.00084201623763828233 0 0.016143877758315991 -0.00084201623763828233 0 0.016162547346216135 -0.0006693451906473832 0 0.016350822687784081 -0.0005160220690116744 0 0.016342391144523891 -0.00060186164269989643 0 0.016143877758315991 -0.00084201623763828233 0 0.016350822687784081 -0.0005160220690116744 0 0.015806401873722651 -0.00084032011924711043 0 0.016143877758315991 -0.00084201623763828233 0 0.016162547346216135 -0.0006693451906473832 0 0.01548469961860649 -0.0012857574001058619 0 0.015806401873722651 -0.00084032011924711043 0 0.014779338420619532 -0.00075689871471154829 0 0.016189822911749863 -0.00082818256902109717 0 0.016143877758315991 -0.00084201623763828233 0 0.016243665140484351 -0.00099083888564689367 0 0.015798721277067662 -0.00083729856269467709 0 0.015406173202556219 -0.00089283744265228088 0 0.015806401873722651 -0.00084032011924711043 0 0.016143877758315991 -0.00084201623763828233 0 0.016243665140484351 -0.00099083888564689367 0 0.014496030542565623 -0.0025564249497179942 0 0.013518098621804789 -0.0027873410794861989 0 0.014564406683331924 -0.0025466845078783184 0 0.013026352636491345 -0.0030333052934666603 0 0.013838680169732167 -0.0020402670272458758 0 0.014556722801938463 -0.0027789853835146123 0 0.014564406683331924 -0.0025466845078783184 0 0.014304702475034747 -0.0028068809727922329 0 0.014564406683331924 -0.0025466845078783184 0 0.014304702475034747 -0.0028068809727922329 0 0.013969711661309047 -0.0025885815740230925 0 0.01548469961860649 -0.0012857574001058619 0 0.015806401873722651 -0.00084032011924711043 0 0.016239554229856613 -0.00079208241175338383 0 0.015806401873722651 -0.00084032011924711043 0 0.016239554229856613 -0.00079208241175338383 0 0.016162547346216135 -0.0006693451906473832 0 0.014556722801938463 -0.0027789853835146123 0 0.014564406683331924 -0.0025466845078783184 0 0.015219852699134161 -0.0015606223431003136 0 0.015389266570988777 -0.0017313417406235861 0 0.015273109506919329 -0.0015151673939024662 0 0.016162547346216135 -0.0006693451906473832 0 0.016544580023719915 -0.00036978048044226269 0 0.016350822687784081 -0.0005160220690116744 0 0.016239554229856613 -0.00079208241175338383 0 0.016162547346216135 -0.0006693451906473832 0 0.016544580023719915 -0.00036978048044226269 0 0.014556722801938463 -0.0027789853835146123 0 0.014304702475034747 -0.0028068809727922329 0 0.014407353849987063 -0.0030047598447204382 0 0.015389266570988777 -0.0017313417406235861 0 0.01547196809052224 -0.0016927863563915237 0 0.014304702475034747 -0.0028068809727922329 0 0.013969711661309047 -0.0025885815740230925 0 0.013994285604122613 -0.0029917469647674721 0 0.013026352636491345 -0.0030333052934666603 0 0.012412942348047266 -0.0026137774867802275 0 0.01216804300194742 -0.0029149311775886985 0 0.013969711661309047 -0.0025885815740230925 0 0.013335193420106731 -0.0026038554447815093 0 0.013994285604122613 -0.0029917469647674721 0 0.013518098621804789 -0.0027873410794861989 0 0.012758332394085085 -0.0027742802969934473 0 0.013026352636491345 -0.0030333052934666603 0 0.012412942348047266 -0.0026137774867802275 0 0.012734470451493953 -0.0020984513059385851 0 0.013026352636491345 -0.0030333052934666603 0 0.012734470451493953 -0.0020984513059385851 0 0.013838680169732167 -0.0020402670272458758 0 0.012734470451493953 -0.0020984513059385851 0 0.013516715109683802 -0.0014051987725699103 0 0.013838680169732167 -0.0020402670272458758 0 0.012412942348047266 -0.0026137774867802275 0 0.012734470451493953 -0.0020984513059385851 0 0.011911166144980818 -0.0020656208948736446 0 0.012734470451493953 -0.0020984513059385851 0 0.012342149972330045 -0.0015942180528056031 0 0.011911166144980818 -0.0020656208948736446 0 0.012342149972330045 -0.0015942180528056031 0 0.013516715109683802 -0.0014051987725699103 0 0.012676905639804257 -0.00073656661232409976 0 0.012734470451493953 -0.0020984513059385851 0 0.012342149972330045 -0.0015942180528056031 0 0.013516715109683802 -0.0014051987725699103 0 0.013516715109683802 -0.0014051987725699103 0 0.014352208974674345 -0.0014510610651187043 0 0.013838680169732167 -0.0020402670272458758 0 0.013516715109683802 -0.0014051987725699103 0 0.014352208974674345 -0.0014510610651187043 0 0.014223085965802448 -0.0010078864178483034 0 0.014352208974674345 -0.0014510610651187043 0 0.01494671826532175 -0.0012461244735178794 0 0.014223085965802448 -0.0010078864178483034 0 0.014564406683331924 -0.0025466845078783184 0 0.013838680169732167 -0.0020402670272458758 0 0.015219852699134161 -0.0015606223431003136 0 0.014352208974674345 -0.0014510610651187043 0 0.013838680169732167 -0.0020402670272458758 0 0.015219852699134161 -0.0015606223431003136 0 0.01548469961860649 -0.0012857574001058619 0 0.016239554229856613 -0.00079208241175338383 0 0.015219852699134161 -0.0015606223431003136 0 0.015247300402405252 -0.0013305562443077733 0 0.01548469961860649 -0.0012857574001058619 0 0.015219852699134161 -0.0015606223431003136 0 0.015247300402405252 -0.0013305562443077733 0 0.015219852699134161 -0.0015606223431003136 0 0.01494671826532175 -0.0012461244735178794 0 0.014352208974674345 -0.0014510610651187043 0 0.015219852699134161 -0.0015606223431003136 0 0.01494671826532175 -0.0012461244735178794 0 0.015247300402405252 -0.0013305562443077733 0 0.01494671826532175 -0.0012461244735178794 0 0.015135371711517421 -0.0011288948317280632 0 0.014968378057388423 -0.00091338687685133034 0 0.015228711816775976 -0.00059088549622407331 0 0.01387040658656131 3.8941796048608683e-05 0 0.01494671826532175 -0.0012461244735178794 0 0.015135371711517421 -0.0011288948317280632 0 0.014968378057388423 -0.00091338687685133034 0 0.015135371711517421 -0.0011288948317280632 0 0.014968378057388423 -0.00091338687685133034 0 0.015084130482229684 -0.0009405520334040355 0 0.01494671826532175 -0.0012461244735178794 0 0.014968378057388423 -0.00091338687685133034 0 0.014223085965802448 -0.0010078864178483034 0 0.014136060505752796 -0.00023288383594189819 0 0.013279919225851122 -0.00015586599519703601 0 0.014968378057388423 -0.00091338687685133034 0 0.014223085965802448 -0.0010078864178483034 0 0.01387040658656131 3.8941796048608683e-05 0 0.014223085965802448 -0.0010078864178483034 0 0.01387040658656131 3.8941796048608683e-05 0 0.013545266023905232 -0.00071471122715701578 0 0.013516715109683802 -0.0014051987725699103 0 0.014223085965802448 -0.0010078864178483034 0 0.013545266023905232 -0.00071471122715701578 0 0.011713856686138719 0.0011043278948584181 0 0.011167144023102215 0.0012672618040420389 0 0.011405802626075589 0.0013980882888879687 0 0.013279919225851122 -0.00015586599519703601 0 0.012537257591214853 0.00070028293445110622 0 0.011167144023102215 0.0012672618040420389 0 0.011405802626075589 0.0013980882888879687 0 0.011049718031487878 0.0016021847917504998 0 0.011954978885135704 0.0014340180539639149 0 0.011626488168554352 0.0013987686860570984 0 0.011418276202381157 0.0016754938387079663 0 0.011954978885135704 0.0014340180539639149 0 0.011713856686138719 0.0011043278948584181 0 0.011626488168554352 0.0013987686860570984 0 0.011713856686138719 0.0011043278948584181 0 0.011405802626075589 0.0013980882888879687 0 0.011626488168554352 0.0013987686860570984 0 0.011405802626075589 0.0013980882888879687 0 0.011626488168554352 0.0013987686860570984 0 0.011418276202381157 0.0016754938387079663 0 0.0090001354574617328 0.001807512614401328 0 0.0083673218448400005 0.0031648594745010902 0 0.0054260309122348884 0.0042728816409141786 0 0.0054060503115292424 0.0043091902984666941 0 0.0055225258258473145 0.0043217729222357814 0 0.0054260309122348884 0.0042728816409141786 0 0.0054684915929181137 0.004273359543004532 0 0.0055225258258473145 0.0043217729222357814 0 0.0054684915929181137 0.004273359543004532 0 0.0055225258258473145 0.0043217729222357814 0 0.0055156278695907375 0.0042889687727397235 0 0.0083673218448400005 0.0031648594745010902 0 0.0082170985929618367 0.0031593332986721546 0 0.011418276202381157 0.0016754938387079663 0 0.010739404604131187 0.0020831578181061232 0 0.011049718031487878 0.0016021847917504998 0 0.011405802626075589 0.0013980882888879687 0 0.011418276202381157 0.0016754938387079663 0 0.011049718031487878 0.0016021847917504998 0 0.0055225258258473145 0.0043217729222357814 0 0.0055771841558234659 0.0042792139472348726 0 0.005669779079977939 0.0042529109860951599 0 0.0055225258258473145 0.0043217729222357814 0 0.0055156278695907375 0.0042889687727397235 0 0.0055771841558234659 0.0042792139472348726 0 0.0055031589491260531 0.0042900140242381731 0 0.0055771841558234659 0.0042792139472348726 0 0.0055564118254074245 0.0042749971317718035 0 0.0055156278695907375 0.0042889687727397235 0 0.0055031589491260531 0.0042900140242381731 0 0.0055771841558234659 0.0042792139472348726 0 0.0056444182130048204 0.0042595353406189151 0 0.0055771841558234659 0.0042792139472348726 0 0.0056382573520963276 0.004255066773334093 0 0.0056444182130048204 0.0042595353406189151 0 0.0055771841558234659 0.0042792139472348726 0 0.0055564118254074245 0.0042749971317718035 0 0.0055031589491260531 0.0042900140242381731 0 0.0055564118254074245 0.0042749971317718035 0 0.0053539981344511139 0.0042775013593470647 0 0.0056261054501507242 0.0042670333932328802 0 0.0055564118254074245 0.0042749971317718035 0 0.0053539981344511139 0.0042775013593470647 0 0.0052972469208381664 0.0043509331331743895 0 0.0054684915929181137 0.004273359543004532 0 0.0053539981344511139 0.0042775013593470647 0 0.0054245775753136846 0.0041870580748974697 0 0.0054684915929181137 0.004273359543004532 0 0.0054259200058853485 0.0042422800697216982 0 0.0054383245896904471 0.0043506742104782465 0 0.0054159030821701237 0.0042324908220483116 0 0.0054260309122348884 0.0042728816409141786 0 0.0054684915929181137 0.004273359543004532 0 0.0054259200058853485 0.0042422800697216982 0 0.0054684915929181137 0.004273359543004532 0 0.0055031589491260531 0.0042900140242381731 0 0.0053539981344511139 0.0042775013593470647 0 0.0054684915929181137 0.004273359543004532 0 0.0055156278695907375 0.0042889687727397235 0 0.0055031589491260531 0.0042900140242381731 0 0.0056354320904370156 0.0042206013771628019 0 0.005669779079977939 0.0042529109860951599 0 0.0055963836451301749 0.0041701747853299994 0 0.0082170985929618367 0.0031593332986721546 0 0.0074267282101096732 0.0035373935297437812 0 0.010739404604131187 0.0020831578181061232 0 0.0099181804963096067 0.0019916201362040866 0 0.0094012533064443612 0.0029649734041510196 0 0.0055771841558234659 0.0042792139472348726 0 0.005669779079977939 0.0042529109860951599 0 0.0056382573520963276 0.004255066773334093 0 0.0056575845940594468 0.0042460416211042044 0 0.0056354320904370156 0.0042206013771628019 0 0.005669779079977939 0.0042529109860951599 0 0.0056575845940594468 0.0042460416211042044 0 0.005669779079977939 0.0042529109860951599 0 0.0056382573520963276 0.004255066773334093 0 0.0056575845940594468 0.0042460416211042044 0 0.0056444182130048204 0.0042595353406189151 0 0.0056382573520963276 0.004255066773334093 0 0.010739404604131187 0.0020831578181061232 0 0.011049718031487878 0.0016021847917504998 0 0.010368925430254966 0.0014176726646848612 0 0.010739404604131187 0.0020831578181061232 0 0.0099181804963096067 0.0019916201362040866 0 0.010368925430254966 0.0014176726646848612 0 0.01209796981322963 0.00074269299027697304 0 0.012676905639804257 -0.00073656661232409976 0 0.010883062900854432 -0.001309656577803167 0 0.012537257591214853 0.00070028293445110622 0 0.01116351932782395 0.001064267021753223 0 0.011167144023102215 0.0012672618040420389 0 0.011049718031487878 0.0016021847917504998 0 0.010368925430254966 0.0014176726646848612 0 0.01387040658656131 3.8941796048608683e-05 0 0.01209796981322963 0.00074269299027697304 0 0.012676905639804257 -0.00073656661232409976 0 0.01387040658656131 3.8941796048608683e-05 0 0.012676905639804257 -0.00073656661232409976 0 0.013545266023905232 -0.00071471122715701578 0 0.013516715109683802 -0.0014051987725699103 0 0.012676905639804257 -0.00073656661232409976 0 0.013545266023905232 -0.00071471122715701578 0 0.012342149972330045 -0.0015942180528056031 0 0.012676905639804257 -0.00073656661232409976 0 0.010883062900854432 -0.001309656577803167 0 0.010883062900854432 -0.001309656577803167 0 0.0082531330322697886 -0.0016299005404407029 0 0.0080118607764758029 -0.0025988688929351935 0 0.010883062900854432 -0.001309656577803167 0 0.0082531330322697886 -0.0016299005404407029 0 0.0081443854048845726 -0.00064980197370613718 0 0.010923124408200729 -0.0013411607516500756 0 0.0098087069377814709 -0.0022586549417619893 0 0.0078980570261839196 0.00037459131496196739 0 0.0098017245972447913 9.6788318947930671e-05 0 0.0089833374872670107 0.0015579758601442033 0 0.010883062900854432 -0.001309656577803167 0 0.0081443854048845726 -0.00064980197370613718 0 0.0098017245972447913 9.6788318947930671e-05 0 0.0081443854048845726 -0.00064980197370613718 0 0.0078980570261839196 0.00037459131496196739 0 0.0098017245972447913 9.6788318947930671e-05 0 0.01209796981322963 0.00074269299027697304 0 0.010883062900854432 -0.001309656577803167 0 0.0098017245972447913 9.6788318947930671e-05 0 0.01116351932782395 0.001064267021753223 0 0.0091364705619953988 0.0015733807653812429 0 0.0099181804963096067 0.0019916201362040866 0 0.010368925430254966 0.0014176726646848612 0 0.0089833374872670107 0.0015579758601442033 0 0.0099181804963096067 0.0019916201362040866 0 0.0089833374872670107 0.0015579758601442033 0 0.0094012533064443612 0.0029649734041510196 0 0.01209796981322963 0.00074269299027697304 0 0.0098017245972447913 9.6788318947930671e-05 0 0.0089833374872670107 0.0015579758601442033 0 0.0089833374872670107 0.0015579758601442033 0 0.007703641409529843 0.0025742643862436665 0 0.0066620548034113181 0.0021014440897461043 0 0.0078980570261839196 0.00037459131496196739 0 0.0089833374872670107 0.0015579758601442033 0 0.0066620548034113181 0.0021014440897461043 0 0.0057355675542391186 0.0037613500774063709 0 0.007703641409529843 0.0025742643862436665 0 0.0066620548034113181 0.0021014440897461043 0 0.0057355675542391186 0.0037613500774063709 0 0.007703641409529843 0.0025742643862436665 0 0.0094012533064443612 0.0029649734041510196 0 0.0089833374872670107 0.0015579758601442033 0 0.007703641409529843 0.0025742643862436665 0 0.0094012533064443612 0.0029649734041510196 0 0.005866293139249505 0.0037978461268472611 0 0.0074267282101096732 0.0035373935297437812 0 0.004077710892316619 0.002168932458685748 0 0.005067115306104591 0.0026810868944724914 0 0.0053476491169909745 0.0013591558849029366 0 0.0039089945987117814 0.0033766487335653494 0 0.004077710892316619 0.002168932458685748 0 0.005067115306104591 0.0026810868944724914 0 0.005067115306104591 0.0026810868944724914 0 0.0066620548034113181 0.0021014440897461043 0 0.0053476491169909745 0.0013591558849029366 0 0.0057355675542391186 0.0037613500774063709 0 0.005067115306104591 0.0026810868944724914 0 0.0066620548034113181 0.0021014440897461043 0 0.0078980570261839196 0.00037459131496196739 0 0.0066620548034113181 0.0021014440897461043 0 0.0053476491169909745 0.0013591558849029366 0 0.004077710892316619 0.002168932458685748 0 0.0053476491169909745 0.0013591558849029366 0 0.004126600912094971 0.00065770771219595249 0 0.0053476491169909745 0.0013591558849029366 0 0.004126600912094971 0.00065770771219595249 0 0.0048176374585198224 -0.00030670633799616807 0 0.0030480793665728684 -0.00036491891995114433 0 0.004126600912094971 0.00065770771219595249 0 0.0048176374585198224 -0.00030670633799616807 0 0.0078980570261839196 0.00037459131496196739 0 0.0053476491169909745 0.0013591558849029366 0 0.0048176374585198224 -0.00030670633799616807 0 0.0077907181750905127 0.00031754055121163715 0 0.0058006180121198923 -0.00035723179771519035 0 0.0081443854048845726 -0.00064980197370613718 0 0.0078980570261839196 0.00037459131496196739 0 0.0065897200432377435 -0.00049289198808699349 0 0.0081443854048845726 -0.00064980197370613718 0 0.0065897200432377435 -0.00049289198808699349 0 0.0073398725501017019 -0.0013254964632955593 0 0.0082531330322697886 -0.0016299005404407029 0 0.0081443854048845726 -0.00064980197370613718 0 0.0073398725501017019 -0.0013254964632955593 0 0.0073398725501017019 -0.0013254964632955593 0 0.0066137760102789904 -0.0014472052969929097 0 0.0070319857602131634 -0.0019130433853065153 0 0.0073398725501017019 -0.0013254964632955593 0 0.0070319857602131634 -0.0019130433853065153 0 0.0075627774608542963 -0.0019482281359206593 0 0.0082531330322697886 -0.0016299005404407029 0 0.0073398725501017019 -0.0013254964632955593 0 0.0075627774608542963 -0.0019482281359206593 0 0.0082531330322697886 -0.0016299005404407029 0 0.0075627774608542963 -0.0019482281359206593 0 0.0078645305486793934 -0.0021264296617451699 0 0.0060757227229431858 -0.0012583333703476685 0 0.0065897200432377435 -0.00049289198808699349 0 0.0066137760102789904 -0.0014472052969929097 0 0.0065897200432377435 -0.00049289198808699349 0 0.0073398725501017019 -0.0013254964632955593 0 0.0066137760102789904 -0.0014472052969929097 0 0.0066137760102789904 -0.0014472052969929097 0 0.0065439967749819951 -0.0020760114457582051 0 0.0070319857602131634 -0.0019130433853065153 0 0.0060757227229431858 -0.0012583333703476685 0 0.0066137760102789904 -0.0014472052969929097 0 0.0061855965491152262 -0.001713558688864372 0 0.0066137760102789904 -0.0014472052969929097 0 0.0061855965491152262 -0.001713558688864372 0 0.0065439967749819951 -0.0020760114457582051 0 0.0060345862933971943 -0.0021003886563924082 0 0.0065439967749819951 -0.0020760114457582051 0 0.0063368736909033335 -0.0024861198550481592 0 0.0060345862933971943 -0.0021003886563924082 0 0.0061855965491152262 -0.001713558688864372 0 0.0065439967749819951 -0.0020760114457582051 0 0.0065439967749819951 -0.0020760114457582051 0 0.006967160971186246 -0.0023430972277483377 0 0.0070319857602131634 -0.0019130433853065153 0 0.0065439967749819951 -0.0020760114457582051 0 0.0066791677632072177 -0.0025066552103281503 0 0.006967160971186246 -0.0023430972277483377 0 0.0066791677632072177 -0.0025066552103281503 0 0.0070078243368807526 -0.0026024948495438323 0 0.006967160971186246 -0.0023430972277483377 0 0.0066791677632072177 -0.0025066552103281503 0 0.0065210746926837723 -0.0027659141862260732 0 0.0067288325387831775 -0.0027211325141790646 0 0.0066791677632072177 -0.0025066552103281503 0 0.0067288325387831775 -0.0027211325141790646 0 0.0070078243368807526 -0.0026024948495438323 0 0.0065439967749819951 -0.0020760114457582051 0 0.0066791677632072177 -0.0025066552103281503 0 0.0063368736909033335 -0.0024861198550481592 0 0.0066791677632072177 -0.0025066552103281503 0 0.0063368736909033335 -0.0024861198550481592 0 0.0065210746926837723 -0.0027659141862260732 0 0.0058665349946899984 -0.0029179514958024978 0 0.0062333773512122945 -0.0027366194018138422 0 0.0065615983337929829 -0.0029955054530689186 0 0.0062333773512122945 -0.0027366194018138422 0 0.0065210746926837723 -0.0027659141862260732 0 0.0065615983337929829 -0.0029955054530689186 0 0.010472811036749801 -0.0028451959389017936 0 0.010917190446486999 -0.0024901860529414816 0 0.010915948967651442 -0.0026691965897781668 0 0.0063368736909033335 -0.0024861198550481592 0 0.0062333773512122945 -0.0027366194018138422 0 0.0065210746926837723 -0.0027659141862260732 0 0.0067288325387831775 -0.0027211325141790646 0 0.0065615983337929829 -0.0029955054530689186 0 0.0070078243368807526 -0.0026024948495438323 0 0.0065210746926837723 -0.0027659141862260732 0 0.0067288325387831775 -0.0027211325141790646 0 0.0065615983337929829 -0.0029955054530689186 0 0.011853730449167814 -0.002481706999156444 0 0.011753942223455575 -0.0023649405551936253 0 0.011569840515863749 -0.0021604906792531795 0 0.011523278960392637 -0.0024896058746422581 0 0.011540661489983282 -0.0022155878179033264 0 0.010917190446486999 -0.0024901860529414816 0 0.010915948967651442 -0.0026691965897781668 0 0.011569840515863749 -0.0021604906792531795 0 0.011753942223455575 -0.0023649405551936253 0 0.01177264902866762 -0.0023731187673822706 0 0.011843096713822162 -0.0024645781178742649 0 0.011753942223455575 -0.0023649405551936253 0 0.01177264902866762 -0.0023731187673822706 0 0.011679689775743371 -0.0022612797671963951 0 0.011853730449167814 -0.002481706999156444 0 0.011753942223455575 -0.0023649405551936253 0 0.011849188854803865 -0.0024816294386466116 0 0.011753942223455575 -0.0023649405551936253 0 0.011569840515863749 -0.0021604906792531795 0 0.011679689775743371 -0.0022612797671963951 0 0.0065615983337929829 -0.0029955054530689186 0 0.0074865698081592802 -0.0025865166911581633 0 0.0080118607764758029 -0.0025988688929351935 0 0.010917190446486999 -0.0024901860529414816 0 0.011569840515863749 -0.0021604906792531795 0 0.011590844650487105 -0.0020490441823778523 0 0.0088658609349976884 -0.0026977392478865925 0 0.0098087069377814709 -0.0022586549417619893 0 0.0065615983337929829 -0.0029955054530689186 0 0.0074865698081592802 -0.0025865166911581633 0 0.0070078243368807526 -0.0026024948495438323 0 0.0074865698081592802 -0.0025865166911581633 0 0.0070078243368807526 -0.0026024948495438323 0 0.0072778285900678011 -0.0022973231055873739 0 0.0070078243368807526 -0.0026024948495438323 0 0.006967160971186246 -0.0023430972277483377 0 0.0072778285900678011 -0.0022973231055873739 0 0.0072778285900678011 -0.0022973231055873739 0 0.0070319857602131634 -0.0019130433853065153 0 0.0075627774608542963 -0.0019482281359206593 0 0.006967160971186246 -0.0023430972277483377 0 0.0072778285900678011 -0.0022973231055873739 0 0.0070319857602131634 -0.0019130433853065153 0 0.0074865698081592802 -0.0025865166911581633 0 0.0076576157930667186 -0.0023091233233577622 0 0.0080118607764758029 -0.0025988688929351935 0 0.0076576157930667186 -0.0023091233233577622 0 0.0078645305486793934 -0.0021264296617451699 0 0.0080118607764758029 -0.0025988688929351935 0 0.0074865698081592802 -0.0025865166911581633 0 0.0072778285900678011 -0.0022973231055873739 0 0.0076576157930667186 -0.0023091233233577622 0 0.0076576157930667186 -0.0023091233233577622 0 0.0075627774608542963 -0.0019482281359206593 0 0.0078645305486793934 -0.0021264296617451699 0 0.0072778285900678011 -0.0022973231055873739 0 0.0076576157930667186 -0.0023091233233577622 0 0.0075627774608542963 -0.0019482281359206593 0 0.0082531330322697886 -0.0016299005404407029 0 0.0078645305486793934 -0.0021264296617451699 0 0.0080118607764758029 -0.0025988688929351935 0 0.010883062900854432 -0.001309656577803167 0 0.011590844650487105 -0.0020490441823778523 0 0.011574953186616971 -0.0020296941422005281 0 0.011590844650487105 -0.0020490441823778523 0 0.011574953186616971 -0.0020296941422005281 0 0.01161680353416941 -0.0021301046880532908 0 0.011569840515863749 -0.0021604906792531795 0 0.011590844650487105 -0.0020490441823778523 0 0.01161680353416941 -0.0021301046880532908 0 0.010883062900854432 -0.001309656577803167 0 0.011574953186616971 -0.0020296941422005281 0 0.011911166144980818 -0.0020656208948736446 0 0.012342149972330045 -0.0015942180528056031 0 0.010883062900854432 -0.001309656577803167 0 0.011911166144980818 -0.0020656208948736446 0 0.011574953186616971 -0.0020296941422005281 0 0.011911166144980818 -0.0020656208948736446 0 0.011943823487120003 -0.0024431401852627074 0 0.012412942348047266 -0.0026137774867802275 0 0.011911166144980818 -0.0020656208948736446 0 0.011943823487120003 -0.0024431401852627074 0 0.011574953186616971 -0.0020296941422005281 0 0.011732091036200307 -0.0022901907786605658 0 0.011943823487120003 -0.0024431401852627074 0 0.011569840515863749 -0.0021604906792531795 0 0.01161680353416941 -0.0021301046880532908 0 0.011679689775743371 -0.0022612797671963951 0 0.01161680353416941 -0.0021301046880532908 0 0.011679689775743371 -0.0022612797671963951 0 0.011732091036200307 -0.0022901907786605658 0 0.011574953186616971 -0.0020296941422005281 0 0.01161680353416941 -0.0021301046880532908 0 0.011732091036200307 -0.0022901907786605658 0 0.01177264902866762 -0.0023731187673822706 0 0.011679689775743371 -0.0022612797671963951 0 0.011732091036200307 -0.0022901907786605658 0 0.01177264902866762 -0.0023731187673822706 0 0.011732091036200307 -0.0022901907786605658 0 0.011928004136670035 -0.0025481407366826354 0 0.011732091036200307 -0.0022901907786605658 0 0.011928004136670035 -0.0025481407366826354 0 0.011943823487120003 -0.0024431401852627074 0 0.012412942348047266 -0.0026137774867802275 0 0.011943823487120003 -0.0024431401852627074 0 0.01216804300194742 -0.0029149311775886985 0 0.011928004136670035 -0.0025481407366826354 0 0.011943823487120003 -0.0024431401852627074 0 0.01216804300194742 -0.0029149311775886985 0 0.01216804300194742 -0.0029149311775886985 0 0.012089176085375936 -0.0026738978256103164 0 0.012335667729489934 -0.0027996371870674767 0 0.011928004136670035 -0.0025481407366826354 0 0.01216804300194742 -0.0029149311775886985 0 0.012089176085375936 -0.0026738978256103164 0 0.012758332394085085 -0.0027742802969934473 0 0.012350482558331047 -0.00280732748212847 0 0.012089176085375936 -0.0026738978256103164 0 0.011957392213322607 -0.0026786338586906574 0 0.011912101835350004 -0.0025558300614791337 0 0.012089176085375936 -0.0026738978256103164 0 0.011957392213322607 -0.0026786338586906574 0 0.012335667729489934 -0.0027996371870674767 0 0.01183569868954765 -0.0026876609039999367 0 0.01187893371117818 -0.0028170842036083269 0 0.011957392213322607 -0.0026786338586906574 0 0.01183569868954765 -0.0026876609039999367 0 0.011957392213322607 -0.0026786338586906574 0 0.011838761899228291 -0.0025941316702978437 0 0.011957392213322607 -0.0026786338586906574 0 0.01187639308053799 -0.002546340827428144 0 0.011912101835350004 -0.0025558300614791337 0 0.01187639308053799 -0.002546340827428144 0 0.011849188854803865 -0.0024816294386466116 0 0.011912101835350004 -0.0025558300614791337 0 0.011957392213322607 -0.0026786338586906574 0 0.01187639308053799 -0.002546340827428144 0 0.011838761899228291 -0.0025941316702978437 0 0.011853730449167814 -0.002481706999156444 0 0.01187639308053799 -0.002546340827428144 0 0.011838761899228291 -0.0025941316702978437 0 0.011853730449167814 -0.002481706999156444 0 0.01187639308053799 -0.002546340827428144 0 0.011849188854803865 -0.0024816294386466116 0 0.011753942223455575 -0.0023649405551936253 0 0.011849188854803865 -0.0024816294386466116 0 0.011843096713822162 -0.0024645781178742649 0 0.011849188854803865 -0.0024816294386466116 0 0.011843096713822162 -0.0024645781178742649 0 0.011912101835350004 -0.0025558300614791337 0 0.012089176085375936 -0.0026738978256103164 0 0.011843096713822162 -0.0024645781178742649 0 0.011912101835350004 -0.0025558300614791337 0 0.011928004136670035 -0.0025481407366826354 0 0.012089176085375936 -0.0026738978256103164 0 0.011843096713822162 -0.0024645781178742649 0 0.01177264902866762 -0.0023731187673822706 0 0.011928004136670035 -0.0025481407366826354 0 0.011843096713822162 -0.0024645781178742649 0 0.012057562279308511 -0.0030140817292057579 0 0.012335667729489934 -0.0027996371870674767 0 0.012591940601102122 -0.0034649472368776572 0 0.011878440570782602 -0.0032710391572154563 0 0.012057562279308511 -0.0030140817292057579 0 0.012153840429151859 -0.0033824585140723438 0 0.012057562279308511 -0.0030140817292057579 0 0.012591940601102122 -0.0034649472368776572 0 0.012153840429151859 -0.0033824585140723438 0 0.01187893371117818 -0.0028170842036083269 0 0.011957392213322607 -0.0026786338586906574 0 0.012057562279308511 -0.0030140817292057579 0 0.011957392213322607 -0.0026786338586906574 0 0.012057562279308511 -0.0030140817292057579 0 0.012335667729489934 -0.0027996371870674767 0 0.013335193420106731 -0.0026038554447815093 0 0.012335667729489934 -0.0027996371870674767 0 0.012986150167372456 -0.0032077103198228782 0 0.013335193420106731 -0.0026038554447815093 0 0.012986150167372456 -0.0032077103198228782 0 0.013620289187782587 -0.0033620429771533118 0 0.012986150167372456 -0.0032077103198228782 0 0.013213075387440265 -0.003657404074064635 0 0.013620289187782587 -0.0033620429771533118 0 0.012335667729489934 -0.0027996371870674767 0 0.012986150167372456 -0.0032077103198228782 0 0.012591940601102122 -0.0034649472368776572 0 0.012986150167372456 -0.0032077103198228782 0 0.013213075387440265 -0.003657404074064635 0 0.012591940601102122 -0.0034649472368776572 0 0.013213075387440265 -0.003657404074064635 0 0.012799919592402776 -0.0039670480809153603 0 0.012591940601102122 -0.0034649472368776572 0 0.013213075387440265 -0.003657404074064635 0 0.013406883218062682 -0.0040613080727047507 0 0.013826189149901275 -0.0038274285199708011 0 0.013213075387440265 -0.003657404074064635 0 0.013406883218062682 -0.0040613080727047507 0 0.012799919592402776 -0.0039670480809153603 0 0.012799919592402776 -0.0039670480809153603 0 0.012591940601102122 -0.0034649472368776572 0 0.012101488709860357 -0.003806523032217313 0 0.012799919592402776 -0.0039670480809153603 0 0.012101488709860357 -0.003806523032217313 0 0.012474278531664088 -0.004388601024492041 0 0.011878440570782602 -0.0032710391572154563 0 0.012153840429151859 -0.0033824585140723438 0 0.012101488709860357 -0.003806523032217313 0 0.012591940601102122 -0.0034649472368776572 0 0.012153840429151859 -0.0033824585140723438 0 0.012101488709860357 -0.003806523032217313 0 0.012138039137259011 -0.0043762139258142346 0 0.01231090749750861 -0.0038691526405045282 0 0.012620539445898147 -0.0044947181729081591 0 0.012202305589390242 -0.0038320073780049551 0 0.012546983336468346 -0.004448318543351721 0 0.012799919592402776 -0.0039670480809153603 0 0.012474278531664088 -0.004388601024492041 0 0.013110823406061178 -0.004500441385447123 0 0.012474278531664088 -0.004388601024492041 0 0.012862899311992469 -0.0050893692701622587 0 0.013110823406061178 -0.004500441385447123 0 0.012546983336468346 -0.004448318543351721 0 0.012845008972250162 -0.0050522612945613438 0 0.012138039137259011 -0.0043762139258142346 0 0.012620539445898147 -0.0044947181729081591 0 0.012388616957193932 -0.0050451557667892215 0 0.012620539445898147 -0.0044947181729081591 0 0.012388616957193932 -0.0050451557667892215 0 0.012862899311992469 -0.0050893692701622587 0 0.024819234551289353 -0.0034240318498249662 0 0.024887684284739833 -0.0037054226085717489 0 0.025564402908626015 -0.0038294725554376763 0 0.012388616957193932 -0.0050451557667892215 0 0.012862899311992469 -0.0050893692701622587 0 0.012824795147059075 -0.0054874172136233374 0 0.018155165087561431 -0.0041807106811578964 0 0.019505411451701066 -0.0047510950534077672 0 0.012862899311992469 -0.0050893692701622587 0 0.012824795147059075 -0.0054874172136233374 0 0.013266421577519586 -0.0052617974747034765 0 0.024887684284739833 -0.0037054226085717489 0 0.025609122842023373 -0.0040213259337674896 0 0.025564402908626015 -0.0038294725554376763 0 0.031603021044807361 -0.0028358193712069049 0 0.031535037252773186 -0.0029783692502022489 0 0.037777509668893247 -0.0019138092945295553 0 0.03795926886954256 -0.0020528424518760384 0 0.0378415966942377 -0.0020438742550367341 0 0.037602669139383038 -0.0020328997471751138 0 0.037777509668893247 -0.0019138092945295553 0 0.0378415966942377 -0.0020438742550367341 0 0.014093305782979961 -0.0065825093680912513 0 0.013671146949855788 -0.0048410568287837125 0 0.0155418888488013 -0.0050026304444144073 0 0.012824795147059075 -0.0054874172136233374 0 0.014093305782979961 -0.0065825093680912513 0 0.013266421577519586 -0.0052617974747034765 0 0.031535037252773186 -0.0029783692502022489 0 0.03317744014291981 -0.0033643477954204497 0 0.025609122842023373 -0.0040213259337674896 0 0.025564402908626015 -0.0038294725554376763 0 0.026317385507726526 -0.0042703535170519969 0 0.025609122842023373 -0.0040213259337674896 0 0.026317385507726526 -0.0042703535170519969 0 0.02633919709486127 -0.0043727592568708097 0 0.014093305782979961 -0.0065825093680912513 0 0.013266421577519586 -0.0052617974747034765 0 0.013671146949855788 -0.0048410568287837125 0 0.019505411451701066 -0.0047510950534077672 0 0.019158353298896397 -0.0054060571780164979 0 0.012862899311992469 -0.0050893692701622587 0 0.013266421577519586 -0.0052617974747034765 0 0.013212705213573006 -0.0048731657079683086 0 0.013266421577519586 -0.0052617974747034765 0 0.013212705213573006 -0.0048731657079683086 0 0.013671146949855788 -0.0048410568287837125 0 0.013671146949855788 -0.0048410568287837125 0 0.013696606924096494 -0.0045727138518775502 0 0.013829050093028806 -0.0048535173315676135 0 0.01412872843498888 -0.0048964851362902698 0 0.013742319881910896 -0.0048449314435147399 0 0.013671146949855788 -0.0048410568287837125 0 0.013696606924096494 -0.0045727138518775502 0 0.013110823406061178 -0.004500441385447123 0 0.013212705213573006 -0.0048731657079683086 0 0.013671146949855788 -0.0048410568287837125 0 0.013110823406061178 -0.004500441385447123 0 0.012862899311992469 -0.0050893692701622587 0 0.013212705213573006 -0.0048731657079683086 0 0.013110823406061178 -0.004500441385447123 0 0.013406883218062682 -0.0040613080727047507 0 0.012799919592402776 -0.0039670480809153603 0 0.013110823406061178 -0.004500441385447123 0 0.013406883218062682 -0.0040613080727047507 0 0.013696606924096494 -0.0045727138518775502 0 0.013110823406061178 -0.004500441385447123 0 0.013406883218062682 -0.0040613080727047507 0 0.013696606924096494 -0.0045727138518775502 0 0.013917945818392643 -0.004301093631308546 0 0.013917945818392643 -0.004301093631308546 0 0.014215733725703351 -0.0045098240796476695 0 0.014281638684956318 -0.0040185047112058832 0 0.013917945818392643 -0.004301093631308546 0 0.014215733725703351 -0.0045098240796476695 0 0.013962242237562842 -0.0046385185458835522 0 0.013696606924096494 -0.0045727138518775502 0 0.013917945818392643 -0.004301093631308546 0 0.013962242237562842 -0.0046385185458835522 0 0.013696606924096494 -0.0045727138518775502 0 0.013962242237562842 -0.0046385185458835522 0 0.013829050093028806 -0.0048535173315676135 0 0.013742319881910896 -0.0048449314435147399 0 0.021093485659625377 -0.003432371560588589 0 0.013962242237562842 -0.0046385185458835522 0 0.013829050093028806 -0.0048535173315676135 0 0.014175118084703522 -0.0049301336397913646 0 0.014215733725703351 -0.0045098240796476695 0 0.013962242237562842 -0.0046385185458835522 0 0.014175118084703522 -0.0049301336397913646 0 0.014468167763410755 -0.002984113459318797 0 0.021093485659625377 -0.003432371560588589 0 0.016158179985384703 -0.0012177696129343986 0 0.016052541914467099 -0.0019409437501780675 0 0.016433673208081746 -0.0016647126128300441 0 0.017460417660052775 -0.0053481951026475476 0 0.016080837457619117 -0.0065438564629862871 0 0.017035202055775019 -0.0081151643013024181 0 0.014093305782979961 -0.0065825093680912513 0 0.0155418888488013 -0.0050026304444144073 0 0.016080837457619117 -0.0065438564629862871 0 0.0155418888488013 -0.0050026304444144073 0 0.017460417660052775 -0.0053481951026475476 0 0.016080837457619117 -0.0065438564629862871 0 0.035571249444220868 -0.0030852072339384385 0 0.036256030942270534 -0.0033602967157981317 0 0.036003344726970574 -0.0035171454893955663 0 0.016052541914467099 -0.0019409437501780675 0 0.016756031575814182 -0.0021689898080041888 0 0.016433673208081746 -0.0016647126128300441 0 0.021093485659625377 -0.003432371560588589 0 0.027503295945554781 -0.0027664151684208623 0 0.016756031575814182 -0.0021689898080041888 0 0.016433673208081746 -0.0016647126128300441 0 0.016775896484459707 -0.0013849819310511784 0 0.016756031575814182 -0.0021689898080041888 0 0.016775896484459707 -0.0013849819310511784 0 0.01724967875230066 -0.0017155909947666743 0 0.016158179985384703 -0.0012177696129343986 0 0.016433673208081746 -0.0016647126128300441 0 0.016775896484459707 -0.0013849819310511784 0 0.016158179985384703 -0.0012177696129343986 0 0.016775896484459707 -0.0013849819310511784 0 0.016750649399589014 -0.00071272074123005912 0 0.016158179985384703 -0.0012177696129343986 0 0.016750649399589014 -0.00071272074123005912 0 0.016336146232771988 -0.00057993098917988632 0 0.014468167763410755 -0.002984113459318797 0 0.015398667101229904 -0.0022674378715280452 0 0.016775896484459707 -0.0013849819310511784 0 0.016750649399589014 -0.00071272074123005912 0 0.017290503633319469 -0.00087237148263721723 0 0.016502384686305667 -0.00024674703438441487 0 0.016336146232771988 -0.00057993098917988632 0 0.016845385103645298 -0.00026424736521011698 0 0.016750649399589014 -0.00071272074123005912 0 0.016336146232771988 -0.00057993098917988632 0 0.016845385103645298 -0.00026424736521011698 0 0.016502384686305667 -0.00024674703438441487 0 0.016609545585412555 -0.00022834825469237718 0 0.016845385103645298 -0.00026424736521011698 0 0.015412173833838846 -0.0018882015801398543 0 0.015398667101229904 -0.0022674378715280452 0 0.014352564713848451 -0.0034874016958400043 0 0.013826189149901275 -0.0038274285199708011 0 0.013620289187782587 -0.0033620429771533118 0 0.013917945818392643 -0.004301093631308546 0 0.014281638684956318 -0.0040185047112058832 0 0.013826189149901275 -0.0038274285199708011 0 0.014352564713848451 -0.0034874016958400043 0 0.014281638684956318 -0.0040185047112058832 0 0.013826189149901275 -0.0038274285199708011 0 0.013406883218062682 -0.0040613080727047507 0 0.013917945818392643 -0.004301093631308546 0 0.013826189149901275 -0.0038274285199708011 0 0.013213075387440265 -0.003657404074064635 0 0.013826189149901275 -0.0038274285199708011 0 0.013620289187782587 -0.0033620429771533118 0 0.014352564713848451 -0.0034874016958400043 0 0.013620289187782587 -0.0033620429771533118 0 0.013994285604122613 -0.0029917469647674721 0 0.013335193420106731 -0.0026038554447815093 0 0.013620289187782587 -0.0033620429771533118 0 0.013994285604122613 -0.0029917469647674721 0 0.014304702475034747 -0.0028068809727922329 0 0.013994285604122613 -0.0029917469647674721 0 0.014407353849987063 -0.0030047598447204382 0 0.016544580023719915 -0.00036978048044226269 0 0.016609545585412555 -0.00022834825469237718 0 0.016350822687784081 -0.0005160220690116744 0 0.016502384686305667 -0.00024674703438441487 0 0.016544580023719915 -0.00036978048044226269 0 0.016609545585412555 -0.00022834825469237718 0 0.015412173833838846 -0.0018882015801398543 0 0.01547196809052224 -0.0016927863563915237 0 0.014352564713848451 -0.0034874016958400043 0 0.013994285604122613 -0.0029917469647674721 0 0.014407353849987063 -0.0030047598447204382 0 0.016822013799963505 4.7965310098947936e-05 0 0.016609545585412555 -0.00022834825469237718 0 0.01651427295553785 -0.00035905826175343527 0 0.016609545585412555 -0.00022834825469237718 0 0.016350822687784081 -0.0005160220690116744 0 0.01651427295553785 -0.00035905826175343527 0 0.016342391144523891 -0.00060186164269989643 0 0.016350822687784081 -0.0005160220690116744 0 0.01651427295553785 -0.00035905826175343527 0 0.016342391144523891 -0.00060186164269989643 0 0.016822013799963505 4.7965310098947936e-05 0 0.01651427295553785 -0.00035905826175343527 0 0.016822013799963505 4.7965310098947936e-05 0 0.016158744846528513 -0.00039428848514528843 0 0.015914002313678073 0.00043953040826697664 0 0.016158744846528513 -0.00039428848514528843 0 0.015914002313678073 0.00043953040826697664 0 0.015497634034546693 0.00014327832525696006 0 0.016342391144523891 -0.00060186164269989643 0 0.016822013799963505 4.7965310098947936e-05 0 0.016158744846528513 -0.00039428848514528843 0 0.015499641959323438 -0.00063968034223902738 0 0.016158744846528513 -0.00039428848514528843 0 0.015497634034546693 0.00014327832525696006 0 0.016917774293036016 6.3680383339683049e-05 0 0.017214699867188887 0.0002688682305409518 0 0.016822013799963505 4.7965310098947936e-05 0 0.018459435024931112 0.0002025437996645467 0 0.017478253155466861 -0.00025827364360279974 0 0.018459435024931112 0.0002025437996645467 0 0.01843327593539516 -0.0006886934446895419 0 0.019950040116658869 -0.00010440636487206896 0 0.018459435024931112 0.0002025437996645467 0 0.017478253155466861 -0.00025827364360279974 0 0.01843327593539516 -0.0006886934446895419 0 0.017478253155466861 -0.00025827364360279974 0 0.016845385103645298 -0.00026424736521011698 0 0.017290503633319469 -0.00087237148263721723 0 0.016822013799963505 4.7965310098947936e-05 0 0.017478253155466861 -0.00025827364360279974 0 0.016845385103645298 -0.00026424736521011698 0 0.016822013799963505 4.7965310098947936e-05 0 0.016609545585412555 -0.00022834825469237718 0 0.016845385103645298 -0.00026424736521011698 0 0.017478253155466861 -0.00025827364360279974 0 0.017290503633319469 -0.00087237148263721723 0 0.01843327593539516 -0.0006886934446895419 0 0.016750649399589014 -0.00071272074123005912 0 0.016845385103645298 -0.00026424736521011698 0 0.017290503633319469 -0.00087237148263721723 0 0.017290503633319469 -0.00087237148263721723 0 0.017984997521539776 -0.0016898736991407663 0 0.01843327593539516 -0.0006886934446895419 0 0.017290503633319469 -0.00087237148263721723 0 0.01724967875230066 -0.0017155909947666743 0 0.017984997521539776 -0.0016898736991407663 0 0.016775896484459707 -0.0013849819310511784 0 0.017290503633319469 -0.00087237148263721723 0 0.01724967875230066 -0.0017155909947666743 0 0.01724967875230066 -0.0017155909947666743 0 0.017984997521539776 -0.0016898736991407663 0 0.017536414038543613 -0.0025208624466407283 0 0.017984997521539776 -0.0016898736991407663 0 0.017536414038543613 -0.0025208624466407283 0 0.018549932495692353 -0.0029333707294455337 0 0.027503295945554781 -0.0027664151684208623 0 0.026776647924657344 -0.00315571833809755 0 0.016756031575814182 -0.0021689898080041888 0 0.01724967875230066 -0.0017155909947666743 0 0.017536414038543613 -0.0025208624466407283 0 0.017984997521539776 -0.0016898736991407663 0 0.018979370577418584 -0.0022111858354480359 0 0.018549932495692353 -0.0029333707294455337 0 0.017984997521539776 -0.0016898736991407663 0 0.018979370577418584 -0.0022111858354480359 0 0.018838439565333688 -0.0013856746722550636 0 0.018979370577418584 -0.0022111858354480359 0 0.018838439565333688 -0.0013856746722550636 0 0.01988088325584042 -0.0018353997745816453 0 0.018838439565333688 -0.0013856746722550636 0 0.01843327593539516 -0.0006886934446895419 0 0.019952134613783479 -0.00088088685959883135 0 0.017984997521539776 -0.0016898736991407663 0 0.018838439565333688 -0.0013856746722550636 0 0.01843327593539516 -0.0006886934446895419 0 0.01843327593539516 -0.0006886934446895419 0 0.019950040116658869 -0.00010440636487206896 0 0.019952134613783479 -0.00088088685959883135 0 0.017819082279704034 0.00012513550616603572 0 0.018983803272454604 -0.00032214391280661317 0 0.019950040116658869 -0.00010440636487206896 0 0.019952134613783479 -0.00088088685959883135 0 0.021267376632992545 -0.00072894554694665696 0 0.019952134613783479 -0.00088088685959883135 0 0.021048998337369729 -0.00092234934735856199 0 0.021267376632992545 -0.00072894554694665696 0 0.019952134613783479 -0.00088088685959883135 0 0.01988088325584042 -0.0018353997745816453 0 0.021048998337369729 -0.00092234934735856199 0 0.018838439565333688 -0.0013856746722550636 0 0.019952134613783479 -0.00088088685959883135 0 0.01988088325584042 -0.0018353997745816453 0 0.01988088325584042 -0.0018353997745816453 0 0.021048998337369729 -0.00092234934735856199 0 0.021190653944422749 -0.0024880831834260897 0 0.021221166570507745 -0.00097894078809055503 0 0.020970917292607659 -0.00098723774091502852 0 0.01988088325584042 -0.0018353997745816453 0 0.021190653944422749 -0.0024880831834260897 0 0.019854679431317048 -0.0034121769401422729 0 0.018979370577418584 -0.0022111858354480359 0 0.01988088325584042 -0.0018353997745816453 0 0.019854679431317048 -0.0034121769401422729 0 0.022317161004469451 1.1342123058300956e-06 0 0.021414241153579473 3.3281617850687552e-05 0 0.020263510506219298 -8.5023348966446264e-05 0 0.022317161004469451 1.1342123058300956e-06 0 0.021414241153579473 3.3281617850687552e-05 0 0.022187105589657894 9.0648433982354654e-05 0 0.021720447233297718 6.8620231796906678e-05 0 0.021458442235114443 -0.0001046508696086263 0 0.022187105589657894 9.0648433982354654e-05 0 0.021414241153579473 3.3281617850687552e-05 0 0.021458442235114443 -0.0001046508696086263 0 0.022187105589657894 9.0648433982354654e-05 0 0.021048998337369729 -0.00092234934735856199 0 0.021458442235114443 -0.0001046508696086263 0 0.021190080503004305 -0.00035396288198086072 0 0.021190080503004305 -0.00035396288198086072 0 0.020263510506219298 -8.5023348966446264e-05 0 0.021267376632992545 -0.00072894554694665696 0 0.021414241153579473 3.3281617850687552e-05 0 0.021458442235114443 -0.0001046508696086263 0 0.021190080503004305 -0.00035396288198086072 0 0.021048998337369729 -0.00092234934735856199 0 0.021720447233297718 6.8620231796906678e-05 0 0.021458442235114443 -0.0001046508696086263 0 0.021414241153579473 3.3281617850687552e-05 0 0.021190080503004305 -0.00035396288198086072 0 0.020263510506219298 -8.5023348966446264e-05 0 0.022317161004469451 1.1342123058300956e-06 0 0.019695874974110208 -1.6079764049311082e-06 0 0.020263510506219298 -8.5023348966446264e-05 0 0.019695874974110208 -1.6079764049311082e-06 0 0.020263510506219298 -8.5023348966446264e-05 0 0.016684362991741648 -0.00011501108508855254 0 0.019695874974110208 -1.6079764049311082e-06 0 0.016684362991741648 -0.00011501108508855254 0 0.017076947871494053 9.1129046241512469e-07 0 0.020032974167786408 -0.00013228111763017653 0 0.018983803272454604 -0.00032214391280661317 0 0.021048998337369729 -0.00092234934735856199 0 0.021190080503004305 -0.00035396288198086072 0 0.021267376632992545 -0.00072894554694665696 0 0.015625177913332434 0.00041846574135350753 0 0.016684362991741648 -0.00011501108508855254 0 0.016024502874331572 0.00030766713976239883 0 0.016684362991741648 -0.00011501108508855254 0 0.017076947871494053 9.1129046241512469e-07 0 0.016024502874331572 0.00030766713976239883 0 0.017076947871494053 9.1129046241512469e-07 0 0.014457045071171662 1.5567272272861237e-06 0 0.016024502874331572 0.00030766713976239883 0 0.014457045071171662 1.5567272272861237e-06 0 0.015192110421996046 0.0003362605471048862 0 0.016024502874331572 0.00030766713976239883 0 0.015914002313678073 0.00043953040826697664 0 0.015625177913332434 0.00041846574135350753 0 0.015497634034546693 0.00014327832525696006 0 0.015625177913332434 0.00041846574135350753 0 0.015192110421996046 0.0003362605471048862 0 0.016024502874331572 0.00030766713976239883 0 0.015625177913332434 0.00041846574135350753 0 0.015192110421996046 0.0003362605471048862 0 0.015497634034546693 0.00014327832525696006 0 0.017214699867188887 0.0002688682305409518 0 0.017819082279704034 0.00012513550616603572 0 0.015192110421996046 0.0003362605471048862 0 0.015497634034546693 0.00014327832525696006 0 0.014866822585440065 -0.00015369346442094657 0 0.014836801628806096 -0.00094299139790409228 0 0.015499641959323438 -0.00063968034223902738 0 0.014866822585440065 -0.00015369346442094657 0 0.015499641959323438 -0.00063968034223902738 0 0.015497634034546693 0.00014327832525696006 0 0.014866822585440065 -0.00015369346442094657 0 0.013747625480743909 -0.0011650872036051113 0 0.014866822585440065 -0.00015369346442094657 0 0.013870090645358065 0.00018222900168814255 0 0.013747625480743909 -0.0011650872036051113 0 0.01184295867894136 -2.4256332380714707e-06 0 0.013870090645358065 0.00018222900168814255 0 0.014457045071171662 1.5567272272861237e-06 0 0.01184295867894136 -2.4256332380714707e-06 0 0.013870090645358065 0.00018222900168814255 0 0.014457045071171662 1.5567272272861237e-06 0 0.015192110421996046 0.0003362605471048862 0 0.013870090645358065 0.00018222900168814255 0 0.015192110421996046 0.0003362605471048862 0 0.014866822585440065 -0.00015369346442094657 0 0.013870090645358065 0.00018222900168814255 0 0.033699978164372028 -2.1232070964826191e-05 0 0.032148132961470337 -2.7403962404743133e-05 0 0.032670569502821718 -0.00033625919052501389 0 0.033699978164372028 -2.1232070964826191e-05 0 0.032148132961470337 -2.7403962404743133e-05 0 0.032255997904378615 2.4329510459016273e-07 0 0.032148132961470337 -2.7403962404743133e-05 0 0.032255997904378615 2.4329510459016273e-07 0 0.029816280628567907 -4.2226226902552322e-07 0 0.033699978164372028 -2.1232070964826191e-05 0 0.032255997904378615 2.4329510459016273e-07 0 0.034909107621999634 0.0001303544542437411 0 0.032255997904378615 2.4329510459016273e-07 0 0.034909107621999634 0.0001303544542437411 0 0.034695029275501048 3.5383588940952064e-07 0 0.033699978164372028 -2.1232070964826191e-05 0 0.035561958135171309 -1.6264985062883377e-05 0 0.034909107621999634 0.0001303544542437411 0 0.033699978164372028 -2.1232070964826191e-05 0 0.034693275128335262 -0.00026343462011955228 0 0.035561958135171309 -1.6264985062883377e-05 0 0.036092089547888444 -0.00031076741737726978 0 0.034693275128335262 -0.00026343462011955228 0 0.035561958135171309 -1.6264985062883377e-05 0 0.035548189787572036 -0.00055327766316847784 0 0.034693275128335262 -0.00026343462011955228 0 0.034455243800958664 -0.00069647448886041589 0 0.036092089547888444 -0.00031076741737726978 0 0.035548189787572036 -0.00055327766316847784 0 0.034693275128335262 -0.00026343462011955228 0 0.033699978164372028 -2.1232070964826191e-05 0 0.034693275128335262 -0.00026343462011955228 0 0.032670569502821718 -0.00033625919052501389 0 0.034455243800958664 -0.00069647448886041589 0 0.033367411091477048 -0.00092971771407132924 0 0.032670569502821718 -0.00033625919052501389 0 0.034693275128335262 -0.00026343462011955228 0 0.034455243800958664 -0.00069647448886041589 0 0.032670569502821718 -0.00033625919052501389 0 0.035548189787572036 -0.00055327766316847784 0 0.034455243800958664 -0.00069647448886041589 0 0.035996231212959008 -0.00093638582510533039 0 0.034455243800958664 -0.00069647448886041589 0 0.034968310582082142 -0.0013240951951538759 0 0.035996231212959008 -0.00093638582510533039 0 0.034455243800958664 -0.00069647448886041589 0 0.034968310582082142 -0.0013240951951538759 0 0.033367411091477048 -0.00092971771407132924 0 0.034968310582082142 -0.0013240951951538759 0 0.033367411091477048 -0.00092971771407132924 0 0.034034258966200187 -0.0020699478524064184 0 0.034968310582082142 -0.0013240951951538759 0 0.034034258966200187 -0.0020699478524064184 0 0.035194255203175054 -0.0020372359763613352 0 0.033367411091477048 -0.00092971771407132924 0 0.03111355007143966 -0.00082102667794098003 0 0.032670569502821718 -0.00033625919052501389 0 0.033367411091477048 -0.00092971771407132924 0 0.03111355007143966 -0.00082102667794098003 0 0.034034258966200187 -0.0020699478524064184 0 0.03111355007143966 -0.00082102667794098003 0 0.032670569502821718 -0.00033625919052501389 0 0.029816280628567907 -4.2226226902552322e-07 0 0.032148132961470337 -2.7403962404743133e-05 0 0.032670569502821718 -0.00033625919052501389 0 0.029816280628567907 -4.2226226902552322e-07 0 0.03111355007143966 -0.00082102667794098003 0 0.029816280628567907 -4.2226226902552322e-07 0 0.027377015074653187 2.4099431313220746e-07 0 0.03111355007143966 -0.00082102667794098003 0 0.027377015074653187 2.4099431313220746e-07 0 0.027723523332375957 -0.0002227793567987476 0 0.03111355007143966 -0.00082102667794098003 0 0.029004496353214768 -0.00039911111733573852 0 0.027723523332375957 -0.0002227793567987476 0 0.030869024443703159 -0.00065725630684868681 0 0.030994744761747794 -0.0017671606032128454 0 0.029004496353214768 -0.00039911111733573852 0 0.027723523332375957 -0.0002227793567987476 0 0.027704006526597803 -0.0014229197581940676 0 0.027377015074653187 2.4099431313220746e-07 0 0.027723523332375957 -0.0002227793567987476 0 0.02494033654149079 -3.996665335924414e-06 0 0.024932062341654505 -2.0814992574796981e-06 0 0.022806191142535865 -0.00047859202639549952 0 0.022187105589657894 9.0648433982354654e-05 0 0.027723523332375957 -0.0002227793567987476 0 0.02494033654149079 -3.996665335924414e-06 0 0.027704006526597803 -0.0014229197581940676 0 0.024936241251137484 -5.6231696373156766e-07 0 0.02507260021042278 -0.00079071832229189037 0 0.030994744761747794 -0.0017671606032128454 0 0.026153599816702143 -0.0027914921464041197 0 0.022806191142535865 -0.00047859202639549952 0 0.022187105589657894 9.0648433982354654e-05 0 0.02198002499289934 -0.00031855920433923721 0 0.029004496353214768 -0.00039911111733573852 0 0.027704006526597803 -0.0014229197581940676 0 0.028855975851451266 -0.0017656222654015446 0 0.02507260021042278 -0.00079071832229189037 0 0.026153599816702143 -0.0027914921464041197 0 0.021720447233297718 6.8620231796906678e-05 0 0.022187105589657894 9.0648433982354654e-05 0 0.02198002499289934 -0.00031855920433923721 0 0.022317161004469451 1.1342123058300956e-06 0 0.024932062341654505 -2.0814992574796981e-06 0 0.022187105589657894 9.0648433982354654e-05 0 0.020970917292607659 -0.00098723774091502852 0 0.026153599816702143 -0.0027914921464041197 0 0.021190653944422749 -0.0024880831834260897 0 0.019854679431317048 -0.0034121769401422729 0 0.021376787192731554 -0.0038121914020466333 0 0.032041747189217304 -0.003065746519524883 0 0.032443090946716116 -0.0044652181532766561 0 0.033866736222389227 -0.0035517065331535664 0 0.027257189098842522 -0.0041602692869016685 0 0.026153599816702143 -0.0027914921464041197 0 0.034326858815188294 -0.0045633851464720989 0 0.032443090946716116 -0.0044652181532766561 0 0.033866736222389227 -0.0035517065331535664 0 0.034326858815188294 -0.0045633851464720989 0 0.033866736222389227 -0.0035517065331535664 0 0.035414731199842751 -0.0037764701333134871 0 0.033866736222389227 -0.0035517065331535664 0 0.034034258966200187 -0.0020699478524064184 0 0.03509510083785785 -0.0028306821775618664 0 0.032041747189217304 -0.003065746519524883 0 0.033866736222389227 -0.0035517065331535664 0 0.034034258966200187 -0.0020699478524064184 0 0.03111355007143966 -0.00082102667794098003 0 0.032041747189217304 -0.003065746519524883 0 0.034034258966200187 -0.0020699478524064184 0 0.034034258966200187 -0.0020699478524064184 0 0.035194255203175054 -0.0020372359763613352 0 0.03509510083785785 -0.0028306821775618664 0 0.035194255203175054 -0.0020372359763613352 0 0.035812738145714923 -0.0023356476128752364 0 0.03590143324885442 -0.0016669489689012567 0 0.035194255203175054 -0.0020372359763613352 0 0.035812738145714923 -0.0023356476128752364 0 0.03509510083785785 -0.0028306821775618664 0 0.036284011973749107 -0.0020285753202193921 0 0.035812738145714923 -0.0023356476128752364 0 0.036397507385608895 -0.0024756382662160618 0 0.036284011973749107 -0.0020285753202193921 0 0.035812738145714923 -0.0023356476128752364 0 0.03590143324885442 -0.0016669489689012567 0 0.035812738145714923 -0.0023356476128752364 0 0.035898213199847762 -0.0029498150800574565 0 0.036397507385608895 -0.0024756382662160618 0 0.035898213199847762 -0.0029498150800574565 0 0.035414731199842751 -0.0037764701333134871 0 0.036171183181517463 -0.0033953286312534523 0 0.035898213199847762 -0.0029498150800574565 0 0.036342555737516179 -0.002966253367829711 0 0.036397507385608895 -0.0024756382662160618 0 0.035898213199847762 -0.0029498150800574565 0 0.036171183181517463 -0.0033953286312534523 0 0.036342555737516179 -0.002966253367829711 0 0.035898213199847762 -0.0029498150800574565 0 0.03509510083785785 -0.0028306821775618664 0 0.035414731199842751 -0.0037764701333134871 0 0.035812738145714923 -0.0023356476128752364 0 0.035898213199847762 -0.0029498150800574565 0 0.03509510083785785 -0.0028306821775618664 0 0.033866736222389227 -0.0035517065331535664 0 0.03509510083785785 -0.0028306821775618664 0 0.035414731199842751 -0.0037764701333134871 0 0.035414731199842751 -0.0037764701333134871 0 0.036171183181517463 -0.0033953286312534523 0 0.036142622038963096 -0.003859402973245143 0 0.035414731199842751 -0.0037764701333134871 0 0.035781119341934058 -0.0043015084759621429 0 0.036142622038963096 -0.003859402973245143 0 0.027257189098842522 -0.0041602692869016685 0 0.027140955232243479 -0.003587857954585019 0 0.018979370577418584 -0.0022111858354480359 0 0.019854679431317048 -0.0034121769401422729 0 0.018549932495692353 -0.0029333707294455337 0 0.034326858815188294 -0.0045633851464720989 0 0.035414731199842751 -0.0037764701333134871 0 0.035781119341934058 -0.0043015084759621429 0 0.036488443314202958 -0.0038201919402983068 0 0.036484879758161184 -0.003637117337517239 0 0.036572791249439573 -0.0036466377625056891 0 0.036488443314202958 -0.0038201919402983068 0 0.036572791249439573 -0.0036466377625056891 0 0.036399449350131376 -0.003625748702927414 0 0.026776647924657344 -0.00315571833809755 0 0.027140955232243479 -0.003587857954585019 0 0.036488443314202958 -0.0038201919402983068 0 0.036484879758161184 -0.003637117337517239 0 0.036142622038963096 -0.003859402973245143 0 0.036488443314202958 -0.0038201919402983068 0 0.035781119341934058 -0.0043015084759621429 0 0.036142622038963096 -0.003859402973245143 0 0.036171183181517463 -0.0033953286312534523 0 0.036484879758161184 -0.003637117337517239 0 0.036142622038963096 -0.003859402973245143 0 0.036171183181517463 -0.0033953286312534523 0 0.036484879758161184 -0.003637117337517239 0 0.036528555021169834 -0.0032319596968562996 0 0.036484879758161184 -0.003637117337517239 0 0.036690132020556689 -0.0034213149278761725 0 0.036528555021169834 -0.0032319596968562996 0 0.036690132020556689 -0.0034213149278761725 0 0.036657037582838718 -0.0035091459233466287 0 0.036892721993372853 -0.0031705157197436397 0 0.036484879758161184 -0.003637117337517239 0 0.036690132020556689 -0.0034213149278761725 0 0.036572791249439573 -0.0036466377625056891 0 0.036572791249439573 -0.0036466377625056891 0 0.036657037582838718 -0.0035091459233466287 0 0.036503418981829273 -0.0036635953831050325 0 0.036690132020556689 -0.0034213149278761725 0 0.036572791249439573 -0.0036466377625056891 0 0.036657037582838718 -0.0035091459233466287 0 0.036690132020556689 -0.0034213149278761725 0 0.036724439153304103 -0.0030993783549133212 0 0.036892721993372853 -0.0031705157197436397 0 0.036724439153304103 -0.0030993783549133212 0 0.036892721993372853 -0.0031705157197436397 0 0.0369450812983989 -0.0028027922362628389 0 0.036892721993372853 -0.0031705157197436397 0 0.0369450812983989 -0.0028027922362628389 0 0.037121908616320705 -0.0028683738159293961 0 0.036724439153304103 -0.0030993783549133212 0 0.0369450812983989 -0.0028027922362628389 0 0.036682325284539241 -0.0027493522343711319 0 0.0369450812983989 -0.0028027922362628389 0 0.036682325284539241 -0.0027493522343711319 0 0.037125859727914851 -0.0024108597357270691 0 0.037361350101893676 -0.0025873477105099732 0 0.037121908616320705 -0.0028683738159293961 0 0.037454102181973835 -0.0026582323693508181 0 0.037208748059517349 -0.0025966947565964314 0 0.037361350101893676 -0.0025873477105099732 0 0.037121908616320705 -0.0028683738159293961 0 0.0369450812983989 -0.0028027922362628389 0 0.037208748059517349 -0.0025966947565964314 0 0.037121908616320705 -0.0028683738159293961 0 0.036171183181517463 -0.0033953286312534523 0 0.036528555021169834 -0.0032319596968562996 0 0.036342555737516179 -0.002966253367829711 0 0.036690132020556689 -0.0034213149278761725 0 0.036724439153304103 -0.0030993783549133212 0 0.036528555021169834 -0.0032319596968562996 0 0.036724439153304103 -0.0030993783549133212 0 0.036528555021169834 -0.0032319596968562996 0 0.036682325284539241 -0.0027493522343711319 0 0.036528555021169834 -0.0032319596968562996 0 0.036682325284539241 -0.0027493522343711319 0 0.036342555737516179 -0.002966253367829711 0 0.036682325284539241 -0.0027493522343711319 0 0.036342555737516179 -0.002966253367829711 0 0.036397507385608895 -0.0024756382662160618 0 0.036682325284539241 -0.0027493522343711319 0 0.036789922252809852 -0.0023605672131846674 0 0.037125859727914851 -0.0024108597357270691 0 0.036682325284539241 -0.0027493522343711319 0 0.036397507385608895 -0.0024756382662160618 0 0.036789922252809852 -0.0023605672131846674 0 0.036789922252809852 -0.0023605672131846674 0 0.036719852426769901 -0.002059805497262032 0 0.037031361606746561 -0.0021079377966372707 0 0.036284011973749107 -0.0020285753202193921 0 0.036397507385608895 -0.0024756382662160618 0 0.036719852426769901 -0.002059805497262032 0 0.036397507385608895 -0.0024756382662160618 0 0.036789922252809852 -0.0023605672131846674 0 0.036719852426769901 -0.002059805497262032 0 0.037208748059517349 -0.0025966947565964314 0 0.037125859727914851 -0.0024108597357270691 0 0.037440573727639516 -0.0023753087657403188 0 0.037125859727914851 -0.0024108597357270691 0 0.037424954272966771 -0.0020767689080388799 0 0.037440573727639516 -0.0023753087657403188 0 0.037208748059517349 -0.0025966947565964314 0 0.037361350101893676 -0.0025873477105099732 0 0.037440573727639516 -0.0023753087657403188 0 0.0369450812983989 -0.0028027922362628389 0 0.037208748059517349 -0.0025966947565964314 0 0.037125859727914851 -0.0024108597357270691 0 0.036789922252809852 -0.0023605672131846674 0 0.037125859727914851 -0.0024108597357270691 0 0.037031361606746561 -0.0021079377966372707 0 0.037125859727914851 -0.0024108597357270691 0 0.037031361606746561 -0.0021079377966372707 0 0.037424954272966771 -0.0020767689080388799 0 0.037424954272966771 -0.0020767689080388799 0 0.037260422083212466 -0.0018409331585843578 0 0.037506895288062621 -0.0017323619563274415 0 0.037031361606746561 -0.0021079377966372707 0 0.037260422083212466 -0.0018409331585843578 0 0.037010001358136792 -0.0018277795620998424 0 0.037031361606746561 -0.0021079377966372707 0 0.037424954272966771 -0.0020767689080388799 0 0.037260422083212466 -0.0018409331585843578 0 0.037260422083212466 -0.0018409331585843578 0 0.037506895288062621 -0.0017323619563274415 0 0.037285122045914665 -0.0015224502150858611 0 0.037260422083212466 -0.0018409331585843578 0 0.037285122045914665 -0.0015224502150858611 0 0.037010001358136792 -0.0018277795620998424 0 0.037506895288062621 -0.0017323619563274415 0 0.037585070193807538 -0.0014173888446047938 0 0.037285122045914665 -0.0015224502150858611 0 0.037585070193807538 -0.0014173888446047938 0 0.037285122045914665 -0.0015224502150858611 0 0.037599124802001511 -0.0010740370341937131 0 0.037285122045914665 -0.0015224502150858611 0 0.037078390905905395 -0.0012305233915429427 0 0.037599124802001511 -0.0010740370341937131 0 0.037285122045914665 -0.0015224502150858611 0 0.037078390905905395 -0.0012305233915429427 0 0.036723270244404929 -0.0016404210970992277 0 0.037285122045914665 -0.0015224502150858611 0 0.036723270244404929 -0.0016404210970992277 0 0.037010001358136792 -0.0018277795620998424 0 0.036719852426769901 -0.002059805497262032 0 0.037031361606746561 -0.0021079377966372707 0 0.037010001358136792 -0.0018277795620998424 0 0.036284011973749107 -0.0020285753202193921 0 0.036719852426769901 -0.002059805497262032 0 0.036723270244404929 -0.0016404210970992277 0 0.036719852426769901 -0.002059805497262032 0 0.036723270244404929 -0.0016404210970992277 0 0.037010001358136792 -0.0018277795620998424 0 0.036284011973749107 -0.0020285753202193921 0 0.036723270244404929 -0.0016404210970992277 0 0.03590143324885442 -0.0016669489689012567 0 0.036723270244404929 -0.0016404210970992277 0 0.03590143324885442 -0.0016669489689012567 0 0.036526200086665683 -0.0012783956120239934 0 0.034968310582082142 -0.0013240951951538759 0 0.03590143324885442 -0.0016669489689012567 0 0.035996231212959008 -0.00093638582510533039 0 0.034968310582082142 -0.0013240951951538759 0 0.035194255203175054 -0.0020372359763613352 0 0.03590143324885442 -0.0016669489689012567 0 0.03590143324885442 -0.0016669489689012567 0 0.035996231212959008 -0.00093638582510533039 0 0.036526200086665683 -0.0012783956120239934 0 0.035996231212959008 -0.00093638582510533039 0 0.036526200086665683 -0.0012783956120239934 0 0.037172672903190124 -0.00090739443672396478 0 0.037078390905905395 -0.0012305233915429427 0 0.036526200086665683 -0.0012783956120239934 0 0.037172672903190124 -0.00090739443672396478 0 0.037078390905905395 -0.0012305233915429427 0 0.036723270244404929 -0.0016404210970992277 0 0.036526200086665683 -0.0012783956120239934 0 0.035996231212959008 -0.00093638582510533039 0 0.037172672903190124 -0.00090739443672396478 0 0.036630457382869297 -0.00062571260154061599 0 0.036092089547888444 -0.00031076741737726978 0 0.035548189787572036 -0.00055327766316847784 0 0.036630457382869297 -0.00062571260154061599 0 0.035548189787572036 -0.00055327766316847784 0 0.035996231212959008 -0.00093638582510533039 0 0.036630457382869297 -0.00062571260154061599 0 0.036092089547888444 -0.00031076741737726978 0 0.036630457382869297 -0.00062571260154061599 0 0.0374409668260565 -0.00051168690818510841 0 0.036630457382869297 -0.00062571260154061599 0 0.037472340880404229 -0.00071742604372632818 0 0.0374409668260565 -0.00051168690818510841 0 0.037172672903190124 -0.00090739443672396478 0 0.037472340880404229 -0.00071742604372632818 0 0.0379606740410732 -0.0008473989693206684 0 0.037472340880404229 -0.00071742604372632818 0 0.038104150017569255 -0.00077667527108667026 0 0.0374409668260565 -0.00051168690818510841 0 0.037172672903190124 -0.00090739443672396478 0 0.036630457382869297 -0.00062571260154061599 0 0.037472340880404229 -0.00071742604372632818 0 0.037472340880404229 -0.00071742604372632818 0 0.0379606740410732 -0.0008473989693206684 0 0.038104150017569255 -0.00077667527108667026 0 0.0379606740410732 -0.0008473989693206684 0 0.037599124802001511 -0.0010740370341937131 0 0.03781747523088122 -0.00094595663091949218 0 0.0379606740410732 -0.0008473989693206684 0 0.03781747523088122 -0.00094595663091949218 0 0.038826012396255924 -0.00096369557761008951 0 0.037599124802001511 -0.0010740370341937131 0 0.037773186026532811 -0.001239897637208405 0 0.03781747523088122 -0.00094595663091949218 0 0.037585070193807538 -0.0014173888446047938 0 0.037599124802001511 -0.0010740370341937131 0 0.037773186026532811 -0.001239897637208405 0 0.037172672903190124 -0.00090739443672396478 0 0.0379606740410732 -0.0008473989693206684 0 0.037599124802001511 -0.0010740370341937131 0 0.037078390905905395 -0.0012305233915429427 0 0.037172672903190124 -0.00090739443672396478 0 0.037599124802001511 -0.0010740370341937131 0 0.037999892336880697 -0.0012536114594354415 0 0.037773186026532811 -0.001239897637208405 0 0.037880864538922462 -0.001459020719690193 0 0.037999892336880697 -0.0012536114594354415 0 0.037773186026532811 -0.001239897637208405 0 0.03781747523088122 -0.00094595663091949218 0 0.039158652590299041 -0.0014810176085742585 0 0.038791768357247132 -0.0011815815490916299 0 0.040160785396526628 -0.0016802896380389378 0 0.03980621665593536 -0.0014761641463803821 0 0.040004792232577233 -0.0012408270769293064 0 0.040160785396526628 -0.0016802896380389378 0 0.040299082943537491 -0.001338245491872162 0 0.040004792232577233 -0.0012408270769293064 0 0.040299082943537491 -0.001338245491872162 0 0.040524681955442926 -0.0015448963813485374 0 0.040554260184933889 -0.0011514974315024254 0 0.040160785396526628 -0.0016802896380389378 0 0.040299082943537491 -0.001338245491872162 0 0.040524681955442926 -0.0015448963813485374 0 0.039327080875227675 -0.0018131983524071235 0 0.040360423836673036 -0.0016807501475992145 0 0.038244822591473264 -0.0020529628663728734 0 0.038281206692297821 -0.0020504337891677914 0 0.038265065156606201 -0.0019905115376402643 0 0.039327080875227675 -0.0018131983524071235 0 0.0389512212822569 -0.0018297698413403077 0 0.038244822591473264 -0.0020529628663728734 0 0.038231013949770166 -0.0020940009253946445 0 0.038249243634097145 -0.0020859562213842576 0 0.040160785396526628 -0.0016802896380389378 0 0.040524681955442926 -0.0015448963813485374 0 0.040493114420620556 -0.0019175256126882502 0 0.039158652590299041 -0.0014810176085742585 0 0.0389512212822569 -0.0018297698413403077 0 0.037999892336880697 -0.0012536114594354415 0 0.038129968512235754 -0.0016835534414631702 0 0.038294661980865133 -0.0016742428099878279 0 0.037999892336880697 -0.0012536114594354415 0 0.038129968512235754 -0.0016835534414631702 0 0.038005834779346694 -0.0016804463941363069 0 0.038129968512235754 -0.0016835534414631702 0 0.038294661980865133 -0.0016742428099878279 0 0.038219947390164939 -0.0019149376761891377 0 0.038129968512235754 -0.0016835534414631702 0 0.038112468322852915 -0.0018998620722488349 0 0.038005834779346694 -0.0016804463941363069 0 0.0389512212822569 -0.0018297698413403077 0 0.038112992040276114 -0.0020287366691999357 0 0.038223025024550314 -0.0019146596798907791 0 0.038219947390164939 -0.0019149376761891377 0 0.038201924404356137 -0.0020126082045635943 0 0.038231013949770166 -0.0020940009253946445 0 0.038229105887287257 -0.0021121780991439974 0 0.038249243634097145 -0.0020859562213842576 0 0.0389512212822569 -0.0018297698413403077 0 0.038518646548296329 -0.0018791011483847919 0 0.038219947390164939 -0.0019149376761891377 0 0.038192174347004337 -0.0020230810241757095 0 0.038201924404356137 -0.0020126082045635943 0 0.038219947390164939 -0.0019149376761891377 0 0.038159364451821713 -0.0020175769910699276 0 0.038192174347004337 -0.0020230810241757095 0 0.038159364451821713 -0.0020175769910699276 0 0.038192174347004337 -0.0020230810241757095 0 0.038160980136089519 -0.0020984524569107126 0 0.038112468322852915 -0.0018998620722488349 0 0.03799159958950632 -0.0019225786752881666 0 0.038005834779346694 -0.0016804463941363069 0 0.038129968512235754 -0.0016835534414631702 0 0.038219947390164939 -0.0019149376761891377 0 0.038112468322852915 -0.0018998620722488349 0 0.038219947390164939 -0.0019149376761891377 0 0.038159364451821713 -0.0020175769910699276 0 0.038112468322852915 -0.0018998620722488349 0 0.038159364451821713 -0.0020175769910699276 0 0.038112468322852915 -0.0018998620722488349 0 0.038076380653582084 -0.0020569540777157303 0 0.038112468322852915 -0.0018998620722488349 0 0.03799159958950632 -0.0019225786752881666 0 0.038076380653582084 -0.0020569540777157303 0 0.03799159958950632 -0.0019225786752881666 0 0.037981476110953954 -0.0020775147422220077 0 0.038076380653582084 -0.0020569540777157303 0 0.03799159958950632 -0.0019225786752881666 0 0.037981476110953954 -0.0020775147422220077 0 0.037866989847513237 -0.0020443029537094166 0 0.037868618088541361 -0.0017691384411099654 0 0.037696659082394883 -0.0019133999269203257 0 0.037866989847513237 -0.0020443029537094166 0 0.03799159958950632 -0.0019225786752881666 0 0.037868618088541361 -0.0017691384411099654 0 0.037866989847513237 -0.0020443029537094166 0 0.03799159958950632 -0.0019225786752881666 0 0.037868618088541361 -0.0017691384411099654 0 0.038005834779346694 -0.0016804463941363069 0 0.037999892336880697 -0.0012536114594354415 0 0.038005834779346694 -0.0016804463941363069 0 0.037880864538922462 -0.001459020719690193 0 0.037868618088541361 -0.0017691384411099654 0 0.038005834779346694 -0.0016804463941363069 0 0.037880864538922462 -0.001459020719690193 0 0.037585070193807538 -0.0014173888446047938 0 0.037773186026532811 -0.001239897637208405 0 0.037726763938970245 -0.0016232500915581173 0 0.037773186026532811 -0.001239897637208405 0 0.037880864538922462 -0.001459020719690193 0 0.037726763938970245 -0.0016232500915581173 0 0.037868618088541361 -0.0017691384411099654 0 0.037880864538922462 -0.001459020719690193 0 0.037726763938970245 -0.0016232500915581173 0 0.037506895288062621 -0.0017323619563274415 0 0.037585070193807538 -0.0014173888446047938 0 0.037726763938970245 -0.0016232500915581173 0 0.037506895288062621 -0.0017323619563274415 0 0.037726763938970245 -0.0016232500915581173 0 0.037696659082394883 -0.0019133999269203257 0 0.037868618088541361 -0.0017691384411099654 0 0.037726763938970245 -0.0016232500915581173 0 0.037696659082394883 -0.0019133999269203257 0 0.037424954272966771 -0.0020767689080388799 0 0.037506895288062621 -0.0017323619563274415 0 0.037696659082394883 -0.0019133999269203257 0 0.037424954272966771 -0.0020767689080388799 0 0.037682876148199256 -0.0021696990773650911 0 0.037440573727639516 -0.0023753087657403188 0 0.037424954272966771 -0.0020767689080388799 0 0.037696659082394883 -0.0019133999269203257 0 0.037682876148199256 -0.0021696990773650911 0 0.037696659082394883 -0.0019133999269203257 0 0.037682876148199256 -0.0021696990773650911 0 0.037866989847513237 -0.0020443029537094166 0 0.037682876148199256 -0.0021696990773650911 0 0.037752613298701811 -0.0023142174401210693 0 0.037630951315146571 -0.0023507892702221266 0 0.037682876148199256 -0.0021696990773650911 0 0.037752613298701811 -0.0023142174401210693 0 0.037813878363555091 -0.0021955400886438789 0 0.037752613298701811 -0.0023142174401210693 0 0.037630951315146571 -0.0023507892702221266 0 0.037684441303031189 -0.0024381764606166124 0 0.037630951315146571 -0.0023507892702221266 0 0.037440573727639516 -0.0023753087657403188 0 0.037549390405745731 -0.0024942323069309111 0 0.037682876148199256 -0.0021696990773650911 0 0.037630951315146571 -0.0023507892702221266 0 0.037440573727639516 -0.0023753087657403188 0 0.037361350101893676 -0.0025873477105099732 0 0.037440573727639516 -0.0023753087657403188 0 0.037549390405745731 -0.0024942323069309111 0 0.037981476110953954 -0.0020775147422220077 0 0.037866989847513237 -0.0020443029537094166 0 0.037929543121777133 -0.0022016428978155569 0 0.037981476110953954 -0.0020775147422220077 0 0.037929543121777133 -0.0022016428978155569 0 0.038012088413296563 -0.0021849121524320112 0 0.037866989847513237 -0.0020443029537094166 0 0.037813878363555091 -0.0021955400886438789 0 0.037929543121777133 -0.0022016428978155569 0 0.037682876148199256 -0.0021696990773650911 0 0.037866989847513237 -0.0020443029537094166 0 0.037813878363555091 -0.0021955400886438789 0 0.037813878363555091 -0.0021955400886438789 0 0.03785971995786467 -0.0023108630751420616 0 0.037929543121777133 -0.0022016428978155569 0 0.037752613298701811 -0.0023142174401210693 0 0.037813878363555091 -0.0021955400886438789 0 0.03785971995786467 -0.0023108630751420616 0 0.03785971995786467 -0.0023108630751420616 0 0.037929543121777133 -0.0022016428978155569 0 0.037959005472561327 -0.0023069902944727735 0 0.037929543121777133 -0.0022016428978155569 0 0.037959005472561327 -0.0023069902944727735 0 0.038012088413296563 -0.0021849121524320112 0 0.037959005472561327 -0.0023069902944727735 0 0.037896946708734003 -0.002389185981006623 0 0.037960728312813399 -0.0023891057851942654 0 0.03785971995786467 -0.0023108630751420616 0 0.037959005472561327 -0.0023069902944727735 0 0.037896946708734003 -0.002389185981006623 0 0.037896946708734003 -0.002389185981006623 0 0.037796848581562938 -0.0024244149786800816 0 0.037853624976903359 -0.0024508980126823712 0 0.03785971995786467 -0.0023108630751420616 0 0.037896946708734003 -0.002389185981006623 0 0.037796848581562938 -0.0024244149786800816 0 0.037752613298701811 -0.0023142174401210693 0 0.03785971995786467 -0.0023108630751420616 0 0.037796848581562938 -0.0024244149786800816 0 0.037796848581562938 -0.0024244149786800816 0 0.037795313758130389 -0.0024999817439514357 0 0.037740438999046381 -0.0024775287211430252 0 0.037796848581562938 -0.0024244149786800816 0 0.037795313758130389 -0.0024999817439514357 0 0.037853624976903359 -0.0024508980126823712 0 0.037795313758130389 -0.0024999817439514357 0 0.037679612798682538 -0.0025366468530554753 0 0.037903018318137652 -0.002524889921847 0 0.037795313758130389 -0.0024999817439514357 0 0.037882506174700833 -0.0024823036746632241 0 0.037903018318137652 -0.002524889921847 0 0.037795313758130389 -0.0024999817439514357 0 0.037882506174700833 -0.0024823036746632241 0 0.037853624976903359 -0.0024508980126823712 0 0.037882506174700833 -0.0024823036746632241 0 0.037926302936663159 -0.0024526782284687069 0 0.037909745886565462 -0.0024848924833903948 0 0.037882506174700833 -0.0024823036746632241 0 0.037853624976903359 -0.0024508980126823712 0 0.03790151239673259 -0.0024413949076725946 0 0.037896946708734003 -0.002389185981006623 0 0.037853624976903359 -0.0024508980126823712 0 0.03790151239673259 -0.0024413949076725946 0 0.037896946708734003 -0.002389185981006623 0 0.03790151239673259 -0.0024413949076725946 0 0.037960728312813399 -0.0023891057851942654 0 0.03790151239673259 -0.0024413949076725946 0 0.037926302936663159 -0.0024526782284687069 0 0.037960728312813399 -0.0023891057851942654 0 0.037882506174700833 -0.0024823036746632241 0 0.03790151239673259 -0.0024413949076725946 0 0.037926302936663159 -0.0024526782284687069 0 0.037960728312813399 -0.0023891057851942654 0 0.037949916203159115 -0.002441455396344269 0 0.037979913000375586 -0.0024027095741243273 0 0.037926302936663159 -0.0024526782284687069 0 0.037960728312813399 -0.0023891057851942654 0 0.037949916203159115 -0.002441455396344269 0 0.037121908616320705 -0.0028683738159293961 0 0.037454102181973835 -0.0026582323693508181 0 0.037903018318137652 -0.002524889921847 0 0.036892721993372853 -0.0031705157197436397 0 0.037121908616320705 -0.0028683738159293961 0 0.037735945301486246 -0.003420657506013558 0 0.037121908616320705 -0.0028683738159293961 0 0.037735945301486246 -0.003420657506013558 0 0.037738705010643046 -0.0034077659908936433 0 0.036806492957576362 -0.0028305432395716919 0 0.038631166060232279 -0.0027666455706321764 0 0.037454102181973835 -0.0026582323693508181 0 0.037549390405745731 -0.0024942323069309111 0 0.037679612798682538 -0.0025366468530554753 0 0.037361350101893676 -0.0025873477105099732 0 0.037454102181973835 -0.0026582323693508181 0 0.037549390405745731 -0.0024942323069309111 0 0.037630951315146571 -0.0023507892702221266 0 0.037549390405745731 -0.0024942323069309111 0 0.037684441303031189 -0.0024381764606166124 0 0.037549390405745731 -0.0024942323069309111 0 0.037684441303031189 -0.0024381764606166124 0 0.037679612798682538 -0.0025366468530554753 0 0.037752613298701811 -0.0023142174401210693 0 0.037796848581562938 -0.0024244149786800816 0 0.037684441303031189 -0.0024381764606166124 0 0.037795313758130389 -0.0024999817439514357 0 0.037740438999046381 -0.0024775287211430252 0 0.037679612798682538 -0.0025366468530554753 0 0.037684441303031189 -0.0024381764606166124 0 0.037740438999046381 -0.0024775287211430252 0 0.037679612798682538 -0.0025366468530554753 0 0.037796848581562938 -0.0024244149786800816 0 0.037684441303031189 -0.0024381764606166124 0 0.037740438999046381 -0.0024775287211430252 0 0.037454102181973835 -0.0026582323693508181 0 0.037679612798682538 -0.0025366468530554753 0 0.037903018318137652 -0.002524889921847 0 0.03656867863379272 -0.0032312872830362886 0 0.037673820296239342 -0.0034559383763311914 0 0.036657037582838718 -0.0035091459233466287 0 0.036892721993372853 -0.0031705157197436397 0 0.036312164218724699 -0.0038851395475352902 0 0.036657037582838718 -0.0035091459233466287 0 0.036465445269822386 -0.0037037022610739044 0 0.036312164218724699 -0.0038851395475352902 0 0.036657037582838718 -0.0035091459233466287 0 0.036503418981829273 -0.0036635953831050325 0 0.036465445269822386 -0.0037037022610739044 0 0.036572791249439573 -0.0036466377625056891 0 0.036503418981829273 -0.0036635953831050325 0 0.036399449350131376 -0.003625748702927414 0 0.036503418981829273 -0.0036635953831050325 0 0.036365925560449999 -0.0037221291201018918 0 0.036399449350131376 -0.003625748702927414 0 0.036365925560449999 -0.0037221291201018918 0 0.036465445269822386 -0.0037037022610739044 0 0.036312164218724699 -0.0038851395475352902 0 0.036503418981829273 -0.0036635953831050325 0 0.036365925560449999 -0.0037221291201018918 0 0.036465445269822386 -0.0037037022610739044 0 0.037673820296239342 -0.0034559383763311914 0 0.033165720139066365 -0.0051939249414289191 0 0.037735945301486246 -0.003420657506013558 0 0.037738705010643046 -0.0034077659908936433 0 0.037182726397551949 -0.0033192512314556399 0 0.036312164218724699 -0.0038851395475352902 0 0.036130665805921579 -0.003698903389296153 0 0.035521859471549753 -0.0037875256780632287 0 0.037903018318137652 -0.002524889921847 0 0.037909745886565462 -0.0024848924833903948 0 0.037928432078466079 -0.0024710783009528553 0 0.037882506174700833 -0.0024823036746632241 0 0.037903018318137652 -0.002524889921847 0 0.037909745886565462 -0.0024848924833903948 0 0.037903018318137652 -0.002524889921847 0 0.037928432078466079 -0.0024710783009528553 0 0.037957725723632242 -0.0024436327883463026 0 0.037949916203159115 -0.002441455396344269 0 0.037928432078466079 -0.0024710783009528553 0 0.037957725723632242 -0.0024436327883463026 0 0.037949916203159115 -0.002441455396344269 0 0.037957725723632242 -0.0024436327883463026 0 0.037979913000375586 -0.0024027095741243273 0 0.037926302936663159 -0.0024526782284687069 0 0.037949916203159115 -0.002441455396344269 0 0.037928432078466079 -0.0024710783009528553 0 0.037926302936663159 -0.0024526782284687069 0 0.037909745886565462 -0.0024848924833903948 0 0.037928432078466079 -0.0024710783009528553 0 0.036365925560449999 -0.0037221291201018918 0 0.036312164218724699 -0.0038851395475352902 0 0.036130665805921579 -0.003698903389296153 0 0.036130665805921579 -0.003698903389296153 0 0.036003344726970574 -0.0035171454893955663 0 0.035521859471549753 -0.0037875256780632287 0 0.036130665805921579 -0.003698903389296153 0 0.036003344726970574 -0.0035171454893955663 0 0.036399449350131376 -0.003625748702927414 0 0.036256030942270534 -0.0033602967157981317 0 0.036003344726970574 -0.0035171454893955663 0 0.036399449350131376 -0.003625748702927414 0 0.036256030942270534 -0.0033602967157981317 0 0.036488443314202958 -0.0038201919402983068 0 0.036399449350131376 -0.003625748702927414 0 0.036365925560449999 -0.0037221291201018918 0 0.036130665805921579 -0.003698903389296153 0 0.036399449350131376 -0.003625748702927414 0 0.038014486892426355 -0.0022766432196663655 0 0.038043071139588311 -0.0022766838361573411 0 0.038033142652309296 -0.0021757555871319305 0 0.016080837457619117 -0.0065438564629862871 0 0.016338976176332683 -0.0077874282104090425 0 0.017035202055775019 -0.0081151643013024181 0 0.014093305782979961 -0.0065825093680912513 0 0.016080837457619117 -0.0065438564629862871 0 0.016338976176332683 -0.0077874282104090425 0 0.038014486892426355 -0.0022766432196663655 0 0.038033423722173894 -0.0022994927351013975 0 0.038027800772995952 -0.0022991127560303974 0 0.027395292826088352 -0.004559920001126541 0 0.033165720139066365 -0.0051939249414289191 0 0.021093485659625377 -0.003432371560588589 0 0.033165720139066365 -0.0051939249414289191 0 0.035571249444220868 -0.0030852072339384385 0 0.036003344726970574 -0.0035171454893955663 0 0.035521859471549753 -0.0037875256780632287 0 0.037903018318137652 -0.002524889921847 0 0.037957725723632242 -0.0024436327883463026 0 0.038014689507802485 -0.0023810905542238983 0 0.033165720139066365 -0.0051939249414289191 0 0.035625301190499906 -0.0021469938414533699 0 0.038033423722173894 -0.0022994927351013975 0 0.038034006859829037 -0.0023448213094567068 0 0.038027800772995952 -0.0022991127560303974 0 0.038631166060232279 -0.0027666455706321764 0 0.033165720139066365 -0.0051939249414289191 0 0.038014689507802485 -0.0023810905542238983 0 0.038034006859829037 -0.0023448213094567068 0 0.038014687460816841 -0.0023699989476580097 0 0.037957725723632242 -0.0024436327883463026 0 0.038014689507802485 -0.0023810905542238983 0 0.038014687460816841 -0.0023699989476580097 0 0.037957725723632242 -0.0024436327883463026 0 0.037979913000375586 -0.0024027095741243273 0 0.038014687460816841 -0.0023699989476580097 0 0.038034006859829037 -0.0023448213094567068 0 0.038014687460816841 -0.0023699989476580097 0 0.038059739316571868 -0.0023085025468370692 0 0.038014687460816841 -0.0023699989476580097 0 0.038059739316571868 -0.0023085025468370692 0 0.038052242894172875 -0.0023097425460085592 0 0.038034006859829037 -0.0023448213094567068 0 0.038059739316571868 -0.0023085025468370692 0 0.038043071139588311 -0.0022766838361573411 0 0.038034006859829037 -0.0023448213094567068 0 0.038027800772995952 -0.0022991127560303974 0 0.038043071139588311 -0.0022766838361573411 0 0.038014486892426355 -0.0022766432196663655 0 0.038027800772995952 -0.0022991127560303974 0 0.038043071139588311 -0.0022766838361573411 0 0.038059739316571868 -0.0023085025468370692 0 0.038043071139588311 -0.0022766838361573411 0 0.038083899165354464 -0.0022613208619213093 0 0.038043071139588311 -0.0022766838361573411 0 0.038083899165354464 -0.0022613208619213093 0 0.038065005549980747 -0.0022409921480099895 0 0.038083899165354464 -0.0022613208619213093 0 0.038095840301395574 -0.002252382494908695 0 0.038125906243229868 -0.0022090991329884327 0 0.038059739316571868 -0.0023085025468370692 0 0.038095840301395574 -0.002252382494908695 0 0.038052242894172875 -0.0023097425460085592 0 0.038059739316571868 -0.0023085025468370692 0 0.038083899165354464 -0.0022613208619213093 0 0.038095840301395574 -0.002252382494908695 0 0.038095840301395574 -0.002252382494908695 0 0.03806535519329543 -0.002263881663142737 0 0.038105747400383916 -0.0021973113830889438 0 0.038095840301395574 -0.002252382494908695 0 0.038052242894172875 -0.0023097425460085592 0 0.03806535519329543 -0.002263881663142737 0 0.038095840301395574 -0.002252382494908695 0 0.038138638720905928 -0.0021696563149365025 0 0.038105747400383916 -0.0021973113830889438 0 0.038095840301395574 -0.002252382494908695 0 0.038138638720905928 -0.0021696563149365025 0 0.038125906243229868 -0.0022090991329884327 0 0.037960728312813399 -0.0023891057851942654 0 0.037979913000375586 -0.0024027095741243273 0 0.038016905741828692 -0.0023460880698862822 0 0.037960728312813399 -0.0023891057851942654 0 0.038016905741828692 -0.0023460880698862822 0 0.038022440306767949 -0.0022783994489448873 0 0.037979913000375586 -0.0024027095741243273 0 0.038014687460816841 -0.0023699989476580097 0 0.038016905741828692 -0.0023460880698862822 0 0.038016905741828692 -0.0023460880698862822 0 0.038052242894172875 -0.0023097425460085592 0 0.03806535519329543 -0.002263881663142737 0 0.038014687460816841 -0.0023699989476580097 0 0.038016905741828692 -0.0023460880698862822 0 0.038052242894172875 -0.0023097425460085592 0 0.03806535519329543 -0.002263881663142737 0 0.038022440306767949 -0.0022783994489448873 0 0.038074754383715166 -0.0021682560924846037 0 0.038016905741828692 -0.0023460880698862822 0 0.03806535519329543 -0.002263881663142737 0 0.038022440306767949 -0.0022783994489448873 0 0.037959005472561327 -0.0023069902944727735 0 0.037960728312813399 -0.0023891057851942654 0 0.038022440306767949 -0.0022783994489448873 0 0.037959005472561327 -0.0023069902944727735 0 0.038022440306767949 -0.0022783994489448873 0 0.038012088413296563 -0.0021849121524320112 0 0.038022440306767949 -0.0022783994489448873 0 0.038012088413296563 -0.0021849121524320112 0 0.038074754383715166 -0.0021682560924846037 0 0.03806535519329543 -0.002263881663142737 0 0.038074754383715166 -0.0021682560924846037 0 0.038105747400383916 -0.0021973113830889438 0 0.038074754383715166 -0.0021682560924846037 0 0.038105747400383916 -0.0021973113830889438 0 0.038128105888191599 -0.0021231192021669639 0 0.038074754383715166 -0.0021682560924846037 0 0.038076380653582084 -0.0020569540777157303 0 0.038128105888191599 -0.0021231192021669639 0 0.038159364451821713 -0.0020175769910699276 0 0.038076380653582084 -0.0020569540777157303 0 0.038128105888191599 -0.0021231192021669639 0 0.038012088413296563 -0.0021849121524320112 0 0.038074754383715166 -0.0021682560924846037 0 0.038076380653582084 -0.0020569540777157303 0 0.037981476110953954 -0.0020775147422220077 0 0.038012088413296563 -0.0021849121524320112 0 0.038076380653582084 -0.0020569540777157303 0 0.038138638720905928 -0.0021696563149365025 0 0.038171406246061648 -0.0021263439199369848 0 0.038125906243229868 -0.0022090991329884327 0 0.038138638720905928 -0.0021696563149365025 0 0.038105747400383916 -0.0021973113830889438 0 0.038128105888191599 -0.0021231192021669639 0 0.038138638720905928 -0.0021696563149365025 0 0.038128105888191599 -0.0021231192021669639 0 0.038160980136089519 -0.0020984524569107126 0 0.038159364451821713 -0.0020175769910699276 0 0.038128105888191599 -0.0021231192021669639 0 0.038160980136089519 -0.0020984524569107126 0 0.038138638720905928 -0.0021696563149365025 0 0.038160980136089519 -0.0020984524569107126 0 0.038171406246061648 -0.0021263439199369848 0 0.038192174347004337 -0.0020230810241757095 0 0.038160980136089519 -0.0020984524569107126 0 0.038171406246061648 -0.0021263439199369848 0 0.038171406246061648 -0.0021263439199369848 0 0.038144596899714209 -0.002184826374279916 0 0.038188613122011585 -0.0021426583457424377 0 0.038171406246061648 -0.0021263439199369848 0 0.038144596899714209 -0.002184826374279916 0 0.038125906243229868 -0.0022090991329884327 0 0.038188613122011585 -0.0021426583457424377 0 0.038130401388054194 -0.0021925311364649185 0 0.038201103456543192 -0.0021473730898835816 0 0.038144596899714209 -0.002184826374279916 0 0.038188613122011585 -0.0021426583457424377 0 0.038130401388054194 -0.0021925311364649185 0 0.038144596899714209 -0.002184826374279916 0 0.038130401388054194 -0.0021925311364649185 0 0.038101105355452275 -0.0022055496407362885 0 0.038130401388054194 -0.0021925311364649185 0 0.038101105355452275 -0.0022055496407362885 0 0.038042792770932275 -0.0021979666375762227 0 0.038144596899714209 -0.002184826374279916 0 0.038125906243229868 -0.0022090991329884327 0 0.038104158938181733 -0.002224653866146906 0 0.038144596899714209 -0.002184826374279916 0 0.038101105355452275 -0.0022055496407362885 0 0.038104158938181733 -0.002224653866146906 0 0.038083899165354464 -0.0022613208619213093 0 0.038125906243229868 -0.0022090991329884327 0 0.038104158938181733 -0.002224653866146906 0 0.038083899165354464 -0.0022613208619213093 0 0.038104158938181733 -0.002224653866146906 0 0.038065005549980747 -0.0022409921480099895 0 0.038104158938181733 -0.002224653866146906 0 0.038065005549980747 -0.0022409921480099895 0 0.038061794354920471 -0.002207521359675248 0 0.038101105355452275 -0.0022055496407362885 0 0.038104158938181733 -0.002224653866146906 0 0.038061794354920471 -0.002207521359675248 0 0.038061794354920471 -0.002207521359675248 0 0.038003687785059873 -0.0021508558908313984 0 0.038042792770932275 -0.0021979666375762227 0 0.038101105355452275 -0.0022055496407362885 0 0.038061794354920471 -0.002207521359675248 0 0.038042792770932275 -0.0021979666375762227 0 0.03795926886954256 -0.0020528424518760384 0 0.038033142652309296 -0.0021757555871319305 0 0.038003687785059873 -0.0021508558908313984 0 0.038061794354920471 -0.002207521359675248 0 0.038033142652309296 -0.0021757555871319305 0 0.038003687785059873 -0.0021508558908313984 0 0.019158353298896397 -0.0054060571780164979 0 0.027395292826088352 -0.004559920001126541 0 0.027395292826088352 -0.004559920001126541 0 0.03317744014291981 -0.0033643477954204497 0 0.026317385507726526 -0.0042703535170519969 0 0.027102691774424283 -0.0047649368297411629 0 0.02633919709486127 -0.0043727592568708097 0 0.038065005549980747 -0.0022409921480099895 0 0.038061794354920471 -0.002207521359675248 0 0.038033142652309296 -0.0021757555871319305 0 0.038043071139588311 -0.0022766838361573411 0 0.038065005549980747 -0.0022409921480099895 0 0.038033142652309296 -0.0021757555871319305 0 0.037920587085166581 -0.0021331922680304844 0 0.037827595423478286 -0.0021202615234151424 0 0.037904782779115555 -0.0021694177111537425 0 0.037920587085166581 -0.0021331922680304844 0 0.037984817740777353 -0.0021737464198636159 0 0.037904782779115555 -0.0021694177111537425 0 0.0378415966942377 -0.0020438742550367341 0 0.037920587085166581 -0.0021331922680304844 0 0.037827595423478286 -0.0021202615234151424 0 0.037920587085166581 -0.0021331922680304844 0 0.038003687785059873 -0.0021508558908313984 0 0.037984817740777353 -0.0021737464198636159 0 0.03795926886954256 -0.0020528424518760384 0 0.037920587085166581 -0.0021331922680304844 0 0.038003687785059873 -0.0021508558908313984 0 0.03795926886954256 -0.0020528424518760384 0 0.0378415966942377 -0.0020438742550367341 0 0.037920587085166581 -0.0021331922680304844 0 0.038003687785059873 -0.0021508558908313984 0 0.037984817740777353 -0.0021737464198636159 0 0.038042792770932275 -0.0021979666375762227 0 0.037984817740777353 -0.0021737464198636159 0 0.038042792770932275 -0.0021979666375762227 0 0.037978801247514682 -0.0021948168252432349 0 0.038042792770932275 -0.0021979666375762227 0 0.037978801247514682 -0.0021948168252432349 0 0.038055040499648356 -0.0022051462890665947 0 0.037978801247514682 -0.0021948168252432349 0 0.037931488899195502 -0.0021960345093844208 0 0.037980523917051992 -0.0022051217433814319 0 0.037978801247514682 -0.0021948168252432349 0 0.037904782779115555 -0.0021694177111537425 0 0.037931488899195502 -0.0021960345093844208 0 0.037984817740777353 -0.0021737464198636159 0 0.037978801247514682 -0.0021948168252432349 0 0.037904782779115555 -0.0021694177111537425 0 0.037904782779115555 -0.0021694177111537425 0 0.037931488899195502 -0.0021960345093844208 0 0.037853566422403742 -0.0022046921810151359 0 0.037827595423478286 -0.0021202615234151424 0 0.037904782779115555 -0.0021694177111537425 0 0.037853566422403742 -0.0022046921810151359 0 0.037931488899195502 -0.0021960345093844208 0 0.037980523917051992 -0.0022051217433814319 0 0.037853566422403742 -0.0022046921810151359 0 0.037980523917051992 -0.0022051217433814319 0 0.038073886343989206 -0.0022162263583657567 0 0.037853566422403742 -0.0022046921810151359 0 0.037980523917051992 -0.0022051217433814319 0 0.038055040499648356 -0.0022051462890665947 0 0.038073886343989206 -0.0022162263583657567 0 0.038210062847101357 -0.0021869594708499836 0 0.038069008522044166 -0.0021760947388897848 0 0.038342323459180337 -0.002181849030651523 0 0.038376301554531804 -0.0021607360401625377 0 0.038353829541873823 -0.0021796487980545293 0 0.037978801247514682 -0.0021948168252432349 0 0.037980523917051992 -0.0022051217433814319 0 0.038055040499648356 -0.0022051462890665947 0 0.038055040499648356 -0.0022051462890665947 0 0.038104380676235193 -0.0021999670463477968 0 0.038073886343989206 -0.0022162263583657567 0 0.038130401388054194 -0.0021925311364649185 0 0.038042792770932275 -0.0021979666375762227 0 0.038055040499648356 -0.0022051462890665947 0 0.038130401388054194 -0.0021925311364649185 0 0.038055040499648356 -0.0022051462890665947 0 0.038104380676235193 -0.0021999670463477968 0 0.038154117984782805 -0.0021829757235187408 0 0.038073886343989206 -0.0022162263583657567 0 0.038257097648399525 -0.0021348087982658945 0 0.038130401388054194 -0.0021925311364649185 0 0.038154117984782805 -0.0021829757235187408 0 0.038201103456543192 -0.0021473730898835816 0 0.038130401388054194 -0.0021925311364649185 0 0.038104380676235193 -0.0021999670463477968 0 0.038154117984782805 -0.0021829757235187408 0 0.038104380676235193 -0.0021999670463477968 0 0.038154117984782805 -0.0021829757235187408 0 0.038073886343989206 -0.0022162263583657567 0 0.038342323459180337 -0.002181849030651523 0 0.038322005678500755 -0.0021557391106619777 0 0.038353829541873823 -0.0021796487980545293 0 0.038210062847101357 -0.0021869594708499836 0 0.038242111318695197 -0.0021299178415209608 0 0.038342323459180337 -0.002181849030651523 0 0.038322005678500755 -0.0021557391106619777 0 0.038257097648399525 -0.0021348087982658945 0 0.038322005678500755 -0.0021557391106619777 0 0.038329192756893934 -0.0021182252441851513 0 0.038353829541873823 -0.0021796487980545293 0 0.038322005678500755 -0.0021557391106619777 0 0.038329192756893934 -0.0021182252441851513 0 0.038257097648399525 -0.0021348087982658945 0 0.040057688172956268 -0.0016211408952584035 0 0.0399027557681189 -0.0016605424140967381 0 0.038329192756893934 -0.0021182252441851513 0 0.0382650725178399 -0.0020947744678011266 0 0.038330817463014262 -0.0020445423537940304 0 0.038329192756893934 -0.0021182252441851513 0 0.0382650725178399 -0.0020947744678011266 0 0.038257097648399525 -0.0021348087982658945 0 0.0382650725178399 -0.0020947744678011266 0 0.038257097648399525 -0.0021348087982658945 0 0.038201103456543192 -0.0021473730898835816 0 0.038154117984782805 -0.0021829757235187408 0 0.038257097648399525 -0.0021348087982658945 0 0.038201103456543192 -0.0021473730898835816 0 0.038188613122011585 -0.0021426583457424377 0 0.038201103456543192 -0.0021473730898835816 0 0.03822837297636731 -0.002112624213513028 0 0.038192174347004337 -0.0020230810241757095 0 0.038171406246061648 -0.0021263439199369848 0 0.038201924404356137 -0.0020126082045635943 0 0.038228198729002148 -0.0021403561131873019 0 0.038112992040276114 -0.0020287366691999357 0 0.038188613122011585 -0.0021426583457424377 0 0.038229105887287257 -0.0021121780991439974 0 0.03822837297636731 -0.002112624213513028 0 0.038171406246061648 -0.0021263439199369848 0 0.038188613122011585 -0.0021426583457424377 0 0.038201924404356137 -0.0020126082045635943 0 0.038229105887287257 -0.0021121780991439974 0 0.03822837297636731 -0.002112624213513028 0 0.038249243634097145 -0.0020859562213842576 0 0.0382650725178399 -0.0020947744678011266 0 0.038201103456543192 -0.0021473730898835816 0 0.03822837297636731 -0.002112624213513028 0 0.03822837297636731 -0.002112624213513028 0 0.038268801282071101 -0.0020707979404733625 0 0.038249243634097145 -0.0020859562213842576 0 0.0382650725178399 -0.0020947744678011266 0 0.03822837297636731 -0.002112624213513028 0 0.038268801282071101 -0.0020707979404733625 0 0.038268801282071101 -0.0020707979404733625 0 0.038249243634097145 -0.0020859562213842576 0 0.038281206692297821 -0.0020504337891677914 0 0.038244822591473264 -0.0020529628663728734 0 0.038249243634097145 -0.0020859562213842576 0 0.038281206692297821 -0.0020504337891677914 0 0.038281206692297821 -0.0020504337891677914 0 0.038309465624358746 -0.0020290843616192159 0 0.03833187103334855 -0.0020043945913897376 0 0.038268801282071101 -0.0020707979404733625 0 0.038281206692297821 -0.0020504337891677914 0 0.038309465624358746 -0.0020290843616192159 0 0.038309465624358746 -0.0020290843616192159 0 0.038330817463014262 -0.0020445423537940304 0 0.038292770851183225 -0.002058909578423676 0 0.038309465624358746 -0.0020290843616192159 0 0.038330817463014262 -0.0020445423537940304 0 0.03833472791600244 -0.0020211921717694856 0 0.041725849017408397 -0.0010291512254442458 0 0.041678685902601625 -0.00083737070481292627 0 0.041847825178260807 -0.00092460558944403861 0 0.0399027557681189 -0.0016605424140967381 0 0.040991193339454252 -0.0008024251227622491 0 0.0382650725178399 -0.0020947744678011266 0 0.038268801282071101 -0.0020707979404733625 0 0.038292770851183225 -0.002058909578423676 0 0.0382650725178399 -0.0020947744678011266 0 0.038330817463014262 -0.0020445423537940304 0 0.038292770851183225 -0.002058909578423676 0 0.038268801282071101 -0.0020707979404733625 0 0.038309465624358746 -0.0020290843616192159 0 0.038292770851183225 -0.002058909578423676 0 0.04222291792416813 -0.00026664219196048352 0 0.042184386086602875 -0.000152858133969742 0 0.0423105515894691 -0.00021202065008390741 0 0.04222291792416813 -0.00026664219196048352 0 0.0423105515894691 -0.00021202065008390741 0 0.042349960797473753 -0.00031329430451059023 0 0.041180694983520727 -0.00014349104144968856 0 0.041274965999367419 -0.00064130152579356054 0 0.041736221486217029 -0.00031461058830148245 0 0.041674561537034527 -9.001522061371146e-05 0 0.040991193339454252 -0.0008024251227622491 0 0.040991193339454252 -0.0008024251227622491 0 0.0420038415348662 -0.00093820550334986603 0 0.038309465624358746 -0.0020290843616192159 0 0.03833472791600244 -0.0020211921717694856 0 0.038320329663226037 -0.0020387418235588159 0 0.040991193339454252 -0.0008024251227622491 0 0.040233451285587252 -0.0011331813583568069 0 0.038309465624358746 -0.0020290843616192159 0 0.03833187103334855 -0.0020043945913897376 0 0.038320329663226037 -0.0020387418235588159 0 0.03833187103334855 -0.0020043945913897376 0 0.038442507170871699 -0.0020508302557244763 0 0.038551026800023223 -0.0019929980013542459 0 0.037549329576016671 -0.0019972605137102239 0 0.040360423836673036 -0.0016807501475992145 0 0.038281206692297821 -0.0020504337891677914 0 0.03833187103334855 -0.0020043945913897376 0 0.038265065156606201 -0.0019905115376402643 0 0.03833187103334855 -0.0020043945913897376 0 0.038442507170871699 -0.0020508302557244763 0 0.038402586515756863 -0.0021158211584276902 0 0.038442507170871699 -0.0020508302557244763 0 0.038402586515756863 -0.0021158211584276902 0 0.038489048260018734 -0.0021368465164808693 0 0.040233451285587252 -0.0011331813583568069 0 0.040266487286373658 -0.0011610695635727907 0 0.03833187103334855 -0.0020043945913897376 0 0.038320329663226037 -0.0020387418235588159 0 0.038402586515756863 -0.0021158211584276902 0 0.0423105515894691 -0.00021202065008390741 0 0.042349960797473753 -0.00031329430451059023 0 0.042421968051570114 -0.00028047002451912068 0 0.042349960797473753 -0.00031329430451059023 0 0.042421968051570114 -0.00028047002451912068 0 0.042427637091890145 -0.00034530469036865932 0 0.040266487286373658 -0.0011610695635727907 0 0.041484082810171886 -0.0011887022298624234 0 0.042421968051570114 -0.00028047002451912068 0 0.042427637091890145 -0.00034530469036865932 0 0.042476609343191092 -0.00032774517647434566 0 0.042427637091890145 -0.00034530469036865932 0 0.042426958008566884 -0.00037975047710522717 0 0.042422788988842018 -0.00038709824331533132 0 0.042427637091890145 -0.00034530469036865932 0 0.042426958008566884 -0.00037975047710522717 0 0.042476609343191092 -0.00032774517647434566 0 0.042422788988842018 -0.00038709824331533132 0 0.042543400858263906 -0.00042099912339919621 0 0.04248913126112154 -0.00037175953477746888 0 0.042349960797473753 -0.00031329430451059023 0 0.042422788988842018 -0.00038709824331533132 0 0.042259721406861635 -0.00037938898772239441 0 0.042329495263635275 -0.00042545530964966413 0 0.042647644613728643 -0.0001871293001767789 0 0.042349960797473753 -0.00031329430451059023 0 0.042427637091890145 -0.00034530469036865932 0 0.042422788988842018 -0.00038709824331533132 0 0.041674561537034527 -9.001522061371146e-05 0 0.042647644613728643 -0.0001871293001767789 0 0.04222291792416813 -0.00026664219196048352 0 0.042349960797473753 -0.00031329430451059023 0 0.042259721406861635 -0.00037938898772239441 0 0.041180694983520727 -0.00014349104144968856 0 0.041107277636273011 0.0003525594899050922 0 0.041701247474842454 0.00023776601031203547 0 0.041180694983520727 -0.00014349104144968856 0 0.041736221486217029 -0.00031461058830148245 0 0.041701247474842454 0.00023776601031203547 0 0.044678700288785796 0.00034263635802983327 0 0.044609781439708521 0.00024491554448730958 0 0.044474022364777099 0.00040878467306617341 0 0.042647644613728643 -0.0001871293001767789 0 0.043126659311970829 0.00038541712238851462 0 0.044609781439708521 0.00024491554448730958 0 0.044637986796387974 0.00017726012869993018 0 0.044618241179385537 0.00015003572212689371 0 0.044609781439708521 0.00024491554448730958 0 0.044637986796387974 0.00017726012869993018 0 0.044696726216401868 0.00019206012447334998 0 0.044678700288785796 0.00034263635802983327 0 0.044609781439708521 0.00024491554448730958 0 0.044696726216401868 0.00019206012447334998 0 0.042543400858263906 -0.00042099912339919621 0 0.04252629671795289 -0.00032716048583211071 0 0.04248913126112154 -0.00037175953477746888 0 0.042647644613728643 -0.0001871293001767789 0 0.043634149985310608 -7.0749272991815971e-05 0 0.044696726216401868 0.00019206012447334998 0 0.044649860230307301 0.00013677089382717683 0 0.044703004787457847 0.00010678433372708108 0 0.043634149985310608 -7.0749272991815971e-05 0 0.044333538665349427 7.8202258526418705e-05 0 0.04252629671795289 -0.00032716048583211071 0 0.042525739149317711 -0.000249775069190173 0 0.042481632984347643 -0.0002879326235048212 0 0.044637986796387974 0.00017726012869993018 0 0.044696726216401868 0.00019206012447334998 0 0.044649860230307301 0.00013677089382717683 0 0.044740841676676829 9.0209940094827318e-05 0 0.044333538665349427 7.8202258526418705e-05 0 0.044740841676676829 9.0209940094827318e-05 0 0.044612192128359568 0.00015577705839036178 0 0.044637986796387974 0.00017726012869993018 0 0.044649860230307301 0.00013677089382717683 0 0.044618241179385537 0.00015003572212689371 0 0.044736567275519057 0.00010036551775855327 0 0.044703508843552987 8.7194880519577423e-05 0 0.044722703668004474 8.2892658976448284e-05 0 0.044736567275519057 0.00010036551775855327 0 0.044703508843552987 8.7194880519577423e-05 0 0.044618241179385537 0.00015003572212689371 0 0.044961075025690946 7.1241201301650768e-05 0 0.04494244478482793 -5.9956802536412991e-06 0 0.04473247660132755 6.2215921191179421e-05 0 0.044703508843552987 8.7194880519577423e-05 0 0.044722703668004474 8.2892658976448284e-05 0 0.04473247660132755 6.2215921191179421e-05 0 0.044896277565201065 6.8925980179036794e-05 0 0.044727384134606529 6.8861231420353438e-05 0 0.044961075025690946 7.1241201301650768e-05 0 0.044982998415067046 3.0453053748628599e-05 0 0.04494244478482793 -5.9956802536412991e-06 0 0.044961075025690946 7.1241201301650768e-05 0 0.045010156344574094 3.8940624197501307e-05 0 0.044982998415067046 3.0453053748628599e-05 0 0.044722703668004474 8.2892658976448284e-05 0 0.044755019783156311 8.4933697776917743e-05 0 0.044755451106233121 8.2098421357394789e-05 0 0.044736567275519057 0.00010036551775855327 0 0.044722703668004474 8.2892658976448284e-05 0 0.044755019783156311 8.4933697776917743e-05 0 0.044981123293321552 1.7426492844809724e-05 0 0.044983637081651491 1.7285406571184852e-05 0 0.045000009120081501 -2.2102786206276469e-08 0 0.044896277565201065 6.8925980179036794e-05 0 0.044516773961886948 4.531325321788323e-05 0 0.044333538665349427 7.8202258526418705e-05 0 0.044516773961886948 4.531325321788323e-05 0 0.044516773961886948 4.531325321788323e-05 0 0.044054399196377193 5.0877441141450003e-05 0 0.044318148275521559 -6.4797574372206775e-05 0 0.044315562838712651 -5.1312463832201183e-05 0 0.044289489598988867 -5.0556738534553813e-05 0 0.044333538665349427 7.8202258526418705e-05 0 0.044054399196377193 5.0877441141450003e-05 0 0.045010156344574094 3.8940624197501307e-05 0 0.044982998415067046 3.0453053748628599e-05 0 0.044988826764904379 4.9466942528086652e-06 0 0.044516773961886948 4.531325321788323e-05 0 0.045000256260883491 -1.0255765785071367e-07 0 0.045010156344574094 3.8940624197501307e-05 0 0.044988826764904379 4.9466942528086652e-06 0 0.045000101770786553 2.1493892471918397e-08 0 0.044988826764904379 4.9466942528086652e-06 0 0.044999782793702009 -7.2441134586734048e-08 0 0.045000101770786553 2.1493892471918397e-08 0 0.044999782793702009 -7.2441134586734048e-08 0 0.04494244478482793 -5.9956802536412991e-06 0 0.044900324596359301 -3.3023267574261636e-05 0 0.044988826764904379 4.9466942528086652e-06 0 0.044999782793702009 -7.2441134586734048e-08 0 0.04494244478482793 -5.9956802536412991e-06 0 0.044982998415067046 3.0453053748628599e-05 0 0.044988826764904379 4.9466942528086652e-06 0 0.04494244478482793 -5.9956802536412991e-06 0 0.044635441113512565 -2.075004888255628e-05 0 0.045073865086324341 -1.6937680983753874e-05 0 0.044919870406174678 7.1969715397439906e-06 0 0.044964332187249774 1.4273171012244691e-05 0 0.044953412798935145 1.3918300470963141e-05 0 0.044993509019204785 4.3177691351550264e-06 0 0.045005274958278017 -1.5965662421270991e-05 0 0.044964332187249774 1.4273171012244691e-05 0 0.044993509019204785 4.3177691351550264e-06 0 0.044999725097849219 1.6609756074864785e-06 0 0.044999929679592619 6.6723037496019791e-08 0 0.044993509019204785 4.3177691351550264e-06 0 0.044999725097849219 1.6609756074864785e-06 0 0.045005274958278017 -1.5965662421270991e-05 0 0.044993509019204785 4.3177691351550264e-06 0 0.044964332187249774 1.4273171012244691e-05 0 0.044999929679592619 6.6723037496019791e-08 0 0.044999725097849219 1.6609756074864785e-06 0 0.045000009120081501 -2.2102786206276469e-08 0 0.044999929679592619 6.6723037496019791e-08 0 0.044983637081651491 1.7285406571184852e-05 0 0.044999725097849219 1.6609756074864785e-06 0 0.045000009120081501 -2.2102786206276469e-08 0 0.044983637081651491 1.7285406571184852e-05 0 0.044999725097849219 1.6609756074864785e-06 0 0.044997043518199671 1.1702362480398676e-05 0 0.044981525422226269 4.1018070937049867e-05 0 0.044635441113512565 -2.075004888255628e-05 0 0.044054399196377193 5.0877441141450003e-05 0 0.043442502154525539 -7.5497198700306777e-05 0 0.04251511831089351 -0.00024400881150007594 0 0.042450252026280187 -0.00024227202048146863 0 0.042481632984347643 -0.0002879326235048212 0 0.044068861114514482 4.9346560435269622e-05 0 0.044077980742121672 4.363386627565785e-05 0 0.044077697595328792 4.7610779076307779e-05 0 0.044054399196377193 5.0877441141450003e-05 0 0.044635441113512565 -2.075004888255628e-05 0 0.042525739149317711 -0.000249775069190173 0 0.04251511831089351 -0.00024400881150007594 0 0.042481632984347643 -0.0002879326235048212 0 0.044919870406174678 7.1969715397439906e-06 0 0.044934096661229161 1.3027624804464942e-05 0 0.044953412798935145 1.3918300470963141e-05 0 0.044923423686786604 2.0384326986597074e-05 0 0.044939246724362565 1.2960844445291927e-05 0 0.044949537857889854 1.0918006493555186e-05 0 0.042650255606781408 -0.00010059044742667333 0 0.042589405328984517 -0.00013967045056396349 0 0.042543162561949524 -9.6483517604436462e-05 0 0.043442502154525539 -7.5497198700306777e-05 0 0.043973016268846608 -0.00010986639128194229 0 0.044923423686786604 2.0384326986597074e-05 0 0.044934096661229161 1.3027624804464942e-05 0 0.044939246724362565 1.2960844445291927e-05 0 0.044919870406174678 7.1969715397439906e-06 0 0.044923423686786604 2.0384326986597074e-05 0 0.044934096661229161 1.3027624804464942e-05 0 0.044635441113512565 -2.075004888255628e-05 0 0.043442502154525539 -7.5497198700306777e-05 0 0.044934096661229161 1.3027624804464942e-05 0 0.044939246724362565 1.2960844445291927e-05 0 0.044953412798935145 1.3918300470963141e-05 0 0.042650255606781408 -0.00010059044742667333 0 0.042589405328984517 -0.00013967045056396349 0 0.042609540654553191 -0.00019710755657181741 0 0.043442502154525539 -7.5497198700306777e-05 0 0.042458153572087209 -0.00030859610703170361 0 0.042589405328984517 -0.00013967045056396349 0 0.042609540654553191 -0.00019710755657181741 0 0.042565012788472974 -0.00016861483546974279 0 0.042450252026280187 -0.00024227202048146863 0 0.042424117983617358 -0.00031897924144169172 0 0.042481632984347643 -0.0002879326235048212 0 0.042424117983617358 -0.00031897924144169172 0 0.042481632984347643 -0.0002879326235048212 0 0.042452328872874388 -0.00034540302590156457 0 0.04252629671795289 -0.00032716048583211071 0 0.042481632984347643 -0.0002879326235048212 0 0.042452328872874388 -0.00034540302590156457 0 0.04252629671795289 -0.00032716048583211071 0 0.042452328872874388 -0.00034540302590156457 0 0.04248913126112154 -0.00037175953477746888 0 0.042422788988842018 -0.00038709824331533132 0 0.042452328872874388 -0.00034540302590156457 0 0.04248913126112154 -0.00037175953477746888 0 0.042426958008566884 -0.00037975047710522717 0 0.042424117983617358 -0.00031897924144169172 0 0.042452328872874388 -0.00034540302590156457 0 0.042426958008566884 -0.00037975047710522717 0 0.042422788988842018 -0.00038709824331533132 0 0.042452328872874388 -0.00034540302590156457 0 0.042557557799975797 -0.000282032461531102 0 0.042609540654553191 -0.00019710755657181741 0 0.042518224941487305 -0.00024137272651473998 0 0.042498473347867133 -0.00031049645094748438 0 0.042458153572087209 -0.00030859610703170361 0 0.04378963666770349 7.2842568965614211e-05 0 0.043422471996592049 -2.2012703820530748e-05 0 0.043646180350811414 -0.00022319502459784794 0 0.04378963666770349 7.2842568965614211e-05 0 0.043646180350811414 -0.00022319502459784794 0 0.043836251890039972 -7.9323849801070116e-05 0 0.043999654315701846 0.00014431235146288113 0 0.04378963666770349 7.2842568965614211e-05 0 0.043836251890039972 -7.9323849801070116e-05 0 0.043999654315701846 0.00014431235146288113 0 0.04378963666770349 7.2842568965614211e-05 0 0.043956782655233791 0.00020111601935826051 0 0.04378963666770349 7.2842568965614211e-05 0 0.043760355276162802 0.00018260918370178615 0 0.043422471996592049 -2.2012703820530748e-05 0 0.04378963666770349 7.2842568965614211e-05 0 0.043956782655233791 0.00020111601935826051 0 0.043760355276162802 0.00018260918370178615 0 0.043956782655233791 0.00020111601935826051 0 0.044313772654226313 0.00011829335264924511 0 0.043760355276162802 0.00018260918370178615 0 0.042609540654553191 -0.00019710755657181741 0 0.042518224941487305 -0.00024137272651473998 0 0.042565012788472974 -0.00016861483546974279 0 0.043406568404450618 0.00010698842761504189 0 0.043973016268846608 -0.00010986639128194229 0 0.043999654315701846 0.00014431235146288113 0 0.043956782655233791 0.00020111601935826051 0 0.043951932286039781 0.00014309979171087651 0 0.042518224941487305 -0.00024137272651473998 0 0.042565012788472974 -0.00016861483546974279 0 0.042543162561949524 -9.6483517604436462e-05 0 0.042589405328984517 -0.00013967045056396349 0 0.042565012788472974 -0.00016861483546974279 0 0.042543162561949524 -9.6483517604436462e-05 0 0.044939246724362565 1.2960844445291927e-05 0 0.044946771785628704 7.534295853660607e-06 0 0.044949537857889854 1.0918006493555186e-05 0 0.044946771785628704 7.534295853660607e-06 0 0.044946323517347453 3.7730032067550472e-07 0 0.044949537857889854 1.0918006493555186e-05 0 0.044946771785628704 7.534295853660607e-06 0 0.044946323517347453 3.7730032067550472e-07 0 0.044953412798935145 1.3918300470963141e-05 0 0.044939246724362565 1.2960844445291927e-05 0 0.044946771785628704 7.534295853660607e-06 0 0.044953412798935145 1.3918300470963141e-05 0 0.044946323517347453 3.7730032067550472e-07 0 0.044768688205048771 4.758414261021341e-05 0 0.044919939754887832 3.9542623600632099e-05 0 0.044946323517347453 3.7730032067550472e-07 0 0.044974068598310789 -0.00016707424107121629 0 0.044768688205048771 4.758414261021341e-05 0 0.044280267184700003 -3.807414001486544e-05 0 0.043973016268846608 -0.00010986639128194229 0 0.043973016268846608 -0.00010986639128194229 0 0.044534326391885266 9.4112045318462602e-05 0 0.044974068598310789 -0.00016707424107121629 0 0.044313772654226313 0.00011829335264924511 0 0.044768688205048771 4.758414261021341e-05 0 0.043956782655233791 0.00020111601935826051 0 0.043951932286039781 0.00014309979171087651 0 0.044313772654226313 0.00011829335264924511 0 0.044313772654226313 0.00011829335264924511 0 0.044768688205048771 4.758414261021341e-05 0 0.044895981706670023 5.9567469820957611e-05 0 0.044313772654226313 0.00011829335264924511 0 0.044999426606819388 8.9665157855853462e-08 0 0.044895981706670023 5.9567469820957611e-05 0 0.044999426606819388 8.9665157855853462e-08 0 0.044895981706670023 5.9567469820957611e-05 0 0.044999929679592619 6.6723037496019791e-08 0 0.044895981706670023 5.9567469820957611e-05 0 0.044964332187249774 1.4273171012244691e-05 0 0.044999929679592619 6.6723037496019791e-08 0 0.044946323517347453 3.7730032067550472e-07 0 0.044953412798935145 1.3918300470963141e-05 0 0.044919939754887832 3.9542623600632099e-05 0 0.044964332187249774 1.4273171012244691e-05 0 0.044953412798935145 1.3918300470963141e-05 0 0.044919939754887832 3.9542623600632099e-05 0 0.044768688205048771 4.758414261021341e-05 0 0.044895981706670023 5.9567469820957611e-05 0 0.044919939754887832 3.9542623600632099e-05 0 0.044895981706670023 5.9567469820957611e-05 0 0.044964332187249774 1.4273171012244691e-05 0 0.044919939754887832 3.9542623600632099e-05 0 0.044997533442752112 9.3680495675948442e-07 0 0.044572531520305901 0.00014525150847191325 0 0.044094187880298286 0.00029809402531004995 0 0.044313772654226313 0.00011829335264924511 0 0.044999426606819388 8.9665157855853462e-08 0 0.044572531520305901 0.00014525150847191325 0 0.044999426606819388 8.9665157855853462e-08 0 0.044997533442752112 9.3680495675948442e-07 0 0.044572531520305901 0.00014525150847191325 0 0.044313772654226313 0.00011829335264924511 0 0.043848613958027562 0.00026067390985404898 0 0.043693367688090075 0.00021768685831926023 0 0.044313772654226313 0.00011829335264924511 0 0.044572531520305901 0.00014525150847191325 0 0.043848613958027562 0.00026067390985404898 0 0.044572531520305901 0.00014525150847191325 0 0.043848613958027562 0.00026067390985404898 0 0.044094187880298286 0.00029809402531004995 0 0.043848613958027562 0.00026067390985404898 0 0.043034395633988691 0.00016932558167753728 0 0.043219814509451587 0.00026401927312722444 0 0.043848613958027562 0.00026067390985404898 0 0.043693367688090075 0.00021768685831926023 0 0.043034395633988691 0.00016932558167753728 0 0.044313772654226313 0.00011829335264924511 0 0.043693367688090075 0.00021768685831926023 0 0.043760355276162802 0.00018260918370178615 0 0.043693367688090075 0.00021768685831926023 0 0.043760355276162802 0.00018260918370178615 0 0.043034395633988691 0.00016932558167753728 0 0.043422471996592049 -2.2012703820530748e-05 0 0.043034395633988691 0.00016932558167753728 0 0.042854537376878249 -0.00014323427027122985 0 0.043760355276162802 0.00018260918370178615 0 0.043422471996592049 -2.2012703820530748e-05 0 0.043034395633988691 0.00016932558167753728 0 0.043034395633988691 0.00016932558167753728 0 0.042281907648280215 -6.6608133991762032e-05 0 0.042854537376878249 -0.00014323427027122985 0 0.042281907648280215 -6.6608133991762032e-05 0 0.042408978313896978 -0.00059514830849183862 0 0.041331591841776628 -0.00028202867977845334 0 0.042281907648280215 -6.6608133991762032e-05 0 0.042408978313896978 -0.00059514830849183862 0 0.042854537376878249 -0.00014323427027122985 0 0.042408978313896978 -0.00059514830849183862 0 0.041296282483883527 -0.00083196035752265045 0 0.041331591841776628 -0.00028202867977845334 0 0.042408978313896978 -0.00059514830849183862 0 0.043239337170574169 -0.00039783773506507332 0 0.043324103495046992 -0.0010152847689578175 0 0.042408978313896978 -0.00059514830849183862 0 0.043324103495046992 -0.0010152847689578175 0 0.04276174835349375 -0.0012989756115389338 0 0.042408978313896978 -0.00059514830849183862 0 0.043239337170574169 -0.00039783773506507332 0 0.042854537376878249 -0.00014323427027122985 0 0.043422471996592049 -2.2012703820530748e-05 0 0.043239337170574169 -0.00039783773506507332 0 0.042854537376878249 -0.00014323427027122985 0 0.043422471996592049 -2.2012703820530748e-05 0 0.043239337170574169 -0.00039783773506507332 0 0.043646180350811414 -0.00022319502459784794 0 0.043646180350811414 -0.00022319502459784794 0 0.043836251890039972 -7.9323849801070116e-05 0 0.043897074092966309 -0.0003498161553962553 0 0.043646180350811414 -0.00022319502459784794 0 0.043897074092966309 -0.0003498161553962553 0 0.043657041154555591 -0.00059464645833369641 0 0.043897074092966309 -0.0003498161553962553 0 0.043876126062665728 -0.0006550511799874643 0 0.043657041154555591 -0.00059464645833369641 0 0.043239337170574169 -0.00039783773506507332 0 0.043646180350811414 -0.00022319502459784794 0 0.043657041154555591 -0.00059464645833369641 0 0.043406568404450618 0.00010698842761504189 0 0.041484082810171886 -0.0011887022298624234 0 0.042557557799975797 -0.000282032461531102 0 0.042509158071889569 -0.00030816267385920309 0 0.042476609343191092 -0.00032774517647434566 0 0.042518224941487305 -0.00024137272651473998 0 0.042509158071889569 -0.00030816267385920309 0 0.042494790857656499 -0.00033580791630946112 0 0.043999654315701846 0.00014431235146288113 0 0.043897074092966309 -0.0003498161553962553 0 0.044128915618561464 -0.00067944809690125246 0 0.043999654315701846 0.00014431235146288113 0 0.043836251890039972 -7.9323849801070116e-05 0 0.043897074092966309 -0.0003498161553962553 0 0.042498473347867133 -0.00031049645094748438 0 0.04248072099382888 -0.00032853186495894525 0 0.042557557799975797 -0.000282032461531102 0 0.042518224941487305 -0.00024137272651473998 0 0.042509158071889569 -0.00030816267385920309 0 0.038402586515756863 -0.0021158211584276902 0 0.038558593900004372 -0.0021964488500445271 0 0.038489048260018734 -0.0021368465164808693 0 0.042421968051570114 -0.00028047002451912068 0 0.042476609343191092 -0.00032774517647434566 0 0.042494790857656499 -0.00033580791630946112 0 0.042509158071889569 -0.00030816267385920309 0 0.042476609343191092 -0.00032774517647434566 0 0.042494790857656499 -0.00033580791630946112 0 0.044128915618561464 -0.00067944809690125246 0 0.043876126062665728 -0.0006550511799874643 0 0.043781596248103329 -0.00090436380631229378 0 0.043897074092966309 -0.0003498161553962553 0 0.044128915618561464 -0.00067944809690125246 0 0.043876126062665728 -0.0006550511799874643 0 0.043239337170574169 -0.00039783773506507332 0 0.043657041154555591 -0.00059464645833369641 0 0.043324103495046992 -0.0010152847689578175 0 0.043876126062665728 -0.0006550511799874643 0 0.043657041154555591 -0.00059464645833369641 0 0.043781596248103329 -0.00090436380631229378 0 0.044128915618561464 -0.00067944809690125246 0 0.043781596248103329 -0.00090436380631229378 0 0.04379949143022565 -0.0013250132440186346 0 0.043781596248103329 -0.00090436380631229378 0 0.043324103495046992 -0.0010152847689578175 0 0.04379949143022565 -0.0013250132440186346 0 0.043657041154555591 -0.00059464645833369641 0 0.043781596248103329 -0.00090436380631229378 0 0.043324103495046992 -0.0010152847689578175 0 0.04379949143022565 -0.0013250132440186346 0 0.044090042214189357 -0.0019677216386379363 0 0.043207806454969792 -0.0018395916116906632 0 0.043324103495046992 -0.0010152847689578175 0 0.04379949143022565 -0.0013250132440186346 0 0.043207806454969792 -0.0018395916116906632 0 0.044128915618561464 -0.00067944809690125246 0 0.04379949143022565 -0.0013250132440186346 0 0.044090042214189357 -0.0019677216386379363 0 0.038558593900004372 -0.0021964488500445271 0 0.038489048260018734 -0.0021368465164808693 0 0.038551026800023223 -0.0019929980013542459 0 0.038442507170871699 -0.0020508302557244763 0 0.038489048260018734 -0.0021368465164808693 0 0.038551026800023223 -0.0019929980013542459 0 0.041484082810171886 -0.0011887022298624234 0 0.040360423836673036 -0.0016807501475992145 0 0.040360423836673036 -0.0016807501475992145 0 0.042097257027180958 -0.0014975873305282117 0 0.040299082943537491 -0.001338245491872162 0 0.040554260184933889 -0.0011514974315024254 0 0.04023401424251475 -0.0010661520219594422 0 0.040299082943537491 -0.001338245491872162 0 0.040004792232577233 -0.0012408270769293064 0 0.04023401424251475 -0.0010661520219594422 0 0.040004792232577233 -0.0012408270769293064 0 0.039802518180093539 -0.00095078524035547478 0 0.04023401424251475 -0.0010661520219594422 0 0.03980621665593536 -0.0014761641463803821 0 0.040004792232577233 -0.0012408270769293064 0 0.039667832183564726 -0.001007351784720937 0 0.040004792232577233 -0.0012408270769293064 0 0.039802518180093539 -0.00095078524035547478 0 0.039667832183564726 -0.001007351784720937 0 0.042408978313896978 -0.00059514830849183862 0 0.042046341769864541 -0.0017362408913068818 0 0.041296282483883527 -0.00083196035752265045 0 0.042408978313896978 -0.00059514830849183862 0 0.042046341769864541 -0.0017362408913068818 0 0.04276174835349375 -0.0012989756115389338 0 0.042046341769864541 -0.0017362408913068818 0 0.04276174835349375 -0.0012989756115389338 0 0.043207806454969792 -0.0018395916116906632 0 0.043324103495046992 -0.0010152847689578175 0 0.04276174835349375 -0.0012989756115389338 0 0.043207806454969792 -0.0018395916116906632 0 0.040824012206303058 -0.0012955524607458034 0 0.042097257027180958 -0.0014975873305282117 0 0.039860005453247499 -0.00095443756500509982 0 0.038524082508981858 -0.00069227687814273412 0 0.03887835646072451 -0.00042191686830829651 0 0.039860005453247499 -0.00095443756500509982 0 0.03887835646072451 -0.00042191686830829651 0 0.039991222408012402 -0.00043276399690830918 0 0.039860005453247499 -0.00095443756500509982 0 0.038826012396255924 -0.00096369557761008951 0 0.038524082508981858 -0.00069227687814273412 0 0.042046341769864541 -0.0017362408913068818 0 0.039860005453247499 -0.00095443756500509982 0 0.041296282483883527 -0.00083196035752265045 0 0.040824012206303058 -0.0012955524607458034 0 0.039996964019259347 -0.0010273380999017362 0 0.039802518180093539 -0.00095078524035547478 0 0.039860005453247499 -0.00095443756500509982 0 0.039667832183564726 -0.001007351784720937 0 0.039860005453247499 -0.00095443756500509982 0 0.039991222408012402 -0.00043276399690830918 0 0.041296282483883527 -0.00083196035752265045 0 0.038791768357247132 -0.0011815815490916299 0 0.038785029039696099 -0.00097820930103530157 0 0.039860005453247499 -0.00095443756500509982 0 0.039667832183564726 -0.001007351784720937 0 0.038826012396255924 -0.00096369557761008951 0 0.03980621665593536 -0.0014761641463803821 0 0.039667832183564726 -0.001007351784720937 0 0.038826012396255924 -0.00096369557761008951 0 0.0379606740410732 -0.0008473989693206684 0 0.038826012396255924 -0.00096369557761008951 0 0.038104150017569255 -0.00077667527108667026 0 0.038826012396255924 -0.00096369557761008951 0 0.038104150017569255 -0.00077667527108667026 0 0.038524082508981858 -0.00069227687814273412 0 0.038104150017569255 -0.00077667527108667026 0 0.038524082508981858 -0.00069227687814273412 0 0.0374409668260565 -0.00051168690818510841 0 0.038524082508981858 -0.00069227687814273412 0 0.0374409668260565 -0.00051168690818510841 0 0.037876105166755776 -0.00028916548134960576 0 0.036092089547888444 -0.00031076741737726978 0 0.0374409668260565 -0.00051168690818510841 0 0.036873601768009155 -0.00011147464376952153 0 0.0374409668260565 -0.00051168690818510841 0 0.037876105166755776 -0.00028916548134960576 0 0.036873601768009155 -0.00011147464376952153 0 0.037876105166755776 -0.00028916548134960576 0 0.03887835646072451 -0.00042191686830829651 0 0.038320344947584108 9.7120803477524238e-05 0 0.038524082508981858 -0.00069227687814273412 0 0.037876105166755776 -0.00028916548134960576 0 0.03887835646072451 -0.00042191686830829651 0 0.03887835646072451 -0.00042191686830829651 0 0.039603534566136807 -0.00012734707248933388 0 0.038320344947584108 9.7120803477524238e-05 0 0.03887835646072451 -0.00042191686830829651 0 0.039603534566136807 -0.00012734707248933388 0 0.039991222408012402 -0.00043276399690830918 0 0.037876105166755776 -0.00028916548134960576 0 0.038320344947584108 9.7120803477524238e-05 0 0.037391797960099775 9.8457314197186819e-05 0 0.038462345259637064 -6.303951275616217e-06 0 0.038974825916080119 0.00018442943369540745 0 0.038320344947584108 9.7120803477524238e-05 0 0.040153142542897112 9.0424023340320819e-05 0 0.040034505262908769 0.00010326318066787784 0 0.039603534566136807 -0.00012734707248933388 0 0.038320344947584108 9.7120803477524238e-05 0 0.040153142542897112 9.0424023340320819e-05 0 0.039603534566136807 -0.00012734707248933388 0 0.040153142542897112 9.0424023340320819e-05 0 0.04059604320452375 -7.8392926191957416e-05 0 0.040153142542897112 9.0424023340320819e-05 0 0.04059604320452375 -7.8392926191957416e-05 0 0.041162409680949655 8.3084499810851011e-05 0 0.04059604320452375 -7.8392926191957416e-05 0 0.041790213699066048 4.2012453182187039e-05 0 0.041162409680949655 8.3084499810851011e-05 0 0.039603534566136807 -0.00012734707248933388 0 0.04059604320452375 -7.8392926191957416e-05 0 0.039991222408012402 -0.00043276399690830918 0 0.04059604320452375 -7.8392926191957416e-05 0 0.039991222408012402 -0.00043276399690830918 0 0.041331591841776628 -0.00028202867977845334 0 0.039991222408012402 -0.00043276399690830918 0 0.041296282483883527 -0.00083196035752265045 0 0.041331591841776628 -0.00028202867977845334 0 0.042281907648280215 -6.6608133991762032e-05 0 0.041331591841776628 -0.00028202867977845334 0 0.041790213699066048 4.2012453182187039e-05 0 0.04059604320452375 -7.8392926191957416e-05 0 0.041331591841776628 -0.00028202867977845334 0 0.041790213699066048 4.2012453182187039e-05 0 0.043034395633988691 0.00016932558167753728 0 0.042281907648280215 -6.6608133991762032e-05 0 0.041790213699066048 4.2012453182187039e-05 0 0.043034395633988691 0.00016932558167753728 0 0.041790213699066048 4.2012453182187039e-05 0 0.042261743254601962 0.00017726205650166427 0 0.041790213699066048 4.2012453182187039e-05 0 0.041162409680949655 8.3084499810851011e-05 0 0.042261743254601962 0.00017726205650166427 0 0.041162409680949655 8.3084499810851011e-05 0 0.042261743254601962 0.00017726205650166427 0 0.041082647917155081 0.00015108903027359353 0 0.042261743254601962 0.00017726205650166427 0 0.042948699783479934 0.00030967447092388779 0 0.042022533006445005 0.00027840102114300071 0 0.042261743254601962 0.00017726205650166427 0 0.042022533006445005 0.00027840102114300071 0 0.041082647917155081 0.00015108903027359353 0 0.043034395633988691 0.00016932558167753728 0 0.042261743254601962 0.00017726205650166427 0 0.043219814509451587 0.00026401927312722444 0 0.042261743254601962 0.00017726205650166427 0 0.043219814509451587 0.00026401927312722444 0 0.042948699783479934 0.00030967447092388779 0 0.043848613958027562 0.00026067390985404898 0 0.043219814509451587 0.00026401927312722444 0 0.044094187880298286 0.00029809402531004995 0 0.042948699783479934 0.00030967447092388779 0 0.043476569288612245 0.00039140238608060846 0 0.044094187880298286 0.00029809402531004995 0 0.043219814509451587 0.00026401927312722444 0 0.042948699783479934 0.00030967447092388779 0 0.044094187880298286 0.00029809402531004995 0 0.042948699783479934 0.00030967447092388779 0 0.042022533006445005 0.00027840102114300071 0 0.042422847784308923 0.00046451508674912224 0 0.042948699783479934 0.00030967447092388779 0 0.042422847784308923 0.00046451508674912224 0 0.043476569288612245 0.00039140238608060846 0 0.043476569288612245 0.00039140238608060846 0 0.044892535066155037 0.00012999905009684581 0 0.042131963159914104 0.0012235459987858226 0 0.044999718707437124 3.8032444480924351e-07 0 0.044892535066155037 0.00012999905009684581 0 0.045011586654051874 -1.8836813265227549e-06 0 0.044578059057946665 0.00023916212832302805 0 0.043778938567782033 0.00058818325746264001 0 0.042422847784308923 0.00046451508674912224 0 0.043476569288612245 0.00039140238608060846 0 0.042131963159914104 0.0012235459987858226 0 0.044997533442752112 9.3680495675948442e-07 0 0.044999718707437124 3.8032444480924351e-07 0 0.044892535066155037 0.00012999905009684581 0 0.044997533442752112 9.3680495675948442e-07 0 0.044892535066155037 0.00012999905009684581 0 0.044094187880298286 0.00029809402531004995 0 0.043476569288612245 0.00039140238608060846 0 0.044892535066155037 0.00012999905009684581 0 0.044094187880298286 0.00029809402531004995 0 0.044989422838080634 -6.5211142466235021e-06 0 0.045000120066763398 -1.8934479996896442e-07 0 0.045011586654051874 -1.8836813265227549e-06 0 0.04207421774144169 1.7516606708898957e-05 0 0.044998008339999916 -6.8707274478010572e-08 0 0.044999718707437124 3.8032444480924351e-07 0 0.045000120066763398 -1.8934479996896442e-07 0 0.045011586654051874 -1.8836813265227549e-06 0 0.040887327098677928 0.0010357497752247348 0 0.042131963159914104 0.0012235459987858226 0 0.041498464098201723 0.00049565454539541676 0 0.042422847784308923 0.00046451508674912224 0 0.042131963159914104 0.0012235459987858226 0 0.041498464098201723 0.00049565454539541676 0 0.04207421774144169 1.7516606708898957e-05 0 0.043778938567782033 0.00058818325746264001 0 0.042022533006445005 0.00027840102114300071 0 0.042422847784308923 0.00046451508674912224 0 0.041498464098201723 0.00049565454539541676 0 0.040887327098677928 0.0010357497752247348 0 0.041498464098201723 0.00049565454539541676 0 0.040793837626606162 0.00025564499222803272 0 0.037463382961809538 -0.0016293419019330099 0 0.037740022501708465 -0.00020637479181360074 0 0.038311649482485041 -0.00065631137123077163 0 0.04207421774144169 1.7516606708898957e-05 0 0.038943371115409631 -7.0646441922797511e-05 0 0.038943371115409631 -7.0646441922797511e-05 0 0.038974825916080119 0.00018442943369540745 0 0.040793837626606162 0.00025564499222803272 0 0.041082647917155081 0.00015108903027359353 0 0.040034505262908769 0.00010326318066787784 0 0.037740022501708465 -0.00020637479181360074 0 0.03795710902005852 0.00043010362712716892 0 0.038288578631534856 -6.5895888531120335e-05 0 0.041498464098201723 0.00049565454539541676 0 0.040793837626606162 0.00025564499222803272 0 0.041082647917155081 0.00015108903027359353 0 0.042022533006445005 0.00027840102114300071 0 0.041498464098201723 0.00049565454539541676 0 0.041082647917155081 0.00015108903027359353 0 0.040153142542897112 9.0424023340320819e-05 0 0.041082647917155081 0.00015108903027359353 0 0.040034505262908769 0.00010326318066787784 0 0.040153142542897112 9.0424023340320819e-05 0 0.041162409680949655 8.3084499810851011e-05 0 0.041082647917155081 0.00015108903027359353 0 0.045001113117225336 -3.0040173268480957e-07 0 0.044754524227816617 -1.7663039468936664e-05 0 0.044995653876160537 5.9792619177299619e-07 0 0.03795710902005852 0.00043010362712716892 0 0.038183047989229349 0.00027475486071416692 0 0.038288578631534856 -6.5895888531120335e-05 0 0.038183047989229349 0.00027475486071416692 0 0.038758717141802436 -0.00025249738038134667 0 0.03918737184751072 0.00013510764132056223 0 0.038183047989229349 0.00027475486071416692 0 0.038758717141802436 -0.00025249738038134667 0 0.038288578631534856 -6.5895888531120335e-05 0 0.038758717141802436 -0.00025249738038134667 0 0.038288578631534856 -6.5895888531120335e-05 0 0.038969408683085321 -0.0005411737555804999 0 0.037740022501708465 -0.00020637479181360074 0 0.038288578631534856 -6.5895888531120335e-05 0 0.038311649482485041 -0.00065631137123077163 0 0.037463382961809538 -0.0016293419019330099 0 0.038311649482485041 -0.00065631137123077163 0 0.039539206947360656 -0.0016815025458759804 0 0.038288578631534856 -6.5895888531120335e-05 0 0.038311649482485041 -0.00065631137123077163 0 0.038969408683085321 -0.0005411737555804999 0 0.039191847009704843 -0.00050857436025999363 0 0.041043557532179475 -0.00017610117205025196 0 0.038969408683085321 -0.0005411737555804999 0 0.039539206947360656 -0.0016815025458759804 0 0.042973634540756075 0.00043480988904461031 0 0.038758717141802436 -0.00025249738038134667 0 0.038969408683085321 -0.0005411737555804999 0 0.039290709503038673 -0.00076143512512203142 0 0.038311649482485041 -0.00065631137123077163 0 0.038969408683085321 -0.0005411737555804999 0 0.039539206947360656 -0.0016815025458759804 0 0.04207421774144169 1.7516606708898957e-05 0 0.041971120323606594 -0.00091727805379033687 0 0.04498274209070318 -5.6242854759730777e-05 0 0.045001113117225336 -3.0040173268480957e-07 0 0.044754524227816617 -1.7663039468936664e-05 0 0.044754524227816617 -1.7663039468936664e-05 0 0.044995653876160537 5.9792619177299619e-07 0 0.043871417748822056 -0.00015700729210267616 0 0.044995653876160537 5.9792619177299619e-07 0 0.043871417748822056 -0.00015700729210267616 0 0.042020389219687253 -1.1454296479354364e-06 0 0.039539206947360656 -0.0016815025458759804 0 0.042973634540756075 0.00043480988904461031 0 0.043871417748822056 -0.00015700729210267616 0 0.041971120323606594 -0.00091727805379033687 0 0.043830199326580659 -0.00021774958939372891 0 0.041043557532179475 -0.00017610117205025196 0 0.042013575251783571 -3.9105851047351049e-08 0 0.042973634540756075 0.00043480988904461031 0 0.043871417748822056 -0.00015700729210267616 0 0.042020389219687253 -1.1454296479354364e-06 0 0.039290709503038673 -0.00076143512512203142 0 0.042009096370204446 -2.609411285136256e-06 0 0.03918737184751072 0.00013510764132056223 0 0.038758717141802436 -0.00025249738038134667 0 0.039290709503038673 -0.00076143512512203142 0 0.03918737184751072 0.00013510764132056223 0 0.038183047989229349 0.00027475486071416692 0 0.03918737184751072 0.00013510764132056223 0 0.037673359486962113 0.00034668114153645009 0 0.042009096370204446 -2.609411285136256e-06 0 0.03918737184751072 0.00013510764132056223 0 0.039574244886991405 1.4071216971006524e-06 0 0.03918737184751072 0.00013510764132056223 0 0.039574244886991405 1.4071216971006524e-06 0 0.037673359486962113 0.00034668114153645009 0 0.039574244886991405 1.4071216971006524e-06 0 0.037134275049740414 3.205867528341561e-07 0 0.037673359486962113 0.00034668114153645009 0 0.037134275049740414 3.205867528341561e-07 0 0.037673359486962113 0.00034668114153645009 0 0.036189121233058716 0.00018540094080970538 0 0.037673359486962113 0.00034668114153645009 0 0.036585635493002804 0.00021805811898910644 0 0.036189121233058716 0.00018540094080970538 0 0.038183047989229349 0.00027475486071416692 0 0.037673359486962113 0.00034668114153645009 0 0.037588859894029679 0.00036590915672055714 0 0.03795710902005852 0.00043010362712716892 0 0.038183047989229349 0.00027475486071416692 0 0.037588859894029679 0.00036590915672055714 0 0.038320344947584108 9.7120803477524238e-05 0 0.03795710902005852 0.00043010362712716892 0 0.037588859894029679 0.00036590915672055714 0 0.038320344947584108 9.7120803477524238e-05 0 0.037588859894029679 0.00036590915672055714 0 0.037391797960099775 9.8457314197186819e-05 0 0.037673359486962113 0.00034668114153645009 0 0.037588859894029679 0.00036590915672055714 0 0.036585635493002804 0.00021805811898910644 0 0.037588859894029679 0.00036590915672055714 0 0.037391797960099775 9.8457314197186819e-05 0 0.036585635493002804 0.00021805811898910644 0 0.037391797960099775 9.8457314197186819e-05 0 0.036585635493002804 0.00021805811898910644 0 0.036873601768009155 -0.00011147464376952153 0 0.037876105166755776 -0.00028916548134960576 0 0.037391797960099775 9.8457314197186819e-05 0 0.036873601768009155 -0.00011147464376952153 0 0.036092089547888444 -0.00031076741737726978 0 0.036873601768009155 -0.00011147464376952153 0 0.035561958135171309 -1.6264985062883377e-05 0 0.036585635493002804 0.00021805811898910644 0 0.035561958135171309 -1.6264985062883377e-05 0 0.034909107621999634 0.0001303544542437411 0 0.036585635493002804 0.00021805811898910644 0 0.036873601768009155 -0.00011147464376952153 0 0.035561958135171309 -1.6264985062883377e-05 0 0.034909107621999634 0.0001303544542437411 0 0.034695029275501048 3.5383588940952064e-07 0 0.036189121233058716 0.00018540094080970538 0 0.037134275049740414 3.205867528341561e-07 0 0.034695029275501048 3.5383588940952064e-07 0 0.036189121233058716 0.00018540094080970538 0 0.036585635493002804 0.00021805811898910644 0 0.034909107621999634 0.0001303544542437411 0 0.036189121233058716 0.00018540094080970538 0 0.042258783123617166 -0.00083394202777746246 0 0.042935719376354951 -0.0012599460384110459 0 0.043692261071913596 -0.00095087429654446714 0 0.043812026395319704 -0.0012505804750818595 0 0.04379038891178489 -0.0012427987713912755 0 0.040906703605776543 -0.00076393213793307169 0 0.041868085656796242 -0.00027858610990498246 0 0.042101592153682345 -0.0013278603543322675 0 0.040906703605776543 -0.00076393213793307169 0 0.041868085656796242 -0.00027858610990498246 0 0.040509505792889346 0.00039746972529393224 0 0.041868085656796242 -0.00027858610990498246 0 0.042889405180133761 -0.00045057335167981907 0 0.04271194758165154 -0.0010300362667307892 0 0.041868085656796242 -0.00027858610990498246 0 0.042889405180133761 -0.00045057335167981907 0 0.042485646482183323 0.00058901730010292802 0 0.041824743471149887 -0.0015389515826134095 0 0.042023550845660521 -0.0016407360018596306 0 0.042041628718606103 -0.0015217392105183005 0 0.041824743471149887 -0.0015389515826134095 0 0.041984961510922368 -0.0014002903151677604 0 0.042041628718606103 -0.0015217392105183005 0 0.042023550845660521 -0.0016407360018596306 0 0.041932352617502271 -0.001860506412773923 0 0.04207493801473048 -0.0018407916680270057 0 0.042889405180133761 -0.00045057335167981907 0 0.04271194758165154 -0.0010300362667307892 0 0.043272993896238218 -0.0013011148667406327 0 0.042362991202152561 -0.00099243527410695573 0 0.042579875353678631 -0.0016398906706097355 0 0.041824743471149887 -0.0015389515826134095 0 0.042023550845660521 -0.0016407360018596306 0 0.041932352617502271 -0.001860506412773923 0 0.041868085656796242 -0.00027858610990498246 0 0.04271194758165154 -0.0010300362667307892 0 0.042101592153682345 -0.0013278603543322675 0 0.043358913267973698 -0.001428897464728771 0 0.043727697362232698 -0.0012856362341186706 0 0.043812026395319704 -0.0012505804750818595 0 0.04271194758165154 -0.0010300362667307892 0 0.043358913267973698 -0.001428897464728771 0 0.042101592153682345 -0.0013278603543322675 0 0.043279034448132872 -0.0014019381840740363 0 0.042935719376354951 -0.0012599460384110459 0 0.043272993896238218 -0.0013011148667406327 0 0.043358913267973698 -0.001428897464728771 0 0.043366903444260224 -0.0013314498733264324 0 0.042579875353678631 -0.0016398906706097355 0 0.042917729674665166 -0.0013629497720069321 0 0.04271194758165154 -0.0010300362667307892 0 0.043272993896238218 -0.0013011148667406327 0 0.043358913267973698 -0.001428897464728771 0 0.041932352617502271 -0.001860506412773923 0 0.042010655531753302 -0.0020896368107115341 0 0.04207493801473048 -0.0018407916680270057 0 0.043358913267973698 -0.001428897464728771 0 0.043497744328376949 -0.0012824777528414938 0 0.043366903444260224 -0.0013314498733264324 0 0.043497744328376949 -0.0012824777528414938 0 0.043366903444260224 -0.0013314498733264324 0 0.043562935223293596 -0.0011501855531048572 0 0.042917729674665166 -0.0013629497720069321 0 0.042978422711346081 -0.0011055095802546325 0 0.043367379919644046 -0.00096776301458610008 0 0.043193365424494902 -0.00091825071666116814 0 0.043392208462380476 -0.00080640295405111568 0 0.043727697362232698 -0.0012856362341186706 0 0.043693246808334724 -0.0011863149784833613 0 0.043913878382807935 -0.0012366331007677615 0 0.043358913267973698 -0.001428897464728771 0 0.043497744328376949 -0.0012824777528414938 0 0.043727697362232698 -0.0012856362341186706 0 0.043497744328376949 -0.0012824777528414938 0 0.043727697362232698 -0.0012856362341186706 0 0.043693246808334724 -0.0011863149784833613 0 0.043497744328376949 -0.0012824777528414938 0 0.043693246808334724 -0.0011863149784833613 0 0.043562935223293596 -0.0011501855531048572 0 0.043727697362232698 -0.0012856362341186706 0 0.043913878382807935 -0.0012366331007677615 0 0.04379038891178489 -0.0012427987713912755 0 0.043727697362232698 -0.0012856362341186706 0 0.043812026395319704 -0.0012505804750818595 0 0.04379038891178489 -0.0012427987713912755 0 0.043692261071913596 -0.00095087429654446714 0 0.04379038891178489 -0.0012427987713912755 0 0.043560975205515266 -0.0012060091281438901 0 0.043913878382807935 -0.0012366331007677615 0 0.04379038891178489 -0.0012427987713912755 0 0.043656173008463001 -0.0013983178230859972 0 0.04379038891178489 -0.0012427987713912755 0 0.043560975205515266 -0.0012060091281438901 0 0.043656173008463001 -0.0013983178230859972 0 0.043490780360687022 -0.0013252509869665708 0 0.043560975205515266 -0.0012060091281438901 0 0.043656173008463001 -0.0013983178230859972 0 0.043490780360687022 -0.0013252509869665708 0 0.043318337069198729 -0.0012606943460239969 0 0.043560975205515266 -0.0012060091281438901 0 0.043490780360687022 -0.0013252509869665708 0 0.043318337069198729 -0.0012606943460239969 0 0.043421590167645692 -0.0014675437145474787 0 0.043318337069198729 -0.0012606943460239969 0 0.043560975205515266 -0.0012060091281438901 0 0.043328917979204171 -0.00097522447440142159 0 0.043029792332075517 -0.0014578356378619826 0 0.042913778911189304 -0.0011164902877050188 0 0.043328917979204171 -0.00097522447440142159 0 0.043020813568925398 -0.0014898921524315217 0 0.043383052422388352 -0.00091784457875238739 0 0.04271796917690588 -0.0015767549921455993 0 0.042663465391861423 -0.001754694243580557 0 0.042390331616850976 -0.0015591895721698086 0 0.04271796917690588 -0.0015767549921455993 0 0.042687319326862379 -0.0012948361233771546 0 0.042390331616850976 -0.0015591895721698086 0 0.043020813568925398 -0.0014898921524315217 0 0.043879282637763514 -0.0012003877952427662 0 0.043029792332075517 -0.0014578356378619826 0 0.04271796917690588 -0.0015767549921455993 0 0.042687319326862379 -0.0012948361233771546 0 0.043029792332075517 -0.0014578356378619826 0 0.04271796917690588 -0.0015767549921455993 0 0.042822027703627946 -0.0018671189289229822 0 0.043029792332075517 -0.0014578356378619826 0 0.042687319326862379 -0.0012948361233771546 0 0.042913778911189304 -0.0011164902877050188 0 0.042687319326862379 -0.0012948361233771546 0 0.042390331616850976 -0.0015591895721698086 0 0.042428102065413517 -0.0011047954127398369 0 0.042659049404585689 -0.00089957966804333914 0 0.042459851786156383 -0.00058805618875367035 0 0.042428102065413517 -0.0011047954127398369 0 0.042687319326862379 -0.0012948361233771546 0 0.042659049404585689 -0.00089957966804333914 0 0.042428102065413517 -0.0011047954127398369 0 0.042659049404585689 -0.00089957966804333914 0 0.042913778911189304 -0.0011164902877050188 0 0.042985140336382087 -0.00072828792352889354 0 0.042687319326862379 -0.0012948361233771546 0 0.042659049404585689 -0.00089957966804333914 0 0.042913778911189304 -0.0011164902877050188 0 0.042659049404585689 -0.00089957966804333914 0 0.042985140336382087 -0.00072828792352889354 0 0.042691883113561778 -0.00058996167449457278 0 0.042659049404585689 -0.00089957966804333914 0 0.042691883113561778 -0.00058996167449457278 0 0.042459851786156383 -0.00058805618875367035 0 0.038842295622637198 0.00066541375962465117 0 0.038185310648619193 0.00094152707625827481 0 0.038842295622637198 0.00066541375962465117 0 0.041502682569289497 -0.00062203284677977294 0 0.03658196983327322 0.0019235245693998097 0 0.036600318876398238 0.0019893417617472477 0 0.036447902321515915 0.0018373292136760915 0 0.043692261071913596 -0.00095087429654446714 0 0.043560975205515266 -0.0012060091281438901 0 0.043328917979204171 -0.00097522447440142159 0 0.042913778911189304 -0.0011164902877050188 0 0.042985140336382087 -0.00072828792352889354 0 0.043328917979204171 -0.00097522447440142159 0 0.042985140336382087 -0.00072828792352889354 0 0.043328917979204171 -0.00097522447440142159 0 0.043365338600587812 -0.00060403697891746257 0 0.042258783123617166 -0.00083394202777746246 0 0.041760078496187625 -0.00038540279546097966 0 0.043692261071913596 -0.00095087429654446714 0 0.043328917979204171 -0.00097522447440142159 0 0.043365338600587812 -0.00060403697891746257 0 0.040906703605776543 -0.00076393213793307169 0 0.039837364923693538 -9.3276922458578333e-05 0 0.040509505792889346 0.00039746972529393224 0 0.039837364923693538 -9.3276922458578333e-05 0 0.039521368904963571 0.00084793102602926155 0 0.040509505792889346 0.00039746972529393224 0 0.041760078496187625 -0.00038540279546097966 0 0.040017653448801108 0.00010310227995464645 0 0.039837364923693538 -9.3276922458578333e-05 0 0.039521368904963571 0.00084793102602926155 0 0.038906213164520427 0.00057024361422473597 0 0.042985140336382087 -0.00072828792352889354 0 0.043365338600587812 -0.00060403697891746257 0 0.04291656775617856 -0.0002721461588088604 0 0.039037338216921902 0.00061320805580335929 0 0.038054006044658979 0.00017536408408585182 0 0.038118163364076411 0.0012915730024996609 0 0.039037338216921902 0.00061320805580335929 0 0.040067703221911569 0.0011010083274803815 0 0.038927260745790414 0.0020939902597447656 0 0.03911547898768071 0.00063149979745394846 0 0.040017653448801108 0.00010310227995464645 0 0.03911547898768071 0.00063149979745394846 0 0.040017901576540928 0.0010671434725842335 0 0.039521368904963571 0.00084793102602926155 0 0.040067703221911569 0.0011010083274803815 0 0.040509505792889346 0.00039746972529393224 0 0.032980830380209859 0.00066201808336137282 0 0.035522172201664072 0.00024716489827220826 0 0.03145769108471163 0.00040782679399295474 0 0.031273517661043963 -0.00023692100766670938 0 0.030716935698605282 0.00072054384496201109 0 0.038842295622637198 0.00066541375962465117 0 0.035522172201664072 0.00024716489827220826 0 0.042691883113561778 -0.00058996167449457278 0 0.042481714377859074 -0.00046349649085141668 0 0.042645633946282527 -0.00039057768819506113 0 0.035522172201664072 0.00024716489827220826 0 0.038057922768503699 9.304984284942118e-05 0 0.042691883113561778 -0.00058996167449457278 0 0.042459851786156383 -0.00058805618875367035 0 0.042481714377859074 -0.00046349649085141668 0 0.035121817381507429 0.00070266044577029429 0 0.035038078106422572 -5.1574544663892863e-05 0 0.035675214301721006 0.0002225076398468777 0 0.032980830380209859 0.00066201808336137282 0 0.038057922768503699 9.304984284942118e-05 0 0.042691883113561778 -0.00058996167449457278 0 0.042645633946282527 -0.00039057768819506113 0 0.04291656775617856 -0.0002721461588088604 0 0.042985140336382087 -0.00072828792352889354 0 0.042691883113561778 -0.00058996167449457278 0 0.04291656775617856 -0.0002721461588088604 0 0.038057922768503699 9.304984284942118e-05 0 0.040017653448801108 0.00010310227995464645 0 0.036014167551304384 -0.00074357736276767596 0 0.038380889732997213 0.00028027960158631291 0 0.035609848630001273 0.0022756543683375647 0 0.038054006044658979 0.00017536408408585182 0 0.038118163364076411 0.0012915730024996609 0 0.036986594171366703 0.00093366961900973088 0 0.040017653448801108 0.00010310227995464645 0 0.032911706406724653 0.0017020023168269481 0 0.031522149695465421 0.0014959435293259628 0 0.030403746163838521 0.0014934385091961504 0 0.029333539762962359 0.0030294315776193056 0 0.034769388972514886 0.00034561069850271784 0 0.036014167551304384 -0.00074357736276767596 0 0.035609848630001273 0.0022756543683375647 0 0.031001856014423741 0.0002885329361688706 0 0.031522149695465421 0.0014959435293259628 0 0.031081312014426238 0.00073711735999626752 0 0.032980830380209859 0.00066201808336137282 0 0.032911706406724653 0.0017020023168269481 0 0.031000740680576441 0.00028877025672945843 0 0.030403746163838521 0.0014934385091961504 0 0.031081312014426238 0.00073711735999626752 0 0.031522149695465421 0.0014959435293259628 0 0.030403746163838521 0.0014934385091961504 0 0.031081312014426238 0.00073711735999626752 0 0.032980830380209859 0.00066201808336137282 0 0.032661090540267605 0.00051903970748936267 0 0.028877567806041591 0.0029660282542838556 0 0.0283597175355201 0.0040806057019105108 0 0.027616246261856946 0.0038777867043170277 0 0.032911706406724653 0.0017020023168269481 0 0.033305382342734315 0.0033861943135445375 0 0.028877567806041591 0.0029660282542838556 0 0.0283597175355201 0.0040806057019105108 0 0.029235732308678219 0.0043932658441086531 0 0.032911706406724653 0.0017020023168269481 0 0.027981998163700939 0.0036712916183544034 0 0.038118163364076411 0.0012915730024996609 0 0.037419263705074431 0.0024171897893324966 0 0.038927260745790414 0.0020939902597447656 0 0.038118163364076411 0.0012915730024996609 0 0.036986594171366703 0.00093366961900973088 0 0.037419263705074431 0.0024171897893324966 0 0.03387602263178037 0.0051204474548835165 0 0.033305382342734315 0.0033861943135445375 0 0.028705366385599361 0.0053598532737580496 0 0.029557523466230012 0.0057528858299337382 0 0.029235732308678219 0.0043932658441086531 0 0.037813488133090704 0.0038908015178391975 0 0.037419263705074431 0.0024171897893324966 0 0.038697586085041376 0.0031535234038105628 0 0.028705366385599361 0.0053598532737580496 0 0.029235732308678219 0.0043932658441086531 0 0.028306482348310836 0.0047308999286211689 0 0.0283597175355201 0.0040806057019105108 0 0.029235732308678219 0.0043932658441086531 0 0.028306482348310836 0.0047308999286211689 0 0.028705366385599361 0.0053598532737580496 0 0.028306482348310836 0.0047308999286211689 0 0.027942720924616374 0.0054006298931015108 0 0.0283597175355201 0.0040806057019105108 0 0.028306482348310836 0.0047308999286211689 0 0.027858587708917783 0.0044721384574028158 0 0.040067703221911569 0.0011010083274803815 0 0.03995437251450925 0.0019962636444822508 0 0.038927260745790414 0.0020939902597447656 0 0.040067703221911569 0.0011010083274803815 0 0.03995437251450925 0.0019962636444822508 0 0.040743516319703917 0.0018395481673336889 0 0.039037338216921902 0.00061320805580335929 0 0.038118163364076411 0.0012915730024996609 0 0.038927260745790414 0.0020939902597447656 0 0.038927260745790414 0.0020939902597447656 0 0.038697586085041376 0.0031535234038105628 0 0.040040774876832122 0.0030265790494811728 0 0.037419263705074431 0.0024171897893324966 0 0.038927260745790414 0.0020939902597447656 0 0.038697586085041376 0.0031535234038105628 0 0.03995437251450925 0.0019962636444822508 0 0.038927260745790414 0.0020939902597447656 0 0.040040774876832122 0.0030265790494811728 0 0.03995437251450925 0.0019962636444822508 0 0.040040774876832122 0.0030265790494811728 0 0.040743516319703917 0.0018395481673336889 0 0.039839471039864786 0.0029053560947683178 0 0.040697579910165781 0.001885869604400054 0 0.040679444292070426 0.0026706585698365827 0 0.041336633421997983 0.002060812080451183 0 0.040743516319703917 0.0018395481673336889 0 0.039861763916352426 0.002574513202583683 0 0.040679444292070426 0.0026706585698365827 0 0.040743516319703917 0.0018395481673336889 0 0.041740033264107072 0.0027915470764580085 0 0.041336633421997983 0.002060812080451183 0 0.042098666455772697 0.0016578051443607922 0 0.040679444292070426 0.0026706585698365827 0 0.041740033264107072 0.0027915470764580085 0 0.041336633421997983 0.002060812080451183 0 0.041336633421997983 0.002060812080451183 0 0.04146627029164044 0.0013452313914304574 0 0.042098666455772697 0.0016578051443607922 0 0.041336633421997983 0.002060812080451183 0 0.040743516319703917 0.0018395481673336889 0 0.04146627029164044 0.0013452313914304574 0 0.040743516319703917 0.0018395481673336889 0 0.040815090605652922 0.0010880382878751386 0 0.04146627029164044 0.0013452313914304574 0 0.040815090605652922 0.0010880382878751386 0 0.041402551716269657 0.00067154123411395847 0 0.040509505792889346 0.00039746972529393224 0 0.040067703221911569 0.0011010083274803815 0 0.040815090605652922 0.0010880382878751386 0 0.040509505792889346 0.00039746972529393224 0 0.040067703221911569 0.0011010083274803815 0 0.040743516319703917 0.0018395481673336889 0 0.040815090605652922 0.0010880382878751386 0 0.040815090605652922 0.0010880382878751386 0 0.04146627029164044 0.0013452313914304574 0 0.041402551716269657 0.00067154123411395847 0 0.04146627029164044 0.0013452313914304574 0 0.041402551716269657 0.00067154123411395847 0 0.042485646482183323 0.00058901730010292802 0 0.041868085656796242 -0.00027858610990498246 0 0.041402551716269657 0.00067154123411395847 0 0.040509505792889346 0.00039746972529393224 0 0.041868085656796242 -0.00027858610990498246 0 0.041402551716269657 0.00067154123411395847 0 0.042485646482183323 0.00058901730010292802 0 0.041902861969869538 -0.0012753183160925383 0 0.041743148064451854 -0.0012683689881121197 0 0.041984961510922368 -0.0014002903151677604 0 0.041824743471149887 -0.0015389515826134095 0 0.041743148064451854 -0.0012683689881121197 0 0.041984961510922368 -0.0014002903151677604 0 0.042362991202152561 -0.00099243527410695573 0 0.042104879963305863 -0.00033249305183452593 0 0.042104879963305863 -0.00033249305183452593 0 0.041982369889648319 0.00019749390837607315 0 0.041743148064451854 -0.0012683689881121197 0 0.041795894856884494 -0.0011483877005983357 0 0.041678433215444066 -0.0011182800905458765 0 0.04146627029164044 0.0013452313914304574 0 0.042485646482183323 0.00058901730010292802 0 0.042098666455772697 0.0016578051443607922 0 0.041902861969869538 -0.0012753183160925383 0 0.041743148064451854 -0.0012683689881121197 0 0.041857293574062281 -0.0011924498989607242 0 0.041743148064451854 -0.0012683689881121197 0 0.041857293574062281 -0.0011924498989607242 0 0.041795894856884494 -0.0011483877005983357 0 0.041902861969869538 -0.0012753183160925383 0 0.041857293574062281 -0.0011924498989607242 0 0.041911727829080349 -0.0012514039737128032 0 0.040874472847733524 -0.0010758308126042088 0 0.041159393637746587 -0.001081046539553753 0 0.041857293574062281 -0.0011924498989607242 0 0.041795894856884494 -0.0011483877005983357 0 0.041879106494438031 -0.0012102691495292593 0 0.041795894856884494 -0.0011483877005983357 0 0.041787628971939911 -0.001014208487905049 0 0.041879106494438031 -0.0012102691495292593 0 0.039877132094080787 -0.00077308904337329771 0 0.040314722206847668 -0.00066499031480039947 0 0.040513511129740769 -0.0010586339690446085 0 0.041795894856884494 -0.0011483877005983357 0 0.041678433215444066 -0.0011182800905458765 0 0.041787628971939911 -0.001014208487905049 0 0.040879527446758816 0.0012172336538243465 0 0.040874472847733524 -0.0010758308126042088 0 0.03999025443247152 -0.00041694322748738892 0 0.039346837349090523 -0.00045109326794675226 0 0.039877132094080787 -0.00077308904337329771 0 0.04158880482873626 -0.00084974999474199528 0 0.041678433215444066 -0.0011182800905458765 0 0.041787628971939911 -0.001014208487905049 0 0.040879527446758816 0.0012172336538243465 0 0.041982369889648319 0.00019749390837607315 0 0.040481032876531986 -0.00034975798325113331 0 0.03999025443247152 -0.00041694322748738892 0 0.040314722206847668 -0.00066499031480039947 0 0.03999025443247152 -0.00041694322748738892 0 0.039877132094080787 -0.00077308904337329771 0 0.040314722206847668 -0.00066499031480039947 0 0.040481032876531986 -0.00034975798325113331 0 0.040751309796994213 -0.00068674229199417955 0 0.040933515963754628 -0.00047630275705332179 0 0.040481032876531986 -0.00034975798325113331 0 0.040751309796994213 -0.00068674229199417955 0 0.040314722206847668 -0.00066499031480039947 0 0.041159393637746587 -0.001081046539553753 0 0.041386599233263245 -0.0011660347758749798 0 0.040513511129740769 -0.0010586339690446085 0 0.041079562053209742 -0.00094607567505845867 0 0.041438094224653867 -0.0011651464018411692 0 0.040751309796994213 -0.00068674229199417955 0 0.040314722206847668 -0.00066499031480039947 0 0.040513511129740769 -0.0010586339690446085 0 0.040751309796994213 -0.00068674229199417955 0 0.040513511129740769 -0.0010586339690446085 0 0.041079562053209742 -0.00094607567505845867 0 0.041079562053209742 -0.00094607567505845867 0 0.04140336112401876 -0.00097507757034489856 0 0.041438094224653867 -0.0011651464018411692 0 0.040751309796994213 -0.00068674229199417955 0 0.041079562053209742 -0.00094607567505845867 0 0.041075929007356175 -0.00074887874660774993 0 0.041079562053209742 -0.00094607567505845867 0 0.041075929007356175 -0.00074887874660774993 0 0.04140336112401876 -0.00097507757034489856 0 0.041075929007356175 -0.00074887874660774993 0 0.040933515963754628 -0.00047630275705332179 0 0.041235219299861306 -0.00060201683955759459 0 0.040751309796994213 -0.00068674229199417955 0 0.041075929007356175 -0.00074887874660774993 0 0.040933515963754628 -0.00047630275705332179 0 0.041175653523712913 -0.00030695030230967226 0 0.040933515963754628 -0.00047630275705332179 0 0.041235219299861306 -0.00060201683955759459 0 0.041175653523712913 -0.00030695030230967226 0 0.041235219299861306 -0.00060201683955759459 0 0.041446070614199103 -0.00053372841712048423 0 0.041235219299861306 -0.00060201683955759459 0 0.041446070614199103 -0.00053372841712048423 0 0.041464207667843887 -0.00078621840684589084 0 0.041446070614199103 -0.00053372841712048423 0 0.041645462756477208 -0.0007519218809097204 0 0.041667654605596106 -0.00047911233188820156 0 0.041446070614199103 -0.00053372841712048423 0 0.041645462756477208 -0.0007519218809097204 0 0.041464207667843887 -0.00078621840684589084 0 0.041645462756477208 -0.0007519218809097204 0 0.041589081734748901 -0.00093596675306215288 0 0.041464207667843887 -0.00078621840684589084 0 0.041645462756477208 -0.0007519218809097204 0 0.041589081734748901 -0.00093596675306215288 0 0.041722833622167631 -0.00094613650759721641 0 0.041235219299861306 -0.00060201683955759459 0 0.041464207667843887 -0.00078621840684589084 0 0.04140336112401876 -0.00097507757034489856 0 0.041075929007356175 -0.00074887874660774993 0 0.041235219299861306 -0.00060201683955759459 0 0.04140336112401876 -0.00097507757034489856 0 0.041589081734748901 -0.00093596675306215288 0 0.041464207667843887 -0.00078621840684589084 0 0.04140336112401876 -0.00097507757034489856 0 0.04140336112401876 -0.00097507757034489856 0 0.041596641144594562 -0.0010387655431950693 0 0.041605925909378533 -0.0011108380093290432 0 0.041589081734748901 -0.00093596675306215288 0 0.04140336112401876 -0.00097507757034489856 0 0.041596641144594562 -0.0010387655431950693 0 0.041596641144594562 -0.0010387655431950693 0 0.041605925909378533 -0.0011108380093290432 0 0.04170080572360392 -0.0010947109671260692 0 0.041722833622167631 -0.00094613650759721641 0 0.041704232431144801 -0.0010364338511258981 0 0.041813456963160321 -0.0010559058735655732 0 0.041589081734748901 -0.00093596675306215288 0 0.041722833622167631 -0.00094613650759721641 0 0.041704232431144801 -0.0010364338511258981 0 0.041589081734748901 -0.00093596675306215288 0 0.041596641144594562 -0.0010387655431950693 0 0.041704232431144801 -0.0010364338511258981 0 0.041596641144594562 -0.0010387655431950693 0 0.041704232431144801 -0.0010364338511258981 0 0.04170080572360392 -0.0010947109671260692 0 0.041704232431144801 -0.0010364338511258981 0 0.041781260527402914 -0.0010924840058552849 0 0.04170080572360392 -0.0010947109671260692 0 0.041704232431144801 -0.0010364338511258981 0 0.041781260527402914 -0.0010924840058552849 0 0.041813456963160321 -0.0010559058735655732 0 0.041781260527402914 -0.0010924840058552849 0 0.041813456963160321 -0.0010559058735655732 0 0.04186779894367245 -0.0011182063221049081 0 0.041781260527402914 -0.0010924840058552849 0 0.041820437301764934 -0.0011184754767595638 0 0.04170080572360392 -0.0010947109671260692 0 0.041781260527402914 -0.0010924840058552849 0 0.041820437301764934 -0.0011184754767595638 0 0.04186779894367245 -0.0011182063221049081 0 0.041605925909378533 -0.0011108380093290432 0 0.04174155154313984 -0.0011072036192186041 0 0.041654117027352368 -0.0010884682048590993 0 0.041605925909378533 -0.0011108380093290432 0 0.04170080572360392 -0.0010947109671260692 0 0.04174155154313984 -0.0011072036192186041 0 0.041820437301764934 -0.0011184754767595638 0 0.04170080572360392 -0.0010947109671260692 0 0.04174155154313984 -0.0011072036192186041 0 0.04174155154313984 -0.0011072036192186041 0 0.041654117027352368 -0.0010884682048590993 0 0.041775065416802232 -0.001087310734943069 0 0.041654117027352368 -0.0010884682048590993 0 0.041672738131826523 -0.0010848675262690971 0 0.04171409712808101 -0.0010731929528600855 0 0.041654117027352368 -0.0010884682048590993 0 0.04171409712808101 -0.0010731929528600855 0 0.041775065416802232 -0.001087310734943069 0 0.041672738131826523 -0.0010848675262690971 0 0.04171409712808101 -0.0010731929528600855 0 0.041729248191683048 -0.0010595108921197408 0 0.04171409712808101 -0.0010731929528600855 0 0.041729248191683048 -0.0010595108921197408 0 0.041775065416802232 -0.001087310734943069 0 0.04197347848507698 -0.0012621952945705856 0 0.041813702916101723 -0.0011684433639210549 0 0.042186631566104735 -0.0014300298666828314 0 0.041911727829080349 -0.0012514039737128032 0 0.041788412660968839 -0.0011481559005520994 0 0.041672738131826523 -0.0010848675262690971 0 0.041729248191683048 -0.0010595108921197408 0 0.041788412660968839 -0.0011481559005520994 0 0.041902861969869538 -0.0012753183160925383 0 0.041984961510922368 -0.0014002903151677604 0 0.041986818472293373 -0.0013290641511000921 0 0.042186631566104735 -0.0014300298666828314 0 0.041984961510922368 -0.0014002903151677604 0 0.041986818472293373 -0.0013290641511000921 0 0.042186631566104735 -0.0014300298666828314 0 0.041986818472293373 -0.0013290641511000921 0 0.041911727829080349 -0.0012514039737128032 0 0.041902861969869538 -0.0012753183160925383 0 0.041986818472293373 -0.0013290641511000921 0 0.041911727829080349 -0.0012514039737128032 0 0.041879106494438031 -0.0012102691495292593 0 0.041788412660968839 -0.0011481559005520994 0 0.041438094224653867 -0.0011651464018411692 0 0.041857293574062281 -0.0011924498989607242 0 0.041911727829080349 -0.0012514039737128032 0 0.041788412660968839 -0.0011481559005520994 0 0.041857293574062281 -0.0011924498989607242 0 0.041879106494438031 -0.0012102691495292593 0 0.041788412660968839 -0.0011481559005520994 0 0.04140336112401876 -0.00097507757034489856 0 0.041605925909378533 -0.0011108380093290432 0 0.041438094224653867 -0.0011651464018411692 0 0.041605925909378533 -0.0011108380093290432 0 0.041654117027352368 -0.0010884682048590993 0 0.041438094224653867 -0.0011651464018411692 0 0.041654117027352368 -0.0010884682048590993 0 0.041672738131826523 -0.0010848675262690971 0 0.041438094224653867 -0.0011651464018411692 0 0.041672738131826523 -0.0010848675262690971 0 0.041788412660968839 -0.0011481559005520994 0 0.041438094224653867 -0.0011651464018411692 0 0.03828062569460837 -0.0020071635167293123 0 0.040174499867859793 -0.0016184793188709242 0 0.03837579953665992 -0.0021129345629287443 0 0.038373213201811536 -0.0021606316073892714 0 0.038376301554531804 -0.0021607360401625377 0 0.03828062569460837 -0.0020071635167293123 0 0.038069008522044166 -0.0021760947388897848 0 0.037602669139383038 -0.0020328997471751138 0 0.037827595423478286 -0.0021202615234151424 0 0.037853566422403742 -0.0022046921810151359 0 0.037602669139383038 -0.0020328997471751138 0 0.0378415966942377 -0.0020438742550367341 0 0.037827595423478286 -0.0021202615234151424 0 0.041107532073655056 -0.00093492446632362843 0 0.041373792513641386 -0.00097043017964005911 0 0.041363018247509049 -0.0011909531107421464 0 0.041373792513641386 -0.00097043017964005911 0 0.041554348992294855 -0.0012231188705718727 0 0.041363018247509049 -0.0011909531107421464 0 0.042766467755415039 -0.00011498719316629886 0 0.041593048015781502 -0.0010684866370982303 0 0.041554348992294855 -0.0012231188705718727 0 0.041363018247509049 -0.0011909531107421464 0 0.041621848225910439 -0.0012984912409311031 0 0.042102932805476313 -0.00079114440126605123 0 0.041887994923339576 -0.00069885479533334492 0 0.04190192294741206 -0.00095084050509345642 0 0.041838477501907972 -0.00042719345694056376 0 0.042071918695857038 -0.00034527553650148601 0 0.041887994923339576 -0.00069885479533334492 0 0.042071918695857038 -0.00034527553650148601 0 0.042102932805476313 -0.00079114440126605123 0 0.041887994923339576 -0.00069885479533334492 0 0.041645462756477208 -0.0007519218809097204 0 0.041887994923339576 -0.00069885479533334492 0 0.041667654605596106 -0.00047911233188820156 0 0.041838477501907972 -0.00042719345694056376 0 0.041887994923339576 -0.00069885479533334492 0 0.041667654605596106 -0.00047911233188820156 0 0.041645462756477208 -0.0007519218809097204 0 0.041887994923339576 -0.00069885479533334492 0 0.04179747344451526 -0.00084136062488607971 0 0.041887994923339576 -0.00069885479533334492 0 0.04179747344451526 -0.00084136062488607971 0 0.04190192294741206 -0.00095084050509345642 0 0.041722833622167631 -0.00094613650759721641 0 0.04179747344451526 -0.00084136062488607971 0 0.04190192294741206 -0.00095084050509345642 0 0.041645462756477208 -0.0007519218809097204 0 0.041722833622167631 -0.00094613650759721641 0 0.04179747344451526 -0.00084136062488607971 0 0.041722833622167631 -0.00094613650759721641 0 0.041813456963160321 -0.0010559058735655732 0 0.04190192294741206 -0.00095084050509345642 0 0.041813456963160321 -0.0010559058735655732 0 0.041911223729859941 -0.001102686002735069 0 0.04190192294741206 -0.00095084050509345642 0 0.041813456963160321 -0.0010559058735655732 0 0.04186779894367245 -0.0011182063221049081 0 0.041911223729859941 -0.001102686002735069 0 0.04186779894367245 -0.0011182063221049081 0 0.041911223729859941 -0.001102686002735069 0 0.041943346983367498 -0.001142173842724435 0 0.041911223729859941 -0.001102686002735069 0 0.042046906588241166 -0.0010863730568106687 0 0.041958752766485058 -0.0011646795885243808 0 0.041911223729859941 -0.001102686002735069 0 0.041958752766485058 -0.0011646795885243808 0 0.041943346983367498 -0.001142173842724435 0 0.041911223729859941 -0.001102686002735069 0 0.04190192294741206 -0.00095084050509345642 0 0.042046906588241166 -0.0010863730568106687 0 0.042102932805476313 -0.00079114440126605123 0 0.04190192294741206 -0.00095084050509345642 0 0.042046906588241166 -0.0010863730568106687 0 0.041593048015781502 -0.0010684866370982303 0 0.041844155457923589 -0.0011501602407683297 0 0.042046906588241166 -0.0010863730568106687 0 0.041874950041811569 -0.0012001709573006706 0 0.041958752766485058 -0.0011646795885243808 0 0.041844155457923589 -0.0011501602407683297 0 0.041862013025478775 -0.0011879179256232522 0 0.041621848225910439 -0.0012984912409311031 0 0.041685484369118272 -0.0012985649388127453 0 0.041874950041811569 -0.0012001709573006706 0 0.041554348992294855 -0.0012231188705718727 0 0.041621848225910439 -0.0012984912409311031 0 0.041685484369118272 -0.0012985649388127453 0 0.040174499867859793 -0.0016184793188709242 0 0.039990703751519814 -0.0017614635144998704 0 0.038373213201811536 -0.0021606316073892714 0 0.038376301554531804 -0.0021607360401625377 0 0.038353829541873823 -0.0021796487980545293 0 0.041752963458090979 -0.0011767175138467415 0 0.041874950041811569 -0.0012001709573006706 0 0.041857879408131189 -0.0010995078113974312 0 0.041752963458090979 -0.0011767175138467415 0 0.041685484369118272 -0.0012985649388127453 0 0.041874950041811569 -0.0012001709573006706 0 0.040057688172956268 -0.0016211408952584035 0 0.039990703751519814 -0.0017614635144998704 0 0.041874950041811569 -0.0012001709573006706 0 0.041973031555360814 -0.0011369487497681267 0 0.041958752766485058 -0.0011646795885243808 0 0.041874950041811569 -0.0012001709573006706 0 0.041973031555360814 -0.0011369487497681267 0 0.041857879408131189 -0.0010995078113974312 0 0.041973031555360814 -0.0011369487497681267 0 0.041989168378838419 -0.0011419749137309041 0 0.042066633862576794 -0.0010893402811744115 0 0.041973031555360814 -0.0011369487497681267 0 0.041958752766485058 -0.0011646795885243808 0 0.041989168378838419 -0.0011419749137309041 0 0.041958752766485058 -0.0011646795885243808 0 0.041989168378838419 -0.0011419749137309041 0 0.041943346983367498 -0.001142173842724435 0 0.041989168378838419 -0.0011419749137309041 0 0.041943346983367498 -0.001142173842724435 0 0.041989955471077506 -0.001129503713777454 0 0.04186779894367245 -0.0011182063221049081 0 0.041943346983367498 -0.001142173842724435 0 0.041926308833642255 -0.0011340171875648727 0 0.041943346983367498 -0.001142173842724435 0 0.041989955471077506 -0.001129503713777454 0 0.041926308833642255 -0.0011340171875648727 0 0.041989955471077506 -0.001129503713777454 0 0.042066633862576794 -0.0010893402811744115 0 0.042038430627677897 -0.001102272109534822 0 0.041989955471077506 -0.001129503713777454 0 0.041926308833642255 -0.0011340171875648727 0 0.042038430627677897 -0.001102272109534822 0 0.041989168378838419 -0.0011419749137309041 0 0.041989955471077506 -0.001129503713777454 0 0.042066633862576794 -0.0010893402811744115 0 0.042121954621841394 -0.0010271026935997701 0 0.042066633862576794 -0.0010893402811744115 0 0.042038430627677897 -0.001102272109534822 0 0.042121954621841394 -0.0010271026935997701 0 0.042266983182574346 -0.00094621899058355743 0 0.042066633862576794 -0.0010893402811744115 0 0.042266983182574346 -0.00094621899058355743 0 0.042147034179369325 -0.00096648479099112328 0 0.042148299795880091 -0.00093946093329703637 0 0.042121954621841394 -0.0010271026935997701 0 0.042266983182574346 -0.00094621899058355743 0 0.042147034179369325 -0.00096648479099112328 0 0.042266983182574346 -0.00094621899058355743 0 0.042033106318989294 -0.0010555351812446066 0 0.042170933549106476 -0.00093030212161120118 0 0.042266983182574346 -0.00094621899058355743 0 0.042170933549106476 -0.00093030212161120118 0 0.042523227114546223 -0.00087863038797598373 0 0.042266983182574346 -0.00094621899058355743 0 0.042066633862576794 -0.0010893402811744115 0 0.042033106318989294 -0.0010555351812446066 0 0.041973031555360814 -0.0011369487497681267 0 0.042066633862576794 -0.0010893402811744115 0 0.042033106318989294 -0.0010555351812446066 0 0.042033106318989294 -0.0010555351812446066 0 0.041847825178260807 -0.00092460558944403861 0 0.041857879408131189 -0.0010995078113974312 0 0.041973031555360814 -0.0011369487497681267 0 0.042033106318989294 -0.0010555351812446066 0 0.041857879408131189 -0.0010995078113974312 0 0.042033106318989294 -0.0010555351812446066 0 0.042170933549106476 -0.00093030212161120118 0 0.041847825178260807 -0.00092460558944403861 0 0.041752963458090979 -0.0011767175138467415 0 0.041725849017408397 -0.0010291512254442458 0 0.041857879408131189 -0.0010995078113974312 0 0.041725849017408397 -0.0010291512254442458 0 0.041847825178260807 -0.00092460558944403861 0 0.041857879408131189 -0.0010995078113974312 0 0.042030489991371982 -0.0011354701680111197 0 0.04202875390187804 -0.0011565867883830631 0 0.041897996273226053 -0.0011157039401954749 0 0.042030489991371982 -0.0011354701680111197 0 0.041897996273226053 -0.0011157039401954749 0 0.041952031445262432 -0.0011280852301940216 0 0.042030489991371982 -0.0011354701680111197 0 0.04202875390187804 -0.0011565867883830631 0 0.04216136547962316 -0.0011289105771630321 0 0.042301053621748665 -0.0014653808449053396 0 0.042411721218726564 -0.0017153406444884675 0 0.042023550845660521 -0.0016407360018596306 0 0.04223956299612066 -0.0014906791996997964 0 0.04207493801473048 -0.0018407916680270057 0 0.042614354500544363 -0.0016261482910743298 0 0.04223956299612066 -0.0014906791996997964 0 0.042820661987477235 -0.0015852305728380719 0 0.04197347848507698 -0.0012621952945705856 0 0.042313732112296457 -0.0013651034375074126 0 0.042186631566104735 -0.0014300298666828314 0 0.042614354500544363 -0.0016261482910743298 0 0.04223956299612066 -0.0014906791996997964 0 0.042023550845660521 -0.0016407360018596306 0 0.042041628718606103 -0.0015217392105183005 0 0.04223956299612066 -0.0014906791996997964 0 0.041984961510922368 -0.0014002903151677604 0 0.042041628718606103 -0.0015217392105183005 0 0.04223956299612066 -0.0014906791996997964 0 0.042186631566104735 -0.0014300298666828314 0 0.041984961510922368 -0.0014002903151677604 0 0.04223956299612066 -0.0014906791996997964 0 0.041729248191683048 -0.0010595108921197408 0 0.04202875390187804 -0.0011565867883830631 0 0.041897996273226053 -0.0011157039401954749 0 0.041729248191683048 -0.0010595108921197408 0 0.041897996273226053 -0.0011157039401954749 0 0.041775065416802232 -0.001087310734943069 0 0.041897996273226053 -0.0011157039401954749 0 0.041775065416802232 -0.001087310734943069 0 0.04183821953340338 -0.0011107505998620222 0 0.04174155154313984 -0.0011072036192186041 0 0.041775065416802232 -0.001087310734943069 0 0.04183821953340338 -0.0011107505998620222 0 0.04174155154313984 -0.0011072036192186041 0 0.04183821953340338 -0.0011107505998620222 0 0.041886988258409287 -0.001124998976320495 0 0.041820437301764934 -0.0011184754767595638 0 0.04174155154313984 -0.0011072036192186041 0 0.041886988258409287 -0.001124998976320495 0 0.041886988258409287 -0.001124998976320495 0 0.041977100488841547 -0.0011238501168546575 0 0.041952031445262432 -0.0011280852301940216 0 0.041897996273226053 -0.0011157039401954749 0 0.04183821953340338 -0.0011107505998620222 0 0.041952031445262432 -0.0011280852301940216 0 0.04183821953340338 -0.0011107505998620222 0 0.041886988258409287 -0.001124998976320495 0 0.041952031445262432 -0.0011280852301940216 0 0.041820437301764934 -0.0011184754767595638 0 0.04186779894367245 -0.0011182063221049081 0 0.041926308833642255 -0.0011340171875648727 0 0.041820437301764934 -0.0011184754767595638 0 0.041886988258409287 -0.001124998976320495 0 0.041926308833642255 -0.0011340171875648727 0 0.041886988258409287 -0.001124998976320495 0 0.041926308833642255 -0.0011340171875648727 0 0.041977100488841547 -0.0011238501168546575 0 0.041977100488841547 -0.0011238501168546575 0 0.042038430627677897 -0.001102272109534822 0 0.042054591298844923 -0.0011169017530788467 0 0.041926308833642255 -0.0011340171875648727 0 0.041977100488841547 -0.0011238501168546575 0 0.042038430627677897 -0.001102272109534822 0 0.041977100488841547 -0.0011238501168546575 0 0.041952031445262432 -0.0011280852301940216 0 0.042054591298844923 -0.0011169017530788467 0 0.042030489991371982 -0.0011354701680111197 0 0.041952031445262432 -0.0011280852301940216 0 0.042054591298844923 -0.0011169017530788467 0 0.042054591298844923 -0.0011169017530788467 0 0.042134319938644908 -0.0010795482225837393 0 0.04216136547962316 -0.0011289105771630321 0 0.042030489991371982 -0.0011354701680111197 0 0.042054591298844923 -0.0011169017530788467 0 0.04216136547962316 -0.0011289105771630321 0 0.042054591298844923 -0.0011169017530788467 0 0.042134319938644908 -0.0010795482225837393 0 0.042101323454243125 -0.0010540060136180411 0 0.042134319938644908 -0.0010795482225837393 0 0.042101323454243125 -0.0010540060136180411 0 0.042145246710467911 -0.0010030150380996711 0 0.042134319938644908 -0.0010795482225837393 0 0.042254812427690379 -0.001048854908001365 0 0.04216136547962316 -0.0011289105771630321 0 0.042038430627677897 -0.001102272109534822 0 0.042054591298844923 -0.0011169017530788467 0 0.042101323454243125 -0.0010540060136180411 0 0.042121954621841394 -0.0010271026935997701 0 0.042038430627677897 -0.001102272109534822 0 0.042101323454243125 -0.0010540060136180411 0 0.042121954621841394 -0.0010271026935997701 0 0.042101323454243125 -0.0010540060136180411 0 0.042147034179369325 -0.00096648479099112328 0 0.042153296950802881 -0.0009240862992480922 0 0.042147034179369325 -0.00096648479099112328 0 0.042145246710467911 -0.0010030150380996711 0 0.042101323454243125 -0.0010540060136180411 0 0.042147034179369325 -0.00096648479099112328 0 0.042145246710467911 -0.0010030150380996711 0 0.042254812427690379 -0.001048854908001365 0 0.042145246710467911 -0.0010030150380996711 0 0.042269092334358174 -0.00071084091991034009 0 0.042153296950802881 -0.0009240862992480922 0 0.042145246710467911 -0.0010030150380996711 0 0.042269092334358174 -0.00071084091991034009 0 0.042134319938644908 -0.0010795482225837393 0 0.042254812427690379 -0.001048854908001365 0 0.042145246710467911 -0.0010030150380996711 0 0.042254812427690379 -0.001048854908001365 0 0.042528197959911779 -0.0010654277152672069 0 0.042269092334358174 -0.00071084091991034009 0 0.042254812427690379 -0.001048854908001365 0 0.042528197959911779 -0.0010654277152672069 0 0.04216136547962316 -0.0011289105771630321 0 0.042313732112296457 -0.0013651034375074126 0 0.042487474670242199 -0.0010628186260022213 0 0.04202875390187804 -0.0011565867883830631 0 0.042528197959911779 -0.0010654277152672069 0 0.04216136547962316 -0.0011289105771630321 0 0.042917729674665166 -0.0013629497720069321 0 0.042411721218726564 -0.0017153406444884675 0 0.042614354500544363 -0.0016261482910743298 0 0.042820661987477235 -0.0015852305728380719 0 0.042907669701638347 -0.0012364179348077137 0 0.043367379919644046 -0.00096776301458610008 0 0.042820661987477235 -0.0015852305728380719 0 0.042907669701638347 -0.0012364179348077137 0 0.042614354500544363 -0.0016261482910743298 0 0.042528197959911779 -0.0010654277152672069 0 0.042907669701638347 -0.0012364179348077137 0 0.042528197959911779 -0.0010654277152672069 0 0.043007877556292859 -0.00096081848585740433 0 0.043331196482135376 -0.00060963706582755717 0 0.042528197959911779 -0.0010654277152672069 0 0.042907669701638347 -0.0012364179348077137 0 0.043007877556292859 -0.00096081848585740433 0 0.042907669701638347 -0.0012364179348077137 0 0.043007877556292859 -0.00096081848585740433 0 0.043193365424494902 -0.00091825071666116814 0 0.043007877556292859 -0.00096081848585740433 0 0.043193365424494902 -0.00091825071666116814 0 0.043331196482135376 -0.00060963706582755717 0 0.043367379919644046 -0.00096776301458610008 0 0.042907669701638347 -0.0012364179348077137 0 0.043193365424494902 -0.00091825071666116814 0 0.043193365424494902 -0.00091825071666116814 0 0.043331196482135376 -0.00060963706582755717 0 0.043392208462380476 -0.00080640295405111568 0 0.043331196482135376 -0.00060963706582755717 0 0.043597408908056939 -0.00061123837764417782 0 0.043579008261340736 -0.00062901145155643359 0 0.043597408908056939 -0.00061123837764417782 0 0.043579008261340736 -0.00062901145155643359 0 0.043672553437272332 -0.00059448502190683297 0 0.043637591623804907 -0.00060589013124686102 0 0.043579008261340736 -0.00062901145155643359 0 0.043668114200886163 -0.0005994805387578324 0 0.043579008261340736 -0.00062901145155643359 0 0.0436803894963807 -0.0005611897595247567 0 0.043668114200886163 -0.0005994805387578324 0 0.043637591623804907 -0.00060589013124686102 0 0.043668114200886163 -0.0005994805387578324 0 0.043653113682306718 -0.00056974375824910234 0 0.043637591623804907 -0.00060589013124686102 0 0.043579008261340736 -0.00062901145155643359 0 0.043672553437272332 -0.00059448502190683297 0 0.043331196482135376 -0.00060963706582755717 0 0.043579008261340736 -0.00062901145155643359 0 0.0436803894963807 -0.0005611897595247567 0 0.042528197959911779 -0.0010654277152672069 0 0.043331196482135376 -0.00060963706582755717 0 0.042269092334358174 -0.00071084091991034009 0 0.043313464164044961 -0.0006112655116698965 0 0.042999770213428996 -0.00065343180378927407 0 0.042999770213428996 -0.00065343180378927407 0 0.042916224307435302 -0.00082191480509639285 0 0.042153296950802881 -0.0009240862992480922 0 0.042269092334358174 -0.00071084091991034009 0 0.042148299795880091 -0.00093946093329703637 0 0.0436803894963807 -0.0005611897595247567 0 0.043733435633344274 -0.00073602582537266265 0 0.043696928646837087 -0.00059271461715834856 0 0.042153296950802881 -0.0009240862992480922 0 0.042147034179369325 -0.00096648479099112328 0 0.042148299795880091 -0.00093946093329703637 0 0.043733435633344274 -0.00073602582537266265 0 0.043696928646837087 -0.00059271461715834856 0 0.043569569308902378 -0.00050207899084175217 0 0.044370686830124607 4.5292307383417709e-05 0 0.043569569308902378 -0.00050207899084175217 0 0.043655394640227163 0.00010687796364467847 0 0.04400001890574505 -0.00025483065333472714 0 0.043618956391204985 -0.00050000297962641519 0 0.043696928646837087 -0.00059271461715834856 0 0.043668195355373085 -0.00057008786853917921 0 0.043569569308902378 -0.00050207899084175217 0 0.0436803894963807 -0.0005611897595247567 0 0.043696928646837087 -0.00059271461715834856 0 0.043668114200886163 -0.0005994805387578324 0 0.043696928646837087 -0.00059271461715834856 0 0.043668114200886163 -0.0005994805387578324 0 0.043668195355373085 -0.00057008786853917921 0 0.043668114200886163 -0.0005994805387578324 0 0.043668195355373085 -0.00057008786853917921 0 0.043653113682306718 -0.00056974375824910234 0 0.04400001890574505 -0.00025483065333472714 0 0.044170944889483095 -0.00010672610250227593 0 0.043668195355373085 -0.00057008786853917921 0 0.043637290494116548 -0.00046343966405757895 0 0.043653113682306718 -0.00056974375824910234 0 0.044370686830124607 4.5292307383417709e-05 0 0.044037099288821463 0.0002464160342901816 0 0.043655394640227163 0.00010687796364467847 0 0.044037099288821463 0.0002464160342901816 0 0.044523692078369703 0.0002706916994766689 0 0.044013240838659554 0.00033531846536746541 0 0.044370686830124607 4.5292307383417709e-05 0 0.044037099288821463 0.0002464160342901816 0 0.044523692078369703 0.0002706916994766689 0 0.044529005605491605 0.00024904195306676822 0 0.044458324420581979 0.0002468609014778725 0 0.044370686830124607 4.5292307383417709e-05 0 0.044523692078369703 0.0002706916994766689 0 0.044686158776979269 0.00024051613241821471 0 0.044523692078369703 0.0002706916994766689 0 0.044686158776979269 0.00024051613241821471 0 0.044688571231182847 0.0002181446258555187 0 0.043637290494116548 -0.00046343966405757895 0 0.043751828085557581 -0.00051200599860075271 0 0.043892335830425795 -0.00020336100294875563 0 0.043637290494116548 -0.00046343966405757895 0 0.043751828085557581 -0.00051200599860075271 0 0.043653113682306718 -0.00056974375824910234 0 0.04394439948638227 -0.00043108252465061088 0 0.043751828085557581 -0.00051200599860075271 0 0.043783833106328704 -0.00056837688824750083 0 0.04394439948638227 -0.00043108252465061088 0 0.043751828085557581 -0.00051200599860075271 0 0.043892335830425795 -0.00020336100294875563 0 0.043597408908056939 -0.00061123837764417782 0 0.043783833106328704 -0.00056837688824750083 0 0.043672553437272332 -0.00059448502190683297 0 0.043751828085557581 -0.00051200599860075271 0 0.043783833106328704 -0.00056837688824750083 0 0.043672553437272332 -0.00059448502190683297 0 0.043637591623804907 -0.00060589013124686102 0 0.043672553437272332 -0.00059448502190683297 0 0.043653113682306718 -0.00056974375824910234 0 0.043751828085557581 -0.00051200599860075271 0 0.043672553437272332 -0.00059448502190683297 0 0.043653113682306718 -0.00056974375824910234 0 0.041274965999367419 -0.00064130152579356054 0 0.041847825178260807 -0.00092460558944403861 0 0.041736221486217029 -0.00031461058830148245 0 0.041847825178260807 -0.00092460558944403861 0 0.041736221486217029 -0.00031461058830148245 0 0.042189653434677676 -0.00060166692424026196 0 0.042170933549106476 -0.00093030212161120118 0 0.041847825178260807 -0.00092460558944403861 0 0.042189653434677676 -0.00060166692424026196 0 0.041736221486217029 -0.00031461058830148245 0 0.042189653434677676 -0.00060166692424026196 0 0.042327507127409458 0.00020032966281050577 0 0.042189653434677676 -0.00060166692424026196 0 0.042818124740412508 -0.0003254586523206055 0 0.042523227114546223 -0.00087863038797598373 0 0.042189653434677676 -0.00060166692424026196 0 0.042818124740412508 -0.0003254586523206055 0 0.042327507127409458 0.00020032966281050577 0 0.042170933549106476 -0.00093030212161120118 0 0.042189653434677676 -0.00060166692424026196 0 0.042523227114546223 -0.00087863038797598373 0 0.042266983182574346 -0.00094621899058355743 0 0.042148299795880091 -0.00093946093329703637 0 0.042523227114546223 -0.00087863038797598373 0 0.042916224307435302 -0.00082191480509639285 0 0.042540187650871267 -0.00087382616246710863 0 0.043733435633344274 -0.00073602582537266265 0 0.042523227114546223 -0.00087863038797598373 0 0.043569569308902378 -0.00050207899084175217 0 0.042818124740412508 -0.0003254586523206055 0 0.042523227114546223 -0.00087863038797598373 0 0.043569569308902378 -0.00050207899084175217 0 0.042818124740412508 -0.0003254586523206055 0 0.043569569308902378 -0.00050207899084175217 0 0.043655394640227163 0.00010687796364467847 0 0.044037099288821463 0.0002464160342901816 0 0.043655394640227163 0.00010687796364467847 0 0.043988082218316717 0.00028239212975530824 0 0.044037099288821463 0.0002464160342901816 0 0.043988082218316717 0.00028239212975530824 0 0.044013240838659554 0.00033531846536746541 0 0.043988082218316717 0.00028239212975530824 0 0.044129688417365656 0.00040741051477119917 0 0.04428113998034891 0.00026145906391363471 0 0.043665409753997089 0.00012700216016285978 0 0.043251732535173198 0.00027768413556387446 0 0.043655394640227163 0.00010687796364467847 0 0.043988082218316717 0.00028239212975530824 0 0.044129688417365656 0.00040741051477119917 0 0.042818124740412508 -0.0003254586523206055 0 0.043655394640227163 0.00010687796364467847 0 0.042327507127409458 0.00020032966281050577 0 0.043251732535173198 0.00027768413556387446 0 0.043126659311970829 0.00038541712238851462 0 0.044129688417365656 0.00040741051477119917 0 0.044474022364777099 0.00040878467306617341 0 0.04428113998034891 0.00026145906391363471 0 0.044474022364777099 0.00040878467306617341 0 0.044492483714390962 0.00023743016204290804 0 0.04428113998034891 0.00026145906391363471 0 0.044609781439708521 0.00024491554448730958 0 0.044474022364777099 0.00040878467306617341 0 0.044492483714390962 0.00023743016204290804 0 0.041736221486217029 -0.00031461058830148245 0 0.042327507127409458 0.00020032966281050577 0 0.041701247474842454 0.00023776601031203547 0 0.044703508843552987 8.7194880519577423e-05 0 0.044618241179385537 0.00015003572212689371 0 0.04473247660132755 6.2215921191179421e-05 0 0.044618241179385537 0.00015003572212689371 0 0.044449741761124567 0.00015112781626541613 0 0.04473247660132755 6.2215921191179421e-05 0 0.044618241179385537 0.00015003572212689371 0 0.044492483714390962 0.00023743016204290804 0 0.044449741761124567 0.00015112781626541613 0 0.044609781439708521 0.00024491554448730958 0 0.044618241179385537 0.00015003572212689371 0 0.044492483714390962 0.00023743016204290804 0 0.04428113998034891 0.00026145906391363471 0 0.044449741761124567 0.00015112781626541613 0 0.044116481398289324 0.00014728149477024005 0 0.044492483714390962 0.00023743016204290804 0 0.04428113998034891 0.00026145906391363471 0 0.044449741761124567 0.00015112781626541613 0 0.044449741761124567 0.00015112781626541613 0 0.044419588718054577 -2.8556356464136474e-06 0 0.04473247660132755 6.2215921191179421e-05 0 0.044449741761124567 0.00015112781626541613 0 0.044116481398289324 0.00014728149477024005 0 0.044419588718054577 -2.8556356464136474e-06 0 0.044549967391223522 0.00011958859911036397 0 0.044705495043148712 1.3091871836649944e-05 0 0.043988082218316717 0.00028239212975530824 0 0.04428113998034891 0.00026145906391363471 0 0.044116481398289324 0.00014728149477024005 0 0.043988082218316717 0.00028239212975530824 0 0.044116481398289324 0.00014728149477024005 0 0.044013240838659554 0.00033531846536746541 0 0.044549967391223522 0.00011958859911036397 0 0.044458324420581979 0.0002468609014778725 0 0.044984232983198036 8.1435678215241355e-05 0 0.044864690419413315 0.00018188537429131402 0 0.044936689699283064 3.1545972067660574e-05 0 0.044984232983198036 8.1435678215241355e-05 0 0.044986480129791423 1.7366450315933339e-05 0 0.044936689699283064 3.1545972067660574e-05 0 0.045000017345322718 -2.3257827804781273e-08 0 0.044986480129791423 1.7366450315933339e-05 0 0.044936689699283064 3.1545972067660574e-05 0 0.045000017345322718 -2.3257827804781273e-08 0 0.045003120552808112 2.1712868536726259e-07 0 0.044986480129791423 1.7366450315933339e-05 0 0.045000017345322718 -2.3257827804781273e-08 0 0.045003120552808112 2.1712868536726259e-07 0 0.044999916203607881 3.7687843275863013e-08 0 0.044984232983198036 8.1435678215241355e-05 0 0.044986480129791423 1.7366450315933339e-05 0 0.044995656504154817 -2.7921747213677684e-06 0 0.045003120552808112 2.1712868536726259e-07 0 0.044986480129791423 1.7366450315933339e-05 0 0.044995656504154817 -2.7921747213677684e-06 0 0.045003120552808112 2.1712868536726259e-07 0 0.044995656504154817 -2.7921747213677684e-06 0 0.044900324596359301 -3.3023267574261636e-05 0 0.044705495043148712 1.3091871836649944e-05 0 0.044861328221098666 -3.0183063737629397e-05 0 0.045003120552808112 2.1712868536726259e-07 0 0.044999916203607881 3.7687843275863013e-08 0 0.044900324596359301 -3.3023267574261636e-05 0 0.044999782793702009 -7.2441134586734048e-08 0 0.044999916203607881 3.7687843275863013e-08 0 0.044900324596359301 -3.3023267574261636e-05 0 0.04494244478482793 -5.9956802536412991e-06 0 0.044900324596359301 -3.3023267574261636e-05 0 0.04473247660132755 6.2215921191179421e-05 0 0.044419588718054577 -2.8556356464136474e-06 0 0.044900324596359301 -3.3023267574261636e-05 0 0.04473247660132755 6.2215921191179421e-05 0 0.044710925349891989 0.00018828027995886765 0 0.044803691852998373 0.00010796289041143143 0 0.044837428871046907 4.1062442371493035e-05 0 0.044710925349891989 0.00018828027995886765 0 0.044837428871046907 4.1062442371493035e-05 0 0.044565335183573862 3.1567714313426102e-05 0 0.044310904329430592 -2.1222139114315944e-05 0 0.044517804488865026 3.224967721572181e-05 0 0.04394439948638227 -0.00043108252465061088 0 0.043892335830425795 -0.00020336100294875563 0 0.044289131161593803 -0.0002353663959796746 0 0.044686158776979269 0.00024051613241821471 0 0.044710925349891989 0.00018828027995886765 0 0.044688571231182847 0.0002181446258555187 0 0.044170944889483095 -0.00010672610250227593 0 0.044310904329430592 -2.1222139114315944e-05 0 0.044710925349891989 0.00018828027995886765 0 0.044688571231182847 0.0002181446258555187 0 0.044803691852998373 0.00010796289041143143 0 0.044688571231182847 0.0002181446258555187 0 0.044864690419413315 0.00018188537429131402 0 0.044803691852998373 0.00010796289041143143 0 0.044523692078369703 0.0002706916994766689 0 0.044688571231182847 0.0002181446258555187 0 0.044864690419413315 0.00018188537429131402 0 0.044864690419413315 0.00018188537429131402 0 0.044803691852998373 0.00010796289041143143 0 0.044936689699283064 3.1545972067660574e-05 0 0.044803691852998373 0.00010796289041143143 0 0.044911442218176369 2.4067595656045584e-05 0 0.044837428871046907 4.1062442371493035e-05 0 0.044803691852998373 0.00010796289041143143 0 0.044911442218176369 2.4067595656045584e-05 0 0.044936689699283064 3.1545972067660574e-05 0 0.045000017345322718 -2.3257827804781273e-08 0 0.044936689699283064 3.1545972067660574e-05 0 0.044999884714944725 2.2025799595084562e-08 0 0.044911442218176369 2.4067595656045584e-05 0 0.044936689699283064 3.1545972067660574e-05 0 0.044999884714944725 2.2025799595084562e-08 0 0.044911442218176369 2.4067595656045584e-05 0 0.044999884714944725 2.2025799595084562e-08 0 0.044999805803285615 -3.290250144713609e-08 0 0.044911442218176369 2.4067595656045584e-05 0 0.044999805803285615 -3.290250144713609e-08 0 0.044837428871046907 4.1062442371493035e-05 0 0.044837428871046907 4.1062442371493035e-05 0 0.044822312486303403 1.7629701476193294e-06 0 0.044565335183573862 3.1567714313426102e-05 0 0.044999805803285615 -3.290250144713609e-08 0 0.044822312486303403 1.7629701476193294e-06 0 0.044999665803854713 8.0923395999518611e-09 0 0.044999805803285615 -3.290250144713609e-08 0 0.044837428871046907 4.1062442371493035e-05 0 0.044822312486303403 1.7629701476193294e-06 0 0.044822312486303403 1.7629701476193294e-06 0 0.044999665803854713 8.0923395999518611e-09 0 0.044781127870080102 7.7804082636137627e-06 0 0.044999665803854713 8.0923395999518611e-09 0 0.044781127870080102 7.7804082636137627e-06 0 0.044999754828044601 2.785841467342386e-08 0 0.044822312486303403 1.7629701476193294e-06 0 0.044781127870080102 7.7804082636137627e-06 0 0.044565335183573862 3.1567714313426102e-05 0 0.044918889825001397 -4.082748712316568e-06 0 0.044999754828044601 2.785841467342386e-08 0 0.044999896322401228 -3.8538890220519141e-09 0 0.044781127870080102 7.7804082636137627e-06 0 0.044918889825001397 -4.082748712316568e-06 0 0.044999754828044601 2.785841467342386e-08 0 0.044781127870080102 7.7804082636137627e-06 0 0.044918889825001397 -4.082748712316568e-06 0 0.044829210293863726 -6.6251811436351704e-05 0 0.044918889825001397 -4.082748712316568e-06 0 0.044829210293863726 -6.6251811436351704e-05 0 0.044947062510812985 -3.0752857863040952e-05 0 0.044781127870080102 7.7804082636137627e-06 0 0.044829210293863726 -6.6251811436351704e-05 0 0.044590733543487894 -9.9303396848701966e-05 0 0.044829210293863726 -6.6251811436351704e-05 0 0.044751342499159914 -0.00021986452221455576 0 0.044590733543487894 -9.9303396848701966e-05 0 0.044751342499159914 -0.00021986452221455576 0 0.044590733543487894 -9.9303396848701966e-05 0 0.044380012198487986 -0.00032911586403627183 0 0.044565335183573862 3.1567714313426102e-05 0 0.044590733543487894 -9.9303396848701966e-05 0 0.044289131161593803 -0.0002353663959796746 0 0.044781127870080102 7.7804082636137627e-06 0 0.044565335183573862 3.1567714313426102e-05 0 0.044590733543487894 -9.9303396848701966e-05 0 0.044590733543487894 -9.9303396848701966e-05 0 0.044289131161593803 -0.0002353663959796746 0 0.044380012198487986 -0.00032911586403627183 0 0.043892335830425795 -0.00020336100294875563 0 0.044565335183573862 3.1567714313426102e-05 0 0.044289131161593803 -0.0002353663959796746 0 0.04394439948638227 -0.00043108252465061088 0 0.044289131161593803 -0.0002353663959796746 0 0.044062950322747811 -0.00046408419895986011 0 0.04394439948638227 -0.00043108252465061088 0 0.043783833106328704 -0.00056837688824750083 0 0.044062950322747811 -0.00046408419895986011 0 0.043783833106328704 -0.00056837688824750083 0 0.044062950322747811 -0.00046408419895986011 0 0.043818104195137791 -0.00061936978735434756 0 0.043597408908056939 -0.00061123837764417782 0 0.043783833106328704 -0.00056837688824750083 0 0.043818104195137791 -0.00061936978735434756 0 0.043818104195137791 -0.00061936978735434756 0 0.044146200380180613 -0.00053609801540034359 0 0.043984139928971239 -0.00080852758020186742 0 0.044062950322747811 -0.00046408419895986011 0 0.043818104195137791 -0.00061936978735434756 0 0.044146200380180613 -0.00053609801540034359 0 0.044062950322747811 -0.00046408419895986011 0 0.044380012198487986 -0.00032911586403627183 0 0.044146200380180613 -0.00053609801540034359 0 0.044289131161593803 -0.0002353663959796746 0 0.044062950322747811 -0.00046408419895986011 0 0.044380012198487986 -0.00032911586403627183 0 0.044380012198487986 -0.00032911586403627183 0 0.044296648553520682 -0.00050222516452459655 0 0.044146200380180613 -0.00053609801540034359 0 0.044368859166264318 -0.00033320949908062481 0 0.044486849105036981 -0.00046038263744398384 0 0.044751342499159914 -0.00021986452221455576 0 0.044380012198487986 -0.00032911586403627183 0 0.044682580321144812 -0.00043799370431290083 0 0.044751342499159914 -0.00021986452221455576 0 0.044682580321144812 -0.00043799370431290083 0 0.044838310131817195 -0.00034372844069708962 0 0.044296648553520682 -0.00050222516452459655 0 0.04427797496030153 -0.00075458456844462707 0 0.04457413819384877 -0.00067135992242045605 0 0.044486849105036981 -0.00046038263744398384 0 0.044690180302519027 -0.00061255842157532643 0 0.044296648553520682 -0.00050222516452459655 0 0.044146200380180613 -0.00053609801540034359 0 0.04427797496030153 -0.00075458456844462707 0 0.044146200380180613 -0.00053609801540034359 0 0.043984139928971239 -0.00080852758020186742 0 0.04427797496030153 -0.00075458456844462707 0 0.043922947436846077 -0.0012447807079604136 0 0.044007367481108645 -0.001241313176632471 0 0.04427797496030153 -0.00075458456844462707 0 0.044407965054385844 -0.0010933479188931074 0 0.044504121337569778 -0.00085711346006105864 0 0.043913878382807935 -0.0012366331007677615 0 0.04427797496030153 -0.00075458456844462707 0 0.044407965054385844 -0.0010933479188931074 0 0.043913878382807935 -0.0012366331007677615 0 0.043984139928971239 -0.00080852758020186742 0 0.043756975948722104 -0.00096258767390749013 0 0.043913878382807935 -0.0012366331007677615 0 0.043984139928971239 -0.00080852758020186742 0 0.04427797496030153 -0.00075458456844462707 0 0.043693246808334724 -0.0011863149784833613 0 0.043913878382807935 -0.0012366331007677615 0 0.043756975948722104 -0.00096258767390749013 0 0.043693246808334724 -0.0011863149784833613 0 0.043756975948722104 -0.00096258767390749013 0 0.043562935223293596 -0.0011501855531048572 0 0.042917729674665166 -0.0013629497720069321 0 0.043601066308464151 -0.00072233133394840646 0 0.043387638611986391 -0.00087752817011445727 0 0.043392208462380476 -0.00080640295405111568 0 0.04358679537300985 -0.00061468064798962999 0 0.043366903444260224 -0.0013314498733264324 0 0.043562935223293596 -0.0011501855531048572 0 0.04351396469092203 -0.00095418142517618302 0 0.043331196482135376 -0.00060963706582755717 0 0.043392208462380476 -0.00080640295405111568 0 0.04358679537300985 -0.00061468064798962999 0 0.043331196482135376 -0.00060963706582755717 0 0.043597408908056939 -0.00061123837764417782 0 0.04358679537300985 -0.00061468064798962999 0 0.043756975948722104 -0.00096258767390749013 0 0.043562935223293596 -0.0011501855531048572 0 0.04351396469092203 -0.00095418142517618302 0 0.043743289251110123 -0.00064703347315636347 0 0.043601066308464151 -0.00072233133394840646 0 0.043597408908056939 -0.00061123837764417782 0 0.043818104195137791 -0.00061936978735434756 0 0.04358679537300985 -0.00061468064798962999 0 0.043818104195137791 -0.00061936978735434756 0 0.043756975948722104 -0.00096258767390749013 0 0.04351396469092203 -0.00095418142517618302 0 0.043818104195137791 -0.00061936978735434756 0 0.043984139928971239 -0.00080852758020186742 0 0.043756975948722104 -0.00096258767390749013 0 0.044973973401317341 -0.00061857903781403409 0 0.045065819961132431 -0.00075482372317814937 0 0.045110519177276882 -0.00044235760302605178 0 0.044973973401317341 -0.00061857903781403409 0 0.045065819961132431 -0.00075482372317814937 0 0.044930100121976894 -0.00080293175002445845 0 0.044688418585562516 -0.00061323726258525496 0 0.044652595749065903 -0.00042914371594736855 0 0.044772474183001162 -0.00048667544519880452 0 0.043879282637763514 -0.0012003877952427662 0 0.04501906242176254 -0.00030615017096601043 0 0.044688418585562516 -0.00061323726258525496 0 0.044535796144934719 -0.0006527359833038627 0 0.044652595749065903 -0.00042914371594736855 0 0.042576667647674891 -0.0019148867480813635 0 0.042663465391861423 -0.001754694243580557 0 0.042390331616850976 -0.0015591895721698086 0 0.04271796917690588 -0.0015767549921455993 0 0.042663465391861423 -0.001754694243580557 0 0.042822027703627946 -0.0018671189289229822 0 0.042576667647674891 -0.0019148867480813635 0 0.042663465391861423 -0.001754694243580557 0 0.042822027703627946 -0.0018671189289229822 0 0.043672324220617634 -0.001243245390265636 0 0.043879282637763514 -0.0012003877952427662 0 0.045065819961132431 -0.00075482372317814937 0 0.044930100121976894 -0.00080293175002445845 0 0.044740957727973443 -0.00091795838393603788 0 0.043879282637763514 -0.0012003877952427662 0 0.044131664153169832 -0.0011808802013305439 0 0.043318337069198729 -0.0012606943460239969 0 0.043235247610494618 -0.0015070569900789172 0 0.043421590167645692 -0.0014675437145474787 0 0.044407965054385844 -0.0010933479188931074 0 0.044740957727973443 -0.00091795838393603788 0 0.044504121337569778 -0.00085711346006105864 0 0.044007367481108645 -0.001241313176632471 0 0.044131664153169832 -0.0011808802013305439 0 0.043490780360687022 -0.0013252509869665708 0 0.043656173008463001 -0.0013983178230859972 0 0.043421590167645692 -0.0014675437145474787 0 0.044740957727973443 -0.00091795838393603788 0 0.04457413819384877 -0.00067135992242045605 0 0.044504121337569778 -0.00085711346006105864 0 0.04427797496030153 -0.00075458456844462707 0 0.04457413819384877 -0.00067135992242045605 0 0.044504121337569778 -0.00085711346006105864 0 0.04492734124841468 -0.0007966992671488279 0 0.044690180302519027 -0.00061255842157532643 0 0.044973973401317341 -0.00061857903781403409 0 0.04478677984081187 -0.00053216447894939318 0 0.044961691285597759 -0.0005007877035003664 0 0.044973973401317341 -0.00061857903781403409 0 0.044930100121976894 -0.00080293175002445845 0 0.04478677984081187 -0.00053216447894939318 0 0.044930100121976894 -0.00080293175002445845 0 0.044740957727973443 -0.00091795838393603788 0 0.04457413819384877 -0.00067135992242045605 0 0.04478677984081187 -0.00053216447894939318 0 0.044889074928455716 -0.00041853891495310426 0 0.044961691285597759 -0.0005007877035003664 0 0.044889074928455716 -0.00041853891495310426 0 0.044975099675329248 -0.00030301532807460238 0 0.044961691285597759 -0.0005007877035003664 0 0.04478677984081187 -0.00053216447894939318 0 0.044889074928455716 -0.00041853891495310426 0 0.044838310131817195 -0.00034372844069708962 0 0.044682580321144812 -0.00043799370431290083 0 0.04478677984081187 -0.00053216447894939318 0 0.044838310131817195 -0.00034372844069708962 0 0.044889074928455716 -0.00041853891495310426 0 0.044838310131817195 -0.00034372844069708962 0 0.044975099675329248 -0.00030301532807460238 0 0.044838310131817195 -0.00034372844069708962 0 0.044975099675329248 -0.00030301532807460238 0 0.044922508523962693 -0.00014202409931964036 0 0.044975099675329248 -0.00030301532807460238 0 0.044961691285597759 -0.0005007877035003664 0 0.045110519177276882 -0.00044235760302605178 0 0.044973973401317341 -0.00061857903781403409 0 0.044961691285597759 -0.0005007877035003664 0 0.045110519177276882 -0.00044235760302605178 0 0.044652595749065903 -0.00042914371594736855 0 0.044853696378458874 -0.00029783293095234493 0 0.044798636034099323 -0.0002216952056210369 0 0.044975099675329248 -0.00030301532807460238 0 0.045110519177276882 -0.00044235760302605178 0 0.045091601348693118 -0.00022453477860913344 0 0.04501906242176254 -0.00030615017096601043 0 0.044918053814273315 -0.00026837480304500304 0 0.045010959802840658 -0.00015118318185497999 0 0.044996834010620851 -8.9953140211860715e-05 0 0.045091601348693118 -0.00022453477860913344 0 0.044975099675329248 -0.00030301532807460238 0 0.045010959802840658 -0.00015118318185497999 0 0.045091601348693118 -0.00022453477860913344 0 0.044975099675329248 -0.00030301532807460238 0 0.045010959802840658 -0.00015118318185497999 0 0.044922508523962693 -0.00014202409931964036 0 0.045010959802840658 -0.00015118318185497999 0 0.044922508523962693 -0.00014202409931964036 0 0.044998862408655992 -6.2487519523652044e-05 0 0.045010959802840658 -0.00015118318185497999 0 0.044998862408655992 -6.2487519523652044e-05 0 0.044996834010620851 -8.9953140211860715e-05 0 0.044922508523962693 -0.00014202409931964036 0 0.044947062510812985 -3.0752857863040952e-05 0 0.044998862408655992 -6.2487519523652044e-05 0 0.044751342499159914 -0.00021986452221455576 0 0.044838310131817195 -0.00034372844069708962 0 0.044922508523962693 -0.00014202409931964036 0 0.044829210293863726 -6.6251811436351704e-05 0 0.044751342499159914 -0.00021986452221455576 0 0.044922508523962693 -0.00014202409931964036 0 0.044829210293863726 -6.6251811436351704e-05 0 0.044922508523962693 -0.00014202409931964036 0 0.044947062510812985 -3.0752857863040952e-05 0 0.044947062510812985 -3.0752857863040952e-05 0 0.044999964147395585 -4.713060087534479e-09 0 0.044998862408655992 -6.2487519523652044e-05 0 0.044918889825001397 -4.082748712316568e-06 0 0.044947062510812985 -3.0752857863040952e-05 0 0.044999896322401228 -3.8538890220519141e-09 0 0.044947062510812985 -3.0752857863040952e-05 0 0.044999964147395585 -4.713060087534479e-09 0 0.044999896322401228 -3.8538890220519141e-09 0 0.044999964147395585 -4.713060087534479e-09 0 0.044998862408655992 -6.2487519523652044e-05 0 0.045000007205588506 -3.8448255842530299e-08 0 0.044998862408655992 -6.2487519523652044e-05 0 0.045000007205588506 -3.8448255842530299e-08 0 0.045000415926187205 -3.6190057450948794e-05 0 0.045000007205588506 -3.8448255842530299e-08 0 0.045000415926187205 -3.6190057450948794e-05 0 0.045000011572603117 -1.7591083787526803e-08 0 0.044998862408655992 -6.2487519523652044e-05 0 0.045000415926187205 -3.6190057450948794e-05 0 0.044996834010620851 -8.9953140211860715e-05 0 0.045000415926187205 -3.6190057450948794e-05 0 0.045015402728683832 -2.7980452568453768e-05 0 0.044996834010620851 -8.9953140211860715e-05 0 0.045015402728683832 -2.7980452568453768e-05 0 0.045043010000235667 -6.5372377806850756e-05 0 0.044996834010620851 -8.9953140211860715e-05 0 0.045000415926187205 -3.6190057450948794e-05 0 0.045015402728683832 -2.7980452568453768e-05 0 0.045000011572603117 -1.7591083787526803e-08 0 0.045015402728683832 -2.7980452568453768e-05 0 0.045007693926527086 -5.0344921758149396e-06 0 0.045010370816331961 -5.3449676122505425e-06 0 0.045000011572603117 -1.7591083787526803e-08 0 0.045007693926527086 -5.0344921758149396e-06 0 0.045000057682664449 -1.2942924623486845e-08 0 0.045015402728683832 -2.7980452568453768e-05 0 0.045000011572603117 -1.7591083787526803e-08 0 0.045007693926527086 -5.0344921758149396e-06 0 0.043412127617519398 0.00046250849745446058 0 0.043450563542423083 0.00036850771445212508 0 0.04371861907026741 0.00056604592450644887 0 0.045000004876510062 -2.3937025790013532e-09 0 0.044998701832922032 3.160584951696997e-07 0 0.044998805743983968 2.2083684966745931e-06 0 0.044999152818943206 1.8823868435451168e-07 0 0.044477560406019828 5.6820139033169825e-05 0 0.045007693926527086 -5.0344921758149396e-06 0 0.045000057682664449 -1.2942924623486845e-08 0 0.045005625373709612 -3.8428133034657897e-06 0 0.04457416663674478 4.2647138940159792e-05 0 0.044477560406019828 5.6820139033169825e-05 0 0.043412127617519398 0.00046250849745446058 0 0.043450563542423083 0.00036850771445212508 0 0.043537483280101923 0.00044038204472244353 0 0.044477560406019828 5.6820139033169825e-05 0 0.044201110608211011 0.00018453741782838251 0 0.045015402728683832 -2.7980452568453768e-05 0 0.045010370816331961 -5.3449676122505425e-06 0 0.045043010000235667 -6.5372377806850756e-05 0 0.044201110608211011 0.00018453741782838251 0 0.044709775029005791 0.00049204184693312121 0 0.043450563542423083 0.00036850771445212508 0 0.043537483280101923 0.00044038204472244353 0 0.043296441661323459 0.00069274934264901885 0 0.043537483280101923 0.00044038204472244353 0 0.043296441661323459 0.00069274934264901885 0 0.043667548473166007 0.00084792848245473704 0 0.043296441661323459 0.00069274934264901885 0 0.043667548473166007 0.00084792848245473704 0 0.043422855269933128 0.0010683156876954002 0 0.045036773393005401 -0.00017208671987155227 0 0.044934176549133675 -0.00020325139979141701 0 0.044996834010620851 -8.9953140211860715e-05 0 0.04499756467676478 -9.4680332066205108e-05 0 0.044918053814273315 -0.00026837480304500304 0 0.044934176549133675 -0.00020325139979141701 0 0.044996834010620851 -8.9953140211860715e-05 0 0.044798636034099323 -0.0002216952056210369 0 0.045043010000235667 -6.5372377806850756e-05 0 0.045036773393005401 -0.00017208671987155227 0 0.044996834010620851 -8.9953140211860715e-05 0 0.044566956832944329 0.00017112697513649658 0 0.044356672781047532 0.00047429879226860023 0 0.04473659054173322 -1.3406673067067431e-05 0 0.044440840910378483 0.00024291986578617167 0 0.044167239459041718 0.00030449571674098102 0 0.044655225825969903 7.2771390972654234e-05 0 0.044686450679569702 0.00021652678609381575 0 0.044717757383844509 3.3534797271388124e-05 0 0.044566956832944329 0.00017112697513649658 0 0.044655225825969903 7.2771390972654234e-05 0 0.044630137897269703 9.1391110976731432e-05 0 0.044566956832944329 0.00017112697513649658 0 0.044440840910378483 0.00024291986578617167 0 0.044655225825969903 7.2771390972654234e-05 0 0.044566956832944329 0.00017112697513649658 0 0.044440840910378483 0.00024291986578617167 0 0.044356672781047532 0.00047429879226860023 0 0.044907199195151432 -3.5126221634043985e-05 0 0.044965544820230526 -2.2479161707979943e-05 0 0.045019667641292588 1.3548384832014869e-05 0 0.044907199195151432 -3.5126221634043985e-05 0 0.045019667641292588 1.3548384832014869e-05 0 0.04473659054173322 -1.3406673067067431e-05 0 0.044965544820230526 -2.2479161707979943e-05 0 0.045000090416928706 -1.5395787815450642e-08 0 0.044999497231551576 -7.585448400217941e-08 0 0.044907199195151432 -3.5126221634043985e-05 0 0.044965544820230526 -2.2479161707979943e-05 0 0.044999497231551576 -7.585448400217941e-08 0 0.044965544820230526 -2.2479161707979943e-05 0 0.045019667641292588 1.3548384832014869e-05 0 0.045000090416928706 -1.5395787815450642e-08 0 0.045019667641292588 1.3548384832014869e-05 0 0.045000090416928706 -1.5395787815450642e-08 0 0.044998805743983968 2.2083684966745931e-06 0 0.044356672781047532 0.00047429879226860023 0 0.044167239459041718 0.00030449571674098102 0 0.043976225237840123 0.00036789567919535802 0 0.044440840910378483 0.00024291986578617167 0 0.044356672781047532 0.00047429879226860023 0 0.044167239459041718 0.00030449571674098102 0 0.043792773278024937 0.0003331543209200374 0 0.043976225237840123 0.00036789567919535802 0 0.043893692898497552 0.00019851759761402421 0 0.044167239459041718 0.00030449571674098102 0 0.043976225237840123 0.00036789567919535802 0 0.043893692898497552 0.00019851759761402421 0 0.043792773278024937 0.0003331543209200374 0 0.043976225237840123 0.00036789567919535802 0 0.04371861907026741 0.00056604592450644887 0 0.044686450679569702 0.00021652678609381575 0 0.0443047358313651 0.00031048369592970846 0 0.045000090416928706 -1.5395787815450642e-08 0 0.044998805743983968 2.2083684966745931e-06 0 0.044999971251026893 9.1353452175867759e-09 0 0.044356672781047532 0.00047429879226860023 0 0.043976225237840123 0.00036789567919535802 0 0.04371861907026741 0.00056604592450644887 0 0.045000004876510062 -2.3937025790013532e-09 0 0.044998805743983968 2.2083684966745931e-06 0 0.044999971251026893 9.1353452175867759e-09 0 0.044477560406019828 5.6820139033169825e-05 0 0.0443047358313651 0.00031048369592970846 0 0.043450563542423083 0.00036850771445212508 0 0.043792773278024937 0.0003331543209200374 0 0.04371861907026741 0.00056604592450644887 0 0.043450563542423083 0.00036850771445212508 0 0.043792773278024937 0.0003331543209200374 0 0.043927905473090292 0.00028242605129355302 0 0.043450563542423083 0.00036850771445212508 0 0.043296441661323459 0.00069274934264901885 0 0.042968815181699545 0.0005377585135460303 0 0.043438766987242451 0.00038601370947618423 0 0.043425253914388069 0.00044035894049414476 0 0.043296441661323459 0.00069274934264901885 0 0.042887658701745865 0.00083882712450313295 0 0.043063402670190508 0.0010912385143222491 0 0.043296441661323459 0.00069274934264901885 0 0.042887658701745865 0.00083882712450313295 0 0.042968815181699545 0.0005377585135460303 0 0.043425253914388069 0.00044035894049414476 0 0.043106778887553328 0.00085687033739154312 0 0.042887658701745865 0.00083882712450313295 0 0.042968815181699545 0.0005377585135460303 0 0.042527574856988 0.00080464591580530192 0 0.043792773278024937 0.0003331543209200374 0 0.043927905473090292 0.00028242605129355302 0 0.043893692898497552 0.00019851759761402421 0 0.043927905473090292 0.00028242605129355302 0 0.043893692898497552 0.00019851759761402421 0 0.043721110198213675 0.00088398412369987064 0 0.043899524809804559 0.00019639279309626952 0 0.043864338617921265 0.00026682228622783397 0 0.043893692898497552 0.00019851759761402421 0 0.043721110198213675 0.00088398412369987064 0 0.0431005951942766 0.00040904991124454773 0 0.044167239459041718 0.00030449571674098102 0 0.043893692898497552 0.00019851759761402421 0 0.044655225825969903 7.2771390972654234e-05 0 0.043150021750765814 0.00098315985721559251 0 0.0431005951942766 0.00040904991124454773 0 0.042688512257614213 0.00090156411001727165 0 0.043721110198213675 0.00088398412369987064 0 0.043150021750765814 0.00098315985721559251 0 0.0431005951942766 0.00040904991124454773 0 0.042657911054217949 0.0013004748945142064 0 0.042280961259961523 0.0020737880391598082 0 0.042025246675418688 0.0015165674384069823 0 0.042106809492827663 0.0011398768219410833 0 0.041715493229387612 0.0015038078662269398 0 0.042025246675418688 0.0015165674384069823 0 0.042106809492827663 0.0011398768219410833 0 0.042225664860450568 0.0013576758515665547 0 0.042025246675418688 0.0015165674384069823 0 0.042225664860450568 0.0013576758515665547 0 0.042196492390146868 0.0015193766389294463 0 0.043150021750765814 0.00098315985721559251 0 0.043216080558223999 0.0015327299960796318 0 0.042660454493503815 0.0013816890093702482 0 0.043106778887553328 0.00085687033739154312 0 0.042657911054217949 0.0013004748945142064 0 0.043721110198213675 0.00088398412369987064 0 0.043150021750765814 0.00098315985721559251 0 0.043216080558223999 0.0015327299960796318 0 0.042527574856988 0.00080464591580530192 0 0.042106809492827663 0.0011398768219410833 0 0.042568696247366637 0.0011770872760513665 0 0.042106809492827663 0.0011398768219410833 0 0.042225664860450568 0.0013576758515665547 0 0.042568696247366637 0.0011770872760513665 0 0.042225664860450568 0.0013576758515665547 0 0.042401347663279132 0.0014694199240318218 0 0.042568696247366637 0.0011770872760513665 0 0.042225664860450568 0.0013576758515665547 0 0.042196492390146868 0.0015193766389294463 0 0.042401347663279132 0.0014694199240318218 0 0.042401347663279132 0.0014694199240318218 0 0.042568696247366637 0.0011770872760513665 0 0.042748281058907607 0.0015890224861412811 0 0.042568696247366637 0.0011770872760513665 0 0.043063402670190508 0.0010912385143222491 0 0.042748281058907607 0.0015890224861412811 0 0.042887658701745865 0.00083882712450313295 0 0.042568696247366637 0.0011770872760513665 0 0.043063402670190508 0.0010912385143222491 0 0.042887658701745865 0.00083882712450313295 0 0.042527574856988 0.00080464591580530192 0 0.042568696247366637 0.0011770872760513665 0 0.043063402670190508 0.0010912385143222491 0 0.042748281058907607 0.0015890224861412811 0 0.043295010218736676 0.0014312718775081207 0 0.039113732603985041 0.00086321543081585345 0 0.038937350887637188 0.00090000830320486681 0 0.035212623889338927 0.00064267358512801773 0 0.034889607839402752 0.00023112993636811047 0 0.035561545411050777 0.00010035051240702909 0 0.035212623889338927 0.00064267358512801773 0 0.034792007441253166 0.00069709217138916009 0 0.034889607839402752 0.00023112993636811047 0 0.034792007441253166 0.00069709217138916009 0 0.034889607839402752 0.00023112993636811047 0 0.034453842528747912 0.00048465608996889266 0 0.034889607839402752 0.00023112993636811047 0 0.034453842528747912 0.00048465608996889266 0 0.034242244602987131 0.00036788474653002716 0 0.042401347663279132 0.0014694199240318218 0 0.042748281058907607 0.0015890224861412811 0 0.042134974773063889 0.0017352413821164988 0 0.039113732603985041 0.00086321543081585345 0 0.037314684906581769 0.0011042122813742343 0 0.042196492390146868 0.0015193766389294463 0 0.042401347663279132 0.0014694199240318218 0 0.042134974773063889 0.0017352413821164988 0 0.034037168405408907 -1.1983006088109853e-05 0 0.037314684906581769 0.0011042122813742343 0 0.034453842528747912 0.00048465608996889266 0 0.034100145097789504 0.00074486315615952586 0 0.034202979419820513 0.00034174205073078841 0 0.034792007441253166 0.00069709217138916009 0 0.034453842528747912 0.00048465608996889266 0 0.034410601013147669 0.00081584179520501955 0 0.034453842528747912 0.00048465608996889266 0 0.034410601013147669 0.00081584179520501955 0 0.034100145097789504 0.00074486315615952586 0 0.034100145097789504 0.00074486315615952586 0 0.034202979419820513 0.00034174205073078841 0 0.033773255982512608 0.00042207072200523899 0 0.034100145097789504 0.00074486315615952586 0 0.033764074358905306 0.00095869094450733486 0 0.033773255982512608 0.00042207072200523899 0 0.041182475085674124 0.0020699501064843856 0 0.039145551774617211 0.002216953819595129 0 0.037314684906581769 0.0011042122813742343 0 0.039145551774617211 0.002216953819595129 0 0.038570229530528119 0.0016979639994255525 0 0.039214085198199765 0.0020511955432999415 0 0.039679475323876549 0.0014939907693223623 0 0.042025246675418688 0.0015165674384069823 0 0.042134974773063889 0.0017352413821164988 0 0.041929143156314568 0.0016226362444887934 0 0.037314684906581769 0.0011042122813742343 0 0.041182475085674124 0.0020699501064843856 0 0.042025246675418688 0.0015165674384069823 0 0.042196492390146868 0.0015193766389294463 0 0.042134974773063889 0.0017352413821164988 0 0.041722471956315663 0.0015717252020885104 0 0.041182475085674124 0.0020699501064843856 0 0.042025246675418688 0.0015165674384069823 0 0.041936596801921883 0.0016245650095571757 0 0.041715493229387612 0.0015038078662269398 0 0.044906154745933242 -0.00034616658411088148 0 0.044979666500630872 -0.00041491012197043006 0 0.044953139585962379 -0.00027349456189451713 0 0.041932522724546797 -2.6783383330924163e-05 0 0.045640033988904337 -0.00058507561496277136 0 0.044906154745933242 -0.00034616658411088148 0 0.044979666500630872 -0.00041491012197043006 0 0.044841872031392727 -0.00040389248924872377 0 0.036253862258884891 -3.1272115419791815e-05 0 0.035928433143731529 0.00022806152839179562 0 0.036149748289974082 0.00020943126797344204 0 0.044801633422028926 -0.00043723529499748728 0 0.044832531269752729 -0.00043018055843662729 0 0.044793379623896783 -0.00041326653994111571 0 0.044801633422028926 -0.00043723529499748728 0 0.044832531269752729 -0.00043018055843662729 0 0.044841872031392727 -0.00040389248924872377 0 0.044832531269752729 -0.00043018055843662729 0 0.044841872031392727 -0.00040389248924872377 0 0.044772474183001162 -0.00048667544519880452 0 0.044652595749065903 -0.00042914371594736855 0 0.044841872031392727 -0.00040389248924872377 0 0.044772474183001162 -0.00048667544519880452 0 0.044652595749065903 -0.00042914371594736855 0 0.044841872031392727 -0.00040389248924872377 0 0.044853696378458874 -0.00029783293095234493 0 0.044906154745933242 -0.00034616658411088148 0 0.044841872031392727 -0.00040389248924872377 0 0.044853696378458874 -0.00029783293095234493 0 0.044906154745933242 -0.00034616658411088148 0 0.044853696378458874 -0.00029783293095234493 0 0.044953139585962379 -0.00027349456189451713 0 0.044934176549133675 -0.00020325139979141701 0 0.044853696378458874 -0.00029783293095234493 0 0.044798636034099323 -0.0002216952056210369 0 0.044934176549133675 -0.00020325139979141701 0 0.044853696378458874 -0.00029783293095234493 0 0.044953139585962379 -0.00027349456189451713 0 0.045036773393005401 -0.00017208671987155227 0 0.044934176549133675 -0.00020325139979141701 0 0.044953139585962379 -0.00027349456189451713 0 0.045036773393005401 -0.00017208671987155227 0 0.044979666500630872 -0.00041491012197043006 0 0.044953139585962379 -0.00027349456189451713 0 0.044709775029005791 0.00049204184693312121 0 0.041932522724546797 -2.6783383330924163e-05 0 0.043667548473166007 0.00084792848245473704 0 0.043777469722072533 0.0012973336760377181 0 0.043422855269933128 0.0010683156876954002 0 0.043296441661323459 0.00069274934264901885 0 0.043063402670190508 0.0010912385143222491 0 0.043422855269933128 0.0010683156876954002 0 0.043063402670190508 0.0010912385143222491 0 0.043422855269933128 0.0010683156876954002 0 0.043295010218736676 0.0014312718775081207 0 0.043777469722072533 0.0012973336760377181 0 0.043422855269933128 0.0010683156876954002 0 0.043295010218736676 0.0014312718775081207 0 0.036253862258884891 -3.1272115419791815e-05 0 0.035561545411050777 0.00010035051240702909 0 0.035928433143731529 0.00022806152839179562 0 0.041932522724546797 -2.6783383330924163e-05 0 0.038937350887637188 0.00090000830320486681 0 0.035928433143731529 0.00022806152839179562 0 0.036118893820134466 0.00032277373709321822 0 0.036149748289974082 0.00020943126797344204 0 0.035928433143731529 0.00022806152839179562 0 0.035687648016288098 0.00057161768722133915 0 0.036095420205857237 0.00052576432312934247 0 0.035561545411050777 0.00010035051240702909 0 0.035928433143731529 0.00022806152839179562 0 0.035687648016288098 0.00057161768722133915 0 0.035928433143731529 0.00022806152839179562 0 0.036095420205857237 0.00052576432312934247 0 0.036118893820134466 0.00032277373709321822 0 0.035212623889338927 0.00064267358512801773 0 0.035561545411050777 0.00010035051240702909 0 0.035687648016288098 0.00057161768722133915 0 0.035212623889338927 0.00064267358512801773 0 0.035687648016288098 0.00057161768722133915 0 0.03550458015722549 0.00095392179587719839 0 0.035687648016288098 0.00057161768722133915 0 0.035907828378224767 0.00094659870678191814 0 0.03550458015722549 0.00095392179587719839 0 0.035687648016288098 0.00057161768722133915 0 0.036095420205857237 0.00052576432312934247 0 0.035907828378224767 0.00094659870678191814 0 0.036095420205857237 0.00052576432312934247 0 0.036436050238381951 0.00096700620996038986 0 0.035907828378224767 0.00094659870678191814 0 0.036095420205857237 0.00052576432312934247 0 0.03632109388532808 0.00033243803562776496 0 0.036436050238381951 0.00096700620996038986 0 0.040153292888287673 -4.6124039191633126e-06 0 0.03788048457250056 0.00036645770100153773 0 0.036095420205857237 0.00052576432312934247 0 0.036118893820134466 0.00032277373709321822 0 0.03632109388532808 0.00033243803562776496 0 0.041932522724546797 -2.6783383330924163e-05 0 0.040153292888287673 -4.6124039191633126e-06 0 0.036253862258884891 -3.1272115419791815e-05 0 0.03632109388532808 0.00033243803562776496 0 0.036149748289974082 0.00020943126797344204 0 0.036118893820134466 0.00032277373709321822 0 0.03632109388532808 0.00033243803562776496 0 0.036149748289974082 0.00020943126797344204 0 0.043672324220617634 -0.001243245390265636 0 0.042999641010429066 -0.00090938294843975959 0 0.044688418585562516 -0.00061323726258525496 0 0.044772474183001162 -0.00048667544519880452 0 0.044822612946494061 -0.00056997943614809244 0 0.044832531269752729 -0.00043018055843662729 0 0.044793379623896783 -0.00041326653994111571 0 0.044801407244219001 -0.00041472030273067065 0 0.044720507118668817 -0.00020374954233281061 0 0.042999641010429066 -0.00090938294843975959 0 0.044832531269752729 -0.00043018055843662729 0 0.044772474183001162 -0.00048667544519880452 0 0.044822612946494061 -0.00056997943614809244 0 0.040153292888287673 -4.6124039191633126e-06 0 0.042999641010429066 -0.00090938294843975959 0 0.039945035645242231 -0.00024499216496214732 0 0.039905542048432295 -0.00012184714325688273 0 0.03993863278279379 -0.00011430309245474593 0 0.042999641010429066 -0.00090938294843975959 0 0.040875686151201178 -0.00088667546354065136 0 0.042576667647674891 -0.0019148867480813635 0 0.042339892102351707 -0.0019604213050238507 0 0.042390331616850976 -0.0015591895721698086 0 0.039904709399854771 -0.0002527812487407057 0 0.039945035645242231 -0.00024499216496214732 0 0.039905542048432295 -0.00012184714325688273 0 0.039905542048432295 -0.00012184714325688273 0 0.03993863278279379 -0.00011430309245474593 0 0.039898764974363267 8.164569643509233e-05 0 0.036436050238381951 0.00096700620996038986 0 0.036169270892319999 0.0013576799743495766 0 0.035907828378224767 0.00094659870678191814 0 0.036436050238381951 0.00096700620996038986 0 0.036169270892319999 0.0013576799743495766 0 0.036544410877732698 0.0015912114765846636 0 0.03788048457250056 0.00036645770100153773 0 0.038185310648619193 0.00094152707625827481 0 0.040875686151201178 -0.00088667546354065136 0 0.041502682569289497 -0.00062203284677977294 0 0.03993863278279379 -0.00011430309245474593 0 0.039898764974363267 8.164569643509233e-05 0 0.039920927646651658 8.7541390390637576e-05 0 0.036169270892319999 0.0013576799743495766 0 0.036544410877732698 0.0015912114765846636 0 0.036274388412265456 0.001620847487923584 0 0.039874487328421658 0.0003607457542260939 0 0.039898764974363267 8.164569643509233e-05 0 0.039920927646651658 8.7541390390637576e-05 0 0.036544410877732698 0.0015912114765846636 0 0.03640822453959041 0.0016881572225036522 0 0.036447902321515915 0.0018373292136760915 0 0.036544410877732698 0.0015912114765846636 0 0.03640822453959041 0.0016881572225036522 0 0.036274388412265456 0.001620847487923584 0 0.036169270892319999 0.0013576799743495766 0 0.036274388412265456 0.001620847487923584 0 0.035989167925467566 0.001658098343706818 0 0.03640822453959041 0.0016881572225036522 0 0.036198524946564926 0.0018530607740381412 0 0.036165897543417015 0.0021442806926845613 0 0.036274388412265456 0.001620847487923584 0 0.035989167925467566 0.001658098343706818 0 0.036198524946564926 0.0018530607740381412 0 0.035989167925467566 0.001658098343706818 0 0.035983248675838561 0.0019065811726660755 0 0.036198524946564926 0.0018530607740381412 0 0.03640822453959041 0.0016881572225036522 0 0.036274388412265456 0.001620847487923584 0 0.036198524946564926 0.0018530607740381412 0 0.036198524946564926 0.0018530607740381412 0 0.036108134356694944 0.0019927211310804432 0 0.036165897543417015 0.0021442806926845613 0 0.036674490089897337 0.0015758972785574561 0 0.033656036485019622 0.0012837110078065415 0 0.035983248675838561 0.0019065811726660755 0 0.036198524946564926 0.0018530607740381412 0 0.036108134356694944 0.0019927211310804432 0 0.035983248675838561 0.0019065811726660755 0 0.036085817631141388 0.0021108716080710426 0 0.035854412181028326 0.0020580408672375232 0 0.035983248675838561 0.0019065811726660755 0 0.036108134356694944 0.0019927211310804432 0 0.036085817631141388 0.0021108716080710426 0 0.036108134356694944 0.0019927211310804432 0 0.036085817631141388 0.0021108716080710426 0 0.036165897543417015 0.0021442806926845613 0 0.036085817631141388 0.0021108716080710426 0 0.036178781392699151 0.0021496738723925314 0 0.035758589723216203 0.0022509098409192472 0 0.034484389268326247 0.0016199896906269628 0 0.033656036485019622 0.0012837110078065415 0 0.03640822453959041 0.0016881572225036522 0 0.036276321672479031 0.0018623016086274779 0 0.036447902321515915 0.0018373292136760915 0 0.036600318876398238 0.0019893417617472477 0 0.036276321672479031 0.0018623016086274779 0 0.036447902321515915 0.0018373292136760915 0 0.03658196983327322 0.0019235245693998097 0 0.036544410877732698 0.0015912114765846636 0 0.036447902321515915 0.0018373292136760915 0 0.035522172201664072 0.00024716489827220826 0 0.033656036485019622 0.0012837110078065415 0 0.035399079383956623 0.0023036745431499524 0 0.03533616304399434 0.0016643469325834091 0 0.034944518320346049 0.0018522638432318013 0 0.035642857525917469 0.0020872410556352799 0 0.035481267171197428 0.002052249242014591 0 0.035399079383956623 0.0023036745431499524 0 0.035632062021355035 0.0018878632404262811 0 0.03533616304399434 0.0016643469325834091 0 0.035127722699539225 0.0023618957329923115 0 0.035758589723216203 0.0022509098409192472 0 0.035632062021355035 0.0018878632404262811 0 0.036085817631141388 0.0021108716080710426 0 0.035758589723216203 0.0022509098409192472 0 0.035854412181028326 0.0020580408672375232 0 0.035983248675838561 0.0019065811726660755 0 0.035854412181028326 0.0020580408672375232 0 0.035632062021355035 0.0018878632404262811 0 0.035758589723216203 0.0022509098409192472 0 0.035854412181028326 0.0020580408672375232 0 0.035632062021355035 0.0018878632404262811 0 0.035989167925467566 0.001658098343706818 0 0.035632062021355035 0.0018878632404262811 0 0.035643308103166828 0.0013758279646707893 0 0.035989167925467566 0.001658098343706818 0 0.035983248675838561 0.0019065811726660755 0 0.035632062021355035 0.0018878632404262811 0 0.035632062021355035 0.0018878632404262811 0 0.03533616304399434 0.0016643469325834091 0 0.035643308103166828 0.0013758279646707893 0 0.03533616304399434 0.0016643469325834091 0 0.035643308103166828 0.0013758279646707893 0 0.035073387502002631 0.0012362299557169127 0 0.036169270892319999 0.0013576799743495766 0 0.035643308103166828 0.0013758279646707893 0 0.035907828378224767 0.00094659870678191814 0 0.036169270892319999 0.0013576799743495766 0 0.035989167925467566 0.001658098343706818 0 0.035643308103166828 0.0013758279646707893 0 0.035643308103166828 0.0013758279646707893 0 0.035907828378224767 0.00094659870678191814 0 0.03550458015722549 0.00095392179587719839 0 0.035643308103166828 0.0013758279646707893 0 0.03550458015722549 0.00095392179587719839 0 0.035073387502002631 0.0012362299557169127 0 0.035212623889338927 0.00064267358512801773 0 0.034792007441253166 0.00069709217138916009 0 0.035110102956311076 0.0012707215460785483 0 0.035212623889338927 0.00064267358512801773 0 0.03550458015722549 0.00095392179587719839 0 0.035073387502002631 0.0012362299557169127 0 0.035200822897594006 0.00067896890818336213 0 0.035093229192415407 0.0012458379304890106 0 0.034792007441253166 0.00069709217138916009 0 0.034583685865595348 0.0010860511603618477 0 0.035110102956311076 0.0012707215460785483 0 0.034792007441253166 0.00069709217138916009 0 0.034410601013147669 0.00081584179520501955 0 0.034583685865595348 0.0010860511603618477 0 0.035110102956311076 0.0012707215460785483 0 0.034498173082568286 0.0015937636634488709 0 0.034985394163016284 0.0019119899878007943 0 0.034583685865595348 0.0010860511603618477 0 0.035110102956311076 0.0012707215460785483 0 0.034498173082568286 0.0015937636634488709 0 0.035093229192415407 0.0012458379304890106 0 0.034964185317291549 0.0018910888257200494 0 0.034100145097789504 0.00074486315615952586 0 0.034118327048197644 0.0011807596346818006 0 0.033764074358905306 0.00095869094450733486 0 0.034118327048197644 0.0011807596346818006 0 0.03367630199421217 0.0013370253799376757 0 0.033764074358905306 0.00095869094450733486 0 0.034410601013147669 0.00081584179520501955 0 0.034100145097789504 0.00074486315615952586 0 0.034118327048197644 0.0011807596346818006 0 0.034410601013147669 0.00081584179520501955 0 0.034583685865595348 0.0010860511603618477 0 0.034118327048197644 0.0011807596346818006 0 0.034118327048197644 0.0011807596346818006 0 0.034498173082568286 0.0015937636634488709 0 0.033879827912029793 0.0017143304516863001 0 0.034583685865595348 0.0010860511603618477 0 0.034118327048197644 0.0011807596346818006 0 0.034498173082568286 0.0015937636634488709 0 0.034118327048197644 0.0011807596346818006 0 0.033879827912029793 0.0017143304516863001 0 0.03367630199421217 0.0013370253799376757 0 0.033879827912029793 0.0017143304516863001 0 0.033891860576865808 0.0020830005421144646 0 0.03351237481733 0.0021291739509940693 0 0.033879827912029793 0.0017143304516863001 0 0.034206720519276493 0.0019830500985492396 0 0.033891860576865808 0.0020830005421144646 0 0.034498173082568286 0.0015937636634488709 0 0.033879827912029793 0.0017143304516863001 0 0.034206720519276493 0.0019830500985492396 0 0.034498173082568286 0.0015937636634488709 0 0.034206720519276493 0.0019830500985492396 0 0.034603652725512753 0.0020318935493107647 0 0.034206720519276493 0.0019830500985492396 0 0.0343392092248688 0.0022577329992460281 0 0.034603652725512753 0.0020318935493107647 0 0.0343392092248688 0.0022577329992460281 0 0.034036720147418632 0.0022921243024028484 0 0.034136400106743021 0.0024707500081034986 0 0.034206720519276493 0.0019830500985492396 0 0.0343392092248688 0.0022577329992460281 0 0.034036720147418632 0.0022921243024028484 0 0.034206720519276493 0.0019830500985492396 0 0.034036720147418632 0.0022921243024028484 0 0.033891860576865808 0.0020830005421144646 0 0.034036720147418632 0.0022921243024028484 0 0.033769347132747797 0.0023634214171976346 0 0.033884103742440899 0.0024901880040019381 0 0.034036720147418632 0.0022921243024028484 0 0.033769347132747797 0.0023634214171976346 0 0.033891860576865808 0.0020830005421144646 0 0.03533616304399434 0.0016643469325834091 0 0.035073387502002631 0.0012362299557169127 0 0.034944518320346049 0.0018522638432318013 0 0.034498173082568286 0.0015937636634488709 0 0.034985394163016284 0.0019119899878007943 0 0.034603652725512753 0.0020318935493107647 0 0.034603652725512753 0.0020318935493107647 0 0.034849128031292753 0.0025217856173151238 0 0.034559372358333909 0.0023768255612100085 0 0.034985394163016284 0.0019119899878007943 0 0.034603652725512753 0.0020318935493107647 0 0.034849128031292753 0.0025217856173151238 0 0.0343392092248688 0.0022577329992460281 0 0.034603652725512753 0.0020318935493107647 0 0.034559372358333909 0.0023768255612100085 0 0.035399079383956623 0.0023036745431499524 0 0.034944518320346049 0.0018522638432318013 0 0.034849128031292753 0.0025217856173151238 0 0.034964185317291549 0.0018910888257200494 0 0.034859502945299797 0.002482842114669718 0 0.035399079383956623 0.0023036745431499524 0 0.034849128031292753 0.0025217856173151238 0 0.035106548149315069 0.0027255460905348194 0 0.034849128031292753 0.0025217856173151238 0 0.034503710962691406 0.0027385934734553267 0 0.035106548149315069 0.0027255460905348194 0 0.033650969814181163 0.0028110001255982121 0 0.030941926867710183 0.0025833017292087247 0 0.034559372358333909 0.0023768255612100085 0 0.034573639505690611 0.0025431603140270479 0 0.034370068315308082 0.0025344998770643408 0 0.034849128031292753 0.0025217856173151238 0 0.034559372358333909 0.0023768255612100085 0 0.034573639505690611 0.0025431603140270479 0 0.034573639505690611 0.0025431603140270479 0 0.034503710962691406 0.0027385934734553267 0 0.034370068315308082 0.0025344998770643408 0 0.034849128031292753 0.0025217856173151238 0 0.034573639505690611 0.0025431603140270479 0 0.034503710962691406 0.0027385934734553267 0 0.026820387875804749 0.0033097583836911955 0 0.026917856486401427 0.0032017289162547375 0 0.02665095874106253 0.0031417468251656359 0 0.03209321043120044 0.0028470492513537654 0 0.032126158146754159 0.0026169026519045329 0 0.03003931382825822 0.0025196872433602751 0 0.026820387875804749 0.0033097583836911955 0 0.026552734747835375 0.0032941391816383421 0 0.02665095874106253 0.0031417468251656359 0 0.029686290437066058 0.0029725262038403865 0 0.027425729105265795 0.0028146212355459766 0 0.03209321043120044 0.0028470492513537654 0 0.029866852170001703 0.002764443869971228 0 0.03003931382825822 0.0025196872433602751 0 0.024127939219835328 0.0025932062404849516 0 0.02376475976130573 0.0020282490312181238 0 0.023074658335978292 0.0030399953542519626 0 0.027425729105265795 0.0028146212355459766 0 0.023767802878718866 0.003328246174551794 0 0.023992816042044684 0.0018287034382145685 0 0.023860798920380649 0.0020243682349447138 0 0.024789033840578751 0.0020413275055191503 0 0.030941926867710183 0.0025833017292087247 0 0.027425729105265795 0.0028146212355459766 0 0.03209321043120044 0.0028470492513537654 0 0.033780040258152975 0.0027540215515124075 0 0.033742556844234842 0.0026489704089216479 0 0.033780040258152975 0.0027540215515124075 0 0.033742556844234842 0.0026489704089216479 0 0.033613309692733309 0.0026852438815442589 0 0.033780040258152975 0.0027540215515124075 0 0.033709045393667508 0.0025690350523493877 0 0.033884103742440899 0.0024901880040019381 0 0.033780040258152975 0.0027540215515124075 0 0.033709045393667508 0.0025690350523493877 0 0.033613309692733309 0.0026852438815442589 0 0.033769347132747797 0.0023634214171976346 0 0.033709045393667508 0.0025690350523493877 0 0.033884103742440899 0.0024901880040019381 0 0.033780040258152975 0.0027540215515124075 0 0.033884103742440899 0.0024901880040019381 0 0.034136400106743021 0.0024707500081034986 0 0.034036720147418632 0.0022921243024028484 0 0.033884103742440899 0.0024901880040019381 0 0.034136400106743021 0.0024707500081034986 0 0.033780040258152975 0.0027540215515124075 0 0.034136400106743021 0.0024707500081034986 0 0.034370068315308082 0.0025344998770643408 0 0.034503710962691406 0.0027385934734553267 0 0.033780040258152975 0.0027540215515124075 0 0.034370068315308082 0.0025344998770643408 0 0.033650969814181163 0.0028110001255982121 0 0.03359255887284842 0.0027556841759058958 0 0.0343392092248688 0.0022577329992460281 0 0.034136400106743021 0.0024707500081034986 0 0.034370068315308082 0.0025344998770643408 0 0.0343392092248688 0.0022577329992460281 0 0.034559372358333909 0.0023768255612100085 0 0.034370068315308082 0.0025344998770643408 0 0.029686290437066058 0.0029725262038403865 0 0.030224186083400696 0.0030020931753722956 0 0.026820387875804749 0.0033097583836911955 0 0.026917856486401427 0.0032017289162547375 0 0.027074929924120771 0.003325711261006916 0 0.03209321043120044 0.0028470492513537654 0 0.032126158146754159 0.0026169026519045329 0 0.033742556844234842 0.0026489704089216479 0 0.026917856486401427 0.0032017289162547375 0 0.027074929924120771 0.003325711261006916 0 0.027158020253275392 0.003272327687839153 0 0.024302920934119336 0.0037776019292912666 0 0.024274289697372199 0.0039249135400652758 0 0.021263582068156553 0.0044799124347317341 0 0.021258334047934542 0.0045360578140878609 0 0.021251260737293155 0.0045526954062873022 0 0.021459966086792879 0.0042467996469996048 0 0.021263582068156553 0.0044799124347317341 0 0.021251260737293155 0.0045526954062873022 0 0.021459966086792879 0.0042467996469996048 0 0.021263582068156553 0.0044799124347317341 0 0.021805576081994123 0.0042540625576097408 0 0.021263582068156553 0.0044799124347317341 0 0.021238844151741831 0.0047217426633456372 0 0.021231959179375301 0.004582666403975348 0 0.021263582068156553 0.0044799124347317341 0 0.021238844151741831 0.0047217426633456372 0 0.021805576081994123 0.0042540625576097408 0 0.021263582068156553 0.0044799124347317341 0 0.021258334047934542 0.0045360578140878609 0 0.021231959179375301 0.004582666403975348 0 0.023074658335978292 0.0030399953542519626 0 0.024462194688684269 0.0033512657674667516 0 0.02417109090621708 0.0029442535089857173 0 0.023767802878718866 0.003328246174551794 0 0.023970276849485918 0.0032387638353927133 0 0.023229562683055205 0.0040119644911285664 0 0.022547952229385066 0.0030227532610226458 0 0.024462194688684269 0.0033512657674667516 0 0.024127939219835328 0.0025932062404849516 0 0.023074658335978292 0.0030399953542519626 0 0.02417109090621708 0.0029442535089857173 0 0.023229562683055205 0.0040119644911285664 0 0.022547952229385066 0.0030227532610226458 0 0.021805576081994123 0.0042540625576097408 0 0.021459966086792879 0.0042467996469996048 0 0.021896256255021208 0.0041360713446520359 0 0.021805576081994123 0.0042540625576097408 0 0.024302920934119336 0.0037776019292912666 0 0.023767802878718866 0.003328246174551794 0 0.023767802878718866 0.003328246174551794 0 0.02172922395177293 0.0044625785593391193 0 0.021238844151741831 0.0047217426633456372 0 0.02254923512255488 0.004750149022820868 0 0.022798575897609655 0.005665181793550857 0 0.021238844151741831 0.0047217426633456372 0 0.021805576081994123 0.0042540625576097408 0 0.02254923512255488 0.004750149022820868 0 0.023229562683055205 0.0040119644911285664 0 0.021805576081994123 0.0042540625576097408 0 0.02254923512255488 0.004750149022820868 0 0.02254923512255488 0.004750149022820868 0 0.023697366777421621 0.0050237778540083199 0 0.022798575897609655 0.005665181793550857 0 0.023229562683055205 0.0040119644911285664 0 0.023697366777421621 0.0050237778540083199 0 0.024462194688684269 0.0033512657674667516 0 0.023229562683055205 0.0040119644911285664 0 0.02254923512255488 0.004750149022820868 0 0.023697366777421621 0.0050237778540083199 0 0.023697366777421621 0.0050237778540083199 0 0.024747081448020881 0.0050600271428529629 0 0.024276557316344788 0.0055170051010006056 0 0.023697366777421621 0.0050237778540083199 0 0.024982881906565155 0.0041254412465530623 0 0.024958505045409141 0.0028187277770448092 0 0.023697366777421621 0.0050237778540083199 0 0.024747081448020881 0.0050600271428529629 0 0.024982881906565155 0.0041254412465530623 0 0.023918757560046289 0.0047991724329109978 0 0.024501494832520402 0.003266536682146862 0 0.024747081448020881 0.0050600271428529629 0 0.024982881906565155 0.0041254412465530623 0 0.025545085133237926 0.0048598144199612451 0 0.024982881906565155 0.0041254412465530623 0 0.025543042806282223 0.0040272792658325148 0 0.025545085133237926 0.0048598144199612451 0 0.024982881906565155 0.0041254412465530623 0 0.025502628469337343 0.0034991061612612241 0 0.025543042806282223 0.0040272792658325148 0 0.023697366777421621 0.0050237778540083199 0 0.024944271931099538 0.0033688020793981809 0 0.024462194688684269 0.0033512657674667516 0 0.024982881906565155 0.0041254412465530623 0 0.024958505045409141 0.0028187277770448092 0 0.025502628469337343 0.0034991061612612241 0 0.024944271931099538 0.0033688020793981809 0 0.024462194688684269 0.0033512657674667516 0 0.024782515202004477 0.0026951764917168795 0 0.024462194688684269 0.0033512657674667516 0 0.02417109090621708 0.0029442535089857173 0 0.024782515202004477 0.0026951764917168795 0 0.026449488916142086 0.0020195675158720086 0 0.026776198082928485 0.0028341855752739929 0 0.025953271547462336 0.0029652502920142305 0 0.026449488916142086 0.0020195675158720086 0 0.026776198082928485 0.0028341855752739929 0 0.027655950372045063 0.0018189529499271033 0 0.024958505045409141 0.0028187277770448092 0 0.026449488916142086 0.0020195675158720086 0 0.025953271547462336 0.0029652502920142305 0 0.024958505045409141 0.0028187277770448092 0 0.025953271547462336 0.0029652502920142305 0 0.025502628469337343 0.0034991061612612241 0 0.026776198082928485 0.0028341855752739929 0 0.025953271547462336 0.0029652502920142305 0 0.026155842053385552 0.0036102581422007402 0 0.025953271547462336 0.0029652502920142305 0 0.025502628469337343 0.0034991061612612241 0 0.026155842053385552 0.0036102581422007402 0 0.026776198082928485 0.0028341855752739929 0 0.026155842053385552 0.0036102581422007402 0 0.02765056873139499 0.003429136610769662 0 0.025545085133237926 0.0048598144199612451 0 0.027252150953292302 0.0044609410511532877 0 0.027254364079063023 0.0034395924922307692 0 0.025545085133237926 0.0048598144199612451 0 0.027252150953292302 0.0044609410511532877 0 0.02524613744188986 0.0057178636746741916 0 0.026923445530342274 0.0045671483921968237 0 0.025323798898753906 0.0056715023803660036 0 0.026155842053385552 0.0036102581422007402 0 0.025545085133237926 0.0048598144199612451 0 0.02765056873139499 0.003429136610769662 0 0.025696464053964245 0.0047764502282845629 0 0.027472118876321502 0.0034092969207722952 0 0.026155842053385552 0.0036102581422007402 0 0.025543042806282223 0.0040272792658325148 0 0.025545085133237926 0.0048598144199612451 0 0.025502628469337343 0.0034991061612612241 0 0.026155842053385552 0.0036102581422007402 0 0.025543042806282223 0.0040272792658325148 0 0.026565301598141963 0.0052989553528964735 0 0.026418330092565896 0.0047834765021784196 0 0.026082811460678156 0.0056176033323354375 0 0.026923445530342274 0.0045671483921968237 0 0.027981998163700939 0.0036712916183544034 0 0.026418330092565896 0.0047834765021784196 0 0.027285891217942424 0.0047450744019983445 0 0.027616246261856946 0.0038777867043170277 0 0.026565301598141963 0.0052989553528964735 0 0.026876805144568323 0.005147024013688337 0 0.026418330092565896 0.0047834765021784196 0 0.026876805144568323 0.005147024013688337 0 0.026418330092565896 0.0047834765021784196 0 0.027285891217942424 0.0047450744019983445 0 0.027729359198664517 0.0049170628077281732 0 0.027348254678482588 0.0052843245540417057 0 0.027942720924616374 0.0054006298931015108 0 0.028306482348310836 0.0047308999286211689 0 0.027729359198664517 0.0049170628077281732 0 0.027942720924616374 0.0054006298931015108 0 0.027729359198664517 0.0049170628077281732 0 0.027348254678482588 0.0052843245540417057 0 0.027285891217942424 0.0047450744019983445 0 0.026876805144568323 0.005147024013688337 0 0.027348254678482588 0.0052843245540417057 0 0.027285891217942424 0.0047450744019983445 0 0.027285891217942424 0.0047450744019983445 0 0.027858587708917783 0.0044721384574028158 0 0.027616246261856946 0.0038777867043170277 0 0.027729359198664517 0.0049170628077281732 0 0.027285891217942424 0.0047450744019983445 0 0.027858587708917783 0.0044721384574028158 0 0.028306482348310836 0.0047308999286211689 0 0.027729359198664517 0.0049170628077281732 0 0.027858587708917783 0.0044721384574028158 0 0.029333539762962359 0.0030294315776193056 0 0.027254364079063023 0.0034395924922307692 0 0.029081883003276167 0.001896685894605793 0 0.0283597175355201 0.0040806057019105108 0 0.027858587708917783 0.0044721384574028158 0 0.027616246261856946 0.0038777867043170277 0 0.030403746163838521 0.0014934385091961504 0 0.029333539762962359 0.0030294315776193056 0 0.029081883003276167 0.001896685894605793 0 0.027472118876321502 0.0034092969207722952 0 0.029179504322193704 0.0018794252887226529 0 0.027252150953292302 0.0044609410511532877 0 0.029333539762962359 0.0030294315776193056 0 0.027254364079063023 0.0034395924922307692 0 0.02765056873139499 0.003429136610769662 0 0.027655950372045063 0.0018189529499271033 0 0.029773303833758723 0.0017233894706271339 0 0.026776198082928485 0.0028341855752739929 0 0.02765056873139499 0.003429136610769662 0 0.027655950372045063 0.0018189529499271033 0 0.028721433353641426 0.00043183826544448213 0 0.027655950372045063 0.0018189529499271033 0 0.026544188874421899 0.0003231212370430126 0 0.028721433353641426 0.00043183826544448213 0 0.027655950372045063 0.0018189529499271033 0 0.029773303833758723 0.0017233894706271339 0 0.028821026078273658 0.00054763414586848078 0 0.029272398372623715 0.0011200814798981312 0 0.03145769108471163 0.00040782679399295474 0 0.029773303833758723 0.0017233894706271339 0 0.030716935698605282 0.00072054384496201109 0 0.031000740680576441 0.00028877025672945843 0 0.030403746163838521 0.0014934385091961504 0 0.029081883003276167 0.001896685894605793 0 0.028721433353641426 0.00043183826544448213 0 0.029773303833758723 0.0017233894706271339 0 0.030716935698605282 0.00072054384496201109 0 0.032980830380209859 0.00066201808336137282 0 0.029179504322193704 0.0018794252887226529 0 0.028821026078273658 0.00054763414586848078 0 0.030648709196854949 0.00068407411379972378 0 0.031273517661043963 -0.00023692100766670938 0 0.029561267297649529 0.00067460084224835832 0 0.030716935698605282 0.00072054384496201109 0 0.031273517661043963 -0.00023692100766670938 0 0.029427086970123095 -0.00096752412602597762 0 0.029561267297649529 0.00067460084224835832 0 0.029427086970123095 -0.00096752412602597762 0 0.029561267297649529 0.00067460084224835832 0 0.028397708715757315 0.00063377370311177802 0 0.033656036485019622 0.0012837110078065415 0 0.029272398372623715 0.0011200814798981312 0 0.036178781392699151 0.0021496738723925314 0 0.035758589723216203 0.0022509098409192472 0 0.035663998444049057 0.0029365894983146559 0 0.035127722699539225 0.0023618957329923115 0 0.035758589723216203 0.0022509098409192472 0 0.035663998444049057 0.0029365894983146559 0 0.035642857525917469 0.0020872410556352799 0 0.030941926867710183 0.0025833017292087247 0 0.035127722699539225 0.0023618957329923115 0 0.034674893161525645 0.0029177204219982861 0 0.035663998444049057 0.0029365894983146559 0 0.023992816042044684 0.0018287034382145685 0 0.024789033840578751 0.0020413275055191503 0 0.025921572120489476 0.0018634724285453105 0 0.024944271931099538 0.0033688020793981809 0 0.024782515202004477 0.0026951764917168795 0 0.025921572120489476 0.0018634724285453105 0 0.024789033840578751 0.0020413275055191503 0 0.024782515202004477 0.0026951764917168795 0 0.025921572120489476 0.0018634724285453105 0 0.030941926867710183 0.0025833017292087247 0 0.029272398372623715 0.0011200814798981312 0 0.027425729105265795 0.0028146212355459766 0 0.02366933799907953 0.0021047510157194173 0 0.024127939219835328 0.0025932062404849516 0 0.02376475976130573 0.0020282490312181238 0 0.024789033840578751 0.0020413275055191503 0 0.024127939219835328 0.0025932062404849516 0 0.024789033840578751 0.0020413275055191503 0 0.024782515202004477 0.0026951764917168795 0 0.024127939219835328 0.0025932062404849516 0 0.02417109090621708 0.0029442535089857173 0 0.024782515202004477 0.0026951764917168795 0 0.024501494832520402 0.003266536682146862 0 0.029272398372623715 0.0011200814798981312 0 0.024958505045409141 0.0028187277770448092 0 0.026449488916142086 0.0020195675158720086 0 0.026544188874421899 0.0003231212370430126 0 0.026449488916142086 0.0020195675158720086 0 0.027655950372045063 0.0018189529499271033 0 0.026544188874421899 0.0003231212370430126 0 0.029530666876368471 0.0048912453019399789 0 0.021816627559605836 0.0060425112071135524 0 0.022988973647530355 0.0058987199901151871 0 0.024116510991263024 0.004961227368432357 0 0.022845666633176283 0.0045883821877912125 0 0.022202234014526014 0.0049805204221983514 0 0.022988973647530355 0.0058987199901151871 0 0.0217463845649109 0.0053686866403956793 0 0.022202234014526014 0.0049805204221983514 0 0.022988973647530355 0.0058987199901151871 0 0.022845666633176283 0.0045883821877912125 0 0.031565454091628864 0.0027524753130885472 0 0.032295581875374513 0.0028620521111612628 0 0.032175865306495743 0.0020841075972135637 0 0.029530666876368471 0.0048912453019399789 0 0.026424840062715761 0.0038961338814389227 0 0.022954411089781183 0.0065717003289628038 0 0.024527946377974889 0.006925237922331076 0 0.024116510991263024 0.004961227368432357 0 0.029530666876368471 0.0048912453019399789 0 0.031844172513299213 0.0067492528679872514 0 0.039387842330714219 0.0064083973824840268 0 0.03847988321801938 0.0062569448395593348 0 0.039129853180777746 0.0056186074443939178 0 0.026181316154743506 0.0072779187733751178 0 0.0255574423426129 0.0058359536489063606 0 0.026764029306153382 0.0062183463059013134 0 0.024527946377974889 0.006925237922331076 0 0.026181316154743506 0.0072779187733751178 0 0.0255574423426129 0.0058359536489063606 0 0.031844172513299213 0.0067492528679872514 0 0.031908884978280781 0.0067593134327477546 0 0.0255574423426129 0.0058359536489063606 0 0.025720080096571382 0.004470481748679889 0 0.026738540436203193 0.0049700075925712996 0 0.0255574423426129 0.0058359536489063606 0 0.024116510991263024 0.004961227368432357 0 0.025720080096571382 0.004470481748679889 0 0.024527946377974889 0.006925237922331076 0 0.0255574423426129 0.0058359536489063606 0 0.024116510991263024 0.004961227368432357 0 0.024116510991263024 0.004961227368432357 0 0.024773700350578923 0.0039460770983497035 0 0.025720080096571382 0.004470481748679889 0 0.024116510991263024 0.004961227368432357 0 0.024773700350578923 0.0039460770983497035 0 0.023589050302468998 0.0037676504192671878 0 0.024773700350578923 0.0039460770983497035 0 0.025720080096571382 0.004470481748679889 0 0.025651201916673774 0.0035016353511200305 0 0.025720080096571382 0.004470481748679889 0 0.025651201916673774 0.0035016353511200305 0 0.026661665562039187 0.0038456145689975867 0 0.025651201916673774 0.0035016353511200305 0 0.026661665562039187 0.0038456145689975867 0 0.026442041854658337 0.0030770242326346197 0 0.025651201916673774 0.0035016353511200305 0 0.024651346249143922 0.0029829716063117973 0 0.025770498565652541 0.0027650446224782846 0 0.026442041854658337 0.0030770242326346197 0 0.026378402850355441 0.0024302731828525206 0 0.025770498565652541 0.0027650446224782846 0 0.025651201916673774 0.0035016353511200305 0 0.026442041854658337 0.0030770242326346197 0 0.025770498565652541 0.0027650446224782846 0 0.024773700350578923 0.0039460770983497035 0 0.024651346249143922 0.0029829716063117973 0 0.023589050302468998 0.0037676504192671878 0 0.024773700350578923 0.0039460770983497035 0 0.025651201916673774 0.0035016353511200305 0 0.024651346249143922 0.0029829716063117973 0 0.024651346249143922 0.0029829716063117973 0 0.023589050302468998 0.0037676504192671878 0 0.022837889581224392 0.0026283572357303233 0 0.023589050302468998 0.0037676504192671878 0 0.022537115029743624 0.0035421997575926173 0 0.022837889581224392 0.0026283572357303233 0 0.023589050302468998 0.0037676504192671878 0 0.022845666633176283 0.0045883821877912125 0 0.022537115029743624 0.0035421997575926173 0 0.024116510991263024 0.004961227368432357 0 0.023589050302468998 0.0037676504192671878 0 0.022845666633176283 0.0045883821877912125 0 0.022845666633176283 0.0045883821877912125 0 0.022537115029743624 0.0035421997575926173 0 0.021913568465846207 0.0040866846680731534 0 0.022202234014526014 0.0049805204221983514 0 0.022845666633176283 0.0045883821877912125 0 0.021913568465846207 0.0040866846680731534 0 0.022537115029743624 0.0035421997575926173 0 0.021913568465846207 0.0040866846680731534 0 0.021538519299726982 0.0026637228588331403 0 0.020767895394028853 0.003608820596977055 0 0.021913568465846207 0.0040866846680731534 0 0.021538519299726982 0.0026637228588331403 0 0.021029268274982388 0.003961983072926444 0 0.021593794673791199 0.0048502516244162833 0 0.021466950253595837 0.0045371951191557364 0 0.021429489173070988 0.0047138546428665612 0 0.021605781898766451 0.0048505649616020748 0 0.021466950253595837 0.0045371951191557364 0 0.021429489173070988 0.0047138546428665612 0 0.021312793228072769 0.0046132394572666923 0 0.020767895394028853 0.003608820596977055 0 0.021913568465846207 0.0040866846680731534 0 0.021605781898766451 0.0048505649616020748 0 0.022202234014526014 0.0049805204221983514 0 0.021913568465846207 0.0040866846680731534 0 0.021605781898766451 0.0048505649616020748 0 0.021466950253595837 0.0045371951191557364 0 0.021345648441325145 0.004507442791000002 0 0.021312793228072769 0.0046132394572666923 0 0.021466950253595837 0.0045371951191557364 0 0.021345648441325145 0.004507442791000002 0 0.021387764047760518 0.0044049430844392504 0 0.021258334047934542 0.0045360578140878609 0 0.021345648441325145 0.004507442791000002 0 0.021312793228072769 0.0046132394572666923 0 0.021429489173070988 0.0047138546428665612 0 0.021312793228072769 0.0046132394572666923 0 0.021347960878477446 0.0048583571906091853 0 0.021258334047934542 0.0045360578140878609 0 0.021312793228072769 0.0046132394572666923 0 0.021251260737293155 0.0045526954062873022 0 0.030224186083400696 0.0030020931753722956 0 0.030795731977017158 0.0030237274444824868 0 0.027074929924120771 0.003325711261006916 0 0.027158020253275392 0.003272327687839153 0 0.027285159208143665 0.003353780383758562 0 0.027285159208143665 0.003353780383758562 0 0.027358813332286739 0.0033474755681644178 0 0.027472969781364921 0.0033958060887385221 0 0.027158020253275392 0.003272327687839153 0 0.027285159208143665 0.003353780383758562 0 0.027358813332286739 0.0033474755681644178 0 0.024274289697372199 0.0039249135400652758 0 0.024017898057633536 0.0039969517662903579 0 0.021312793228072769 0.0046132394572666923 0 0.021251260737293155 0.0045526954062873022 0 0.021347960878477446 0.0048583571906091853 0 0.030795731977017158 0.0030237274444824868 0 0.027673639818401145 0.0037093239252023371 0 0.03329416118382935 0.0028399304709476377 0 0.033525646842693387 0.0025250415247834762 0 0.033228068823569011 0.0023982605464222752 0 0.03329416118382935 0.0028399304709476377 0 0.032934050246922107 0.0026020520861767672 0 0.033228068823569011 0.0023982605464222752 0 0.032934050246922107 0.0026020520861767672 0 0.032920774768141425 0.0023201485403657558 0 0.033228068823569011 0.0023982605464222752 0 0.033742556844234842 0.0026489704089216479 0 0.03329416118382935 0.0028399304709476377 0 0.033613309692733309 0.0026852438815442589 0 0.03329416118382935 0.0028399304709476377 0 0.033525646842693387 0.0025250415247834762 0 0.033613309692733309 0.0026852438815442589 0 0.033769347132747797 0.0023634214171976346 0 0.033709045393667508 0.0025690350523493877 0 0.033525646842693387 0.0025250415247834762 0 0.033709045393667508 0.0025690350523493877 0 0.033525646842693387 0.0025250415247834762 0 0.033613309692733309 0.0026852438815442589 0 0.021605781898766451 0.0048505649616020748 0 0.021520489377499032 0.0050929164774458548 0 0.0217463845649109 0.0053686866403956793 0 0.022202234014526014 0.0049805204221983514 0 0.021605781898766451 0.0048505649616020748 0 0.0217463845649109 0.0053686866403956793 0 0.021429489173070988 0.0047138546428665612 0 0.021347960878477446 0.0048583571906091853 0 0.021605781898766451 0.0048505649616020748 0 0.021347960878477446 0.0048583571906091853 0 0.021605781898766451 0.0048505649616020748 0 0.021520489377499032 0.0050929164774458548 0 0.024017898057633536 0.0039969517662903579 0 0.027673639818401145 0.0037093239252023371 0 0.032573961818621079 0.0028986433562410161 0 0.032934050246922107 0.0026020520861767672 0 0.032608756211392725 0.0024687655285397904 0 0.03329416118382935 0.0028399304709476377 0 0.032573961818621079 0.0028986433562410161 0 0.032934050246922107 0.0026020520861767672 0 0.032934050246922107 0.0026020520861767672 0 0.032608756211392725 0.0024687655285397904 0 0.032920774768141425 0.0023201485403657558 0 0.032608756211392725 0.0024687655285397904 0 0.032295581875374513 0.0028620521111612628 0 0.032175865306495743 0.0020841075972135637 0 0.032573961818621079 0.0028986433562410161 0 0.032608756211392725 0.0024687655285397904 0 0.032295581875374513 0.0028620521111612628 0 0.027673639818401145 0.0037093239252023371 0 0.026424840062715761 0.0038961338814389227 0 0.032608756211392725 0.0024687655285397904 0 0.032175865306495743 0.0020841075972135637 0 0.03272170445573621 0.0020396431343038144 0 0.032608756211392725 0.0024687655285397904 0 0.03272170445573621 0.0020396431343038144 0 0.032920774768141425 0.0023201485403657558 0 0.03272170445573621 0.0020396431343038144 0 0.032920774768141425 0.0023201485403657558 0 0.033137169091845886 0.0019804368059261625 0 0.03272170445573621 0.0020396431343038144 0 0.033137169091845886 0.0019804368059261625 0 0.032746650715720818 0.0015077801385309064 0 0.032175865306495743 0.0020841075972135637 0 0.03272170445573621 0.0020396431343038144 0 0.032746650715720818 0.0015077801385309064 0 0.037272871632006502 0.003432828359154266 0 0.036690380152026851 0.0030924796086827708 0 0.040245306932294826 0.0054127801674594359 0 0.040991173687028502 0.0044496754789728407 0 0.039804319712445878 0.0045989978870729503 0 0.033525646842693387 0.0025250415247834762 0 0.03351237481733 0.0021291739509940693 0 0.033228068823569011 0.0023982605464222752 0 0.033769347132747797 0.0023634214171976346 0 0.033891860576865808 0.0020830005421144646 0 0.03351237481733 0.0021291739509940693 0 0.033769347132747797 0.0023634214171976346 0 0.033525646842693387 0.0025250415247834762 0 0.03351237481733 0.0021291739509940693 0 0.03351237481733 0.0021291739509940693 0 0.033228068823569011 0.0023982605464222752 0 0.033137169091845886 0.0019804368059261625 0 0.032920774768141425 0.0023201485403657558 0 0.033228068823569011 0.0023982605464222752 0 0.033137169091845886 0.0019804368059261625 0 0.03351237481733 0.0021291739509940693 0 0.033137169091845886 0.0019804368059261625 0 0.033320703860887077 0.0015978488252384119 0 0.033137169091845886 0.0019804368059261625 0 0.033320703860887077 0.0015978488252384119 0 0.032746650715720818 0.0015077801385309064 0 0.033879827912029793 0.0017143304516863001 0 0.03351237481733 0.0021291739509940693 0 0.033320703860887077 0.0015978488252384119 0 0.033879827912029793 0.0017143304516863001 0 0.03367630199421217 0.0013370253799376757 0 0.033320703860887077 0.0015978488252384119 0 0.03367630199421217 0.0013370253799376757 0 0.033320703860887077 0.0015978488252384119 0 0.033267894626318809 0.00096292349244413795 0 0.033320703860887077 0.0015978488252384119 0 0.033267894626318809 0.00096292349244413795 0 0.032746650715720818 0.0015077801385309064 0 0.03367630199421217 0.0013370253799376757 0 0.033267894626318809 0.00096292349244413795 0 0.033764074358905306 0.00095869094450733486 0 0.040991173687028502 0.0044496754789728407 0 0.040505187897245748 0.0037331866790477693 0 0.039804319712445878 0.0045989978870729503 0 0.040991173687028502 0.0044496754789728407 0 0.041095934045463314 0.0036102416920089655 0 0.040505187897245748 0.0037331866790477693 0 0.041567779860437068 0.0035933194861539116 0 0.040991173687028502 0.0044496754789728407 0 0.041095934045463314 0.0036102416920089655 0 0.037254325959410049 0.0022065708002093568 0 0.036690380152026851 0.0030924796086827708 0 0.041095934045463314 0.0036102416920089655 0 0.040505187897245748 0.0037331866790477693 0 0.040976835844010857 0.003110263646337257 0 0.040505187897245748 0.0037331866790477693 0 0.039763976206116262 0.0036840250236742514 0 0.039804319712445878 0.0045989978870729503 0 0.040505187897245748 0.0037331866790477693 0 0.039763976206116262 0.0036840250236742514 0 0.040220904212769804 0.0031001871416859489 0 0.039763976206116262 0.0036840250236742514 0 0.039028516080281059 0.0040562089812857076 0 0.039242852087714795 0.0033984826714272718 0 0.039028516080281059 0.0040562089812857076 0 0.039804319712445878 0.0045989978870729503 0 0.038887883816390932 0.0048875750722893229 0 0.039763976206116262 0.0036840250236742514 0 0.039028516080281059 0.0040562089812857076 0 0.039804319712445878 0.0045989978870729503 0 0.040245306932294826 0.0054127801674594359 0 0.039804319712445878 0.0045989978870729503 0 0.039129853180777746 0.0056186074443939178 0 0.039804319712445878 0.0045989978870729503 0 0.038887883816390932 0.0048875750722893229 0 0.039129853180777746 0.0056186074443939178 0 0.039387842330714219 0.0064083973824840268 0 0.040245306932294826 0.0054127801674594359 0 0.039129853180777746 0.0056186074443939178 0 0.029530666876368471 0.0048912453019399789 0 0.037272871632006502 0.003432828359154266 0 0.037524409747751515 0.0061221021915877282 0 0.038161185618389451 0.0053511933450721945 0 0.037273111376656343 0.00533107819636217 0 0.03847988321801938 0.0062569448395593348 0 0.037524409747751515 0.0061221021915877282 0 0.038161185618389451 0.0053511933450721945 0 0.03847988321801938 0.0062569448395593348 0 0.039129853180777746 0.0056186074443939178 0 0.038161185618389451 0.0053511933450721945 0 0.038887883816390932 0.0048875750722893229 0 0.038161185618389451 0.0053511933450721945 0 0.038365328459602666 0.0045378724888174649 0 0.038887883816390932 0.0048875750722893229 0 0.039129853180777746 0.0056186074443939178 0 0.038161185618389451 0.0053511933450721945 0 0.038161185618389451 0.0053511933450721945 0 0.037562385044483219 0.0046048176282624548 0 0.037273111376656343 0.00533107819636217 0 0.038161185618389451 0.0053511933450721945 0 0.037562385044483219 0.0046048176282624548 0 0.038365328459602666 0.0045378724888174649 0 0.037562385044483219 0.0046048176282624548 0 0.038326018991698123 0.0038166085628308938 0 0.036952519081562406 0.0036711134320581251 0 0.037562385044483219 0.0046048176282624548 0 0.038365328459602666 0.0045378724888174649 0 0.038326018991698123 0.0038166085628308938 0 0.039028516080281059 0.0040562089812857076 0 0.038887883816390932 0.0048875750722893229 0 0.038365328459602666 0.0045378724888174649 0 0.039028516080281059 0.0040562089812857076 0 0.038365328459602666 0.0045378724888174649 0 0.038326018991698123 0.0038166085628308938 0 0.039028516080281059 0.0040562089812857076 0 0.038744386703989983 0.0035415584650213792 0 0.038326018991698123 0.0038166085628308938 0 0.039028516080281059 0.0040562089812857076 0 0.038744386703989983 0.0035415584650213792 0 0.039242852087714795 0.0033984826714272718 0 0.038744386703989983 0.0035415584650213792 0 0.038326018991698123 0.0038166085628308938 0 0.038378298190319862 0.0033402246135727938 0 0.038326018991698123 0.0038166085628308938 0 0.037904083415069074 0.0036374185968211931 0 0.037570239315925145 0.0038640856069574007 0 0.038238088917381723 0.0038010906146883467 0 0.037276574986432665 0.0037737846646683283 0 0.038326018991698123 0.0038166085628308938 0 0.037904083415069074 0.0036374185968211931 0 0.038378298190319862 0.0033402246135727938 0 0.038378298190319862 0.0033402246135727938 0 0.038380529780232417 0.0028206367659785849 0 0.037789634176270889 0.0030223448456156883 0 0.038380529780232417 0.0028206367659785849 0 0.037789634176270889 0.0030223448456156883 0 0.037959051668609953 0.0024979875909816973 0 0.038380529780232417 0.0028206367659785849 0 0.038551912151400164 0.0023207360087892843 0 0.037959051668609953 0.0024979875909816973 0 0.038915301722536287 0.0026317540569237826 0 0.039185287848923028 0.002219397715240171 0 0.038551912151400164 0.0023207360087892843 0 0.038380529780232417 0.0028206367659785849 0 0.038915301722536287 0.0026317540569237826 0 0.038551912151400164 0.0023207360087892843 0 0.038380529780232417 0.0028206367659785849 0 0.038915301722536287 0.0026317540569237826 0 0.038828502104769805 0.0030934208085656146 0 0.038915301722536287 0.0026317540569237826 0 0.038828502104769805 0.0030934208085656146 0 0.039342652988499142 0.0028281748824704107 0 0.038378298190319862 0.0033402246135727938 0 0.038380529780232417 0.0028206367659785849 0 0.038828502104769805 0.0030934208085656146 0 0.038744386703989983 0.0035415584650213792 0 0.038378298190319862 0.0033402246135727938 0 0.038828502104769805 0.0030934208085656146 0 0.038744386703989983 0.0035415584650213792 0 0.038828502104769805 0.0030934208085656146 0 0.039242852087714795 0.0033984826714272718 0 0.038828502104769805 0.0030934208085656146 0 0.039242852087714795 0.0033984826714272718 0 0.039342652988499142 0.0028281748824704107 0 0.039763976206116262 0.0036840250236742514 0 0.039242852087714795 0.0033984826714272718 0 0.039684440482363907 0.0030953854239001155 0 0.039242852087714795 0.0033984826714272718 0 0.039684440482363907 0.0030953854239001155 0 0.039342652988499142 0.0028281748824704107 0 0.039763976206116262 0.0036840250236742514 0 0.039684440482363907 0.0030953854239001155 0 0.040220904212769804 0.0031001871416859489 0 0.039684440482363907 0.0030953854239001155 0 0.040220904212769804 0.0031001871416859489 0 0.039855090741705963 0.0024812673551341713 0 0.040220904212769804 0.0031001871416859489 0 0.039855090741705963 0.0024812673551341713 0 0.040365936044651968 0.0025988947357025063 0 0.039855090741705963 0.0024812673551341713 0 0.040261665337760079 0.002168405365950153 0 0.040365936044651968 0.0025988947357025063 0 0.039855090741705963 0.0024812673551341713 0 0.039342652988499142 0.0028281748824704107 0 0.039185287848923028 0.002219397715240171 0 0.039684440482363907 0.0030953854239001155 0 0.039855090741705963 0.0024812673551341713 0 0.039342652988499142 0.0028281748824704107 0 0.038915301722536287 0.0026317540569237826 0 0.039342652988499142 0.0028281748824704107 0 0.039185287848923028 0.002219397715240171 0 0.039855090741705963 0.0024812673551341713 0 0.039185287848923028 0.002219397715240171 0 0.039881082535513715 0.0018300401826263962 0 0.039185287848923028 0.002219397715240171 0 0.039881082535513715 0.0018300401826263962 0 0.039115903946187448 0.0015775929347774194 0 0.039855090741705963 0.0024812673551341713 0 0.040261665337760079 0.002168405365950153 0 0.039881082535513715 0.0018300401826263962 0 0.040261665337760079 0.002168405365950153 0 0.039881082535513715 0.0018300401826263962 0 0.040669740754693519 0.00183982803023767 0 0.039881082535513715 0.0018300401826263962 0 0.040367250143661049 0.0014192291271225893 0 0.040669740754693519 0.00183982803023767 0 0.039881082535513715 0.0018300401826263962 0 0.040367250143661049 0.0014192291271225893 0 0.039814934698474087 0.0012505299035940648 0 0.039814934698474087 0.0012505299035940648 0 0.039115903946187448 0.0015775929347774194 0 0.039121401125679869 0.0010259401502512656 0 0.039881082535513715 0.0018300401826263962 0 0.039814934698474087 0.0012505299035940648 0 0.039115903946187448 0.0015775929347774194 0 0.040850059329110545 0.00081059599150701842 0 0.041588971485165223 0.00051061973757448003 0 0.039115903946187448 0.0015775929347774194 0 0.038195262558606391 0.0014652877910882691 0 0.039121401125679869 0.0010259401502512656 0 0.039115903946187448 0.0015775929347774194 0 0.038195262558606391 0.0014652877910882691 0 0.038638431854508035 0.0018256328447166638 0 0.044807874611533516 -0.00025873441627652285 0 0.044820939557981596 6.2583548263067088e-05 0 0.044891679827338354 -0.00016241856226513858 0 0.040883890609364898 0.00055591450639326208 0 0.041032034361271758 0.00048448400043356625 0 0.04102935248449209 0.000666528811067735 0 0.040850059329110545 0.00081059599150701842 0 0.042026302183180389 0.0003817748366189939 0 0.038178950214679687 0.0014703281783307071 0 0.038259539745707352 0.0019082827132072642 0 0.038027922353025635 0.001546457293159473 0 0.040850059329110545 0.00081059599150701842 0 0.039607988451385891 0.0013631546908226806 0 0.040850059329110545 0.00081059599150701842 0 0.038257411300331674 0.0013506204193678348 0 0.038178950214679687 0.0014703281783307071 0 0.038259539745707352 0.0019082827132072642 0 0.038638431854508035 0.0018256328447166638 0 0.038259539745707352 0.0019082827132072642 0 0.038551912151400164 0.0023207360087892843 0 0.038638431854508035 0.0018256328447166638 0 0.038259539745707352 0.0019082827132072642 0 0.038551912151400164 0.0023207360087892843 0 0.037959051668609953 0.0024979875909816973 0 0.038259539745707352 0.0019082827132072642 0 0.037959051668609953 0.0024979875909816973 0 0.038027922353025635 0.001546457293159473 0 0.039185287848923028 0.002219397715240171 0 0.038551912151400164 0.0023207360087892843 0 0.038638431854508035 0.0018256328447166638 0 0.039185287848923028 0.002219397715240171 0 0.039115903946187448 0.0015775929347774194 0 0.038638431854508035 0.0018256328447166638 0 0.039145551774617211 0.002216953819595129 0 0.042146478197588121 0.0029344489292095406 0 0.041932368618829402 0.0025890784444033768 0 0.042225926722378015 0.0027825528651469252 0 0.041679304797104771 0.0029350767650177536 0 0.041182475085674124 0.0020699501064843856 0 0.042280961259961523 0.0020737880391598082 0 0.042410243087340517 0.002540227238996837 0 0.042178759310104293 0.0025752341741393267 0 0.042225926722378015 0.0027825528651469252 0 0.042410243087340517 0.002540227238996837 0 0.042178759310104293 0.0025752341741393267 0 0.042142073146185122 0.0023914666627464624 0 0.042178759310104293 0.0025752341741393267 0 0.041932368618829402 0.0025890784444033768 0 0.042142073146185122 0.0023914666627464624 0 0.041926095533010584 0.002537290923822458 0 0.042280961259961523 0.0020737880391598082 0 0.042178759310104293 0.0025752341741393267 0 0.041932368618829402 0.0025890784444033768 0 0.042225926722378015 0.0027825528651469252 0 0.033267894626318809 0.00096292349244413795 0 0.033764074358905306 0.00095869094450733486 0 0.033773255982512608 0.00042207072200523899 0 0.037254325959410049 0.0022065708002093568 0 0.039145551774617211 0.002216953819595129 0 0.041567779860437068 0.0035933194861539116 0 0.041095934045463314 0.0036102416920089655 0 0.041532572392117828 0.0030401478898623513 0 0.041567779860437068 0.0035933194861539116 0 0.042027082033593365 0.0029264066375104137 0 0.041532572392117828 0.0030401478898623513 0 0.041932368618829402 0.0025890784444033768 0 0.041679304797104771 0.0029350767650177536 0 0.041382201029785785 0.0025553110202697154 0 0.041679304797104771 0.0029350767650177536 0 0.041382201029785785 0.0025553110202697154 0 0.040976835844010857 0.003110263646337257 0 0.041382201029785785 0.0025553110202697154 0 0.040976835844010857 0.003110263646337257 0 0.040858573425447776 0.0023123505985996108 0 0.041095934045463314 0.0036102416920089655 0 0.041532572392117828 0.0030401478898623513 0 0.040976835844010857 0.003110263646337257 0 0.042146478197588121 0.0029344489292095406 0 0.040826096026429226 0.0031345227043698223 0 0.040220904212769804 0.0031001871416859489 0 0.040976835844010857 0.003110263646337257 0 0.040365936044651968 0.0025988947357025063 0 0.040505187897245748 0.0037331866790477693 0 0.040220904212769804 0.0031001871416859489 0 0.040976835844010857 0.003110263646337257 0 0.040976835844010857 0.003110263646337257 0 0.040365936044651968 0.0025988947357025063 0 0.040858573425447776 0.0023123505985996108 0 0.040261665337760079 0.002168405365950153 0 0.040858573425447776 0.0023123505985996108 0 0.040669740754693519 0.00183982803023767 0 0.040261665337760079 0.002168405365950153 0 0.040365936044651968 0.0025988947357025063 0 0.040858573425447776 0.0023123505985996108 0 0.040669740754693519 0.00183982803023767 0 0.040872722717695847 0.001394364287828478 0 0.041421447087941321 0.0018898860058972203 0 0.040367250143661049 0.0014192291271225893 0 0.040669740754693519 0.00183982803023767 0 0.040872722717695847 0.001394364287828478 0 0.04087847495017205 0.0013939635146368887 0 0.041676581302713692 0.0018366874114974165 0 0.040872722717695847 0.001394364287828478 0 0.041890749811740548 0.0017422159919032762 0 0.041822350011100753 0.0011394317545015428 0 0.040858573425447776 0.0023123505985996108 0 0.040669740754693519 0.00183982803023767 0 0.041421447087941321 0.0018898860058972203 0 0.041382201029785785 0.0025553110202697154 0 0.040858573425447776 0.0023123505985996108 0 0.041421447087941321 0.0018898860058972203 0 0.041932368618829402 0.0025890784444033768 0 0.041382201029785785 0.0025553110202697154 0 0.041421447087941321 0.0018898860058972203 0 0.041676581302713692 0.0018366874114974165 0 0.042280961259961523 0.0020737880391598082 0 0.041932368618829402 0.0025890784444033768 0 0.041421447087941321 0.0018898860058972203 0 0.04218799788189849 0.0023433336212348248 0 0.041890749811740548 0.0017422159919032762 0 0.042660454493503815 0.0013816890093702482 0 0.042252452909531044 0.0011011083542749229 0 0.041890749811740548 0.0017422159919032762 0 0.042252452909531044 0.0011011083542749229 0 0.041822350011100753 0.0011394317545015428 0 0.043216080558223999 0.0015327299960796318 0 0.042660454493503815 0.0013816890093702482 0 0.042662835527450975 0.0021042402725618661 0 0.041890749811740548 0.0017422159919032762 0 0.042660454493503815 0.0013816890093702482 0 0.042662835527450975 0.0021042402725618661 0 0.044655225825969903 7.2771390972654234e-05 0 0.044508766936455238 0.00019781105907414566 0 0.044630137897269703 9.1391110976731432e-05 0 0.043864338617921265 0.00026682228622783397 0 0.043186873860878328 0.00064332683153062121 0 0.044655225825969903 7.2771390972654234e-05 0 0.044508766936455238 0.00019781105907414566 0 0.044291774515083926 0.00066542967404908818 0 0.0431005951942766 0.00040904991124454773 0 0.042688512257614213 0.00090156411001727165 0 0.042191347297221439 0.00066882836658802871 0 0.043150021750765814 0.00098315985721559251 0 0.042660454493503815 0.0013816890093702482 0 0.042688512257614213 0.00090156411001727165 0 0.042660454493503815 0.0013816890093702482 0 0.042688512257614213 0.00090156411001727165 0 0.042252452909531044 0.0011011083542749229 0 0.042688512257614213 0.00090156411001727165 0 0.042252452909531044 0.0011011083542749229 0 0.042191347297221439 0.00066882836658802871 0 0.042252452909531044 0.0011011083542749229 0 0.042191347297221439 0.00066882836658802871 0 0.041822350011100753 0.0011394317545015428 0 0.044508766936455238 0.00019781105907414566 0 0.044291774515083926 0.00066542967404908818 0 0.04403555428004647 5.1974278507393838e-05 0 0.044291774515083926 0.00066542967404908818 0 0.04403555428004647 5.1974278507393838e-05 0 0.043351149934571641 9.0695796831291811e-05 0 0.043351149934571641 9.0695796831291811e-05 0 0.041337786570830627 0.00098216919078311714 0 0.041378326098042165 0.00010084493192422262 0 0.04403555428004647 5.1974278507393838e-05 0 0.042844295530020227 -0.00018372196109961517 0 0.043351149934571641 9.0695796831291811e-05 0 0.042844295530020227 -0.00018372196109961517 0 0.043351149934571641 9.0695796831291811e-05 0 0.042517104001007243 0.00021919782272752282 0 0.044291774515083926 0.00066542967404908818 0 0.043351149934571641 9.0695796831291811e-05 0 0.041337786570830627 0.00098216919078311714 0 0.043214325550871242 5.2965046767540956e-05 0 0.04182409269399899 0.00021965431489229392 0 0.042191347297221439 0.00066882836658802871 0 0.041822350011100753 0.0011394317545015428 0 0.041337786570830627 0.00098216919078311714 0 0.043186873860878328 0.00064332683153062121 0 0.041468472534476331 0.00098007510263827305 0 0.041337786570830627 0.00098216919078311714 0 0.040829021171343412 0.0006515391835214627 0 0.041378326098042165 0.00010084493192422262 0 0.040872722717695847 0.001394364287828478 0 0.041822350011100753 0.0011394317545015428 0 0.041337786570830627 0.00098216919078311714 0 0.040367250143661049 0.0014192291271225893 0 0.040872722717695847 0.001394364287828478 0 0.040815989392926369 0.0010500178495652689 0 0.040872722717695847 0.001394364287828478 0 0.041337786570830627 0.00098216919078311714 0 0.040815989392926369 0.0010500178495652689 0 0.040815989392926369 0.0010500178495652689 0 0.040829021171343412 0.0006515391835214627 0 0.040451992150559342 0.00069704775635143115 0 0.041337786570830627 0.00098216919078311714 0 0.040815989392926369 0.0010500178495652689 0 0.040829021171343412 0.0006515391835214627 0 0.042844295530020227 -0.00018372196109961517 0 0.042517104001007243 0.00021919782272752282 0 0.04168566383216022 0.00038206794943789699 0 0.04182409269399899 0.00021965431489229392 0 0.041883886237186745 0.00030773753286420728 0 0.043354086959397915 -4.6926563899244923e-05 0 0.041883886237186745 0.00030773753286420728 0 0.043633872403922365 1.9963992243528846e-05 0 0.043335745634831495 -5.9179751852568467e-06 0 0.042917426306253226 0.00034741846976831837 0 0.040829021171343412 0.0006515391835214627 0 0.041378326098042165 0.00010084493192422262 0 0.040218940571196467 0.00038423462376736486 0 0.044991219398363452 -3.987002338694674e-05 0 0.044995649885056423 -2.8318538736391316e-05 0 0.044997273736746168 -2.5711940725155565e-05 0 0.044991219398363452 -3.987002338694674e-05 0 0.044995649885056423 -2.8318538736391316e-05 0 0.044998724416497785 -2.8174597819058107e-05 0 0.044997273736746168 -2.5711940725155565e-05 0 0.044999990470243473 4.3956571643765984e-09 0 0.04499999825720765 -3.1010096436861175e-08 0 0.044995649885056423 -2.8318538736391316e-05 0 0.044997273736746168 -2.5711940725155565e-05 0 0.04499999825720765 -3.1010096436861175e-08 0 0.044997273736746168 -2.5711940725155565e-05 0 0.044999990470243473 4.3956571643765984e-09 0 0.044981597929300753 -3.3155395175284494e-05 0 0.044999990470243473 4.3956571643765984e-09 0 0.044981597929300753 -3.3155395175284494e-05 0 0.044923497058108559 -2.9401409821138612e-05 0 0.043354086959397915 -4.6926563899244923e-05 0 0.044317558886976222 -0.0001776478841966716 0 0.044991219398363452 -3.987002338694674e-05 0 0.044997273736746168 -2.5711940725155565e-05 0 0.044978640157650081 -8.235011573992861e-05 0 0.043633872403922365 1.9963992243528846e-05 0 0.043335745634831495 -5.9179751852568467e-06 0 0.043952404266792325 -0.00017402435817555169 0 0.044997273736746168 -2.5711940725155565e-05 0 0.044981597929300753 -3.3155395175284494e-05 0 0.044978640157650081 -8.235011573992861e-05 0 0.044108573165659977 -2.3397901374598425e-05 0 0.04446513886589662 -0.00011207092151569706 0 0.044981597929300753 -3.3155395175284494e-05 0 0.044978640157650081 -8.235011573992861e-05 0 0.044923497058108559 -2.9401409821138612e-05 0 0.043633872403922365 1.9963992243528846e-05 0 0.043952404266792325 -0.00017402435817555169 0 0.044474766815317847 -0.00014185139261590368 0 0.04446513886589662 -0.00011207092151569706 0 0.044670522828047961 -0.00012396784373180464 0 0.044978640157650081 -8.235011573992861e-05 0 0.044923497058108559 -2.9401409821138612e-05 0 0.044730803961326317 -0.00011731439338484557 0 0.04403555428004647 5.1974278507393838e-05 0 0.042844295530020227 -0.00018372196109961517 0 0.044474766815317847 -0.00014185139261590368 0 0.043952404266792325 -0.00017402435817555169 0 0.044474766815317847 -0.00014185139261590368 0 0.044730803961326317 -0.00011731439338484557 0 0.044508766936455238 0.00019781105907414566 0 0.04403555428004647 5.1974278507393838e-05 0 0.044543613472360882 9.5020114157520512e-06 0 0.04403555428004647 5.1974278507393838e-05 0 0.044474766815317847 -0.00014185139261590368 0 0.044543613472360882 9.5020114157520512e-06 0 0.044474766815317847 -0.00014185139261590368 0 0.044619245446452918 -7.373342910123292e-05 0 0.044543613472360882 9.5020114157520512e-06 0 0.044474766815317847 -0.00014185139261590368 0 0.044730803961326317 -0.00011731439338484557 0 0.044619245446452918 -7.373342910123292e-05 0 0.044999990470243473 4.3956571643765984e-09 0 0.044923497058108559 -2.9401409821138612e-05 0 0.044999497231551576 -7.585448400217941e-08 0 0.044923497058108559 -2.9401409821138612e-05 0 0.044999497231551576 -7.585448400217941e-08 0 0.044730803961326317 -0.00011731439338484557 0 0.044854701915083332 -5.2389905706712756e-05 0 0.04473659054173322 -1.3406673067067431e-05 0 0.044730803961326317 -0.00011731439338484557 0 0.044999497231551576 -7.585448400217941e-08 0 0.044854701915083332 -5.2389905706712756e-05 0 0.044730803961326317 -0.00011731439338484557 0 0.044907199195151432 -3.5126221634043985e-05 0 0.044999497231551576 -7.585448400217941e-08 0 0.044854701915083332 -5.2389905706712756e-05 0 0.044907199195151432 -3.5126221634043985e-05 0 0.044854701915083332 -5.2389905706712756e-05 0 0.04473659054173322 -1.3406673067067431e-05 0 0.044566956832944329 0.00017112697513649658 0 0.04473659054173322 -1.3406673067067431e-05 0 0.044630137897269703 9.1391110976731432e-05 0 0.04473659054173322 -1.3406673067067431e-05 0 0.044730803961326317 -0.00011731439338484557 0 0.044619245446452918 -7.373342910123292e-05 0 0.04473659054173322 -1.3406673067067431e-05 0 0.044619245446452918 -7.373342910123292e-05 0 0.044543613472360882 9.5020114157520512e-06 0 0.04473659054173322 -1.3406673067067431e-05 0 0.044543613472360882 9.5020114157520512e-06 0 0.044630137897269703 9.1391110976731432e-05 0 0.044508766936455238 0.00019781105907414566 0 0.044543613472360882 9.5020114157520512e-06 0 0.044630137897269703 9.1391110976731432e-05 0 0.044932051751991407 0.00010114416272685177 0 0.044894223235423567 0.00010113847014856025 0 0.044950671151100442 0.00012319353554729725 0 0.044949900579301254 9.9371970863251441e-05 0 0.044932051751991407 0.00010114416272685177 0 0.044950671151100442 0.00012319353554729725 0 0.044949900579301254 9.9371970863251441e-05 0 0.044932051751991407 0.00010114416272685177 0 0.044950901634466432 6.884165535949081e-05 0 0.044949900579301254 9.9371970863251441e-05 0 0.044970209402025174 8.1389174845813842e-05 0 0.044950901634466432 6.884165535949081e-05 0 0.044932051751991407 0.00010114416272685177 0 0.044894223235423567 0.00010113847014856025 0 0.044950901634466432 6.884165535949081e-05 0 0.04491050721852681 8.8291341682681469e-05 0 0.044894223235423567 0.00010113847014856025 0 0.044950901634466432 6.884165535949081e-05 0 0.04491050721852681 8.8291341682681469e-05 0 0.044875117696577684 0.00015081265895129707 0 0.044911856202284474 4.5427466777910998e-05 0 0.045108374220131288 -6.4754381335644211e-05 0 0.044916607818867221 4.3215693535635285e-05 0 0.04491050721852681 8.8291341682681469e-05 0 0.044871616201568154 0.0001144260284333865 0 0.044875117696577684 0.00015081265895129707 0 0.04491050721852681 8.8291341682681469e-05 0 0.044871616201568154 0.0001144260284333865 0 0.044894223235423567 0.00010113847014856025 0 0.045108374220131288 -6.4754381335644211e-05 0 0.042026302183180389 0.0003817748366189939 0 0.044807874611533516 -0.00025873441627652285 0 0.044820939557981596 6.2583548263067088e-05 0 0.044101324221888477 -1.7707962830352592e-05 0 0.044875117696577684 0.00015081265895129707 0 0.044820939557981596 6.2583548263067088e-05 0 0.044891679827338354 -0.00016241856226513858 0 0.044871616201568154 0.0001144260284333865 0 0.044894223235423567 0.00010113847014856025 0 0.044820939557981596 6.2583548263067088e-05 0 0.044871616201568154 0.0001144260284333865 0 0.044875117696577684 0.00015081265895129707 0 0.044820939557981596 6.2583548263067088e-05 0 0.044820939557981596 6.2583548263067088e-05 0 0.044101324221888477 -1.7707962830352592e-05 0 0.044087818269445321 0.00025616850102136727 0 0.044663258462052081 0.0001030339977369844 0 0.04487187531052754 0.00014209875735728342 0 0.044894223235423567 0.00010113847014856025 0 0.044820939557981596 6.2583548263067088e-05 0 0.044950671151100442 0.00012319353554729725 0 0.039814934698474087 0.0012505299035940648 0 0.039121401125679869 0.0010259401502512656 0 0.040136041015720776 0.0005227877629601917 0 0.04487187531052754 0.00014209875735728342 0 0.042446147330383002 0.00026035053930974938 0 0.044101324221888477 -1.7707962830352592e-05 0 0.044087818269445321 0.00025616850102136727 0 0.043183515054325619 0.00040984101485354898 0 0.041588971485165223 0.00051061973757448003 0 0.042446147330383002 0.00026035053930974938 0 0.039814934698474087 0.0012505299035940648 0 0.040332896495191096 0.0010043373007847178 0 0.040136041015720776 0.0005227877629601917 0 0.040367250143661049 0.0014192291271225893 0 0.040815989392926369 0.0010500178495652689 0 0.040332896495191096 0.0010043373007847178 0 0.040367250143661049 0.0014192291271225893 0 0.039814934698474087 0.0012505299035940648 0 0.040332896495191096 0.0010043373007847178 0 0.040782733439221931 0.00053557543578182897 0 0.042446147330383002 0.00026035053930974938 0 0.040829021171343412 0.0006515391835214627 0 0.040451992150559342 0.00069704775635143115 0 0.040218940571196467 0.00038423462376736486 0 0.040332896495191096 0.0010043373007847178 0 0.040451992150559342 0.00069704775635143115 0 0.040042920693188912 0.00042550594068531525 0 0.040815989392926369 0.0010500178495652689 0 0.040332896495191096 0.0010043373007847178 0 0.040451992150559342 0.00069704775635143115 0 0.044991219398363452 -3.987002338694674e-05 0 0.044997090185566815 -3.321604397957366e-05 0 0.044998724416497785 -2.8174597819058107e-05 0 0.044108573165659977 -2.3397901374598425e-05 0 0.044232999234584472 0.00031183693481110105 0 0.043335745634831495 -5.9179751852568467e-06 0 0.042917426306253226 0.00034741846976831837 0 0.042766692297774869 0.00021996256260238913 0 0.040451992150559342 0.00069704775635143115 0 0.040218940571196467 0.00038423462376736486 0 0.040042920693188912 0.00042550594068531525 0 0.042446147330383002 0.00026035053930974938 0 0.044232999234584472 0.00031183693481110105 0 0.041883886237186745 0.00030773753286420728 0 0.042446147330383002 0.00026035053930974938 0 0.042917426306253226 0.00034741846976831837 0 0.042824865192551853 0.00036544332862673717 0 0.042766692297774869 0.00021996256260238913 0 0.045001877048987074 9.9439519709754257e-05 0 0.044970209402025174 8.1389174845813842e-05 0 0.044994264351201074 4.1274437572484185e-05 0 0.044950671151100442 0.00012319353554729725 0 0.044937101225593044 0.0001097724946564526 0 0.044951200066340853 0.0001162303274385994 0 0.044949900579301254 9.9371970863251441e-05 0 0.044950671151100442 0.00012319353554729725 0 0.044951200066340853 0.0001162303274385994 0 0.044949900579301254 9.9371970863251441e-05 0 0.044951200066340853 0.0001162303274385994 0 0.044970209402025174 8.1389174845813842e-05 0 0.044232999234584472 0.00031183693481110105 0 0.045136721889890978 2.7884640510505487e-05 0 0.044937101225593044 0.0001097724946564526 0 0.044937881346447876 0.00011499684856380459 0 0.044951200066340853 0.0001162303274385994 0 0.045001877048987074 9.9439519709754257e-05 0 0.044951200066340853 0.0001162303274385994 0 0.044970209402025174 8.1389174845813842e-05 0 0.044232999234584472 0.00031183693481110105 0 0.045052179285102523 -4.3965404235713914e-06 0 0.044970209402025174 8.1389174845813842e-05 0 0.044994264351201074 4.1274437572484185e-05 0 0.044950901634466432 6.884165535949081e-05 0 0.044997090185566815 -3.321604397957366e-05 0 0.045005390049406055 -1.8763433861761276e-05 0 0.044998724416497785 -2.8174597819058107e-05 0 0.044995649885056423 -2.8318538736391316e-05 0 0.044998724416497785 -2.8174597819058107e-05 0 0.04499999825720765 -3.1010096436861175e-08 0 0.045005390049406055 -1.8763433861761276e-05 0 0.044998724416497785 -2.8174597819058107e-05 0 0.04499999825720765 -3.1010096436861175e-08 0 0.045005390049406055 -1.8763433861761276e-05 0 0.04499999825720765 -3.1010096436861175e-08 0 0.045000022969832375 1.7885440756680507e-09 0 0.045052179285102523 -4.3965404235713914e-06 0 0.044999980400033654 -5.5837861443770878e-09 0 0.044994264351201074 4.1274437572484185e-05 0 0.045000000579025111 1.1938426160405616e-08 0 0.044978989268345294 2.547961939551284e-05 0 0.045000000579025111 1.1938426160405616e-08 0 0.044999968341328238 1.1527757124685933e-08 0 0.044978989268345294 2.547961939551284e-05 0 0.044999968341328238 1.1527757124685933e-08 0 0.044978989268345294 2.547961939551284e-05 0 0.044964542888702316 2.1117544925964298e-05 0 0.044978989268345294 2.547961939551284e-05 0 0.044950901634466432 6.884165535949081e-05 0 0.044964542888702316 2.1117544925964298e-05 0 0.044994264351201074 4.1274437572484185e-05 0 0.044978989268345294 2.547961939551284e-05 0 0.044950901634466432 6.884165535949081e-05 0 0.04491050721852681 8.8291341682681469e-05 0 0.044950901634466432 6.884165535949081e-05 0 0.044964542888702316 2.1117544925964298e-05 0 0.04491050721852681 8.8291341682681469e-05 0 0.044911856202284474 4.5427466777910998e-05 0 0.044964542888702316 2.1117544925964298e-05 0 0.044911856202284474 4.5427466777910998e-05 0 0.044999909119638734 -7.121245763358565e-10 0 0.044964542888702316 2.1117544925964298e-05 0 0.044999968341328238 1.1527757124685933e-08 0 0.044999909119638734 -7.121245763358565e-10 0 0.044964542888702316 2.1117544925964298e-05 0 0.044916607818867221 4.3215693535635285e-05 0 0.044999972773574808 -2.2246126277567797e-08 0 0.044999928646318799 -6.8861620391882812e-09 0 0.044971891416072093 -6.2009648403070274e-06 0 0.044999995877565112 6.8624487945047882e-09 0 0.044947909735726196 -1.2835985869430819e-05 0 0.044999928646318799 -6.8861620391882812e-09 0 0.044971891416072093 -6.2009648403070274e-06 0 0.044999995877565112 6.8624487945047882e-09 0 0.044964672466408194 -7.5909530952415336e-06 0 0.044999840037716544 -4.554999959171042e-08 0 0.044971891416072093 -6.2009648403070274e-06 0 0.044999995877565112 6.8624487945047882e-09 0 0.044964672466408194 -7.5909530952415336e-06 0 0.045924734673090044 -0.00024261740096017336 0 0.040243794169139237 -0.00044386467251285137 0 0.044964672466408194 -7.5909530952415336e-06 0 0.044936965893025954 -2.3121782060084408e-05 0 0.04492015923454655 -3.3214351001165169e-05 0 0.044971891416072093 -6.2009648403070274e-06 0 0.044964672466408194 -7.5909530952415336e-06 0 0.044936965893025954 -2.3121782060084408e-05 0 0.044947909735726196 -1.2835985869430819e-05 0 0.044971891416072093 -6.2009648403070274e-06 0 0.044936965893025954 -2.3121782060084408e-05 0 0.044903951690414688 -3.4292537762623504e-05 0 0.044947909735726196 -1.2835985869430819e-05 0 0.044936965893025954 -2.3121782060084408e-05 0 0.044903951690414688 -3.4292537762623504e-05 0 0.044936965893025954 -2.3121782060084408e-05 0 0.044909110473915957 -4.5316004295491505e-05 0 0.044936965893025954 -2.3121782060084408e-05 0 0.044909110473915957 -4.5316004295491505e-05 0 0.04492015923454655 -3.3214351001165169e-05 0 0.041844811412989111 -5.2201065587952533e-05 0 0.040243794169139237 -0.00044386467251285137 0 0.044903951690414688 -3.4292537762623504e-05 0 0.044909110473915957 -4.5316004295491505e-05 0 0.044868524512300383 -6.2512019003738972e-05 0 0.041844811412989111 -5.2201065587952533e-05 0 0.042026302183180389 0.0003817748366189939 0 0.034182696023112656 0.0004620787089750096 0 0.03358523724133558 0.00020407700047278204 0 0.033397637160272657 0.00069493551366179532 0 0.034182696023112656 0.0004620787089750096 0 0.034028711599888198 -0.00030011703166447635 0 0.03358523724133558 0.00020407700047278204 0 0.034182696023112656 0.0004620787089750096 0 0.034669839140547262 -0.00035090587793037227 0 0.034028711599888198 -0.00030011703166447635 0 0.034956639623474874 0.00056192199012896358 0 0.040243794169139237 -0.00044386467251285137 0 0.038463426379149429 -0.00015639354135110192 0 0.036741362114995207 0.00039929834109239974 0 0.037392744827009994 -0.0009805204578393473 0 0.040243794169139237 -0.00044386467251285137 0 0.041585005308832967 -0.00015709298630327807 0 0.034669839140547262 -0.00035090587793037227 0 0.034028711599888198 -0.00030011703166447635 0 0.033927471048742712 -0.00094534580704014977 0 0.034028711599888198 -0.00030011703166447635 0 0.033423545517951299 -0.00033792450881177112 0 0.03358523724133558 0.00020407700047278204 0 0.041585005308832967 -0.00015709298630327807 0 0.03784323444949033 0.0001604750089948019 0 0.034028711599888198 -0.00030011703166447635 0 0.033927471048742712 -0.00094534580704014977 0 0.033423545517951299 -0.00033792450881177112 0 0.041585005308832967 -0.00015709298630327807 0 0.045456318365988381 0.0010493839354714597 0 0.044964672466408194 -7.5909530952415336e-06 0 0.044906659813897382 1.7167741467657485e-05 0 0.044896600643611541 -1.121523876074353e-06 0 0.044964672466408194 -7.5909530952415336e-06 0 0.044896600643611541 -1.121523876074353e-06 0 0.044999840037716544 -4.554999959171042e-08 0 0.045000486306782453 2.816814261755281e-07 0 0.044999605655971435 -2.4553066190101797e-07 0 0.04508435768839144 0.0003091350434064471 0 0.041585005308832967 -0.00015709298630327807 0 0.045003265734013129 -1.3402089384325504e-06 0 0.045071274060182395 0.00028174346763252178 0 0.045000486306782453 2.816814261755281e-07 0 0.04508435768839144 0.0003091350434064471 0 0.044999605655971435 -2.4553066190101797e-07 0 0.04508435768839144 0.0003091350434064471 0 0.045083194951797516 0.00059186316033879886 0 0.044999605655971435 -2.4553066190101797e-07 0 0.045083194951797516 0.00059186316033879886 0 0.045002242039586075 2.3093111066273176e-06 0 0.045083194951797516 0.00059186316033879886 0 0.045040930421654177 0.001008770954399957 0 0.045094771549816066 0.00072031656854825593 0 0.045265997491673995 0.00051641204785673317 0 0.045106476902423268 0.00054456037904742477 0 0.045094771549816066 0.00072031656854825593 0 0.04508435768839144 0.0003091350434064471 0 0.045083194951797516 0.00059186316033879886 0 0.045106476902423268 0.00054456037904742477 0 0.045083194951797516 0.00059186316033879886 0 0.045106476902423268 0.00054456037904742477 0 0.045094771549816066 0.00072031656854825593 0 0.045265997491673995 0.00051641204785673317 0 0.04508435768839144 0.0003091350434064471 0 0.045106476902423268 0.00054456037904742477 0 0.044992045899490879 -5.0383399071357164e-06 0 0.044922784488892961 0.00077163120715479446 0 0.043975226054386321 0.0024747495267805472 0 0.045083194951797516 0.00059186316033879886 0 0.044922784488892961 0.00077163120715479446 0 0.045002242039586075 2.3093111066273176e-06 0 0.044992045899490879 -5.0383399071357164e-06 0 0.044922784488892961 0.00077163120715479446 0 0.045002242039586075 2.3093111066273176e-06 0 0.045083194951797516 0.00059186316033879886 0 0.044922784488892961 0.00077163120715479446 0 0.045040930421654177 0.001008770954399957 0 0.044922784488892961 0.00077163120715479446 0 0.043975226054386321 0.0024747495267805472 0 0.045040930421654177 0.001008770954399957 0 0.038330083019170472 0.0016873046978440063 0 0.039092218938068496 0.0010336967481601889 0 0.033112591138787027 0.0012251587774672731 0 0.03294444362771061 0.00059119347175337438 0 0.03271742694865451 0.00072514410998343376 0 0.03294444362771061 0.00059119347175337438 0 0.03271742694865451 0.00072514410998343376 0 0.032677248370363794 0.00047417141682928556 0 0.03294444362771061 0.00059119347175337438 0 0.032677248370363794 0.00047417141682928556 0 0.032171187953879618 0.00048044836750006192 0 0.03294444362771061 0.00059119347175337438 0 0.032171187953879618 0.00048044836750006192 0 0.032664554407398801 0.00043149576686212594 0 0.039092218938068496 0.0010336967481601889 0 0.03784323444949033 0.0001604750089948019 0 0.03271742694865451 0.00072514410998343376 0 0.03273440708409385 0.00054609187692302005 0 0.032757874511947969 0.00053526363736283039 0 0.03271742694865451 0.00072514410998343376 0 0.032677248370363794 0.00047417141682928556 0 0.032757874511947969 0.00053526363736283039 0 0.032677248370363794 0.00047417141682928556 0 0.032859379003707501 0.0004453126061391525 0 0.032645442619431655 0.00064351337661210117 0 0.032677248370363794 0.00047417141682928556 0 0.032757874511947969 0.00053526363736283039 0 0.032859379003707501 0.0004453126061391525 0 0.03273440708409385 0.00054609187692302005 0 0.032757874511947969 0.00053526363736283039 0 0.032859379003707501 0.0004453126061391525 0 0.032859379003707501 0.0004453126061391525 0 0.03358523724133558 0.00020407700047278204 0 0.033397637160272657 0.00069493551366179532 0 0.03784323444949033 0.0001604750089948019 0 0.031649235081744075 0.00091748678381976096 0 0.033423545517951299 -0.00033792450881177112 0 0.032859379003707501 0.0004453126061391525 0 0.03358523724133558 0.00020407700047278204 0 0.032859379003707501 0.0004453126061391525 0 0.033397637160272657 0.00069493551366179532 0 0.033049325284554253 0.00098287584796199188 0 0.032859379003707501 0.0004453126061391525 0 0.033049325284554253 0.00098287584796199188 0 0.032645442619431655 0.00064351337661210117 0 0.033049325284554253 0.00098287584796199188 0 0.032645442619431655 0.00064351337661210117 0 0.032478466676153062 0.0011551540293026725 0 0.033049325284554253 0.00098287584796199188 0 0.033429367372220013 0.0016096108925644306 0 0.033726465565467142 0.0010810534854920797 0 0.033397637160272657 0.00069493551366179532 0 0.033049325284554253 0.00098287584796199188 0 0.033726465565467142 0.0010810534854920797 0 0.032677248370363794 0.00047417141682928556 0 0.032171187953879618 0.00048044836750006192 0 0.032645442619431655 0.00064351337661210117 0 0.032036910510360186 0.00046226187330453155 0 0.03176154838542436 0.00053157929006706196 0 0.032171187953879618 0.00048044836750006192 0 0.032645442619431655 0.00064351337661210117 0 0.032478466676153062 0.0011551540293026725 0 0.032171187953879618 0.00048044836750006192 0 0.031643488146775332 -8.8273400354631202e-05 0 0.032093371946425253 -3.5097927533378797e-05 0 0.032171187953879618 0.00048044836750006192 0 0.030865331616820108 -0.00015971178902852997 0 0.031643488146775332 -8.8273400354631202e-05 0 0.030829140786420735 -0.00071807835044165771 0 0.03096852515921986 -0.00099000034768528767 0 0.031479747701786805 -0.00055373286440679888 0 0.031643488146775332 -8.8273400354631202e-05 0 0.030829140786420735 -0.00071807835044165771 0 0.031479747701786805 -0.00055373286440679888 0 0.030865331616820108 -0.00015971178902852997 0 0.030829140786420735 -0.00071807835044165771 0 0.030304415303262527 -0.00082775591849481775 0 0.03176154838542436 0.00053157929006706196 0 0.031286199566968244 0.00013469891598135773 0 0.030865331616820108 -0.00015971178902852997 0 0.031643488146775332 -8.8273400354631202e-05 0 0.030829140786420735 -0.00071807835044165771 0 0.030829140786420735 -0.00071807835044165771 0 0.030526519468304467 -0.0011075825305479684 0 0.03096852515921986 -0.00099000034768528767 0 0.030829140786420735 -0.00071807835044165771 0 0.030526519468304467 -0.0011075825305479684 0 0.030304415303262527 -0.00082775591849481775 0 0.030526519468304467 -0.0011075825305479684 0 0.03096852515921986 -0.00099000034768528767 0 0.030686349693132844 -0.0012238431552387221 0 0.033049325284554253 0.00098287584796199188 0 0.032478466676153062 0.0011551540293026725 0 0.032816374713241538 0.001671622474029566 0 0.033049325284554253 0.00098287584796199188 0 0.033429367372220013 0.0016096108925644306 0 0.032816374713241538 0.001671622474029566 0 0.030526519468304467 -0.0011075825305479684 0 0.030304415303262527 -0.00082775591849481775 0 0.030311217191992947 -0.0012069021622016366 0 0.031286199566968244 0.00013469891598135773 0 0.033290130257153133 0.0016119447115089235 0 0.030304415303262527 -0.00082775591849481775 0 0.030082873034662082 -0.0012270636096914798 0 0.030311217191992947 -0.0012069021622016366 0 0.035598245606125074 0.0028212893482004041 0 0.035695452555932219 0.0032438841620280839 0 0.035208123570025993 0.0035972249637565498 0 0.034562547663970752 0.0024387458113446746 0 0.033290130257153133 0.0016119447115089235 0 0.033429367372220013 0.0016096108925644306 0 0.032816374713241538 0.001671622474029566 0 0.033165153694221454 0.0021618249464284162 0 0.035695452555932219 0.0032438841620280839 0 0.035941273132101478 0.0033344589697010636 0 0.036042871135327989 0.0029487612132350501 0 0.035695452555932219 0.0032438841620280839 0 0.035941273132101478 0.0033344589697010636 0 0.035714153483498962 0.0035035083198498686 0 0.035941273132101478 0.0033344589697010636 0 0.036332721467987175 0.0032511605011467152 0 0.036379737557801363 0.0037250425698078463 0 0.035941273132101478 0.0033344589697010636 0 0.036042871135327989 0.0029487612132350501 0 0.036332721467987175 0.0032511605011467152 0 0.036042871135327989 0.0029487612132350501 0 0.036508062794126661 0.0029722475288892544 0 0.036332721467987175 0.0032511605011467152 0 0.035598245606125074 0.0028212893482004041 0 0.035695452555932219 0.0032438841620280839 0 0.036042871135327989 0.0029487612132350501 0 0.035598245606125074 0.0028212893482004041 0 0.035905145837169979 0.0025128643748151551 0 0.036118450101692089 0.0017571375206162536 0 0.035905145837169979 0.0025128643748151551 0 0.036357708578175232 0.0026463283445010903 0 0.03659091346133065 0.0022142897793254756 0 0.035979152112544294 0.0025013506911032261 0 0.036841677909740987 0.0021497363722561944 0 0.034562547663970752 0.0024387458113446746 0 0.03499964523531033 0.0013245419587133759 0 0.035598245606125074 0.0028212893482004041 0 0.036042871135327989 0.0029487612132350501 0 0.035905145837169979 0.0025128643748151551 0 0.036042871135327989 0.0029487612132350501 0 0.036357708578175232 0.0026463283445010903 0 0.036508062794126661 0.0029722475288892544 0 0.036042871135327989 0.0029487612132350501 0 0.035905145837169979 0.0025128643748151551 0 0.036357708578175232 0.0026463283445010903 0 0.036825698515639202 0.0025754589948150486 0 0.036357708578175232 0.0026463283445010903 0 0.03659091346133065 0.0022142897793254756 0 0.036825698515639202 0.0025754589948150486 0 0.036357708578175232 0.0026463283445010903 0 0.036508062794126661 0.0029722475288892544 0 0.036825698515639202 0.0025754589948150486 0 0.036508062794126661 0.0029722475288892544 0 0.036921394445414403 0.0029618530304332267 0 0.036508062794126661 0.0029722475288892544 0 0.036785604873100133 0.0032883016555100963 0 0.036921394445414403 0.0029618530304332267 0 0.036332721467987175 0.0032511605011467152 0 0.036785604873100133 0.0032883016555100963 0 0.036379737557801363 0.0037250425698078463 0 0.036508062794126661 0.0029722475288892544 0 0.036332721467987175 0.0032511605011467152 0 0.036785604873100133 0.0032883016555100963 0 0.036785604873100133 0.0032883016555100963 0 0.037238067860370337 0.003145468203243715 0 0.037444316410795341 0.0035140470923000627 0 0.036785604873100133 0.0032883016555100963 0 0.037238067860370337 0.003145468203243715 0 0.036921394445414403 0.0029618530304332267 0 0.037238067860370337 0.003145468203243715 0 0.036921394445414403 0.0029618530304332267 0 0.037329533191616728 0.0027206919022866385 0 0.038329597009186998 0.0033461560665506563 0 0.03738342474130283 0.0035018798918407925 0 0.038378298190319862 0.0033402246135727938 0 0.037789634176270889 0.0030223448456156883 0 0.037444316410795341 0.0035140470923000627 0 0.037238067860370337 0.003145468203243715 0 0.037789634176270889 0.0030223448456156883 0 0.037329533191616728 0.0027206919022866385 0 0.037238067860370337 0.003145468203243715 0 0.037789634176270889 0.0030223448456156883 0 0.037444316410795341 0.0035140470923000627 0 0.037789634176270889 0.0030223448456156883 0 0.037959051668609953 0.0024979875909816973 0 0.037329533191616728 0.0027206919022866385 0 0.037959051668609953 0.0024979875909816973 0 0.037329533191616728 0.0027206919022866385 0 0.037291550153543754 0.0018819727196265207 0 0.036825698515639202 0.0025754589948150486 0 0.037329533191616728 0.0027206919022866385 0 0.037291550153543754 0.0018819727196265207 0 0.036825698515639202 0.0025754589948150486 0 0.036921394445414403 0.0029618530304332267 0 0.037329533191616728 0.0027206919022866385 0 0.037657235614539042 0.0017586245455584375 0 0.036841677909740987 0.0021497363722561944 0 0.038301707477121846 0.0015754598989971644 0 0.037552135177815402 0.0010876926780235946 0 0.037056431766385935 0.0021156131679561604 0 0.036825698515639202 0.0025754589948150486 0 0.037291550153543754 0.0018819727196265207 0 0.03659091346133065 0.0022142897793254756 0 0.037959051668609953 0.0024979875909816973 0 0.037291550153543754 0.0018819727196265207 0 0.03801204311551027 0.0015337301373154197 0 0.03759262052505203 0.0025345190612862203 0 0.039607988451385891 0.0013631546908226806 0 0.038463426379149429 -0.00015639354135110192 0 0.038691618070979039 0.00080575057581581142 0 0.039554847244188861 0.00067530382851608477 0 0.037657235614539042 0.0017586245455584375 0 0.039607988451385891 0.0013631546908226806 0 0.038301707477121846 0.0015754598989971644 0 0.039542715271036526 0.00099511151639452276 0 0.038691618070979039 0.00080575057581581142 0 0.039542715271036526 0.00099511151639452276 0 0.038691618070979039 0.00080575057581581142 0 0.039554847244188861 0.00067530382851608477 0 0.039607988451385891 0.0013631546908226806 0 0.042026302183180389 0.0003817748366189939 0 0.038301707477121846 0.0015754598989971644 0 0.038691618070979039 0.00080575057581581142 0 0.037552135177815402 0.0010876926780235946 0 0.038463426379149429 -0.00015639354135110192 0 0.038691618070979039 0.00080575057581581142 0 0.037552135177815402 0.0010876926780235946 0 0.036741362114995207 0.00039929834109239974 0 0.037552135177815402 0.0010876926780235946 0 0.036118450101692089 0.0017571375206162536 0 0.038463426379149429 -0.00015639354135110192 0 0.036741362114995207 0.00039929834109239974 0 0.037552135177815402 0.0010876926780235946 0 0.034182696023112656 0.0004620787089750096 0 0.033397637160272657 0.00069493551366179532 0 0.033726465565467142 0.0010810534854920797 0 0.034956639623474874 0.00056192199012896358 0 0.03499964523531033 0.0013245419587133759 0 0.035905145837169979 0.0025128643748151551 0 0.036118450101692089 0.0017571375206162536 0 0.037056431766385935 0.0021156131679561604 0 0.037552135177815402 0.0010876926780235946 0 0.036118450101692089 0.0017571375206162536 0 0.037056431766385935 0.0021156131679561604 0 0.039402527255389959 2.1433666978346191e-06 0 0.042588725814609617 -1.4111768596557383e-06 0 0.043682421708821723 -0.00014471071206143994 0 0.039396645611848823 5.300374389978736e-07 0 0.039500415822256961 0.00092621628140453205 0 0.039402527255389959 2.1433666978346191e-06 0 0.041921618499553795 0.00052405305032764929 0 0.042588725814609617 -1.4111768596557383e-06 0 0.035707540980011727 0.0013133870663096566 0 0.036831361588513009 0.0017111757673239081 0 0.035427337925668739 0.0023674497359086125 0 0.035707540980011727 0.0013133870663096566 0 0.036831361588513009 0.0017111757673239081 0 0.035915671629035945 0.00054112782461478528 0 0.041921618499553795 0.00052405305032764929 0 0.04279213878056632 0.00015121019427973321 0 0.043425750249795753 0.00040382618626269573 0 0.039500415822256961 0.00092621628140453205 0 0.038684687220140797 0.0010761636599718857 0 0.04279213878056632 0.00015121019427973321 0 0.042588725814609617 -1.4111768596557383e-06 0 0.043329808647081594 -3.2084136220587429e-05 0 0.041921618499553795 0.00052405305032764929 0 0.04279213878056632 0.00015121019427973321 0 0.042588725814609617 -1.4111768596557383e-06 0 0.042588725814609617 -1.4111768596557383e-06 0 0.043329808647081594 -3.2084136220587429e-05 0 0.043675751211032711 -0.00017498784665557842 0 0.041233990096666499 0.00082035606354134889 0 0.038684687220140797 0.0010761636599718857 0 0.04279213878056632 0.00015121019427973321 0 0.043329808647081594 -3.2084136220587429e-05 0 0.043425750249795753 0.00040382618626269573 0 0.039402527255389959 2.1433666978346191e-06 0 0.043682421708821723 -0.00014471071206143994 0 0.044998066039116345 -1.2022034314976557e-06 0 0.043682421708821723 -0.00014471071206143994 0 0.044998066039116345 -1.2022034314976557e-06 0 0.044997617352232885 3.0260220024841301e-07 0 0.044997617352232885 3.0260220024841301e-07 0 0.043675751211032711 -0.00017498784665557842 0 0.043767362671907742 -0.00019110481673829225 0 0.043682421708821723 -0.00014471071206143994 0 0.044997617352232885 3.0260220024841301e-07 0 0.043675751211032711 -0.00017498784665557842 0 0.043329808647081594 -3.2084136220587429e-05 0 0.043675751211032711 -0.00017498784665557842 0 0.043767362671907742 -0.00019110481673829225 0 0.042588725814609617 -1.4111768596557383e-06 0 0.043682421708821723 -0.00014471071206143994 0 0.043675751211032711 -0.00017498784665557842 0 0.044800115902753256 3.4495262434983749e-06 0 0.03901771717138771 0.00062344391242343206 0 0.0449489140198003 1.7879817639373009e-05 0 0.044950647781346401 2.0657683551960662e-05 0 0.044895785435702239 4.4384317141766279e-05 0 0.044999958030310996 1.5240722831310018e-09 0 0.0449489140198003 1.7879817639373009e-05 0 0.044999912035768107 1.8768743052482692e-08 0 0.044753586739240479 -0.00012031709061296276 0 0.044800115902753256 3.4495262434983749e-06 0 0.044999912035768107 1.8768743052482692e-08 0 0.044950647781346401 2.0657683551960662e-05 0 0.044969520852010579 1.5024219995470483e-05 0 0.0449489140198003 1.7879817639373009e-05 0 0.044999912035768107 1.8768743052482692e-08 0 0.044950647781346401 2.0657683551960662e-05 0 0.044950647781346401 2.0657683551960662e-05 0 0.044895785435702239 4.4384317141766279e-05 0 0.044934098481508498 3.5596619343425147e-05 0 0.03901771717138771 0.00062344391242343206 0 0.039329767881554553 0.00047036747413970625 0 0.033811241717729985 0.00090029217629598586 0 0.03349951919872475 0.00079749878693393316 0 0.033589884233332569 0.00097644075837760266 0 0.043329808647081594 -3.2084136220587429e-05 0 0.043767362671907742 -0.00019110481673829225 0 0.043609005859980378 3.1218469354171053e-05 0 0.043329808647081594 -3.2084136220587429e-05 0 0.043609005859980378 3.1218469354171053e-05 0 0.043365922615104094 0.00013911631453547696 0 0.03901771717138771 0.00062344391242343206 0 0.038684687220140797 0.0010761636599718857 0 0.033478203063584025 0.0011607880201508884 0 0.033912570463887785 0.0014340793776902014 0 0.033510841217551796 0.0005790881820188161 0 0.035707540980011727 0.0013133870663096566 0 0.035427337925668739 0.0023674497359086125 0 0.034750203734969322 0.00071074473047901454 0 0.033478203063584025 0.0011607880201508884 0 0.033092995656194626 0.00086298871590896912 0 0.033510841217551796 0.0005790881820188161 0 0.03343923148462577 0.0016628359460340747 0 0.033478203063584025 0.0011607880201508884 0 0.033912570463887785 0.0014340793776902014 0 0.038684687220140797 0.0010761636599718857 0 0.033685779444279668 0.00068413135548130665 0 0.03343923148462577 0.0016628359460340747 0 0.033478203063584025 0.0011607880201508884 0 0.033092995656194626 0.00086298871590896912 0 0.033811241717729985 0.00090029217629598586 0 0.033671562773613842 0.00061729259817955707 0 0.03349951919872475 0.00079749878693393316 0 0.033671562773613842 0.00061729259817955707 0 0.03349951919872475 0.00079749878693393316 0 0.033339659322419064 0.00048857894625423191 0 0.03901771717138771 0.00062344391242343206 0 0.032891227532572155 0.00065169134308532711 0 0.03349951919872475 0.00079749878693393316 0 0.03320503835899858 0.0005545544218380536 0 0.033339659322419064 0.00048857894625423191 0 0.03349951919872475 0.00079749878693393316 0 0.033512243805250835 0.0009192834417970497 0 0.03320503835899858 0.0005545544218380536 0 0.033512243805250835 0.0009192834417970497 0 0.033001527758809532 0.00052496012447162093 0 0.03320503835899858 0.0005545544218380536 0 0.033512243805250835 0.0009192834417970497 0 0.03373471982512246 0.0010230438965549635 0 0.033589884233332569 0.00097644075837760266 0 0.033512243805250835 0.0009192834417970497 0 0.03373471982512246 0.0010230438965549635 0 0.034142741388066312 0.0010173417496064925 0 0.03349951919872475 0.00079749878693393316 0 0.033512243805250835 0.0009192834417970497 0 0.033589884233332569 0.00097644075837760266 0 0.044999912035768107 1.8768743052482692e-08 0 0.044969520852010579 1.5024219995470483e-05 0 0.044999930704192531 1.7311377892686392e-08 0 0.044934098481508498 3.5596619343425147e-05 0 0.044969520852010579 1.5024219995470483e-05 0 0.044959516679245234 2.314269959437164e-05 0 0.044950647781346401 2.0657683551960662e-05 0 0.044934098481508498 3.5596619343425147e-05 0 0.044969520852010579 1.5024219995470483e-05 0 0.039329767881554553 0.00047036747413970625 0 0.039308539111887246 0.00052721024848481016 0 0.044969520852010579 1.5024219995470483e-05 0 0.044959516679245234 2.314269959437164e-05 0 0.044999930704192531 1.7311377892686392e-08 0 0.03373471982512246 0.0010230438965549635 0 0.033589884233332569 0.00097644075837760266 0 0.033589625461091843 0.00096581340278170094 0 0.03373471982512246 0.0010230438965549635 0 0.033589625461091843 0.00096581340278170094 0 0.034444733681468512 0.001155051522406355 0 0.033589625461091843 0.00096581340278170094 0 0.034444733681468512 0.001155051522406355 0 0.035945359700089025 0.0011376165226847142 0 0.03373471982512246 0.0010230438965549635 0 0.034444733681468512 0.001155051522406355 0 0.034142741388066312 0.0010173417496064925 0 0.034444733681468512 0.001155051522406355 0 0.034793772542206683 0.0010921568385696451 0 0.034142741388066312 0.0010173417496064925 0 0.034793772542206683 0.0010921568385696451 0 0.034249159293716303 0.00095851171553265634 0 0.034142741388066312 0.0010173417496064925 0 0.034793772542206683 0.0010921568385696451 0 0.035945359700089025 0.0011376165226847142 0 0.034249159293716303 0.00095851171553265634 0 0.034444733681468512 0.001155051522406355 0 0.034793772542206683 0.0010921568385696451 0 0.035945359700089025 0.0011376165226847142 0 0.039308539111887246 0.00052721024848481016 0 0.040917349531573062 0.00037339695616735852 0 0.044959516679245234 2.314269959437164e-05 0 0.044999930704192531 1.7311377892686392e-08 0 0.04498661754319172 8.6389749555745836e-06 0 0.033589625461091843 0.00096581340278170094 0 0.03691485123219404 0.00046818068497310109 0 0.035945359700089025 0.0011376165226847142 0 0.04500000210671861 -2.9837621958691741e-09 0 0.044999930704192531 1.7311377892686392e-08 0 0.04498661754319172 8.6389749555745836e-06 0 0.044992045899490879 -5.0383399071357164e-06 0 0.043975226054386321 0.0024747495267805472 0 0.03691485123219404 0.00046818068497310109 0 0.044998384341550381 2.6744248418279455e-09 0 0.040917349531573062 0.00037339695616735852 0 0.033112591138787027 0.0012251587774672731 0 0.035945359700089025 0.0011376165226847142 0 0.034249159293716303 0.00095851171553265634 0 0.043975226054386321 0.0024747495267805472 0 0.03691485123219404 0.00046818068497310109 0 0.035945359700089025 0.0011376165226847142 0 0.038330083019170472 0.0016873046978440063 0 0.036039337828210102 0.0011718634713817587 0 0.03294444362771061 0.00059119347175337438 0 0.034249159293716303 0.00095851171553265634 0 0.033461084929242928 0.00074491927707566886 0 0.033112591138787027 0.0012251587774672731 0 0.03294444362771061 0.00059119347175337438 0 0.034249159293716303 0.00095851171553265634 0 0.033512243805250835 0.0009192834417970497 0 0.034142741388066312 0.0010173417496064925 0 0.033461084929242928 0.00074491927707566886 0 0.034249159293716303 0.00095851171553265634 0 0.034142741388066312 0.0010173417496064925 0 0.033461084929242928 0.00074491927707566886 0 0.033512243805250835 0.0009192834417970497 0 0.033461084929242928 0.00074491927707566886 0 0.033001527758809532 0.00052496012447162093 0 0.033461084929242928 0.00074491927707566886 0 0.032664554407398801 0.00043149576686212594 0 0.033001527758809532 0.00052496012447162093 0 0.03294444362771061 0.00059119347175337438 0 0.033461084929242928 0.00074491927707566886 0 0.032664554407398801 0.00043149576686212594 0 0.032171187953879618 0.00048044836750006192 0 0.032664554407398801 0.00043149576686212594 0 0.032093371946425253 -3.5097927533378797e-05 0 0.032664554407398801 0.00043149576686212594 0 0.033001527758809532 0.00052496012447162093 0 0.0325466846433171 0.00010054960849126175 0 0.032664554407398801 0.00043149576686212594 0 0.0325466846433171 0.00010054960849126175 0 0.032093371946425253 -3.5097927533378797e-05 0 0.0325466846433171 0.00010054960849126175 0 0.032093371946425253 -3.5097927533378797e-05 0 0.032157337441176659 -0.0002946104088434206 0 0.031643488146775332 -8.8273400354631202e-05 0 0.032093371946425253 -3.5097927533378797e-05 0 0.031479747701786805 -0.00055373286440679888 0 0.032093371946425253 -3.5097927533378797e-05 0 0.031479747701786805 -0.00055373286440679888 0 0.031706796815771904 -0.00059887524331568001 0 0.03096852515921986 -0.00099000034768528767 0 0.031479747701786805 -0.00055373286440679888 0 0.031290984467165016 -0.001032271513378329 0 0.031479747701786805 -0.00055373286440679888 0 0.031290984467165016 -0.001032271513378329 0 0.031706796815771904 -0.00059887524331568001 0 0.03096852515921986 -0.00099000034768528767 0 0.031290984467165016 -0.001032271513378329 0 0.030873865596703229 -0.0013504609546134245 0 0.031290984467165016 -0.001032271513378329 0 0.031706796815771904 -0.00059887524331568001 0 0.031571670118790307 -0.0010100529360445038 0 0.031290984467165016 -0.001032271513378329 0 0.031571670118790307 -0.0010100529360445038 0 0.031141678620650384 -0.0013249217287641308 0 0.031706796815771904 -0.00059887524331568001 0 0.032045593097055458 -0.00059362699487803009 0 0.031571670118790307 -0.0010100529360445038 0 0.032093371946425253 -3.5097927533378797e-05 0 0.031706796815771904 -0.00059887524331568001 0 0.032157337441176659 -0.0002946104088434206 0 0.031706796815771904 -0.00059887524331568001 0 0.032157337441176659 -0.0002946104088434206 0 0.032045593097055458 -0.00059362699487803009 0 0.032157337441176659 -0.0002946104088434206 0 0.032045593097055458 -0.00059362699487803009 0 0.032673584227071902 -7.2865726162027401e-05 0 0.032045593097055458 -0.00059362699487803009 0 0.031571670118790307 -0.0010100529360445038 0 0.031763577496470047 -0.0010602398151633328 0 0.032045593097055458 -0.00059362699487803009 0 0.032213555192332669 -0.00079920810457261113 0 0.032550588180737375 -0.00046350454560144255 0 0.032045593097055458 -0.00059362699487803009 0 0.031763577496470047 -0.0010602398151633328 0 0.032213555192332669 -0.00079920810457261113 0 0.032213555192332669 -0.00079920810457261113 0 0.032550588180737375 -0.00046350454560144255 0 0.032703255822725839 -0.00069464780722087137 0 0.032629201309496543 -0.00042282954897169455 0 0.033077599455182273 0.00016728488475035525 0 0.032045593097055458 -0.00059362699487803009 0 0.032550588180737375 -0.00046350454560144255 0 0.032673584227071902 -7.2865726162027401e-05 0 0.032673584227071902 -7.2865726162027401e-05 0 0.033049025085926928 0.0002756731254596167 0 0.03332045596624509 0.00010544041103611357 0 0.032550588180737375 -0.00046350454560144255 0 0.032673584227071902 -7.2865726162027401e-05 0 0.03332045596624509 0.00010544041103611357 0 0.0325466846433171 0.00010054960849126175 0 0.032157337441176659 -0.0002946104088434206 0 0.032673584227071902 -7.2865726162027401e-05 0 0.0325466846433171 0.00010054960849126175 0 0.032673584227071902 -7.2865726162027401e-05 0 0.032891793814692517 0.00030153992798870213 0 0.032673584227071902 -7.2865726162027401e-05 0 0.032891793814692517 0.00030153992798870213 0 0.033049025085926928 0.0002756731254596167 0 0.033001527758809532 0.00052496012447162093 0 0.0325466846433171 0.00010054960849126175 0 0.032891793814692517 0.00030153992798870213 0 0.033001527758809532 0.00052496012447162093 0 0.032891793814692517 0.00030153992798870213 0 0.03320503835899858 0.0005545544218380536 0 0.033339659322419064 0.00048857894625423191 0 0.033049025085926928 0.0002756731254596167 0 0.03332045596624509 0.00010544041103611357 0 0.03320503835899858 0.0005545544218380536 0 0.033339659322419064 0.00048857894625423191 0 0.033049025085926928 0.0002756731254596167 0 0.032891793814692517 0.00030153992798870213 0 0.03320503835899858 0.0005545544218380536 0 0.033049025085926928 0.0002756731254596167 0 0.032891227532572155 0.00065169134308532711 0 0.033077599455182273 0.00016728488475035525 0 0.033092995656194626 0.00086298871590896912 0 0.033510841217551796 0.0005790881820188161 0 0.032773966255955619 0.00012276506389993528 0 0.033671562773613842 0.00061729259817955707 0 0.033339659322419064 0.00048857894625423191 0 0.03332045596624509 0.00010544041103611357 0 0.034750203734969322 0.00071074473047901454 0 0.034878612995175917 0.0001723913156293013 0 0.035915671629035945 0.00054112782461478528 0 0.033685779444279668 0.00068413135548130665 0 0.033512709435509588 -0.00010231609979146588 0 0.034750203734969322 0.00071074473047901454 0 0.034878612995175917 0.0001723913156293013 0 0.033915579412123045 7.2260122668009765e-06 0 0.034878612995175917 0.0001723913156293013 0 0.033915579412123045 7.2260122668009765e-06 0 0.034551755368056193 -0.00018867041889267925 0 0.033510841217551796 0.0005790881820188161 0 0.033099909478466041 -0.00017075129265371029 0 0.032773966255955619 0.00012276506389993528 0 0.033915579412123045 7.2260122668009765e-06 0 0.032703255822725839 -0.00069464780722087137 0 0.033692430254321518 -0.00042239355758794442 0 0.032550588180737375 -0.00046350454560144255 0 0.033099909478466041 -0.00017075129265371029 0 0.032773966255955619 0.00012276506389993528 0 0.032550588180737375 -0.00046350454560144255 0 0.033099909478466041 -0.00017075129265371029 0 0.032703255822725839 -0.00069464780722087137 0 0.033512709435509588 -0.00010231609979146588 0 0.032808157590774899 -0.00072526033043211811 0 0.032703255822725839 -0.00069464780722087137 0 0.033003725341975043 -0.00093024822610667706 0 0.033692430254321518 -0.00042239355758794442 0 0.032213555192332669 -0.00079920810457261113 0 0.032703255822725839 -0.00069464780722087137 0 0.031907545747725259 -0.0013296764523177593 0 0.033003725341975043 -0.00093024822610667706 0 0.034111300262355405 -0.00053113947429244259 0 0.033692430254321518 -0.00042239355758794442 0 0.033003725341975043 -0.00093024822610667706 0 0.034111300262355405 -0.00053113947429244259 0 0.033618075414938976 -0.00090252159176975569 0 0.034111300262355405 -0.00053113947429244259 0 0.033692430254321518 -0.00042239355758794442 0 0.034551755368056193 -0.00018867041889267925 0 0.033915579412123045 7.2260122668009765e-06 0 0.033692430254321518 -0.00042239355758794442 0 0.034551755368056193 -0.00018867041889267925 0 0.035109759136898573 -0.00027567040371001913 0 0.036015991786330262 -0.00015525409607417725 0 0.03543556719952589 -6.3176008360326909e-05 0 0.034111300262355405 -0.00053113947429244259 0 0.034551755368056193 -0.00018867041889267925 0 0.035109759136898573 -0.00027567040371001913 0 0.034551755368056193 -0.00018867041889267925 0 0.035109759136898573 -0.00027567040371001913 0 0.03543556719952589 -6.3176008360326909e-05 0 0.034111300262355405 -0.00053113947429244259 0 0.035109759136898573 -0.00027567040371001913 0 0.034516458323450988 -0.00047384137098177646 0 0.034111300262355405 -0.00053113947429244259 0 0.034516458323450988 -0.00047384137098177646 0 0.033618075414938976 -0.00090252159176975569 0 0.035109759136898573 -0.00027567040371001913 0 0.034516458323450988 -0.00047384137098177646 0 0.035359119808736572 -7.2493661993963884e-07 0 0.034516458323450988 -0.00047384137098177646 0 0.035359119808736572 -7.2493661993963884e-07 0 0.033345158814663142 -7.4932211219979522e-08 0 0.035109759136898573 -0.00027567040371001913 0 0.035359119808736572 -7.2493661993963884e-07 0 0.036015991786330262 -0.00015525409607417725 0 0.035359119808736572 -7.2493661993963884e-07 0 0.036015991786330262 -0.00015525409607417725 0 0.037378380059519101 -1.3155547984661698e-06 0 0.036015991786330262 -0.00015525409607417725 0 0.03543556719952589 -6.3176008360326909e-05 0 0.037216105228238511 2.646739807919088e-05 0 0.036015991786330262 -0.00015525409607417725 0 0.037378380059519101 -1.3155547984661698e-06 0 0.037216105228238511 2.646739807919088e-05 0 0.034878612995175917 0.0001723913156293013 0 0.03543556719952589 -6.3176008360326909e-05 0 0.035915671629035945 0.00054112782461478528 0 0.03543556719952589 -6.3176008360326909e-05 0 0.035915671629035945 0.00054112782461478528 0 0.037216105228238511 2.646739807919088e-05 0 0.034878612995175917 0.0001723913156293013 0 0.034551755368056193 -0.00018867041889267925 0 0.03543556719952589 -6.3176008360326909e-05 0 0.036831361588513009 0.0017111757673239081 0 0.035915671629035945 0.00054112782461478528 0 0.037216105228238511 2.646739807919088e-05 0 0.035707540980011727 0.0013133870663096566 0 0.034750203734969322 0.00071074473047901454 0 0.035915671629035945 0.00054112782461478528 0 0.039392280936348043 4.298557751162618e-06 0 0.036831361588513009 0.0017111757673239081 0 0.037216105228238511 2.646739807919088e-05 0 0.039392280936348043 4.298557751162618e-06 0 0.037378380059519101 -1.3155547984661698e-06 0 0.037216105228238511 2.646739807919088e-05 0 0.029260272412751726 -8.8300557068646723e-05 0 0.028178986670079485 -1.8899866872072432e-07 0 0.030760568644453756 -4.1103172185292744e-07 0 0.025841488824978175 -0.0046005056153023008 0 0.027230406205919645 -0.005210405913336616 0 0.026856567812626617 -0.0032506712913062878 0 0.031244642551602295 -0.0017495002585686257 0 0.029496031944635695 -0.0043938626505442028 0 0.025841488824978175 -0.0046005056153023008 0 0.026006058717628962 -0.0065139568891753978 0 0.027230406205919645 -0.005210405913336616 0 0.027183286824751986 -0.0027697251633706575 0 0.031244642551602295 -0.0017495002585686257 0 0.029260272412751726 -8.8300557068646723e-05 0 0.030760568644453756 -4.1103172185292744e-07 0 0.031025704179838628 7.7081919674444905e-05 0 0.030760568644453756 -4.1103172185292744e-07 0 0.031025704179838628 7.7081919674444905e-05 0 0.033339493736814454 8.6418091130064187e-07 0 0.031244642551602295 -0.0017495002585686257 0 0.033343684444068135 2.7225916641491687e-06 0 0.034950005673688923 0.00011585254674064712 0 0.031244642551602295 -0.0017495002585686257 0 0.034516458323450988 -0.00047384137098177646 0 0.034436734292975293 0.0011870198466427308 0 0.033345158814663142 -7.4932211219979522e-08 0 0.034516458323450988 -0.00047384137098177646 0 0.03419888737371507 -0.0018044953671503662 0 0.033598094748356441 -0.0013218485881890079 0 0.034516458323450988 -0.00047384137098177646 0 0.033598094748356441 -0.0013218485881890079 0 0.033618075414938976 -0.00090252159176975569 0 0.03419888737371507 -0.0018044953671503662 0 0.03287765089156891 -0.0018533221799251619 0 0.032416791997007477 -0.0027656111492120328 0 0.03419888737371507 -0.0018044953671503662 0 0.033598094748356441 -0.0013218485881890079 0 0.03287765089156891 -0.0018533221799251619 0 0.03287765089156891 -0.0018533221799251619 0 0.031679170346525252 -0.0019349445502691283 0 0.032416791997007477 -0.0027656111492120328 0 0.03287765089156891 -0.0018533221799251619 0 0.032636566340626033 -0.0014503572294347407 0 0.031679170346525252 -0.0019349445502691283 0 0.033598094748356441 -0.0013218485881890079 0 0.03287765089156891 -0.0018533221799251619 0 0.032636566340626033 -0.0014503572294347407 0 0.033598094748356441 -0.0013218485881890079 0 0.032636566340626033 -0.0014503572294347407 0 0.033618075414938976 -0.00090252159176975569 0 0.033003725341975043 -0.00093024822610667706 0 0.032636566340626033 -0.0014503572294347407 0 0.033618075414938976 -0.00090252159176975569 0 0.032703255822725839 -0.00069464780722087137 0 0.033003725341975043 -0.00093024822610667706 0 0.031907545747725259 -0.0013296764523177593 0 0.033003725341975043 -0.00093024822610667706 0 0.032636566340626033 -0.0014503572294347407 0 0.031907545747725259 -0.0013296764523177593 0 0.031907545747725259 -0.0013296764523177593 0 0.031679170346525252 -0.0019349445502691283 0 0.030981126218021085 -0.0020372365689642616 0 0.032636566340626033 -0.0014503572294347407 0 0.031907545747725259 -0.0013296764523177593 0 0.031679170346525252 -0.0019349445502691283 0 0.031679170346525252 -0.0019349445502691283 0 0.030626465081009937 -0.0025870260438182395 0 0.030981126218021085 -0.0020372365689642616 0 0.031679170346525252 -0.0019349445502691283 0 0.030626465081009937 -0.0025870260438182395 0 0.032416791997007477 -0.0027656111492120328 0 0.030626465081009937 -0.0025870260438182395 0 0.032416791997007477 -0.0027656111492120328 0 0.029216203570081034 -0.0033199853868887083 0 0.029496031944635695 -0.0043938626505442028 0 0.029570118839673455 -0.0031419990943262581 0 0.027230406205919645 -0.005210405913336616 0 0.029216203570081034 -0.0033199853868887083 0 0.026856567812626617 -0.0032506712913062878 0 0.030626465081009937 -0.0025870260438182395 0 0.029216203570081034 -0.0033199853868887083 0 0.029995329789410091 -0.0026333142960280305 0 0.029216203570081034 -0.0033199853868887083 0 0.029995329789410091 -0.0026333142960280305 0 0.02942775634857786 -0.0025422845818404206 0 0.029995329789410091 -0.0026333142960280305 0 0.030438336659008115 -0.0022189676961854132 0 0.029842296031786973 -0.0023432659817940477 0 0.029995329789410091 -0.0026333142960280305 0 0.029842296031786973 -0.0023432659817940477 0 0.02942775634857786 -0.0025422845818404206 0 0.030438336659008115 -0.0022189676961854132 0 0.030404824987577544 -0.0020512820023527306 0 0.029842296031786973 -0.0023432659817940477 0 0.029995329789410091 -0.0026333142960280305 0 0.030438336659008115 -0.0022189676961854132 0 0.030981126218021085 -0.0020372365689642616 0 0.030626465081009937 -0.0025870260438182395 0 0.029995329789410091 -0.0026333142960280305 0 0.030981126218021085 -0.0020372365689642616 0 0.030438336659008115 -0.0022189676961854132 0 0.030981126218021085 -0.0020372365689642616 0 0.031063270465619575 -0.0016272601205727173 0 0.031907545747725259 -0.0013296764523177593 0 0.030981126218021085 -0.0020372365689642616 0 0.031063270465619575 -0.0016272601205727173 0 0.031763577496470047 -0.0010602398151633328 0 0.031907545747725259 -0.0013296764523177593 0 0.031063270465619575 -0.0016272601205727173 0 0.031763577496470047 -0.0010602398151633328 0 0.032213555192332669 -0.00079920810457261113 0 0.031907545747725259 -0.0013296764523177593 0 0.031571670118790307 -0.0010100529360445038 0 0.031763577496470047 -0.0010602398151633328 0 0.031063270465619575 -0.0016272601205727173 0 0.031571670118790307 -0.0010100529360445038 0 0.031063270465619575 -0.0016272601205727173 0 0.031141678620650384 -0.0013249217287641308 0 0.030438336659008115 -0.0022189676961854132 0 0.031063270465619575 -0.0016272601205727173 0 0.030404824987577544 -0.0020512820023527306 0 0.031063270465619575 -0.0016272601205727173 0 0.03059190249903767 -0.0017347287187447289 0 0.030404824987577544 -0.0020512820023527306 0 0.031063270465619575 -0.0016272601205727173 0 0.03059190249903767 -0.0017347287187447289 0 0.031141678620650384 -0.0013249217287641308 0 0.031290984467165016 -0.001032271513378329 0 0.031141678620650384 -0.0013249217287641308 0 0.030873865596703229 -0.0013504609546134245 0 0.03059190249903767 -0.0017347287187447289 0 0.031141678620650384 -0.0013249217287641308 0 0.030873865596703229 -0.0013504609546134245 0 0.030873865596703229 -0.0013504609546134245 0 0.030538510785015498 -0.0015949617205912379 0 0.03067605953175322 -0.0013622276096577899 0 0.03059190249903767 -0.0017347287187447289 0 0.030538510785015498 -0.0015949617205912379 0 0.030217195093421311 -0.0018192501258666278 0 0.03059190249903767 -0.0017347287187447289 0 0.030873865596703229 -0.0013504609546134245 0 0.030538510785015498 -0.0015949617205912379 0 0.03059190249903767 -0.0017347287187447289 0 0.030122808090950595 -0.0020662110147244245 0 0.030217195093421311 -0.0018192501258666278 0 0.030122808090950595 -0.0020662110147244245 0 0.030217195093421311 -0.0018192501258666278 0 0.029953164068862972 -0.002006272101085583 0 0.030122808090950595 -0.0020662110147244245 0 0.030404824987577544 -0.0020512820023527306 0 0.029842296031786973 -0.0023432659817940477 0 0.03059190249903767 -0.0017347287187447289 0 0.030122808090950595 -0.0020662110147244245 0 0.030404824987577544 -0.0020512820023527306 0 0.030122808090950595 -0.0020662110147244245 0 0.029842296031786973 -0.0023432659817940477 0 0.029717336360270196 -0.002103480785394787 0 0.030122808090950595 -0.0020662110147244245 0 0.029717336360270196 -0.002103480785394787 0 0.029953164068862972 -0.002006272101085583 0 0.029717336360270196 -0.002103480785394787 0 0.029486962632422745 -0.0022015806591887104 0 0.029325278460161537 -0.0018425459681743795 0 0.029842296031786973 -0.0023432659817940477 0 0.029717336360270196 -0.002103480785394787 0 0.029486962632422745 -0.0022015806591887104 0 0.029486962632422745 -0.0022015806591887104 0 0.029325278460161537 -0.0018425459681743795 0 0.029009201431593478 -0.0021436871002959686 0 0.029717336360270196 -0.002103480785394787 0 0.029325278460161537 -0.0018425459681743795 0 0.029628387653711528 -0.0018434182102887661 0 0.029325278460161537 -0.0018425459681743795 0 0.029073516565997944 -0.0012537401445495686 0 0.029453051237435447 -0.0014664068610643522 0 0.029073516565997944 -0.0012537401445495686 0 0.028602979061401107 -0.0015958311931378974 0 0.028379572559696361 -0.00097539656753437053 0 0.029325278460161537 -0.0018425459681743795 0 0.029073516565997944 -0.0012537401445495686 0 0.028602979061401107 -0.0015958311931378974 0 0.029325278460161537 -0.0018425459681743795 0 0.028602979061401107 -0.0015958311931378974 0 0.029009201431593478 -0.0021436871002959686 0 0.028602979061401107 -0.0015958311931378974 0 0.028008546547220445 -0.0018583241312946023 0 0.029009201431593478 -0.0021436871002959686 0 0.028602979061401107 -0.0015958311931378974 0 0.027208426228893468 -0.0011420655865989075 0 0.028379572559696361 -0.00097539656753437053 0 0.028602979061401107 -0.0015958311931378974 0 0.028008546547220445 -0.0018583241312946023 0 0.027208426228893468 -0.0011420655865989075 0 0.028008546547220445 -0.0018583241312946023 0 0.026846100224211297 -0.0016352980316921722 0 0.027208426228893468 -0.0011420655865989075 0 0.028008546547220445 -0.0018583241312946023 0 0.028684351976773017 -0.0024613475893575341 0 0.029009201431593478 -0.0021436871002959686 0 0.028684351976773017 -0.0024613475893575341 0 0.029009201431593478 -0.0021436871002959686 0 0.02942775634857786 -0.0025422845818404206 0 0.029842296031786973 -0.0023432659817940477 0 0.029486962632422745 -0.0022015806591887104 0 0.02942775634857786 -0.0025422845818404206 0 0.029486962632422745 -0.0022015806591887104 0 0.029009201431593478 -0.0021436871002959686 0 0.02942775634857786 -0.0025422845818404206 0 0.029216203570081034 -0.0033199853868887083 0 0.028684351976773017 -0.0024613475893575341 0 0.02942775634857786 -0.0025422845818404206 0 0.029216203570081034 -0.0033199853868887083 0 0.028684351976773017 -0.0024613475893575341 0 0.027204862010959723 -0.0021962498292336019 0 0.029216203570081034 -0.0033199853868887083 0 0.027204862010959723 -0.0021962498292336019 0 0.026856567812626617 -0.0032506712913062878 0 0.027204862010959723 -0.0021962498292336019 0 0.026111428373414167 -0.0018260383399130863 0 0.026022378261171802 -0.0023107402825343253 0 0.027204862010959723 -0.0021962498292336019 0 0.026022378261171802 -0.0023107402825343253 0 0.026856567812626617 -0.0032506712913062878 0 0.028008546547220445 -0.0018583241312946023 0 0.028684351976773017 -0.0024613475893575341 0 0.027204862010959723 -0.0021962498292336019 0 0.028008546547220445 -0.0018583241312946023 0 0.027204862010959723 -0.0021962498292336019 0 0.026846100224211297 -0.0016352980316921722 0 0.026846100224211297 -0.0016352980316921722 0 0.026099753329724938 -0.0011375784883576304 0 0.027208426228893468 -0.0011420655865989075 0 0.026099753329724938 -0.0011375784883576304 0 0.025604598389385377 -0.0012381588751708683 0 0.024696696857010279 -0.00058813644040165694 0 0.026846100224211297 -0.0016352980316921722 0 0.026099753329724938 -0.0011375784883576304 0 0.025604598389385377 -0.0012381588751708683 0 0.026846100224211297 -0.0016352980316921722 0 0.025604598389385377 -0.0012381588751708683 0 0.026111428373414167 -0.0018260383399130863 0 0.027204862010959723 -0.0021962498292336019 0 0.026846100224211297 -0.0016352980316921722 0 0.026111428373414167 -0.0018260383399130863 0 0.025604598389385377 -0.0012381588751708683 0 0.026111428373414167 -0.0018260383399130863 0 0.02485149726927912 -0.0018358867340648817 0 0.026111428373414167 -0.0018260383399130863 0 0.02485149726927912 -0.0018358867340648817 0 0.026022378261171802 -0.0023107402825343253 0 0.02485149726927912 -0.0018358867340648817 0 0.023052437035463336 -0.00033951778341428771 0 0.024696696857010279 -0.00058813644040165694 0 0.025604598389385377 -0.0012381588751708683 0 0.02485149726927912 -0.0018358867340648817 0 0.024696696857010279 -0.00058813644040165694 0 0.023016331948857386 -1.8786614128102769e-06 0 0.024472454587409483 -5.9681223252128894e-05 0 0.023052437035463336 -0.00033951778341428771 0 0.024626146066503624 -0.00097775290610049121 0 0.023324613124235956 -0.00032923363752020065 0 0.023016331948857386 -1.8786614128102769e-06 0 0.024472454587409483 -5.9681223252128894e-05 0 0.025597724078816133 3.7505707857439884e-07 0 0.024472454587409483 -5.9681223252128894e-05 0 0.025597724078816133 3.7505707857439884e-07 0 0.026886159861307286 -1.2154552823719766e-05 0 0.024626146066503624 -0.00097775290610049121 0 0.026301588403349133 -0.0014186911790110375 0 0.02485149726927912 -0.0018358867340648817 0 0.026022378261171802 -0.0023107402825343253 0 0.025669153634554812 -0.0027429589075752187 0 0.026022378261171802 -0.0023107402825343253 0 0.026856567812626617 -0.0032506712913062878 0 0.025669153634554812 -0.0027429589075752187 0 0.025841488824978175 -0.0046005056153023008 0 0.026856567812626617 -0.0032506712913062878 0 0.025669153634554812 -0.0027429589075752187 0 0.028178986670079485 -1.8899866872072432e-07 0 0.025597724078816133 3.7505707857439884e-07 0 0.026886159861307286 -1.2154552823719766e-05 0 0.027183286824751986 -0.0027697251633706575 0 0.026301588403349133 -0.0014186911790110375 0 0.029260272412751726 -8.8300557068646723e-05 0 0.028178986670079485 -1.8899866872072432e-07 0 0.026886159861307286 -1.2154552823719766e-05 0 0.031437721084889729 0.0038524919904520407 0 0.031551991603774789 0.003946547781229456 0 0.03134322514403845 0.0039625485576095599 0 0.031437721084889729 0.0038524919904520407 0 0.031551991603774789 0.003946547781229456 0 0.031609504775247439 0.0038359249744858879 0 0.031551991603774789 0.003946547781229456 0 0.031609504775247439 0.0038359249744858879 0 0.031783368579811927 0.0039260324557267553 0 0.031546672371001214 0.0037385983623299517 0 0.031711855973970457 0.0037556358971335387 0 0.031640668711147589 0.0035709878931830326 0 0.031609504775247439 0.0038359249744858879 0 0.031546672371001214 0.0037385983623299517 0 0.031711855973970457 0.0037556358971335387 0 0.031546672371001214 0.0037385983623299517 0 0.031439337591240249 0.0037281257594852114 0 0.031507869650922185 0.0036659313571231825 0 0.031437721084889729 0.0038524919904520407 0 0.031609504775247439 0.0038359249744858879 0 0.031546672371001214 0.0037385983623299517 0 0.031437721084889729 0.0038524919904520407 0 0.031546672371001214 0.0037385983623299517 0 0.031439337591240249 0.0037281257594852114 0 0.031317219599235543 0.0037515759763475627 0 0.03129955720164361 0.0037495297450343382 0 0.03134322514403845 0.0039625485576095599 0 0.031469036027752771 0.0057009319985979806 0 0.031603498160789764 0.0058641317802697228 0 0.031437721084889729 0.0038524919904520407 0 0.031439337591240249 0.0037281257594852114 0 0.031317219599235543 0.0037515759763475627 0 0.031908884978280781 0.0067593134327477546 0 0.031603498160789764 0.0058641317802697228 0 0.037524409747751515 0.0061221021915877282 0 0.036504043850488554 0.0059522353215244904 0 0.037273111376656343 0.00533107819636217 0 0.037562385044483219 0.0046048176282624548 0 0.037273111376656343 0.00533107819636217 0 0.036572709035854238 0.0046096319556697737 0 0.036504043850488554 0.0059522353215244904 0 0.037273111376656343 0.00533107819636217 0 0.036572709035854238 0.0046096319556697737 0 0.031603498160789764 0.0058641317802697228 0 0.034992488085350951 0.003956644311210256 0 0.031437721084889729 0.0038524919904520407 0 0.031317219599235543 0.0037515759763475627 0 0.03134322514403845 0.0039625485576095599 0 0.036396078185100593 0.0041630098348538463 0 0.036952519081562406 0.0036711134320581251 0 0.035452257193487248 0.003617184010589592 0 0.036377235230743807 0.0047117139136200687 0 0.036396078185100593 0.0041630098348538463 0 0.035452257193487248 0.003617184010589592 0 0.034992488085350951 0.003956644311210256 0 0.035691478275321133 0.0043197618061555183 0 0.037562385044483219 0.0046048176282624548 0 0.036396078185100593 0.0041630098348538463 0 0.036952519081562406 0.0036711134320581251 0 0.038011988790048988 0.0046535479816204118 0 0.034992488085350951 0.003956644311210256 0 0.037562385044483219 0.0046048176282624548 0 0.036380032835532712 0.0046645880072116236 0 0.036396078185100593 0.0041630098348538463 0 0.037904083415069074 0.0036374185968211931 0 0.038378298190319862 0.0033402246135727938 0 0.037301544760103215 0.0034871834346332218 0 0.037904083415069074 0.0036374185968211931 0 0.037570239315925145 0.0038640856069574007 0 0.037301544760103215 0.0034871834346332218 0 0.037276574986432665 0.0037737846646683283 0 0.036004198300914947 0.0037472533551685182 0 0.037570239315925145 0.0038640856069574007 0 0.037301544760103215 0.0034871834346332218 0 0.036684330203742371 0.0038993375606920753 0 0.03738342474130283 0.0035018798918407925 0 0.036295240258291228 0.0037019754045083592 0 0.037301544760103215 0.0034871834346332218 0 0.036684330203742371 0.0038993375606920753 0 0.036236644840950107 0.0036804162138952892 0 0.036004198300914947 0.0037472533551685182 0 0.035142681283977115 0.0039230426633556836 0 0.036684330203742371 0.0038993375606920753 0 0.036236644840950107 0.0036804162138952892 0 0.035844008609088464 0.0039276251934203532 0 0.036785604873100133 0.0032883016555100963 0 0.037444316410795341 0.0035140470923000627 0 0.036379737557801363 0.0037250425698078463 0 0.034440524887432683 0.0047536713095530482 0 0.035452257193487248 0.003617184010589592 0 0.033894724495905061 0.0036182634832507047 0 0.032843211740575494 0.0045341512858058115 0 0.034992488085350951 0.003956644311210256 0 0.034440524887432683 0.0047536713095530482 0 0.036377235230743807 0.0047117139136200687 0 0.035452257193487248 0.003617184010589592 0 0.034440524887432683 0.0047536713095530482 0 0.033894724495905061 0.0036182634832507047 0 0.033130579625274166 0.0040413462097256868 0 0.035941273132101478 0.0033344589697010636 0 0.036379737557801363 0.0037250425698078463 0 0.035714153483498962 0.0035035083198498686 0 0.036379737557801363 0.0037250425698078463 0 0.035714153483498962 0.0035035083198498686 0 0.035325409983079079 0.0037824116832098275 0 0.036295240258291228 0.0037019754045083592 0 0.035287685064902305 0.0038689383873749951 0 0.036236644840950107 0.0036804162138952892 0 0.035844008609088464 0.0039276251934203532 0 0.035234070313307497 0.0038758911224147383 0 0.035142681283977115 0.0039230426633556836 0 0.032368226900226942 0.0021832525973338032 0 0.035714153483498962 0.0035035083198498686 0 0.035325409983079079 0.0037824116832098275 0 0.035208123570025993 0.0035972249637565498 0 0.036379737557801363 0.0037250425698078463 0 0.035234070313307497 0.0038758911224147383 0 0.035325409983079079 0.0037824116832098275 0 0.035844008609088464 0.0039276251934203532 0 0.035234070313307497 0.0038758911224147383 0 0.035027555065833008 0.0039703277467707182 0 0.035695452555932219 0.0032438841620280839 0 0.035714153483498962 0.0035035083198498686 0 0.035208123570025993 0.0035972249637565498 0 0.035234070313307497 0.0038758911224147383 0 0.035180153667102504 0.0035883162397894299 0 0.035027555065833008 0.0039703277467707182 0 0.033290130257153133 0.0016119447115089235 0 0.032368226900226942 0.0021832525973338032 0 0.035234070313307497 0.0038758911224147383 0 0.035325409983079079 0.0037824116832098275 0 0.035180153667102504 0.0035883162397894299 0 0.034642894728114881 0.0033195199113700666 0 0.033290130257153133 0.0016119447115089235 0 0.032368226900226942 0.0021832525973338032 0 0.03017999495482801 -0.00086798204122096457 0 0.030082873034662082 -0.0012270636096914798 0 0.030311217191992947 -0.0012069021622016366 0 0.030175190349606563 -0.0014057067738758081 0 0.030376453443660995 -0.0013285968987481226 0 0.030175190349606563 -0.0014057067738758081 0 0.030463935384355646 -0.0014258562225677274 0 0.030311217191992947 -0.0012069021622016366 0 0.030376453443660995 -0.0013285968987481226 0 0.030451393186653547 -0.0012553427022454972 0 0.030311217191992947 -0.0012069021622016366 0 0.030376453443660995 -0.0013285968987481226 0 0.030175190349606563 -0.0014057067738758081 0 0.031264748142983481 0.00050707109590837206 0 0.030705745862657861 0.00051273361071665208 0 0.031004789031907912 0.001070863343838979 0 0.030705745862657861 0.00051273361071665208 0 0.030886398796888311 0.0010738719700096717 0 0.031004789031907912 0.001070863343838979 0 0.032368226900226942 0.0021832525973338032 0 0.031002835397423822 0.0017230576881717189 0 0.032347964903646054 0.0036385061218500289 0 0.032348872031424544 0.0044152455036429806 0 0.031834489672562097 0.0047800681007575873 0 0.032347964903646054 0.0036385061218500289 0 0.032348872031424544 0.0044152455036429806 0 0.032616837923843199 0.0040994062194897977 0 0.032348872031424544 0.0044152455036429806 0 0.032488599309253366 0.0047513797395707259 0 0.031834489672562097 0.0047800681007575873 0 0.032121957256851727 0.0042939420553234423 0 0.031696057248228236 0.0034554510435259827 0 0.033130579625274166 0.0040413462097256868 0 0.032616837923843199 0.0040994062194897977 0 0.032496695515855344 0.0047822495405902433 0 0.032348872031424544 0.0044152455036429806 0 0.032616837923843199 0.0040994062194897977 0 0.032496695515855344 0.0047822495405902433 0 0.034440524887432683 0.0047536713095530482 0 0.033130579625274166 0.0040413462097256868 0 0.032496695515855344 0.0047822495405902433 0 0.033894724495905061 0.0036182634832507047 0 0.032347964903646054 0.0036385061218500289 0 0.033130579625274166 0.0040413462097256868 0 0.032347964903646054 0.0036385061218500289 0 0.033130579625274166 0.0040413462097256868 0 0.032616837923843199 0.0040994062194897977 0 0.03096852515921986 -0.00099000034768528767 0 0.030873865596703229 -0.0013504609546134245 0 0.03067605953175322 -0.0013622276096577899 0 0.03096852515921986 -0.00099000034768528767 0 0.03067605953175322 -0.0013622276096577899 0 0.030686349693132844 -0.0012238431552387221 0 0.030538510785015498 -0.0015949617205912379 0 0.03067605953175322 -0.0013622276096577899 0 0.030470988069683434 -0.0015050777923820253 0 0.03067605953175322 -0.0013622276096577899 0 0.030686349693132844 -0.0012238431552387221 0 0.030523889798665587 -0.0013828004123694218 0 0.03067605953175322 -0.0013622276096577899 0 0.030523889798665587 -0.0013828004123694218 0 0.030470988069683434 -0.0015050777923820253 0 0.030523889798665587 -0.0013828004123694218 0 0.03046813293217554 -0.0013971132437259079 0 0.030470988069683434 -0.0015050777923820253 0 0.030523889798665587 -0.0013828004123694218 0 0.03048271496577196 -0.0013558459785436182 0 0.03046813293217554 -0.0013971132437259079 0 0.030523889798665587 -0.0013828004123694218 0 0.030529064813849462 -0.0012746974698517185 0 0.03048271496577196 -0.0013558459785436182 0 0.030526519468304467 -0.0011075825305479684 0 0.030686349693132844 -0.0012238431552387221 0 0.030529064813849462 -0.0012746974698517185 0 0.030686349693132844 -0.0012238431552387221 0 0.030523889798665587 -0.0013828004123694218 0 0.030529064813849462 -0.0012746974698517185 0 0.030526519468304467 -0.0011075825305479684 0 0.030311217191992947 -0.0012069021622016366 0 0.030451393186653547 -0.0012553427022454972 0 0.030526519468304467 -0.0011075825305479684 0 0.030529064813849462 -0.0012746974698517185 0 0.030451393186653547 -0.0012553427022454972 0 0.030529064813849462 -0.0012746974698517185 0 0.030451393186653547 -0.0012553427022454972 0 0.03048271496577196 -0.0013558459785436182 0 0.030376453443660995 -0.0013285968987481226 0 0.030451393186653547 -0.0012553427022454972 0 0.03048271496577196 -0.0013558459785436182 0 0.030205060154800994 -0.0011541980834703571 0 0.03017999495482801 -0.00086798204122096457 0 0.030376453443660995 -0.0013285968987481226 0 0.03048271496577196 -0.0013558459785436182 0 0.030463935384355646 -0.0014258562225677274 0 0.030309100968319271 -0.0016530848575317223 0 0.030217195093421311 -0.0018192501258666278 0 0.030296893623212893 -0.0016361215541882735 0 0.030257096410408212 -0.0015633442002675046 0 0.030309100968319271 -0.0016530848575317223 0 0.030296893623212893 -0.0016361215541882735 0 0.03017999495482801 -0.00086798204122096457 0 0.030455934495113759 -6.1336529733110532e-06 0 0.03017999495482801 -0.00086798204122096457 0 0.030523247259781616 -0.0013814166127920436 0 0.030257096410408212 -0.0015633442002675046 0 0.030309100968319271 -0.0016530848575317223 0 0.030470988069683434 -0.0015050777923820253 0 0.030309100968319271 -0.0016530848575317223 0 0.030470988069683434 -0.0015050777923820253 0 0.030217195093421311 -0.0018192501258666278 0 0.030538510785015498 -0.0015949617205912379 0 0.030470988069683434 -0.0015050777923820253 0 0.030217195093421311 -0.0018192501258666278 0 0.030217195093421311 -0.0018192501258666278 0 0.029912330407569545 -0.0019203933683866249 0 0.029953164068862972 -0.002006272101085583 0 0.030217195093421311 -0.0018192501258666278 0 0.029912330407569545 -0.0019203933683866249 0 0.029739988522440731 -0.0018049546927273209 0 0.030041459958221474 -0.002277477249476459 0 0.030455934495113759 -6.1336529733110532e-06 0 0.029912330407569545 -0.0019203933683866249 0 0.029835930989494903 -0.0019276554824792357 0 0.029849189093244004 -0.0019617535681798553 0 0.029912330407569545 -0.0019203933683866249 0 0.029799838403690798 -0.0018886651752541006 0 0.029739988522440731 -0.0018049546927273209 0 0.029912330407569545 -0.0019203933683866249 0 0.029799838403690798 -0.0018886651752541006 0 0.029835930989494903 -0.0019276554824792357 0 0.029799838403690798 -0.0018886651752541006 0 0.029835930989494903 -0.0019276554824792357 0 0.029803641185370669 -0.0019100965215953769 0 0.029835930989494903 -0.0019276554824792357 0 0.029803641185370669 -0.0019100965215953769 0 0.029823213344769391 -0.0019309066696499614 0 0.029823213344769391 -0.0019309066696499614 0 0.029826232856305711 -0.0019386179713409561 0 0.029849189093244004 -0.0019617535681798553 0 0.029835930989494903 -0.0019276554824792357 0 0.029823213344769391 -0.0019309066696499614 0 0.029849189093244004 -0.0019617535681798553 0 0.029823213344769391 -0.0019309066696499614 0 0.029826232856305711 -0.0019386179713409561 0 0.029823947145625751 -0.0019279345169738761 0 0.029826232856305711 -0.0019386179713409561 0 0.029812831720050132 -0.0019425585372112588 0 0.029849189093244004 -0.0019617535681798553 0 0.029826232856305711 -0.0019386179713409561 0 0.029812831720050132 -0.0019425585372112588 0 0.029838131861245485 -0.0019203908615060125 0 0.029812831720050132 -0.0019425585372112588 0 0.029849189093244004 -0.0019617535681798553 0 0.029800090700770762 -0.001979859383169484 0 0.029912330407569545 -0.0019203933683866249 0 0.029849189093244004 -0.0019617535681798553 0 0.029953164068862972 -0.002006272101085583 0 0.029717336360270196 -0.002103480785394787 0 0.029800090700770762 -0.001979859383169484 0 0.029953164068862972 -0.002006272101085583 0 0.029849189093244004 -0.0019617535681798553 0 0.029800090700770762 -0.001979859383169484 0 0.029953164068862972 -0.002006272101085583 0 0.032843211740575494 0.0045341512858058115 0 0.031696057248228236 0.0034554510435259827 0 0.031609504775247439 0.0038359249744858879 0 0.031783368579811927 0.0039260324557267553 0 0.031711855973970457 0.0037556358971335387 0 0.03047295937940887 0.0015959234845228537 0 0.030500836833206674 0.0012146801114477274 0 0.030279906157414854 0.0010883878863609344 0 0.031696057248228236 0.0034554510435259827 0 0.030944002090620266 0.0023146397097985401 0 0.03047295937940887 0.0015959234845228537 0 0.03072092721923441 0.001582787342750205 0 0.030662212437886263 0.0014970849402072043 0 0.031696057248228236 0.0034554510435259827 0 0.031002835397423822 0.0017230576881717189 0 0.03047295937940887 0.0015959234845228537 0 0.030603623805390029 0.0014269665474005598 0 0.030500836833206674 0.0012146801114477274 0 0.03047295937940887 0.0015959234845228537 0 0.030662212437886263 0.0014970849402072043 0 0.030603623805390029 0.0014269665474005598 0 0.031084301350577277 0.00088275508741750849 0 0.030846638464160591 0.00089413933479917066 0 0.03098661418557605 0.00057851610032697389 0 0.030455934495113759 -6.1336529733110532e-06 0 0.031002835397423822 0.0017230576881717189 0 0.03072092721923441 0.001582787342750205 0 0.030662212437886263 0.0014970849402072043 0 0.03077320896045798 0.0014621703302770857 0 0.031002835397423822 0.0017230576881717189 0 0.030586632528908139 0.000194563699883678 0 0.030662212437886263 0.0014970849402072043 0 0.03077320896045798 0.0014621703302770857 0 0.030666943124181716 0.0014143266852873156 0 0.029799838403690798 -0.0018886651752541006 0 0.029739988522440731 -0.0018049546927273209 0 0.029757008960705506 -0.0018862342257951383 0 0.030455934495113759 -6.1336529733110532e-06 0 0.030586632528908139 0.000194563699883678 0 0.029803641185370669 -0.0019100965215953769 0 0.029757008960705506 -0.0018862342257951383 0 0.029806017400635827 -0.0019089595869061485 0 0.03077320896045798 0.0014621703302770857 0 0.030666943124181716 0.0014143266852873156 0 0.030628751957856141 0.0012713194330313594 0 0.029799838403690798 -0.0018886651752541006 0 0.029803641185370669 -0.0019100965215953769 0 0.029757008960705506 -0.0018862342257951383 0 0.030603623805390029 0.0014269665474005598 0 0.030628751957856141 0.0012713194330313594 0 0.030500836833206674 0.0012146801114477274 0 0.030666943124181716 0.0014143266852873156 0 0.030603623805390029 0.0014269665474005598 0 0.030628751957856141 0.0012713194330313594 0 0.030662212437886263 0.0014970849402072043 0 0.030666943124181716 0.0014143266852873156 0 0.030603623805390029 0.0014269665474005598 0 0.029806017400635827 -0.0019089595869061485 0 0.029840948917623816 -0.0019269693385649805 0 0.029912334337662511 -0.0019288975751436052 0 0.030628751957856141 0.0012713194330313594 0 0.030500836833206674 0.0012146801114477274 0 0.030556990417883362 0.00082858516484302167 0 0.03077320896045798 0.0014621703302770857 0 0.030628751957856141 0.0012713194330313594 0 0.030556990417883362 0.00082858516484302167 0 0.029757008960705506 -0.0018862342257951383 0 0.029806017400635827 -0.0019089595869061485 0 0.029912334337662511 -0.0019288975751436052 0 0.030500836833206674 0.0012146801114477274 0 0.030429051863818855 0.00096892127230848064 0 0.030556990417883362 0.00082858516484302167 0 0.030586632528908139 0.000194563699883678 0 0.030177000926591487 -0.00063609790407242485 0 0.029806017400635827 -0.0019089595869061485 0 0.029823947145625751 -0.0019279345169738761 0 0.029840948917623816 -0.0019269693385649805 0 0.029803641185370669 -0.0019100965215953769 0 0.029823213344769391 -0.0019309066696499614 0 0.029806017400635827 -0.0019089595869061485 0 0.029823213344769391 -0.0019309066696499614 0 0.029806017400635827 -0.0019089595869061485 0 0.029823947145625751 -0.0019279345169738761 0 0.029826232856305711 -0.0019386179713409561 0 0.029823947145625751 -0.0019279345169738761 0 0.029840948917623816 -0.0019269693385649805 0 0.029840948917623816 -0.0019269693385649805 0 0.029838131861245485 -0.0019203908615060125 0 0.029912334337662511 -0.0019288975751436052 0 0.029826232856305711 -0.0019386179713409561 0 0.029840948917623816 -0.0019269693385649805 0 0.029838131861245485 -0.0019203908615060125 0 0.030500836833206674 0.0012146801114477274 0 0.030429051863818855 0.00096892127230848064 0 0.030279906157414854 0.0010883878863609344 0 0.030429051863818855 0.00096892127230848064 0 0.030279906157414854 0.0010883878863609344 0 0.030147195456483446 0.00073798423264522775 0 0.030429051863818855 0.00096892127230848064 0 0.030556990417883362 0.00082858516484302167 0 0.02995551421193764 0.00053714972645223604 0 0.030556990417883362 0.00082858516484302167 0 0.03028293430981174 9.9846730793765487e-05 0 0.02995551421193764 0.00053714972645223604 0 0.030944002090620266 0.0023146397097985401 0 0.030630189460857684 0.0019953684203832451 0 0.03007654310409745 0.00050832276372776708 0 0.030630189460857684 0.0019953684203832451 0 0.029838131861245485 -0.0019203908615060125 0 0.029838881183488517 -0.0018568509328579976 0 0.029772054093415837 -0.0018608235625799617 0 0.029838131861245485 -0.0019203908615060125 0 0.029912334337662511 -0.0019288975751436052 0 0.029838881183488517 -0.0018568509328579976 0 0.029912334337662511 -0.0019288975751436052 0 0.029838881183488517 -0.0018568509328579976 0 0.029855143089568641 -0.0016936513792338008 0 0.029838881183488517 -0.0018568509328579976 0 0.029855143089568641 -0.0016936513792338008 0 0.029772054093415837 -0.0018608235625799617 0 0.029912334337662511 -0.0019288975751436052 0 0.029855143089568641 -0.0016936513792338008 0 0.03007457472488323 -0.0014370067406754008 0 0.029855143089568641 -0.0016936513792338008 0 0.029690774268083441 -0.0016148055817802578 0 0.029797323381269742 -0.0013876431795221678 0 0.029855143089568641 -0.0016936513792338008 0 0.03007457472488323 -0.0014370067406754008 0 0.029797323381269742 -0.0013876431795221678 0 0.030177000926591487 -0.00063609790407242485 0 0.030168989531564286 -0.00063692899815927413 0 0.029717336360270196 -0.002103480785394787 0 0.029800090700770762 -0.001979859383169484 0 0.029628387653711528 -0.0018434182102887661 0 0.029800090700770762 -0.001979859383169484 0 0.029772054093415837 -0.0018608235625799617 0 0.029628387653711528 -0.0018434182102887661 0 0.029812831720050132 -0.0019425585372112588 0 0.029800090700770762 -0.001979859383169484 0 0.029772054093415837 -0.0018608235625799617 0 0.029812831720050132 -0.0019425585372112588 0 0.029838131861245485 -0.0019203908615060125 0 0.029772054093415837 -0.0018608235625799617 0 0.029772054093415837 -0.0018608235625799617 0 0.029690774268083441 -0.0016148055817802578 0 0.029628387653711528 -0.0018434182102887661 0 0.029855143089568641 -0.0016936513792338008 0 0.029772054093415837 -0.0018608235625799617 0 0.029690774268083441 -0.0016148055817802578 0 0.029690774268083441 -0.0016148055817802578 0 0.029628387653711528 -0.0018434182102887661 0 0.029453051237435447 -0.0014664068610643522 0 0.029325278460161537 -0.0018425459681743795 0 0.029628387653711528 -0.0018434182102887661 0 0.029453051237435447 -0.0014664068610643522 0 0.029453051237435447 -0.0014664068610643522 0 0.029622072895351004 -0.0011687875728669033 0 0.029348726548696386 -0.00092211215544716436 0 0.029690774268083441 -0.0016148055817802578 0 0.029453051237435447 -0.0014664068610643522 0 0.029622072895351004 -0.0011687875728669033 0 0.029690774268083441 -0.0016148055817802578 0 0.029622072895351004 -0.0011687875728669033 0 0.029797323381269742 -0.0013876431795221678 0 0.029622072895351004 -0.0011687875728669033 0 0.029348726548696386 -0.00092211215544716436 0 0.029635780872143073 -0.00066005937304046392 0 0.029073516565997944 -0.0012537401445495686 0 0.029453051237435447 -0.0014664068610643522 0 0.029348726548696386 -0.00092211215544716436 0 0.029073516565997944 -0.0012537401445495686 0 0.029348726548696386 -0.00092211215544716436 0 0.029011833474334899 -0.00051985140571285068 0 0.030168989531564286 -0.00063692899815927413 0 0.030023459784500023 -0.00052943862944868775 0 0.03028293430981174 9.9846730793765487e-05 0 0.029994055472306692 -0.00048349481194825527 0 0.029845169889381719 -0.0002418206869696305 0 0.03007457472488323 -0.0014370067406754008 0 0.029826250180111036 -0.00094258732520723293 0 0.029994055472306692 -0.00048349481194825527 0 0.029622072895351004 -0.0011687875728669033 0 0.029826250180111036 -0.00094258732520723293 0 0.029797323381269742 -0.0013876431795221678 0 0.03007457472488323 -0.0014370067406754008 0 0.029826250180111036 -0.00094258732520723293 0 0.029797323381269742 -0.0013876431795221678 0 0.029622072895351004 -0.0011687875728669033 0 0.029826250180111036 -0.00094258732520723293 0 0.029635780872143073 -0.00066005937304046392 0 0.029826250180111036 -0.00094258732520723293 0 0.029635780872143073 -0.00066005937304046392 0 0.029994055472306692 -0.00048349481194825527 0 0.029719158185255005 -0.00024767615683184764 0 0.029845169889381719 -0.0002418206869696305 0 0.02981713197318283 -0.0003118805050389351 0 0.029994055472306692 -0.00048349481194825527 0 0.029845169889381719 -0.0002418206869696305 0 0.02981713197318283 -0.0003118805050389351 0 0.029841035117465668 0.0010093820002923734 0 0.029161613495444584 0.00051947070817703477 0 0.028724299741681072 0.0011107199539423468 0 0.029841035117465668 0.0010093820002923734 0 0.029161613495444584 0.00051947070817703477 0 0.02949373121726211 -0.00011245915032267133 0 0.029768101398699655 0.00038765271153202107 0 0.029516510091755589 -0.0001091284340488789 0 0.029841035117465668 0.0010093820002923734 0 0.029692586233579964 0.001991248203801537 0 0.028724299741681072 0.0011107199539423468 0 0.029841035117465668 0.0010093820002923734 0 0.03021268004927102 0.0019212033260752172 0 0.029692586233579964 0.001991248203801537 0 0.029719158185255005 -0.00024767615683184764 0 0.029845169889381719 -0.0002418206869696305 0 0.029769674249512528 1.2385203653628281e-05 0 0.029768101398699655 0.00038765271153202107 0 0.029951686553313792 0.00089757761926894677 0 0.03028293430981174 9.9846730793765487e-05 0 0.029845169889381719 -0.0002418206869696305 0 0.029769674249512528 1.2385203653628281e-05 0 0.029951686553313792 0.00089757761926894677 0 0.030630189460857684 0.0019953684203832451 0 0.030819714226230765 0.0028540758557252556 0 0.030630189460857684 0.0019953684203832451 0 0.03021268004927102 0.0019212033260752172 0 0.029692586233579964 0.001991248203801537 0 0.030583294676329153 0.0027803072377580447 0 0.03028293430981174 9.9846730793765487e-05 0 0.029769674249512528 1.2385203653628281e-05 0 0.02995551421193764 0.00053714972645223604 0 0.031457691414834732 0.0033948893358071164 0 0.031407047553995641 0.0036231401565215001 0 0.031640668711147589 0.0035709878931830326 0 0.031407047553995641 0.0036231401565215001 0 0.031507869650922185 0.0036659313571231825 0 0.031640668711147589 0.0035709878931830326 0 0.031439337591240249 0.0037281257594852114 0 0.031407047553995641 0.0036231401565215001 0 0.031507869650922185 0.0036659313571231825 0 0.031546672371001214 0.0037385983623299517 0 0.031507869650922185 0.0036659313571231825 0 0.031640668711147589 0.0035709878931830326 0 0.026181316154743506 0.0072779187733751178 0 0.027822377681236559 0.0075863082175331486 0 0.026764029306153382 0.0062183463059013134 0 0.027822377681236559 0.0075863082175331486 0 0.026764029306153382 0.0062183463059013134 0 0.027833409464655765 0.0056439550817432961 0 0.031603498160789764 0.0058641317802697228 0 0.029352469856548609 0.0046852288652825856 0 0.031290420668459482 0.0037488808620496218 0 0.031407047553995641 0.0036231401565215001 0 0.031241229849927454 0.0034878160981139626 0 0.031439337591240249 0.0037281257594852114 0 0.031317219599235543 0.0037515759763475627 0 0.031407047553995641 0.0036231401565215001 0 0.031317219599235543 0.0037515759763475627 0 0.031290420668459482 0.0037488808620496218 0 0.031407047553995641 0.0036231401565215001 0 0.031457691414834732 0.0033948893358071164 0 0.031407047553995641 0.0036231401565215001 0 0.031241229849927454 0.0034878160981139626 0 0.0255574423426129 0.0058359536489063606 0 0.026764029306153382 0.0062183463059013134 0 0.026738540436203193 0.0049700075925712996 0 0.026764029306153382 0.0062183463059013134 0 0.027833409464655765 0.0056439550817432961 0 0.026738540436203193 0.0049700075925712996 0 0.026738540436203193 0.0049700075925712996 0 0.027981257809076218 0.0037137047705711368 0 0.026661665562039187 0.0038456145689975867 0 0.027833409464655765 0.0056439550817432961 0 0.026738540436203193 0.0049700075925712996 0 0.027981257809076218 0.0037137047705711368 0 0.025720080096571382 0.004470481748679889 0 0.026738540436203193 0.0049700075925712996 0 0.026661665562039187 0.0038456145689975867 0 0.029352469856548609 0.0046852288652825856 0 0.029181465722066754 0.0026831760568450402 0 0.031457691414834732 0.0033948893358071164 0 0.031241229849927454 0.0034878160981139626 0 0.031215693766722508 0.0031819802316743052 0 0.030819714226230765 0.0028540758557252556 0 0.029181465722066754 0.0026831760568450402 0 0.028244515324006056 0.0039539669121801775 0 0.027692207005039705 0.0034335295650863955 0 0.028542070891177433 -0.00016047235111340215 0 0.029181465722066754 0.0026831760568450402 0 0.028717286477486722 0.002795816625042457 0 0.026661665562039187 0.0038456145689975867 0 0.027128801397503698 0.0033681088752296408 0 0.026442041854658337 0.0030770242326346197 0 0.027981257809076218 0.0037137047705711368 0 0.027692207005039705 0.0034335295650863955 0 0.027128801397503698 0.0033681088752296408 0 0.027981257809076218 0.0037137047705711368 0 0.026661665562039187 0.0038456145689975867 0 0.027128801397503698 0.0033681088752296408 0 0.027692207005039705 0.0034335295650863955 0 0.027128801397503698 0.0033681088752296408 0 0.027027090800176644 0.0026422791309067208 0 0.027027090800176644 0.0026422791309067208 0 0.026442041854658337 0.0030770242326346197 0 0.026378402850355441 0.0024302731828525206 0 0.027128801397503698 0.0033681088752296408 0 0.027027090800176644 0.0026422791309067208 0 0.026442041854658337 0.0030770242326346197 0 0.027027090800176644 0.0026422791309067208 0 0.026801575054802181 0.00044004833547742049 0 0.028542070891177433 -0.00016047235111340215 0 0.027027090800176644 0.0026422791309067208 0 0.026378402850355441 0.0024302731828525206 0 0.026635640001930815 0.0019256593170425913 0 0.02700456310066774 0.0025040613530139442 0 0.026755201258238138 0.0011470676056371048 0 0.026378402850355441 0.0024302731828525206 0 0.026635640001930815 0.0019256593170425913 0 0.025615266592214043 0.0019880067332881061 0 0.029181465722066754 0.0026831760568450402 0 0.028346965175225086 -0.00013737786856493799 0 0.029161613495444584 0.00051947070817703477 0 0.028542070891177433 -0.00016047235111340215 0 0.02949373121726211 -0.00011245915032267133 0 0.027692207005039705 0.0034335295650863955 0 0.027027090800176644 0.0026422791309067208 0 0.028542070891177433 -0.00016047235111340215 0 0.029161613495444584 0.00051947070817703477 0 0.028724299741681072 0.0011107199539423468 0 0.028542070891177433 -0.00016047235111340215 0 0.028542070891177433 -0.00016047235111340215 0 0.029397211889720522 -0.00073415286301404463 0 0.02949373121726211 -0.00011245915032267133 0 0.028542070891177433 -0.00016047235111340215 0 0.026720403667574034 -0.0012637048477675578 0 0.029397211889720522 -0.00073415286301404463 0 0.02833888183166176 0.00035524783784301968 0 0.02838827938477952 0.00034422170725570428 0 0.028395234410403619 0.00038806874187794551 0 0.027243690855925286 0.00035928341411632544 0 0.028923971652670386 -0.00028636212469418864 0 0.026801575054802181 0.00044004833547742049 0 0.028542070891177433 -0.00016047235111340215 0 0.026720403667574034 -0.0012637048477675578 0 0.026635640001930815 0.0019256593170425913 0 0.026409840683035164 0.00094336031516879164 0 0.025615266592214043 0.0019880067332881061 0 0.026755201258238138 0.0011470676056371048 0 0.027243690855925286 0.00035928341411632544 0 0.02833888183166176 0.00035524783784301968 0 0.0283629591393194 0.00033276495800186901 0 0.028355076322742041 0.00033427946121977048 0 0.027243690855925286 0.00035928341411632544 0 0.027699696621876192 -0.00058391446777702463 0 0.02833888183166176 0.00035524783784301968 0 0.028368656604252425 0.00033761907486282752 0 0.0283629591393194 0.00033276495800186901 0 0.02833888183166176 0.00035524783784301968 0 0.02838827938477952 0.00034422170725570428 0 0.028368656604252425 0.00033761907486282752 0 0.02838827938477952 0.00034422170725570428 0 0.028379529956170362 0.00031738111411755058 0 0.028423171018820123 0.00030406138488428471 0 0.02838827938477952 0.00034422170725570428 0 0.028368656604252425 0.00033761907486282752 0 0.028379529956170362 0.00031738111411755058 0 0.028368656604252425 0.00033761907486282752 0 0.028379529956170362 0.00031738111411755058 0 0.0283629591393194 0.00033276495800186901 0 0.028379529956170362 0.00031738111411755058 0 0.0283629591393194 0.00033276495800186901 0 0.028364446564445613 0.00034980891036000944 0 0.0283629591393194 0.00033276495800186901 0 0.028364446564445613 0.00034980891036000944 0 0.028355076322742041 0.00033427946121977048 0 0.028364446564445613 0.00034980891036000944 0 0.028353583359581467 0.00036993875213458811 0 0.028355076322742041 0.00033427946121977048 0 0.028590642758004391 0.00025678388247005174 0 0.028423171018820123 0.00030406138488428471 0 0.028410105024300466 0.0002197129963819328 0 0.028423171018820123 0.00030406138488428471 0 0.028398758118580655 0.00029192037914935458 0 0.028410105024300466 0.0002197129963819328 0 0.028379529956170362 0.00031738111411755058 0 0.028423171018820123 0.00030406138488428471 0 0.028398758118580655 0.00029192037914935458 0 0.02838827938477952 0.00034422170725570428 0 0.028423171018820123 0.00030406138488428471 0 0.028395234410403619 0.00038806874187794551 0 0.028423171018820123 0.00030406138488428471 0 0.028540774441730667 0.00031892034122250624 0 0.028395234410403619 0.00038806874187794551 0 0.028590642758004391 0.00025678388247005174 0 0.028423171018820123 0.00030406138488428471 0 0.028540774441730667 0.00031892034122250624 0 0.029278645503200768 1.995643639247589e-05 0 0.028923971652670386 -0.00028636212469418864 0 0.028540774441730667 0.00031892034122250624 0 0.028669741958687565 0.00042045186387528442 0 0.028395234410403619 0.00038806874187794551 0 0.029972662526194016 -0.0003703802428610574 0 0.029397211889720522 -0.00073415286301404463 0 0.02949373121726211 -0.00011245915032267133 0 0.029719158185255005 -0.00024767615683184764 0 0.02949373121726211 -0.00011245915032267133 0 0.02981713197318283 -0.0003118805050389351 0 0.029972662526194016 -0.0003703802428610574 0 0.02949373121726211 -0.00011245915032267133 0 0.02981713197318283 -0.0003118805050389351 0 0.029972662526194016 -0.0003703802428610574 0 0.02981713197318283 -0.0003118805050389351 0 0.029864728880665211 -0.00041622789585410907 0 0.029635780872143073 -0.00066005937304046392 0 0.029994055472306692 -0.00048349481194825527 0 0.029864728880665211 -0.00041622789585410907 0 0.029994055472306692 -0.00048349481194825527 0 0.02981713197318283 -0.0003118805050389351 0 0.029864728880665211 -0.00041622789585410907 0 0.029635780872143073 -0.00066005937304046392 0 0.029864728880665211 -0.00041622789585410907 0 0.029318517609466063 -2.8405761706140985e-05 0 0.029972662526194016 -0.0003703802428610574 0 0.029864728880665211 -0.00041622789585410907 0 0.029318517609466063 -2.8405761706140985e-05 0 0.028669741958687565 0.00042045186387528442 0 0.029318517609466063 -2.8405761706140985e-05 0 0.028881418810376078 0.00022333898310255353 0 0.029278645503200768 1.995643639247589e-05 0 0.029282843950785769 -2.2139568776165387e-05 0 0.029348726548696386 -0.00092211215544716436 0 0.029278583538583709 -0.00042981324731226396 0 0.029011833474334899 -0.00051985140571285068 0 0.029635780872143073 -0.00066005937304046392 0 0.029318517609466063 -2.8405761706140985e-05 0 0.029278583538583709 -0.00042981324731226396 0 0.029348726548696386 -0.00092211215544716436 0 0.029635780872143073 -0.00066005937304046392 0 0.029278583538583709 -0.00042981324731226396 0 0.029318517609466063 -2.8405761706140985e-05 0 0.029278583538583709 -0.00042981324731226396 0 0.029092589192696076 -4.4639161961577854e-05 0 0.029318517609466063 -2.8405761706140985e-05 0 0.029092589192696076 -4.4639161961577854e-05 0 0.029088208387004211 0.00016844381610050101 0 0.029278583538583709 -0.00042981324731226396 0 0.029092589192696076 -4.4639161961577854e-05 0 0.029011833474334899 -0.00051985140571285068 0 0.029066761377090796 -4.7401307460263448e-05 0 0.028577388133488903 4.7872500625092025e-05 0 0.029092589192696076 -4.4639161961577854e-05 0 0.029011833474334899 -0.00051985140571285068 0 0.028875488286543557 7.5169670536110699e-06 0 0.029092589192696076 -4.4639161961577854e-05 0 0.028775049516055511 0.00049233553146140526 0 0.028451720166158451 0.00047411557781981825 0 0.029092589192696076 -4.4639161961577854e-05 0 0.028291235317992398 5.3799924707889434e-05 0 0.028451720166158451 0.00047411557781981825 0 0.029092589192696076 -4.4639161961577854e-05 0 0.028986769980151716 0.0002944778647187755 0 0.029088208387004211 0.00016844381610050101 0 0.029092589192696076 -4.4639161961577854e-05 0 0.028986769980151716 0.0002944778647187755 0 0.028775049516055511 0.00049233553146140526 0 0.028986769980151716 0.0002944778647187755 0 0.02890430610148427 0.00045297605196277746 0 0.028902424356863143 0.00030676214308657685 0 0.02890430610148427 0.00045297605196277746 0 0.028775049516055511 0.00049233553146140526 0 0.028770727558868111 0.00063516787439218806 0 0.02890430610148427 0.00045297605196277746 0 0.028770727558868111 0.00063516787439218806 0 0.028877524478968152 0.00050009086601781217 0 0.028986769980151716 0.0002944778647187755 0 0.02890430610148427 0.00045297605196277746 0 0.028775049516055511 0.00049233553146140526 0 0.028775049516055511 0.00049233553146140526 0 0.028543645557269903 0.00074661835470267478 0 0.028770727558868111 0.00063516787439218806 0 0.028775049516055511 0.00049233553146140526 0 0.028543645557269903 0.00074661835470267478 0 0.028451720166158451 0.00047411557781981825 0 0.028590642758004391 0.00025678388247005174 0 0.028540774441730667 0.00031892034122250624 0 0.028881418810376078 0.00022333898310255353 0 0.028540774441730667 0.00031892034122250624 0 0.028669741958687565 0.00042045186387528442 0 0.028881418810376078 0.00022333898310255353 0 0.029318517609466063 -2.8405761706140985e-05 0 0.028881418810376078 0.00022333898310255353 0 0.029088208387004211 0.00016844381610050101 0 0.028881418810376078 0.00022333898310255353 0 0.029088208387004211 0.00016844381610050101 0 0.028902424356863143 0.00030676214308657685 0 0.028986769980151716 0.0002944778647187755 0 0.029088208387004211 0.00016844381610050101 0 0.028902424356863143 0.00030676214308657685 0 0.02890430610148427 0.00045297605196277746 0 0.028902424356863143 0.00030676214308657685 0 0.028678328193571089 0.00034673727965394118 0 0.028902424356863143 0.00030676214308657685 0 0.028623290837961887 0.00028305981934895842 0 0.028678328193571089 0.00034673727965394118 0 0.028881418810376078 0.00022333898310255353 0 0.028902424356863143 0.00030676214308657685 0 0.028623290837961887 0.00028305981934895842 0 0.028590642758004391 0.00025678388247005174 0 0.028881418810376078 0.00022333898310255353 0 0.028623290837961887 0.00028305981934895842 0 0.028590642758004391 0.00025678388247005174 0 0.028623290837961887 0.00028305981934895842 0 0.028410105024300466 0.0002197129963819328 0 0.028623290837961887 0.00028305981934895842 0 0.028242719083799748 0.00010900310834707669 0 0.028678328193571089 0.00034673727965394118 0 0.028623290837961887 0.00028305981934895842 0 0.028242719083799748 0.00010900310834707669 0 0.028410105024300466 0.0002197129963819328 0 0.028242719083799748 0.00010900310834707669 0 0.028678328193571089 0.00034673727965394118 0 0.028933673824389418 0.00046461909598324386 0 0.028242719083799748 0.00010900310834707669 0 0.027105735994018221 0.00023131912902604922 0 0.026329430024195185 -0.00056517072606477908 0 0.02818407637427655 7.5291689676560214e-05 0 0.027585770264811918 -9.5985847861212862e-06 0 0.027105735994018221 0.00023131912902604922 0 0.027735355405830137 0.00068548145915927499 0 0.026440212489751903 0.00090296567803444189 0 0.028242719083799748 0.00010900310834707669 0 0.027105735994018221 0.00023131912902604922 0 0.027735355405830137 0.00068548145915927499 0 0.028242719083799748 0.00010900310834707669 0 0.027735355405830137 0.00068548145915927499 0 0.02838294613278676 0.00038168654653226384 0 0.028543645557269903 0.00074661835470267478 0 0.028770727558868111 0.00063516787439218806 0 0.02839583935438968 0.001177336973682219 0 0.026329430024195185 -0.00056517072606477908 0 0.026103722803372573 -6.6752498659821809e-05 0 0.024044809120706528 -0.00063735484261869142 0 0.027585770264811918 -9.5985847861212862e-06 0 0.026188829116250614 0.00026043689001463199 0 0.028770727558868111 0.00063516787439218806 0 0.028933673824389418 0.00046461909598324386 0 0.02839583935438968 0.001177336973682219 0 0.028770727558868111 0.00063516787439218806 0 0.028877524478968152 0.00050009086601781217 0 0.028933673824389418 0.00046461909598324386 0 0.028877524478968152 0.00050009086601781217 0 0.028852783224730297 0.00044724244195124235 0 0.028933673824389418 0.00046461909598324386 0 0.02890430610148427 0.00045297605196277746 0 0.028678328193571089 0.00034673727965394118 0 0.028852783224730297 0.00044724244195124235 0 0.028678328193571089 0.00034673727965394118 0 0.028852783224730297 0.00044724244195124235 0 0.028933673824389418 0.00046461909598324386 0 0.02890430610148427 0.00045297605196277746 0 0.028877524478968152 0.00050009086601781217 0 0.028852783224730297 0.00044724244195124235 0 0.027105735994018221 0.00023131912902604922 0 0.026103722803372573 -6.6752498659821809e-05 0 0.026440212489751903 0.00090296567803444189 0 0.026103722803372573 -6.6752498659821809e-05 0 0.025154935578712113 0.00079762244649029135 0 0.026440212489751903 0.00090296567803444189 0 0.027105735994018221 0.00023131912902604922 0 0.026329430024195185 -0.00056517072606477908 0 0.026103722803372573 -6.6752498659821809e-05 0 0.026103722803372573 -6.6752498659821809e-05 0 0.025154935578712113 0.00079762244649029135 0 0.024017348628934339 -8.251163413437595e-06 0 0.026103722803372573 -6.6752498659821809e-05 0 0.024044809120706528 -0.00063735484261869142 0 0.024141157159930079 0.00030273010373527056 0 0.025964333256923707 -5.9473978025313491e-05 0 0.024099559415410463 0.00015558850445944006 0 0.025154935578712113 0.00079762244649029135 0 0.026440212489751903 0.00090296567803444189 0 0.024790082445601287 0.0020919395964710554 0 0.025154935578712113 0.00079762244649029135 0 0.024790082445601287 0.0020919395964710554 0 0.023905004440942575 0.0011999811961247353 0 0.026440212489751903 0.00090296567803444189 0 0.024790082445601287 0.0020919395964710554 0 0.026827384048912904 0.0017374585661822269 0 0.011049125352683709 -0.00038562438168557821 0 0.010187593453440743 0.0002754165560440828 0 0.010949483618769225 0.00049115196065759395 0 0.017303416727701377 0.00094272662212665018 0 0.018904150247845333 0.00066331770951253235 0 0.0097817071380778119 -0.00021527071711889358 0 0.011049125352683709 -0.00038562438168557821 0 0.010187593453440743 0.0002754165560440828 0 0.0097817071380778119 -0.00021527071711889358 0 0.0094514809217583519 4.505786093615761e-05 0 0.010187593453440743 0.0002754165560440828 0 0.027735355405830137 0.00068548145915927499 0 0.027998579118014597 0.0011016373606260491 0 0.02838294613278676 0.00038168654653226384 0 0.027735355405830137 0.00068548145915927499 0 0.026440212489751903 0.00090296567803444189 0 0.026827384048912904 0.0017374585661822269 0 0.027735355405830137 0.00068548145915927499 0 0.026827384048912904 0.0017374585661822269 0 0.027998579118014597 0.0011016373606260491 0 0.018904150247845333 0.00066331770951253235 0 0.020286480065367631 0.00032188557299870458 0 0.011049125352683709 -0.00038562438168557821 0 0.011415207787589046 0.0002682594628978653 0 0.012060834228160336 0.00012851723328164734 0 0.011049125352683709 -0.00038562438168557821 0 0.011415207787589046 0.0002682594628978653 0 0.010949483618769225 0.00049115196065759395 0 0.012578970966726567 -0.00049776232334382091 0 0.012060834228160336 0.00012851723328164734 0 0.012785515825700172 0.00049774258980398302 0 0.011049125352683709 -0.00038562438168557821 0 0.012578970966726567 -0.00049776232334382091 0 0.012060834228160336 0.00012851723328164734 0 0.012578970966726567 -0.00049776232334382091 0 0.014228859907000672 -0.00043790797188053413 0 0.012785515825700172 0.00049774258980398302 0 0.020286480065367631 0.00032188557299870458 0 0.021129909093988469 0.00012905850315037752 0 0.027998579118014597 0.0011016373606260491 0 0.028317827005821142 0.00070730579050895092 0 0.02838294613278676 0.00038168654653226384 0 0.028317827005821142 0.00070730579050895092 0 0.028375433772451653 0.00044438442534094338 0 0.02838294613278676 0.00038168654653226384 0 0.021129909093988469 0.00012905850315037752 0 0.022522041574145626 0.00017684516599377471 0 0.014228859907000672 -0.00043790797188053413 0 0.015677981459998387 -0.00031801025266710623 0 0.015055176184787168 0.0004696563242771405 0 0.02831026252286923 0.0004808170103844803 0 0.028333314257410876 0.00043445379908107405 0 0.028280795117423083 0.00043183213643851527 0 0.02831026252286923 0.0004808170103844803 0 0.028375433772451653 0.00044438442534094338 0 0.028333314257410876 0.00043445379908107405 0 0.028317827005821142 0.00070730579050895092 0 0.02831026252286923 0.0004808170103844803 0 0.028375433772451653 0.00044438442534094338 0 0.028375433772451653 0.00044438442534094338 0 0.028362051295709585 0.00039410572105068884 0 0.028381227093310049 0.00035192689935872358 0 0.028375433772451653 0.00044438442534094338 0 0.028333314257410876 0.00043445379908107405 0 0.028362051295709585 0.00039410572105068884 0 0.028333314257410876 0.00043445379908107405 0 0.028362051295709585 0.00039410572105068884 0 0.02834147311326201 0.0003974802005626654 0 0.028362051295709585 0.00039410572105068884 0 0.028353583359581467 0.00036993875213458811 0 0.02834147311326201 0.0003974802005626654 0 0.028362051295709585 0.00039410572105068884 0 0.028364446564445613 0.00034980891036000944 0 0.028353583359581467 0.00036993875213458811 0 0.028379529956170362 0.00031738111411755058 0 0.028381227093310049 0.00035192689935872358 0 0.028398758118580655 0.00029192037914935458 0 0.028379529956170362 0.00031738111411755058 0 0.028364446564445613 0.00034980891036000944 0 0.028381227093310049 0.00035192689935872358 0 0.028362051295709585 0.00039410572105068884 0 0.028364446564445613 0.00034980891036000944 0 0.028381227093310049 0.00035192689935872358 0 0.028381227093310049 0.00035192689935872358 0 0.028398758118580655 0.00029192037914935458 0 0.02838294613278676 0.00038168654653226384 0 0.028398758118580655 0.00029192037914935458 0 0.028410105024300466 0.0002197129963819328 0 0.02838294613278676 0.00038168654653226384 0 0.028242719083799748 0.00010900310834707669 0 0.028410105024300466 0.0002197129963819328 0 0.02838294613278676 0.00038168654653226384 0 0.028375433772451653 0.00044438442534094338 0 0.028381227093310049 0.00035192689935872358 0 0.02838294613278676 0.00038168654653226384 0 0.01962691967668875 0.0004386401085854513 0 0.021939248391379163 0.002743470522702129 0 0.016556421241117895 5.2260712094489807e-06 0 0.01962691967668875 0.0004386401085854513 0 0.018494951050009045 -7.5984933941629155e-07 0 0.016556421241117895 5.2260712094489807e-06 0 0.01962691967668875 0.0004386401085854513 0 0.021926414706952901 0.00077132938915896023 0 0.021939248391379163 0.002743470522702129 0 0.01962691967668875 0.0004386401085854513 0 0.021926414706952901 0.00077132938915896023 0 0.020588600539568645 -0.00016027915837472662 0 0.021926414706952901 0.00077132938915896023 0 0.020588600539568645 -0.00016027915837472662 0 0.023419676063449038 0.0002266109982697225 0 0.020588600539568645 -0.00016027915837472662 0 0.021545309402899181 -0.0012114138243462943 0 0.023419676063449038 0.0002266109982697225 0 0.01962691967668875 0.0004386401085854513 0 0.020588600539568645 -0.00016027915837472662 0 0.018494951050009045 -7.5984933941629155e-07 0 0.020588600539568645 -0.00016027915837472662 0 0.018494951050009045 -7.5984933941629155e-07 0 0.020431599056866607 -2.143294370071307e-06 0 0.020588600539568645 -0.00016027915837472662 0 0.020431599056866607 -2.143294370071307e-06 0 0.021545309402899181 -0.0012114138243462943 0 0.020438902515951905 2.6894371046504086e-06 0 0.023052437035463336 -0.00033951778341428771 0 0.024250896608605157 0.00041478247932115388 0 0.020435603052872162 -1.4477009579559837e-07 0 0.022960541247526493 -0.00042038616738775732 0 0.023016331948857386 -1.8786614128102769e-06 0 0.020438902515951905 2.6894371046504086e-06 0 0.023052437035463336 -0.00033951778341428771 0 0.023052437035463336 -0.00033951778341428771 0 0.024696696857010279 -0.00058813644040165694 0 0.024250896608605157 0.00041478247932115388 0 0.022960541247526493 -0.00042038616738775732 0 0.024995328656814982 -0.00081075794649723579 0 0.021545309402899181 -0.0012114138243462943 0 0.025312957315340615 -0.00088619826456787004 0 0.023419676063449038 0.0002266109982697225 0 0.024696696857010279 -0.00058813644040165694 0 0.024250896608605157 0.00041478247932115388 0 0.025312957315340615 -0.00088619826456787004 0 0.026099753329724938 -0.0011375784883576304 0 0.024696696857010279 -0.00058813644040165694 0 0.025312957315340615 -0.00088619826456787004 0 0.026099753329724938 -0.0011375784883576304 0 0.025312957315340615 -0.00088619826456787004 0 0.027208426228893468 -0.0011420655865989075 0 0.025312957315340615 -0.00088619826456787004 0 0.025794133300969701 0.00063967894880767454 0 0.027183335047105548 -0.00041692463929374912 0 0.025312957315340615 -0.00088619826456787004 0 0.023419676063449038 0.0002266109982697225 0 0.025794133300969701 0.00063967894880767454 0 0.023419676063449038 0.0002266109982697225 0 0.023899238775590931 0.001325769001420569 0 0.025794133300969701 0.00063967894880767454 0 0.021926414706952901 0.00077132938915896023 0 0.023899238775590931 0.001325769001420569 0 0.021939248391379163 0.002743470522702129 0 0.021926414706952901 0.00077132938915896023 0 0.023419676063449038 0.0002266109982697225 0 0.023899238775590931 0.001325769001420569 0 0.023899238775590931 0.001325769001420569 0 0.025794133300969701 0.00063967894880767454 0 0.025402820498077738 0.0024631824747518251 0 0.026451617046397563 0.001414909993685735 0 0.025794133300969701 0.00063967894880767454 0 0.025402820498077738 0.0024631824747518251 0 0.026451617046397563 0.001414909993685735 0 0.027209197035580147 0.0010536886720726244 0 0.027247272475114343 0.00026010164062268359 0 0.026451617046397563 0.001414909993685735 0 0.027209197035580147 0.0010536886720726244 0 0.027252101494417116 0.0017831521651992216 0 0.026451617046397563 0.001414909993685735 0 0.027247272475114343 0.00026010164062268359 0 0.025794133300969701 0.00063967894880767454 0 0.027890873898513274 0.00044962668440534621 0 0.025794133300969701 0.00063967894880767454 0 0.027183335047105548 -0.00041692463929374912 0 0.02752630880885781 0.00034386252651220456 0 0.025917437210045136 0.00063001625682129487 0 0.025312957315340615 -0.00088619826456787004 0 0.027183335047105548 -0.00041692463929374912 0 0.027208426228893468 -0.0011420655865989075 0 0.027183335047105548 -0.00041692463929374912 0 0.027208426228893468 -0.0011420655865989075 0 0.028379572559696361 -0.00097539656753437053 0 0.027183335047105548 -0.00041692463929374912 0 0.02839792197640013 -0.00031279470098931166 0 0.028379572559696361 -0.00097539656753437053 0 0.027890873898513274 0.00044962668440534621 0 0.027183335047105548 -0.00041692463929374912 0 0.02839792197640013 -0.00031279470098931166 0 0.02839792197640013 -0.00031279470098931166 0 0.028379572559696361 -0.00097539656753437053 0 0.029011833474334899 -0.00051985140571285068 0 0.029073516565997944 -0.0012537401445495686 0 0.028379572559696361 -0.00097539656753437053 0 0.029011833474334899 -0.00051985140571285068 0 0.02839792197640013 -0.00031279470098931166 0 0.029011833474334899 -0.00051985140571285068 0 0.028875488286543557 7.5169670536110699e-06 0 0.028291235317992398 5.3799924707889434e-05 0 0.027827009186000333 0.00073086074200130399 0 0.028451720166158451 0.00047411557781981825 0 0.027890873898513274 0.00044962668440534621 0 0.02839792197640013 -0.00031279470098931166 0 0.028875488286543557 7.5169670536110699e-06 0 0.02752630880885781 0.00034386252651220456 0 0.028577388133488903 4.7872500625092025e-05 0 0.027247272475114343 0.00026010164062268359 0 0.028291235317992398 5.3799924707889434e-05 0 0.027827009186000333 0.00073086074200130399 0 0.027209197035580147 0.0010536886720726244 0 0.027247272475114343 0.00026010164062268359 0 0.027827009186000333 0.00073086074200130399 0 0.027209197035580147 0.0010536886720726244 0 0.027827009186000333 0.00073086074200130399 0 0.027252101494417116 0.0017831521651992216 0 0.027827009186000333 0.00073086074200130399 0 0.028138368188436083 0.00094892490624740565 0 0.027252101494417116 0.0017831521651992216 0 0.027827009186000333 0.00073086074200130399 0 0.028138368188436083 0.00094892490624740565 0 0.028451720166158451 0.00047411557781981825 0 0.028543645557269903 0.00074661835470267478 0 0.028138368188436083 0.00094892490624740565 0 0.028451720166158451 0.00047411557781981825 0 0.028543645557269903 0.00074661835470267478 0 0.028138368188436083 0.00094892490624740565 0 0.02839583935438968 0.001177336973682219 0 0.026188829116250614 0.00026043689001463199 0 0.024393215626209306 0.00056586864831586255 0 0.028138368188436083 0.00094892490624740565 0 0.02839583935438968 0.001177336973682219 0 0.027252101494417116 0.0017831521651992216 0 0.024044809120706528 -0.00063735484261869142 0 0.023027677722995087 -1.7164318934284602e-05 0 0.02157770546033105 -0.00066463729850668816 0 0.021864629019059497 0.00034509976128645404 0 0.024017348628934339 -8.251163413437595e-06 0 0.023026637390203317 0.00094587601941623024 0 0.023027677722995087 -1.7164318934284602e-05 0 0.022033750328203941 0.00061936944448054974 0 0.024141157159930079 0.00030273010373527056 0 0.023027677722995087 -1.7164318934284602e-05 0 0.022033750328203941 0.00061936944448054974 0 0.02157770546033105 -0.00066463729850668816 0 0.021934274381148523 0.00048549271575999659 0 0.024099559415410463 0.00015558850445944006 0 0.024017348628934339 -8.251163413437595e-06 0 0.023905004440942575 0.0011999811961247353 0 0.023026637390203317 0.00094587601941623024 0 0.024044809120706528 -0.00063735484261869142 0 0.023027677722995087 -1.7164318934284602e-05 0 0.024141157159930079 0.00030273010373527056 0 0.025154935578712113 0.00079762244649029135 0 0.024017348628934339 -8.251163413437595e-06 0 0.023905004440942575 0.0011999811961247353 0 0.023905004440942575 0.0011999811961247353 0 0.022490988274051698 0.0021670714130879337 0 0.023026637390203317 0.00094587601941623024 0 0.024790082445601287 0.0020919395964710554 0 0.023905004440942575 0.0011999811961247353 0 0.022490988274051698 0.0021670714130879337 0 0.0097817071380778119 -0.00021527071711889358 0 0.0094514809217583519 4.505786093615761e-05 0 0.009753206158406403 0.00025420589753086503 0 0.017303416727701377 0.00094272662212665018 0 0.016152780661628355 0.0011900995117510907 0 0.0094514809217583519 4.505786093615761e-05 0 0.009753206158406403 0.00025420589753086503 0 0.010157058816131992 -0.00025076111158957038 0 0.021864629019059497 0.00034509976128645404 0 0.022490988274051698 0.0021670714130879337 0 0.021046354535862413 0.0012033210976275137 0 0.021864629019059497 0.00034509976128645404 0 0.022490988274051698 0.0021670714130879337 0 0.023026637390203317 0.00094587601941623024 0 0.022490988274051698 0.0021670714130879337 0 0.021046354535862413 0.0012033210976275137 0 0.020420634194055688 0.0020802450342254403 0 0.016152780661628355 0.0011900995117510907 0 0.015593447793056272 0.0012345474358424614 0 0.009753206158406403 0.00025420589753086503 0 0.010779213038635231 0.00040401035153225849 0 0.010157058816131992 -0.00025076111158957038 0 0.010819606258286129 -4.5395284305680162e-05 0 0.010779213038635231 0.00040401035153225849 0 0.010157058816131992 -0.00025076111158957038 0 0.011214941731976801 5.4426747444883354e-05 0 0.010779213038635231 0.00040401035153225849 0 0.011715997126340612 0.0003569370574679206 0 0.011214941731976801 5.4426747444883354e-05 0 0.010819606258286129 -4.5395284305680162e-05 0 0.010779213038635231 0.00040401035153225849 0 0.021046354535862413 0.0012033210976275137 0 0.020420634194055688 0.0020802450342254403 0 0.020014157764001055 0.00080331491013631415 0 0.020420634194055688 0.0020802450342254403 0 0.020014157764001055 0.00080331491013631415 0 0.018638904058250888 0.0019832859569040079 0 0.022033750328203941 0.00061936944448054974 0 0.020014157764001055 0.00080331491013631415 0 0.02157770546033105 -0.00066463729850668816 0 0.021934274381148523 0.00048549271575999659 0 0.020142764853459814 0.00077282209515176933 0 0.021864629019059497 0.00034509976128645404 0 0.021046354535862413 0.0012033210976275137 0 0.020014157764001055 0.00080331491013631415 0 0.020014157764001055 0.00080331491013631415 0 0.02157770546033105 -0.00066463729850668816 0 0.019368054390082892 -0.00058445895417148482 0 0.024393215626209306 0.00056586864831586255 0 0.022336234644512846 0.0009426953366973149 0 0.026451617046397563 0.001414909993685735 0 0.027252101494417116 0.0017831521651992216 0 0.025402820498077738 0.0024631824747518251 0 0.019368054390082892 -0.00058445895417148482 0 0.018572219587837939 0.00051257520072542253 0 0.017453185471097338 -0.00037958617940995229 0 0.022336234644512846 0.0009426953366973149 0 0.019783626773550046 0.0010845249219947166 0 0.023899238775590931 0.001325769001420569 0 0.025402820498077738 0.0024631824747518251 0 0.021939248391379163 0.002743470522702129 0 0.018572219587837939 0.00051257520072542253 0 0.017535495616956658 0.00078866790891885365 0 0.017453185471097338 -0.00037958617940995229 0 0.020014157764001055 0.00080331491013631415 0 0.019368054390082892 -0.00058445895417148482 0 0.018572219587837939 0.00051257520072542253 0 0.020014157764001055 0.00080331491013631415 0 0.018572219587837939 0.00051257520072542253 0 0.018638904058250888 0.0019832859569040079 0 0.015593447793056272 0.0012345474358424614 0 0.015214698269957288 0.0011796165382062162 0 0.011715997126340612 0.0003569370574679206 0 0.011546519569847265 -8.2297806043087732e-05 0 0.011856019219680226 -6.8974903859164903e-05 0 0.011214941731976801 5.4426747444883354e-05 0 0.011715997126340612 0.0003569370574679206 0 0.011546519569847265 -8.2297806043087732e-05 0 0.011715997126340612 0.0003569370574679206 0 0.012061386032494256 9.4940785694604674e-08 0 0.012177030359630473 8.4762333240075941e-05 0 0.011715997126340612 0.0003569370574679206 0 0.012324941925389568 0.00021710118237313152 0 0.012177030359630473 8.4762333240075941e-05 0 0.012061386032494256 9.4940785694604674e-08 0 0.011856019219680226 -6.8974903859164903e-05 0 0.01201367594006815 -0.00010721484592282701 0 0.012061386032494256 9.4940785694604674e-08 0 0.012165360329618076 -6.9051364536327407e-05 0 0.012095720638278993 -0.00010132312185643661 0 0.011715997126340612 0.0003569370574679206 0 0.012061386032494256 9.4940785694604674e-08 0 0.011856019219680226 -6.8974903859164903e-05 0 0.018572219587837939 0.00051257520072542253 0 0.018638904058250888 0.0019832859569040079 0 0.017535495616956658 0.00078866790891885365 0 0.015214698269957288 0.0011796165382062162 0 0.01452171795856657 0.00093392588025751689 0 0.018638904058250888 0.0019832859569040079 0 0.017085611731917284 0.0018641852636201509 0 0.017535495616956658 0.00078866790891885365 0 0.017085611731917284 0.0018641852636201509 0 0.0165733030771095 0.00086829345707271205 0 0.017535495616956658 0.00078866790891885365 0 0.01452171795856657 0.00093392588025751689 0 0.015256189226708438 0.00036331833892134353 0 0.012324941925389568 0.00021710118237313152 0 0.012177030359630473 8.4762333240075941e-05 0 0.012342631065977352 7.7010253026001582e-05 0 0.012324941925389568 0.00021710118237313152 0 0.012342631065977352 7.7010253026001582e-05 0 0.012478292402935787 -3.5735085891137738e-05 0 0.012177030359630473 8.4762333240075941e-05 0 0.012342631065977352 7.7010253026001582e-05 0 0.012354829793905581 -2.2694642437811259e-05 0 0.012342631065977352 7.7010253026001582e-05 0 0.012354829793905581 -2.2694642437811259e-05 0 0.012478292402935787 -3.5735085891137738e-05 0 0.012061386032494256 9.4940785694604674e-08 0 0.012236443192953228 -2.135832255951205e-05 0 0.012165360329618076 -6.9051364536327407e-05 0 0.012061386032494256 9.4940785694604674e-08 0 0.012177030359630473 8.4762333240075941e-05 0 0.012236443192953228 -2.135832255951205e-05 0 0.012177030359630473 8.4762333240075941e-05 0 0.012354829793905581 -2.2694642437811259e-05 0 0.012236443192953228 -2.135832255951205e-05 0 0.012354829793905581 -2.2694642437811259e-05 0 0.012236443192953228 -2.135832255951205e-05 0 0.012262096476817488 -8.174269322881519e-05 0 0.012324941925389568 0.00021710118237313152 0 0.012478292402935787 -3.5735085891137738e-05 0 0.012835640766584597 -1.1530109152130738e-06 0 0.011925222021289372 -3.0470051415849096e-07 0 0.011528285600157548 -5.439170675147275e-05 0 0.011928706880768433 5.367350594827246e-07 0 0.012478292402935787 -3.5735085891137738e-05 0 0.012437595799704187 -1.5878376474041126e-05 0 0.012354829793905581 -2.2694642437811259e-05 0 0.012478292402935787 -3.5735085891137738e-05 0 0.012437595799704187 -1.5878376474041126e-05 0 0.011928706880768433 5.367350594827246e-07 0 0.012478292402935787 -3.5735085891137738e-05 0 0.012835640766584597 -1.1530109152130738e-06 0 0.011928706880768433 5.367350594827246e-07 0 0.012835640766584597 -1.1530109152130738e-06 0 0.013945239454008836 -6.6859928299636134e-07 0 0.013503706209383463 4.1675956570528764e-05 0 0.013368392732439277 -5.440104609924913e-05 0 0.013678763676126684 -2.5859782661390407e-05 0 0.01452171795856657 0.00093392588025751689 0 0.012286207394311421 3.3764681893191127e-05 0 0.013503706209383463 4.1675956570528764e-05 0 0.012835640766584597 -1.1530109152130738e-06 0 0.013368392732439277 -5.440104609924913e-05 0 0.012835640766584597 -1.1530109152130738e-06 0 0.013368392732439277 -5.440104609924913e-05 0 0.013945239454008836 -6.6859928299636134e-07 0 0.013368392732439277 -5.440104609924913e-05 0 0.013945239454008836 -6.6859928299636134e-07 0 0.013678763676126684 -2.5859782661390407e-05 0 0.0165733030771095 0.00086829345707271205 0 0.016882918666690953 5.8937959217632998e-05 0 0.01597165079566893 1.7010570166063035e-06 0 0.015256189226708438 0.00036331833892134353 0 0.015965703711952842 -2.1117733972096395e-07 0 0.013945239454008836 -6.6859928299636134e-07 0 0.013678763676126684 -2.5859782661390407e-05 0 0.015965138702610772 8.2062881029936541e-07 0 0.0165733030771095 0.00086829345707271205 0 0.017535495616956658 0.00078866790891885365 0 0.016882918666690953 5.8937959217632998e-05 0 0.017535495616956658 0.00078866790891885365 0 0.016882918666690953 5.8937959217632998e-05 0 0.017453185471097338 -0.00037958617940995229 0 0.019783626773550046 0.0010845249219947166 0 0.016553657657356512 4.6710939712336541e-07 0 0.016882918666690953 5.8937959217632998e-05 0 0.017453185471097338 -0.00037958617940995229 0 0.016547357246701533 -1.8837117332819927e-06 0 0.016882918666690953 5.8937959217632998e-05 0 0.016547357246701533 -1.8837117332819927e-06 0 0.01597165079566893 1.7010570166063035e-06 0 0.0058264658194361009 -0.00021512043863099127 0 0.0061798714698071194 1.4071426830085053e-05 0 0.0076249508390675404 3.3162336765026517e-07 0 0.0058264658194361009 -0.00021512043863099127 0 0.0076249508390675404 3.3162336765026517e-07 0 0.0050161877418398891 9.1102436293036988e-08 0 0.0058264658194361009 -0.00021512043863099127 0 0.0058216593456618523 -0.00028603713127444541 0 0.0061798714698071194 1.4071426830085053e-05 0 0.0058264658194361009 -0.00021512043863099127 0 0.0058216593456618523 -0.00028603713127444541 0 0.0056673114855508881 -8.4205077564273131e-05 0 0.0058216593456618523 -0.00028603713127444541 0 0.0061798714698071194 1.4071426830085053e-05 0 0.0058724643314938835 0.0004125398286645877 0 0.0058216593456618523 -0.00028603713127444541 0 0.0058724643314938835 0.0004125398286645877 0 0.0053949861827301878 0.00066541506494696787 0 0.0061798714698071194 1.4071426830085053e-05 0 0.0058724643314938835 0.0004125398286645877 0 0.0064051137358836106 0.00077083399443025359 0 0.0061798714698071194 1.4071426830085053e-05 0 0.0076249508390675404 3.3162336765026517e-07 0 0.0064051137358836106 0.00077083399443025359 0 0.0076320006449653336 -6.5939291701810744e-09 0 0.0090853823176267352 1.5353117524629873e-08 0 0.0086060521032653783 -8.7474447844223941e-05 0 0.0076284294299740893 1.636059046582328e-08 0 0.0074120414945517748 0.00036112608467010748 0 0.0090896373739396911 -7.6762840040430986e-08 0 0.009237735628062179 0.00051646016583419365 0 0.0090853823176267352 1.5353117524629873e-08 0 0.0086060521032653783 -8.7474447844223941e-05 0 0.0082085718430436189 0.00031931671367674351 0 0.0090922475095805474 5.8622791343772834e-07 0 0.010274272051052923 -0.00016242004148158722 0 0.010624008227131327 0.00023246077511227084 0 0.011924405835393717 6.0292777159903253e-07 0 0.010506605376759456 -5.9176064033379709e-07 0 0.010274272051052923 -0.00016242004148158722 0 0.0090922475095805474 5.8622791343772834e-07 0 0.010506605376759456 -5.9176064033379709e-07 0 0.010274272051052923 -0.00016242004148158722 0 0.01214882924420113 -0.00013568526959361975 0 0.012262096476817488 -8.174269322881519e-05 0 0.012178866440790677 -0.0002036038416416108 0 0.01214882924420113 -0.00013568526959361975 0 0.012178866440790677 -0.0002036038416416108 0 0.012057729886035221 -0.00018065587910676544 0 0.01214882924420113 -0.00013568526959361975 0 0.012165360329618076 -6.9051364536327407e-05 0 0.012262096476817488 -8.174269322881519e-05 0 0.01214882924420113 -0.00013568526959361975 0 0.012165360329618076 -6.9051364536327407e-05 0 0.012095720638278993 -0.00010132312185643661 0 0.012236443192953228 -2.135832255951205e-05 0 0.012165360329618076 -6.9051364536327407e-05 0 0.012262096476817488 -8.174269322881519e-05 0 0.012354829793905581 -2.2694642437811259e-05 0 0.012437595799704187 -1.5878376474041126e-05 0 0.012262096476817488 -8.174269322881519e-05 0 0.012437595799704187 -1.5878376474041126e-05 0 0.012262096476817488 -8.174269322881519e-05 0 0.012178866440790677 -0.0002036038416416108 0 0.011528285600157548 -5.439170675147275e-05 0 0.009237735628062179 0.00051646016583419365 0 0.012437595799704187 -1.5878376474041126e-05 0 0.012178866440790677 -0.0002036038416416108 0 0.012203450336558851 -0.0004178806529158899 0 0.012178866440790677 -0.0002036038416416108 0 0.012203450336558851 -0.0004178806529158899 0 0.012068599580405622 -0.00032042548078276966 0 0.0077103267511683081 0.00028045377396173656 0 0.0077860562379082872 0.0003572955273714933 0 0.007964896711148162 0.00022457929756062412 0 0.012203450336558851 -0.0004178806529158899 0 0.012080890157400126 -0.00040423693948538617 0 0.012068599580405622 -0.00032042548078276966 0 0.0058724643314938835 0.0004125398286645877 0 0.0064051137358836106 0.00077083399443025359 0 0.005791229842749589 0.0011210823732046963 0 0.009237735628062179 0.00051646016583419365 0 0.0076743464940852192 0.00043928383684809392 0 0.0058724643314938835 0.0004125398286645877 0 0.005791229842749589 0.0011210823732046963 0 0.0053949861827301878 0.00066541506494696787 0 0.0075292153873861281 0.00040735428566556701 0 0.0076743464940852192 0.00043928383684809392 0 0.009237735628062179 0.00051646016583419365 0 0.0075292153873861281 0.00040735428566556701 0 0.0086060521032653783 -8.7474447844223941e-05 0 0.0082085718430436189 0.00031931671367674351 0 0.0081531380190815305 0.00026433550869370531 0 0.0074120414945517748 0.00036112608467010748 0 0.0075292153873861281 0.00040735428566556701 0 0.0075292153873861281 0.00040735428566556701 0 0.005191912300681163 0.00072843932278069182 0 0.0053307331029457568 0.00083692097844233649 0 0.0051810364590482256 0.00086416254684684268 0 0.0054450188945749881 0.00064142901503262163 0 0.0053284227343195966 0.00091345491816138347 0 0.0053345528212369762 0.00090828394013805895 0 0.0053006583841785915 0.00090850322967364963 0 0.005191912300681163 0.00072843932278069182 0 0.0052225800893977402 0.00087934541101309109 0 0.0053284227343195966 0.00091345491816138347 0 0.0052767982125649978 0.00087966987557671792 0 0.0053345528212369762 0.00090828394013805895 0 0.0052767982125649978 0.00087966987557671792 0 0.0053307331029457568 0.00083692097844233649 0 0.0053345528212369762 0.00090828394013805895 0 0.0052767982125649978 0.00087966987557671792 0 0.0053307331029457568 0.00083692097844233649 0 0.0051810364590482256 0.00086416254684684268 0 0.0051536902701870583 0.00088706203552196773 0 0.0052476617557006919 0.00096800172200962062 0 0.0051810364590482256 0.00086416254684684268 0 0.0052476617557006919 0.00096800172200962062 0 0.0052767982125649978 0.00087966987557671792 0 0.0051810364590482256 0.00086416254684684268 0 0.0064374427061595126 0.00039723745124013862 0 0.0065988655264161457 0.00027575263958846388 0 0.007034241308789527 0.00026757060850382417 0 0.0076743464940852192 0.00043928383684809392 0 0.010090433636004103 -0.00015512303811006191 0 0.012080890157400126 -0.00040423693948538617 0 0.012068599580405622 -0.00032042548078276966 0 0.011902379657638277 -0.00029970182771025015 0 0.0076743464940852192 0.00043928383684809392 0 0.0058690557913251527 0.00051716574162754528 0 0.011492689921266399 -0.00035350123583827257 0 0.010090433636004103 -0.00015512303811006191 0 0.012068599580405622 -0.00032042548078276966 0 0.012031100693958692 -0.0002656731923454601 0 0.011959193985403247 -0.00033059291432512781 0 0.012178866440790677 -0.0002036038416416108 0 0.012031100693958692 -0.0002656731923454601 0 0.012057729886035221 -0.00018065587910676544 0 0.012178866440790677 -0.0002036038416416108 0 0.012068599580405622 -0.00032042548078276966 0 0.012031100693958692 -0.0002656731923454601 0 0.012031100693958692 -0.0002656731923454601 0 0.011959193985403247 -0.00033059291432512781 0 0.011962711796656764 -0.00021325026167126599 0 0.011959193985403247 -0.00033059291432512781 0 0.011826443658280802 -0.00029743583442767022 0 0.011962711796656764 -0.00021325026167126599 0 0.010090433636004103 -0.00015512303811006191 0 0.011310742876980456 -0.00064066201871079589 0 0.011856019219680226 -6.8974903859164903e-05 0 0.011826443658280802 -0.00029743583442767022 0 0.011962711796656764 -0.00021325026167126599 0 0.011546519569847265 -8.2297806043087732e-05 0 0.011856019219680226 -6.8974903859164903e-05 0 0.011826443658280802 -0.00029743583442767022 0 0.011856019219680226 -6.8974903859164903e-05 0 0.01201367594006815 -0.00010721484592282701 0 0.011962711796656764 -0.00021325026167126599 0 0.01201367594006815 -0.00010721484592282701 0 0.012095720638278993 -0.00010132312185643661 0 0.012057729886035221 -0.00018065587910676544 0 0.012061386032494256 9.4940785694604674e-08 0 0.01201367594006815 -0.00010721484592282701 0 0.012095720638278993 -0.00010132312185643661 0 0.01214882924420113 -0.00013568526959361975 0 0.012095720638278993 -0.00010132312185643661 0 0.012057729886035221 -0.00018065587910676544 0 0.012031100693958692 -0.0002656731923454601 0 0.012057729886035221 -0.00018065587910676544 0 0.011962711796656764 -0.00021325026167126599 0 0.01201367594006815 -0.00010721484592282701 0 0.012057729886035221 -0.00018065587910676544 0 0.011962711796656764 -0.00021325026167126599 0 0.010090433636004103 -0.00015512303811006191 0 0.0090451184142089462 -8.0939413634452677e-05 0 0.0065988655264161457 0.00027575263958846388 0 0.007034241308789527 0.00026757060850382417 0 0.0072903860057769321 0.00014868369480149917 0 0.01199154508236008 -0.00039085920910311635 0 0.011826443658280802 -0.00029743583442767022 0 0.011174646711836165 -0.00037424494203199161 0 0.011546519569847265 -8.2297806043087732e-05 0 0.011826443658280802 -0.00029743583442767022 0 0.011174646711836165 -0.00037424494203199161 0 0.011214941731976801 5.4426747444883354e-05 0 0.011546519569847265 -8.2297806043087732e-05 0 0.011174646711836165 -0.00037424494203199161 0 0.0053418188083628514 0.00086133556092676919 0 0.0061139796178107031 0.0017607102260609375 0 0.0054437199819604249 0.00091676994342124629 0 0.0053006583841785915 0.00090850322967364963 0 0.0052016786182024315 0.00089450229220503635 0 0.0054450188945749881 0.00064142901503262163 0 0.0054437199819604249 0.00091676994342124629 0 0.0063318170458584021 0.00081430730135871815 0 0.0053307331029457568 0.00083692097844233649 0 0.0054437199819604249 0.00091676994342124629 0 0.0053345528212369762 0.00090828394013805895 0 0.0053307331029457568 0.00083692097844233649 0 0.0054450188945749881 0.00064142901503262163 0 0.0054437199819604249 0.00091676994342124629 0 0.0054437199819604249 0.00091676994342124629 0 0.0053345528212369762 0.00090828394013805895 0 0.0053006583841785915 0.00090850322967364963 0 0.005191912300681163 0.00072843932278069182 0 0.0051876586536682848 0.00089972272857508822 0 0.0053284227343195966 0.00091345491816138347 0 0.0053006583841785915 0.00090850322967364963 0 0.0051874175891102837 0.00088107014030559285 0 0.0053006583841785915 0.00090850322967364963 0 0.0051874175891102837 0.00088107014030559285 0 0.0052016786182024315 0.00089450229220503635 0 0.005770497133627624 0.00028909575862872983 0 0.005191912300681163 0.00072843932278069182 0 0.0049987586454667545 0.00067923055860648752 0 0.0050470874729925752 0.0008451835727876977 0 0.0051874175891102837 0.00088107014030559285 0 0.0049462233483170501 0.00088918925566217706 0 0.0049987586454667545 0.00067923055860648752 0 0.0050470874729925752 0.0008451835727876977 0 0.0049462233483170501 0.00088918925566217706 0 0.0050470874729925752 0.0008451835727876977 0 0.0050696581447558569 0.00092304255635381361 0 0.0050696581447558569 0.00092304255635381361 0 0.0051874175891102837 0.00088107014030559285 0 0.0051568913171587561 0.00093160165839607789 0 0.0050470874729925752 0.0008451835727876977 0 0.0050696581447558569 0.00092304255635381361 0 0.0051874175891102837 0.00088107014030559285 0 0.0052016786182024315 0.00089450229220503635 0 0.0051891359107835155 0.00093918342024603319 0 0.0051568913171587561 0.00093160165839607789 0 0.0051874175891102837 0.00088107014030559285 0 0.0052016786182024315 0.00089450229220503635 0 0.0051568913171587561 0.00093160165839607789 0 0.0061139796178107031 0.0017607102260609375 0 0.0040441000286794053 0.0020101861245164828 0 0.008071373385346135 0.0020440149096776 0 0.008184641298092335 0.0028002662937911004 0 0.0077007308813815461 0.0031871393187545083 0 0.0090425578666276235 0.0024320577987136192 0 0.0040441000286794053 0.0020101861245164828 0 0.0071987210902595064 0.001934639195198043 0 0.008071373385346135 0.0020440149096776 0 0.007183012438277632 0.0036365923284962741 0 0.0071987210902595064 0.001934639195198043 0 0.0063744814678864427 0.0023316586498676214 0 0.007183012438277632 0.0036365923284962741 0 0.0071987210902595064 0.001934639195198043 0 0.0063744814678864427 0.0023316586498676214 0 0.0065343353105631764 0.0013212305412698853 0 0.0054437199819604249 0.00091676994342124629 0 0.0063744814678864427 0.0023316586498676214 0 0.0065343353105631764 0.0013212305412698853 0 0.0054437199819604249 0.00091676994342124629 0 0.0065343353105631764 0.0013212305412698853 0 0.0063318170458584021 0.00081430730135871815 0 0.0065343353105631764 0.0013212305412698853 0 0.0063318170458584021 0.00081430730135871815 0 0.0071369379035592945 0.0010117550945655859 0 0.007034241308789527 0.00026757060850382417 0 0.0072903860057769321 0.00014868369480149917 0 0.0077627725456818619 0.00016606232903155596 0 0.0090451184142089462 -8.0939413634452677e-05 0 0.0092312218685906885 -8.4876650982978533e-05 0 0.0058690557913251527 0.00051716574162754528 0 0.0075095406138274709 0.00020370415682726369 0 0.0054450188945749881 0.00064142901503262163 0 0.0063318170458584021 0.00081430730135871815 0 0.0070322637298015338 0.00023815934384599854 0 0.010819606258286129 -4.5395284305680162e-05 0 0.011174646711836165 -0.00037424494203199161 0 0.010157058816131992 -0.00025076111158957038 0 0.0063318170458584021 0.00081430730135871815 0 0.0070322637298015338 0.00023815934384599854 0 0.0071369379035592945 0.0010117550945655859 0 0.011214941731976801 5.4426747444883354e-05 0 0.010819606258286129 -4.5395284305680162e-05 0 0.011174646711836165 -0.00037424494203199161 0 0.0082001404491890053 5.9487292272947247e-05 0 0.0077627725456818619 0.00016606232903155596 0 0.008729915996178771 0.00010751116535667362 0 0.0070322637298015338 0.00023815934384599854 0 0.0080216167895000561 0.0010007447566619252 0 0.008729915996178771 0.00010751116535667362 0 0.0072903860057769321 0.00014868369480149917 0 0.0082001404491890053 5.9487292272947247e-05 0 0.0077627725456818619 0.00016606232903155596 0 0.0075095406138274709 0.00020370415682726369 0 0.0085960267607183456 9.3751818270272183e-05 0 0.0070322637298015338 0.00023815934384599854 0 0.0071369379035592945 0.0010117550945655859 0 0.0080216167895000561 0.0010007447566619252 0 0.0071987210902595064 0.001934639195198043 0 0.0080216167895000561 0.0010007447566619252 0 0.008071373385346135 0.0020440149096776 0 0.0071987210902595064 0.001934639195198043 0 0.0071369379035592945 0.0010117550945655859 0 0.0080216167895000561 0.0010007447566619252 0 0.0071987210902595064 0.001934639195198043 0 0.0065343353105631764 0.0013212305412698853 0 0.0071369379035592945 0.0010117550945655859 0 0.0080216167895000561 0.0010007447566619252 0 0.009047584586415313 0.00067273050749742718 0 0.0090617049747148109 0.0014825654429644563 0 0.0080216167895000561 0.0010007447566619252 0 0.0090617049747148109 0.0014825654429644563 0 0.008071373385346135 0.0020440149096776 0 0.0094098272183207599 1.5454725176308046e-05 0 0.0092312218685906885 -8.4876650982978533e-05 0 0.0080216167895000561 0.0010007447566619252 0 0.008729915996178771 0.00010751116535667362 0 0.009047584586415313 0.00067273050749742718 0 0.0094514809217583519 4.505786093615761e-05 0 0.0082001404491890053 5.9487292272947247e-05 0 0.008729915996178771 0.00010751116535667362 0 0.0094514809217583519 4.505786093615761e-05 0 0.009047584586415313 0.00067273050749742718 0 0.0098282779763421198 0.00093711915085918857 0 0.0094514809217583519 4.505786093615761e-05 0 0.008729915996178771 0.00010751116535667362 0 0.009047584586415313 0.00067273050749742718 0 0.009047584586415313 0.00067273050749742718 0 0.0090617049747148109 0.0014825654429644563 0 0.0098282779763421198 0.00093711915085918857 0 0.0090617049747148109 0.0014825654429644563 0 0.0089440603803332078 0.0023843821181279085 0 0.0099597589540878408 0.0020046512975466862 0 0.0090617049747148109 0.0014825654429644563 0 0.0089440603803332078 0.0023843821181279085 0 0.008071373385346135 0.0020440149096776 0 0.0089440603803332078 0.0023843821181279085 0 0.008071373385346135 0.0020440149096776 0 0.008184641298092335 0.0028002662937911004 0 0.0089440603803332078 0.0023843821181279085 0 0.008184641298092335 0.0028002662937911004 0 0.0086823160142257359 0.0030460905377850734 0 0.008184641298092335 0.0028002662937911004 0 0.0079419030769986229 0.0032558050597261759 0 0.0077007308813815461 0.0031871393187545083 0 0.008184641298092335 0.0028002662937911004 0 0.0086823160142257359 0.0030460905377850734 0 0.0079419030769986229 0.0032558050597261759 0 0.0089440603803332078 0.0023843821181279085 0 0.0086823160142257359 0.0030460905377850734 0 0.0094349276962819913 0.0030299732102421319 0 0.0089440603803332078 0.0023843821181279085 0 0.0094349276962819913 0.0030299732102421319 0 0.0099597589540878408 0.0020046512975466862 0 0.0094349276962819913 0.0030299732102421319 0 0.0088666672207668405 0.0037516002724097418 0 0.0096518629368058419 0.0041139294406712735 0 0.0080239906801906815 0.0034563868003331874 0 0.0082838533970441795 0.0026128825835965951 0 0.0086823160142257359 0.0030460905377850734 0 0.0094349276962819913 0.0030299732102421319 0 0.0088666672207668405 0.0037516002724097418 0 0.0086823160142257359 0.0030460905377850734 0 0.0088666672207668405 0.0037516002724097418 0 0.0079419030769986229 0.0032558050597261759 0 0.0080239906801906815 0.0034563868003331874 0 0.0079035385499360532 0.0033081721728394648 0 0.0071392140017337161 0.003228698076618484 0 0.0079419030769986229 0.0032558050597261759 0 0.0072494284406408264 0.002828403002413913 0 0.0079419030769986229 0.0032558050597261759 0 0.0078807516301877129 0.0028422729008130286 0 0.0072494284406408264 0.002828403002413913 0 0.0072494284406408264 0.002828403002413913 0 0.0066857922545419763 0.0024222754914352026 0 0.0064090239829076015 0.0029945815053822539 0 0.0071392140017337161 0.003228698076618484 0 0.0072494284406408264 0.002828403002413913 0 0.0064090239829076015 0.0029945815053822539 0 0.0063692574194586342 0.0030165608359747878 0 0.0082838533970441795 0.0026128825835965951 0 0.0066857922545419763 0.0024222754914352026 0 0.0062362022669659734 0.0012426393240534597 0 0.0071687723833567382 0.001436292459386649 0 0.0072494284406408264 0.002828403002413913 0 0.0066857922545419763 0.0024222754914352026 0 0.0071687723833567382 0.001436292459386649 0 0.0066857922545419763 0.0024222754914352026 0 0.0062362022669659734 0.0012426393240534597 0 0.0057428687974028806 0.0018633907266909654 0 -0.00244103759815071 0.0004988895114652061 0 -0.0026979570389281545 0.00042864088322670449 0 -0.00261470180988459 0.00029730724997310224 0 -9.3968074841022352e-06 0.0006161537940229684 0 0.0025707090645040146 0.00087618104703740866 0 0.0060845376421438946 -0.00034547612496033 0 0.0062362022669659734 0.0012426393240534597 0 0.0071687723833567382 0.001436292459386649 0 -0.0026979570389281545 0.00042864088322670449 0 -0.0028028870189644051 0.00045648209757077787 0 -0.0027379080008196944 0.00032382089354569897 0 -0.0026979570389281545 0.00042864088322670449 0 -0.00261470180988459 0.00029730724997310224 0 -0.0027379080008196944 0.00032382089354569897 0 0.0078807516301877129 0.0028422729008130286 0 0.0072494284406408264 0.002828403002413913 0 0.0071687723833567382 0.001436292459386649 0 -0.0026779638747828909 0.00025211868162874185 0 -0.00261470180988459 0.00029730724997310224 0 -0.0027334247715781706 0.00026139994840186198 0 -0.00261470180988459 0.00029730724997310224 0 -0.0027334247715781706 0.00026139994840186198 0 -0.0027379080008196944 0.00032382089354569897 0 0.0023005812199644545 0.0013964137042969712 0 0.0025707090645040146 0.00087618104703740866 0 -0.0027334247715781706 0.00026139994840186198 0 -0.0027379080008196944 0.00032382089354569897 0 -0.0028192060969209278 0.00025652074396551895 0 -0.0027334247715781706 0.00026139994840186198 0 -0.0028192060969209278 0.00025652074396551895 0 -0.0027605824915049172 0.00025991403587400307 0 -0.0027379080008196944 0.00032382089354569897 0 -0.0028413319426579386 0.00037798876825423508 0 -0.0028192060969209278 0.00025652074396551895 0 -0.0028028870189644051 0.00045648209757077787 0 -0.0027379080008196944 0.00032382089354569897 0 -0.0028413319426579386 0.00037798876825423508 0 -0.0028413319426579386 0.00037798876825423508 0 -0.0029693113294194835 0.00037118950313959559 0 -0.0028192060969209278 0.00025652074396551895 0 -0.0029693113294194835 0.00037118950313959559 0 -0.0029820862918000937 0.00027475045405123306 0 -0.0028192060969209278 0.00025652074396551895 0 -0.0029693113294194835 0.00037118950313959559 0 -0.0029820862918000937 0.00027475045405123306 0 -0.0031254083648930269 0.00030816562611853278 0 -0.0033124709610324052 -0.00017227159334774498 0 -0.00029136312562070009 0.0001682482625810867 0 -0.0029820862918000937 0.00027475045405123306 0 -0.0028192060969209278 0.00025652074396551895 0 -0.0030199927034805247 0.00013104198186047466 0 -0.0028192060969209278 0.00025652074396551895 0 -0.0027605824915049172 0.00025991403587400307 0 -0.0027467019761599622 0.00025787723388635174 0 -0.0027334247715781706 0.00026139994840186198 0 -0.0027605824915049172 0.00025991403587400307 0 -0.0027116481454638451 0.0002556636519542394 0 0.0011307722164954114 0.00055505133424308436 0 -0.00029136312562070009 0.0001682482625810867 0 -0.0027605824915049172 0.00025991403587400307 0 -0.0027116481454638451 0.0002556636519542394 0 -0.0027467019761599622 0.00025787723388635174 0 0.0051354115406272082 0.0010099856558569297 0 0.0050594584621464775 0.0010309985354506907 0 0.0050456008954468294 0.0010893671826920802 0 -0.0026779638747828909 0.00025211868162874185 0 -0.0027334247715781706 0.00026139994840186198 0 -0.0027116481454638451 0.0002556636519542394 0 -0.0026779638747828909 0.00025211868162874185 0 -0.0027116481454638451 0.0002556636519542394 0 -0.002637408485003863 0.00026338157370066779 0 0.0023005812199644545 0.0013964137042969712 0 0.0040441000286794053 0.0020101861245164828 0 0.0079419030769986229 0.0032558050597261759 0 0.0078807516301877129 0.0028422729008130286 0 0.0077007308813815461 0.0031871393187545083 0 0.0051354115406272082 0.0010099856558569297 0 0.0051891359107835155 0.00093918342024603319 0 0.0051568913171587561 0.00093160165839607789 0 0.0011307722164954114 0.00055505133424308436 0 0.0040441000286794053 0.0020101861245164828 0 0.0051354115406272082 0.0010099856558569297 0 0.0051568913171587561 0.00093160165839607789 0 0.0050685494282900817 0.00097284627670185899 0 0.0050696581447558569 0.00092304255635381361 0 0.0051568913171587561 0.00093160165839607789 0 0.0050685494282900817 0.00097284627670185899 0 0.0049462233483170501 0.00088918925566217706 0 0.0050696581447558569 0.00092304255635381361 0 0.0049822218564640249 0.00097466424811019654 0 0.0050696581447558569 0.00092304255635381361 0 0.0050685494282900817 0.00097284627670185899 0 0.0049822218564640249 0.00097466424811019654 0 -0.0032322419895405687 0.00011846482634592822 0 -0.0033639396711904607 0.00020078745943555946 0 -0.0033975083749021337 2.5605722318371192e-05 0 0.0050685494282900817 0.00097284627670185899 0 0.0049822218564640249 0.00097466424811019654 0 0.0049781938014944842 0.0010544897815538286 0 0.0049822218564640249 0.00097466424811019654 0 0.0049781938014944842 0.0010544897815538286 0 0.0048841687658291401 0.0010166057527468638 0 0.00084496089363377306 0.00061749927742118052 0 0.0023265802660297759 0.00053213102631139591 0 0.0051354115406272082 0.0010099856558569297 0 0.0050685494282900817 0.00097284627670185899 0 0.0050594584621464775 0.0010309985354506907 0 0.0049781938014944842 0.0010544897815538286 0 0.0050594584621464775 0.0010309985354506907 0 0.0050456008954468294 0.0010893671826920802 0 0.0050685494282900817 0.00097284627670185899 0 0.0049781938014944842 0.0010544897815538286 0 0.0050594584621464775 0.0010309985354506907 0 -0.0030420799795054842 0.00020055469515768863 0 -0.0031254083648930269 0.00030816562611853278 0 -0.0032347373452101136 0.00026193688974987436 0 0.00084496089363377306 0.00061749927742118052 0 -0.00029136312562070009 0.0001682482625810867 0 -0.0032322419895405687 0.00011846482634592822 0 -0.0030420799795054842 0.00020055469515768863 0 -0.0032347373452101136 0.00026193688974987436 0 -0.00029136312562070009 0.0001682482625810867 0 -0.0029437416821243502 0.0007551473185332323 0 -0.0029820862918000937 0.00027475045405123306 0 -0.0030199927034805247 0.00013104198186047466 0 -0.0031254083648930269 0.00030816562611853278 0 -0.0031685240236568983 0.00048376070956098957 0 -0.0031254083648930269 0.00030816562611853278 0 -0.0032925552584971911 0.00038970197300891183 0 -0.0031685240236568983 0.00048376070956098957 0 -0.0029693113294194835 0.00037118950313959559 0 -0.0031254083648930269 0.00030816562611853278 0 -0.0031254083648930269 0.00030816562611853278 0 -0.0032925552584971911 0.00038970197300891183 0 -0.0032347373452101136 0.00026193688974987436 0 -0.0034560955224829742 0.00046074155115282436 0 -0.0032925552584971911 0.00038970197300891183 0 -0.003364061312660668 0.00035246818718930587 0 -0.0032925552584971911 0.00038970197300891183 0 -0.003364061312660668 0.00035246818718930587 0 -0.0032347373452101136 0.00026193688974987436 0 -0.003364061312660668 0.00035246818718930587 0 -0.0032347373452101136 0.00026193688974987436 0 -0.0033639396711904607 0.00020078745943555946 0 -0.0032322419895405687 0.00011846482634592822 0 -0.0032347373452101136 0.00026193688974987436 0 -0.0033639396711904607 0.00020078745943555946 0 -0.0033639396711904607 0.00020078745943555946 0 -0.0035359228759608966 0.00025648097843670531 0 -0.0033975083749021337 2.5605722318371192e-05 0 -0.003364061312660668 0.00035246818718930587 0 -0.0033639396711904607 0.00020078745943555946 0 -0.0035359228759608966 0.00025648097843670531 0 -0.003364061312660668 0.00035246818718930587 0 -0.0035090650323496616 0.00045989894143049967 0 -0.0035359228759608966 0.00025648097843670531 0 -0.0035469317437898601 0.00054249134138898173 0 -0.0034560955224829742 0.00046074155115282436 0 -0.0035090650323496616 0.00045989894143049967 0 -0.0034560955224829742 0.00046074155115282436 0 -0.003364061312660668 0.00035246818718930587 0 -0.0035090650323496616 0.00045989894143049967 0 -0.00020848628820930651 -2.1488272485520078e-09 0 1.5858444377181153e-05 5.5512408187465545e-05 0 0.0021838325059399455 -0.00013619798966712788 0 -0.0017169105950195348 0.00020330827137527444 0 -0.00099304411744817358 -2.1348189950695279e-05 0 -0.0035930144595121209 0.00068559914872949493 0 -0.0035090650323496616 0.00045989894143049967 0 -0.0035359228759608966 0.00025648097843670531 0 -0.00020848628820930651 -2.1488272485520078e-09 0 0.0021838325059399455 -0.00013619798966712788 0 0.0024025369212362659 -4.8736576352899684e-07 0 0.0021838325059399455 -0.00013619798966712788 0 0.0024025369212362659 -4.8736576352899684e-07 0 0.0030346921370502131 -5.0397188160161001e-05 0 0.0030346921370502131 -5.0397188160161001e-05 0 0.0028788367597429709 0.00010910942158195941 0 0.0046628565835497449 5.754913201875161e-05 0 0.0024025369212362659 -4.8736576352899684e-07 0 0.0050161877418398891 9.1102436293036988e-08 0 0.0046628565835497449 5.754913201875161e-05 0 0.0024025369212362659 -4.8736576352899684e-07 0 0.0030346921370502131 -5.0397188160161001e-05 0 0.0046628565835497449 5.754913201875161e-05 0 0.0021838325059399455 -0.00013619798966712788 0 0.0030346921370502131 -5.0397188160161001e-05 0 0.0028788367597429709 0.00010910942158195941 0 -0.00099304411744817358 -2.1348189950695279e-05 0 0.0023265802660297759 0.00053213102631139591 0 0.0049462233483170501 0.00088918925566217706 0 0.0049822218564640249 0.00097466424811019654 0 0.0048841687658291401 0.0010166057527468638 0 0.0058216593456618523 -0.00028603713127444541 0 0.0058825387490554224 0.00043967151625048392 0 0.0056673114855508881 -8.4205077564273131e-05 0 0.005770497133627624 0.00028909575862872983 0 0.0023265802660297759 0.00053213102631139591 0 0.0058825387490554224 0.00043967151625048392 0 0.0056673114855508881 -8.4205077564273131e-05 0 0.0046628565835497449 5.754913201875161e-05 0 0.0058264658194361009 -0.00021512043863099127 0 0.0056673114855508881 -8.4205077564273131e-05 0 0.0046628565835497449 5.754913201875161e-05 0 0.0023265802660297759 0.00053213102631139591 0 0.0051789144001630708 0.00026801444705582401 0 0.0058264658194361009 -0.00021512043863099127 0 0.0050161877418398891 9.1102436293036988e-08 0 0.0046628565835497449 5.754913201875161e-05 0 0.011386743310106716 0.0010698642383341779 0 0.011340089569525652 0.0010283070923518831 0 0.011281839339168277 0.0010704389307644435 0 0.011386743310106716 0.0010698642383341779 0 0.011393071600387298 0.0010342418887143226 0 0.011340089569525652 0.0010283070923518831 0 0.011386743310106716 0.0010698642383341779 0 0.011448117901135372 0.0010283443773031846 0 0.011393071600387298 0.0010342418887143226 0 0.011393071600387298 0.0010342418887143226 0 0.011377803361957496 0.001046305033765383 0 0.011324411279341281 0.0010655981518803035 0 0.011448117901135372 0.0010283443773031846 0 0.011393071600387298 0.0010342418887143226 0 0.011377803361957496 0.001046305033765383 0 0.011393071600387298 0.0010342418887143226 0 0.011340089569525652 0.0010283070923518831 0 0.01136055943512446 0.00094621274890729066 0 0.011340089569525652 0.0010283070923518831 0 0.011281839339168277 0.0010704389307644435 0 0.011268842487207383 0.00098805775962584061 0 0.016113976971041308 0.0031674139899308998 0 0.015141677445541271 0.002605152383851516 0 0.016460359394807784 0.0023755790390205243 0 0.011774892380233812 0.0017838158899989179 0 0.013553207063855389 0.0019749301166814381 0 0.011176836850654431 0.0010314909734783935 0 0.011281839339168277 0.0010704389307644435 0 0.011268842487207383 0.00098805775962584061 0 0.015141677445541271 0.002605152383851516 0 0.01588580510886008 0.0016914672762625969 0 0.016460359394807784 0.0023755790390205243 0 0.015141677445541271 0.002605152383851516 0 0.015105850450677718 0.0014057887784251692 0 0.01588580510886008 0.0016914672762625969 0 0.012676153327909407 0.0015281117841420761 0 0.013553207063855389 0.0019749301166814381 0 0.014114776699759208 0.0020615602362588185 0 0.015141677445541271 0.002605152383851516 0 0.015105850450677718 0.0014057887784251692 0 0.015105850450677718 0.0014057887784251692 0 0.01588580510886008 0.0016914672762625969 0 0.016091834626544555 0.00077664381348504054 0 0.015677981459998387 -0.00031801025266710623 0 0.016091834626544555 0.00077664381348504054 0 0.016671486544859844 0.00041139573039080621 0 0.015105850450677718 0.0014057887784251692 0 0.016091834626544555 0.00077664381348504054 0 0.015055176184787168 0.0004696563242771405 0 0.015677981459998387 -0.00031801025266710623 0 0.016091834626544555 0.00077664381348504054 0 0.015055176184787168 0.0004696563242771405 0 0.015105850450677718 0.0014057887784251692 0 0.015055176184787168 0.0004696563242771405 0 0.014071740380427281 0.00089695108008548533 0 0.014228859907000672 -0.00043790797188053413 0 0.015055176184787168 0.0004696563242771405 0 0.014071740380427281 0.00089695108008548533 0 0.014114776699759208 0.0020615602362588185 0 0.014071740380427281 0.00089695108008548533 0 0.012979838131264987 0.0015165297469272119 0 0.014114776699759208 0.0020615602362588185 0 0.015105850450677718 0.0014057887784251692 0 0.014071740380427281 0.00089695108008548533 0 0.012676153327909407 0.0015281117841420761 0 0.012239644539011848 0.0012573813738705898 0 0.011386743310106716 0.0010698642383341779 0 0.011448117901135372 0.0010283443773031846 0 0.011517434152385852 0.0010292923919010737 0 0.014071740380427281 0.00089695108008548533 0 0.012979838131264987 0.0015165297469272119 0 0.012785515825700172 0.00049774258980398302 0 0.014228859907000672 -0.00043790797188053413 0 0.014071740380427281 0.00089695108008548533 0 0.012785515825700172 0.00049774258980398302 0 0.011517434152385852 0.0010292923919010737 0 0.011612216453344872 0.00091251495153461262 0 0.011638843310771505 0.00084246627939252826 0 0.012979838131264987 0.0015165297469272119 0 0.012785515825700172 0.00049774258980398302 0 0.011638843310771505 0.00084246627939252826 0 0.012060834228160336 0.00012851723328164734 0 0.012785515825700172 0.00049774258980398302 0 0.011638843310771505 0.00084246627939252826 0 0.011415207787589046 0.0002682594628978653 0 0.012060834228160336 0.00012851723328164734 0 0.011638843310771505 0.00084246627939252826 0 0.011612216453344872 0.00091251495153461262 0 0.011638843310771505 0.00084246627939252826 0 0.01113051485916918 0.001067923631992488 0 0.011415207787589046 0.0002682594628978653 0 0.011638843310771505 0.00084246627939252826 0 0.010949483618769225 0.00049115196065759395 0 0.011638843310771505 0.00084246627939252826 0 0.01113051485916918 0.001067923631992488 0 0.010949483618769225 0.00049115196065759395 0 0.011612216453344872 0.00091251495153461262 0 0.01113051485916918 0.001067923631992488 0 0.011212499473665776 0.0018301525435507008 0 0.01160855565272211 0.00093769454793015739 0 0.011212128572274787 0.0014620906508456099 0 0.011612216453344872 0.00091251495153461262 0 0.011479514385054195 0.0010040369535799802 0 0.011344767247197263 0.0010120623782741388 0 0.011517434152385852 0.0010292923919010737 0 0.011612216453344872 0.00091251495153461262 0 0.011479514385054195 0.0010040369535799802 0 0.011448117901135372 0.0010283443773031846 0 0.011517434152385852 0.0010292923919010737 0 0.011479514385054195 0.0010040369535799802 0 0.012239644539011848 0.0012573813738705898 0 0.011658141888729176 0.00087097805040740493 0 0.010187593453440743 0.0002754165560440828 0 0.010458421197486321 0.00083132684721973573 0 0.0098282779763421198 0.00093711915085918857 0 0.0094514809217583519 4.505786093615761e-05 0 0.010187593453440743 0.0002754165560440828 0 0.0098282779763421198 0.00093711915085918857 0 0.010187593453440743 0.0002754165560440828 0 0.010458421197486321 0.00083132684721973573 0 0.010949483618769225 0.00049115196065759395 0 0.01113051485916918 0.001067923631992488 0 0.010458421197486321 0.00083132684721973573 0 0.010949483618769225 0.00049115196065759395 0 0.01113051485916918 0.001067923631992488 0 0.010549060109124134 0.0014119025933215529 0 0.011212499473665776 0.0018301525435507008 0 0.01113051485916918 0.001067923631992488 0 0.010458421197486321 0.00083132684721973573 0 0.010549060109124134 0.0014119025933215529 0 0.0090617049747148109 0.0014825654429644563 0 0.0098282779763421198 0.00093711915085918857 0 0.0099597589540878408 0.0020046512975466862 0 0.010458421197486321 0.00083132684721973573 0 0.010549060109124134 0.0014119025933215529 0 0.0098282779763421198 0.00093711915085918857 0 0.010549060109124134 0.0014119025933215529 0 0.0098282779763421198 0.00093711915085918857 0 0.0099597589540878408 0.0020046512975466862 0 0.0099597589540878408 0.0020046512975466862 0 0.010479967238186116 0.0029482945306629994 0 0.011212499473665776 0.0018301525435507008 0 0.010549060109124134 0.0014119025933215529 0 0.0099597589540878408 0.0020046512975466862 0 0.011212499473665776 0.0018301525435507008 0 0.011200761392306352 0.0019033983686234687 0 0.011212128572274787 0.0014620906508456099 0 0.0094349276962819913 0.0030299732102421319 0 0.0099597589540878408 0.0020046512975466862 0 0.010479967238186116 0.0029482945306629994 0 0.011250385289671932 0.0010531451329064212 0 0.011344767247197263 0.0010120623782741388 0 0.011377803361957496 0.001046305033765383 0 0.011250385289671932 0.0010531451329064212 0 0.011377803361957496 0.001046305033765383 0 0.011291847710295433 0.0010802932537778143 0 0.011479514385054195 0.0010040369535799802 0 0.011344767247197263 0.0010120623782741388 0 0.011377803361957496 0.001046305033765383 0 0.011448117901135372 0.0010283443773031846 0 0.011479514385054195 0.0010040369535799802 0 0.011377803361957496 0.001046305033765383 0 0.011377803361957496 0.001046305033765383 0 0.011324411279341281 0.0010655981518803035 0 0.011291847710295433 0.0010802932537778143 0 0.011324411279341281 0.0010655981518803035 0 0.011291847710295433 0.0010802932537778143 0 0.011267940039700514 0.0010626741881293619 0 0.011291847710295433 0.0010802932537778143 0 0.011238714875772096 0.0011007084140741605 0 0.011258547015056209 0.0010545366551968423 0 0.011291847710295433 0.0010802932537778143 0 0.011258547015056209 0.0010545366551968423 0 0.011267940039700514 0.0010626741881293619 0 0.011250385289671932 0.0010531451329064212 0 0.011238089620317778 0.001085344189606505 0 0.011167141711150557 0.0011066307902832617 0 0.011200761392306352 0.0019033983686234687 0 0.0082838533970441795 0.0026128825835965951 0 0.0094349276962819913 0.0030299732102421319 0 0.010479967238186116 0.0029482945306629994 0 0.0096518629368058419 0.0041139294406712735 0 0.011250385289671932 0.0010531451329064212 0 0.011291847710295433 0.0010802932537778143 0 0.011238089620317778 0.001085344189606505 0 0.011291847710295433 0.0010802932537778143 0 0.011238089620317778 0.001085344189606505 0 0.011238714875772096 0.0011007084140741605 0 0.011238089620317778 0.001085344189606505 0 0.011238714875772096 0.0011007084140741605 0 0.011167141711150557 0.0011066307902832617 0 0.0042601663032770546 0.0027441082019363126 0 0.0057322109988036281 0.0026600633626269587 0 0.0059055576643358542 0.003543543141582158 0 0.0077723161083142131 0.0018974447066754014 0 0.0082838533970441795 0.0026128825835965951 0 0.0066857922545419763 0.0024222754914352026 0 0.0057322109988036281 0.0026600633626269587 0 0.0059055576643358542 0.003543543141582158 0 0.0042601663032770546 0.0027441082019363126 0 0.0057322109988036281 0.0026600633626269587 0 0.0057428687974028806 0.0018633907266909654 0 0.0066857922545419763 0.0024222754914352026 0 0.0057322109988036281 0.0026600633626269587 0 0.0057428687974028806 0.0018633907266909654 0 0.0042601663032770546 0.0027441082019363126 0 0.0057428687974028806 0.0018633907266909654 0 0.0046317331064033079 0.001345601994737068 0 0.0042601663032770546 0.0027441082019363126 0 0.0046317331064033079 0.001345601994737068 0 0.0034437093465284319 0.0011021013019731154 0 0.0042511856757441692 0.00033759934818532243 0 0.0046317331064033079 0.001345601994737068 0 0.0034437093465284319 0.0011021013019731154 0 0.0042511856757441692 0.00033759934818532243 0 0.0046317331064033079 0.001345601994737068 0 0.0054592939061499533 0.00074048998428429425 0 0.0057428687974028806 0.0018633907266909654 0 0.0046317331064033079 0.001345601994737068 0 0.0054592939061499533 0.00074048998428429425 0 0.0056875171194640667 0.0017000283422941001 0 0.0054462593512588468 0.00083193262940456467 0 0.0062362022669659734 0.0012426393240534597 0 0.0057428687974028806 0.0018633907266909654 0 0.0055377940404079066 0.00068904748568842918 0 0.0060845376421438946 -0.00034547612496033 0 0.0062362022669659734 0.0012426393240534597 0 0.0055377940404079066 0.00068904748568842918 0 0.0070240727501603593 0.0015374947405118954 0 0.0060206228395155168 0.0010802662709854572 0 0.011258547015056209 0.0010545366551968423 0 0.011208469482486223 0.00098154552913153905 0 0.011267940039700514 0.0010626741881293619 0 0.0042601663032770546 0.0027441082019363126 0 0.0027182923858140974 0.0019984235468639222 0 0.0034437093465284319 0.0011021013019731154 0 0.0077723161083142131 0.0018974447066754014 0 0.0070240727501603593 0.0015374947405118954 0 0.0027182923858140974 0.0019984235468639222 0 0.0034437093465284319 0.0011021013019731154 0 0.0025791140364959169 0.00039328691627919056 0 0.0042511856757441692 0.00033759934818532243 0 0.0034437093465284319 0.0011021013019731154 0 0.0025791140364959169 0.00039328691627919056 0 0.0013610368069843454 7.6966566215493869e-06 0 0.0025791140364959169 0.00039328691627919056 0 0.0012610459089615613 0.0012339161607187066 0 0.0027182923858140974 0.0019984235468639222 0 0.0025791140364959169 0.00039328691627919056 0 0.0012610459089615613 0.0012339161607187066 0 0.0060206228395155168 0.0010802662709854572 0 0.0068328395871135542 0.00042763865333775238 0 0.0068328395871135542 0.00042763865333775238 0 0.011676719463380888 0.0011082041326666949 0 0.011186084674816252 0.00067734755661000778 0 0.011243975405046434 0.0007015884053713443 0 0.011240201251198992 0.00077822061940916376 0 0.011208469482486223 0.00098154552913153905 0 0.011070335731048386 0.0009050523685910901 0 0.011169543100074343 0.0010328784019047275 0 0.011243975405046434 0.0007015884053713443 0 0.01131205395135128 0.0008339876317427844 0 0.011240201251198992 0.00077822061940916376 0 0.0004708040837499111 -8.7934415224820526e-05 0 0.0012610459089615613 0.0012339161607187066 0 6.440036794899604e-05 0.00051685930473560485 0 0.0074866991367520744 0.00025945936206986738 0 0.0068328395871135542 0.00042763865333775238 0 0.01131205395135128 0.0008339876317427844 0 0.011240201251198992 0.00077822061940916376 0 0.011258251991023437 0.00088504581240404724 0 0.011208469482486223 0.00098154552913153905 0 0.011169543100074343 0.0010328784019047275 0 0.011267940039700514 0.0010626741881293619 0 0.011169543100074343 0.0010328784019047275 0 0.011267940039700514 0.0010626741881293619 0 0.011284132799947279 0.0010723085022396018 0 0.01131205395135128 0.0008339876317427844 0 0.01136055943512446 0.00094621274890729066 0 0.011258251991023437 0.00088504581240404724 0 0.011676719463380888 0.0011082041326666949 0 0.01127426246274507 0.00095358105686807893 0 0.01136055943512446 0.00094621274890729066 0 0.011268842487207383 0.00098805775962584061 0 0.011258251991023437 0.00088504581240404724 0 0.011340089569525652 0.0010283070923518831 0 0.01136055943512446 0.00094621274890729066 0 0.011268842487207383 0.00098805775962584061 0 0.011389741336412016 0.0010515959377502336 0 0.01127426246274507 0.00095358105686807893 0 0.011324411279341281 0.0010655981518803035 0 0.011267940039700514 0.0010626741881293619 0 0.011284132799947279 0.0010723085022396018 0 0.011393071600387298 0.0010342418887143226 0 0.011324411279341281 0.0010655981518803035 0 0.011284132799947279 0.0010723085022396018 0 0.0070884584662940491 0.0018296578042773311 0 0.007269569638558222 0.0012757019059942061 0 0.0068574670657779871 0.0013331642773812121 0 0.011176836850654431 0.0010314909734783935 0 0.011268842487207383 0.00098805775962584061 0 0.011186083825673543 0.00092733431383680836 0 0.011774892380233812 0.0017838158899989179 0 0.0088886326726612969 0.0011452625334621355 0 0.011268842487207383 0.00098805775962584061 0 0.011258251991023437 0.00088504581240404724 0 0.011186083825673543 0.00092733431383680836 0 0.011258251991023437 0.00088504581240404724 0 0.011186083825673543 0.00092733431383680836 0 0.011185070476502612 0.00081163495131812127 0 0.0088886326726612969 0.0011452625334621355 0 0.0095927520041238223 0.00071585189800675911 0 0.007269569638558222 0.0012757019059942061 0 0.0070402641087268418 0.00092801651453814325 0 0.0074601980803084842 0.00073343002238211621 0 0.007269569638558222 0.0012757019059942061 0 0.0070402641087268418 0.00092801651453814325 0 0.0068574670657779871 0.0013331642773812121 0 0.0070402641087268418 0.00092801651453814325 0 0.0071084855108261595 0.00060290798822966538 0 0.0074601980803084842 0.00073343002238211621 0 0.011240201251198992 0.00077822061940916376 0 0.011258251991023437 0.00088504581240404724 0 0.011185070476502612 0.00081163495131812127 0 0.011186084674816252 0.00067734755661000778 0 0.011240201251198992 0.00077822061940916376 0 0.011185070476502612 0.00081163495131812127 0 0.0074866991367520744 0.00025945936206986738 0 0.0095927520041238223 0.00071585189800675911 0 0.0076640953142927013 0.00018685707333133188 0 0.0074601980803084842 0.00073343002238211621 0 0.0072926852684112959 0.00036317463485732043 0 0.0071084855108261595 0.00060290798822966538 0 0.0074601980803084842 0.00073343002238211621 0 0.0072926852684112959 0.00036317463485732043 0 0.0071084855108261595 0.00060290798822966538 0 0.0072926852684112959 0.00036317463485732043 0 0.0069883440048830337 0.00028922887588003787 0 0.0067122102719260049 0.00025658007418673441 0 0.0064629936718756074 0.00048389728676854051 0 0.0067830438201297036 0.00063353848596790015 0 0.0067122102719260049 0.00025658007418673441 0 0.0069883440048830337 0.00028922887588003787 0 0.0067830438201297036 0.00063353848596790015 0 0.0071084855108261595 0.00060290798822966538 0 0.0069883440048830337 0.00028922887588003787 0 0.0067830438201297036 0.00063353848596790015 0 0.0065035389744860931 8.6609112367377729e-05 0 0.0067122102719260049 0.00025658007418673441 0 0.0064629936718756074 0.00048389728676854051 0 0.0065035389744860931 8.6609112367377729e-05 0 0.0064629936718756074 0.00048389728676854051 0 0.0061665218062967753 0.0003870253431858853 0 0.0044728567581817967 0.00062638310566857762 0 0.0044567848031085181 0.00081912036199211381 0 0.0064629936718756074 0.00048389728676854051 0 0.0061981952099380132 0.0003926648645100377 0 0.0062033587292842475 0.0007335035048976077 0 0.0066032029828368482 0.00079794656034927176 0 0.0044567848031085181 0.00081912036199211381 0 0.0064629936718756074 0.00048389728676854051 0 0.006503151752512302 0.00075068646440477459 0 0.0067830438201297036 0.00063353848596790015 0 0.0064629936718756074 0.00048389728676854051 0 0.006503151752512302 0.00075068646440477459 0 0.0062033587292842475 0.0007335035048976077 0 0.006503151752512302 0.00075068646440477459 0 0.0063407548345862505 0.00091677035792815751 0 0.0062033587292842475 0.0007335035048976077 0 0.006503151752512302 0.00075068646440477459 0 0.0063407548345862505 0.00091677035792815751 0 0.0066751533825457387 0.0009722451539931887 0 0.0070402641087268418 0.00092801651453814325 0 0.0067830438201297036 0.00063353848596790015 0 0.0066751533825457387 0.0009722451539931887 0 0.006503151752512302 0.00075068646440477459 0 0.0067830438201297036 0.00063353848596790015 0 0.0066751533825457387 0.0009722451539931887 0 0.0070402641087268418 0.00092801651453814325 0 0.0071084855108261595 0.00060290798822966538 0 0.0067830438201297036 0.00063353848596790015 0 0.0031509030287558996 0.00076851832021904349 0 0.0034642970339734615 0.0015081659129815184 0 0.0027006404165279729 0.0011581023522531683 0 0.0031509030287558996 0.00076851832021904349 0 0.0039661146260014735 0.0010534024398260752 0 0.0034642970339734615 0.0015081659129815184 0 0.0015194443283124163 0.0014095600007802596 0 0.0044567848031085181 0.00081912036199211381 0 0.0044567848031085181 0.00081912036199211381 0 0.0046942308775188074 0.0010837814022070576 0 0.0061981952099380132 0.0003926648645100377 0 0.0062033587292842475 0.0007335035048976077 0 0.0058848595805413521 0.00067651625051914053 0 0.0063407548345862505 0.00091677035792815751 0 0.0062033587292842475 0.0007335035048976077 0 0.0061258108886571329 0.0010108926942597751 0 0.0062033587292842475 0.0007335035048976077 0 0.0059041244789177086 0.00091236860818037714 0 0.0061258108886571329 0.0010108926942597751 0 0.0062033587292842475 0.0007335035048976077 0 0.0058848595805413521 0.00067651625051914053 0 0.0059041244789177086 0.00091236860818037714 0 0.0034642970339734615 0.0015081659129815184 0 0.0029665321372030502 0.0019620928716326319 0 0.0027006404165279729 0.0011581023522531683 0 0.0058848595805413521 0.00067651625051914053 0 0.0059041244789177086 0.00091236860818037714 0 0.0055608679954973657 0.00096557022590768829 0 0.0046942308775188074 0.0010837814022070576 0 0.0046125721153786594 0.0012370253031391326 0 0.0074244959812305522 -0.0006262113472959072 0 0.0076328326404411645 -0.00070899652522511442 0 0.0074907071089387687 -0.00043128688746954432 0 0.0074244959812305522 -0.0006262113472959072 0 0.007382622587769695 -0.00082077409933166954 0 0.0076328326404411645 -0.00070899652522511442 0 0.0046125721153786594 0.0012370253031391326 0 0.0068296042158873639 0.00033694573851482569 0 0.0059041244789177086 0.00091236860818037714 0 0.0055608679954973657 0.00096557022590768829 0 0.0058838117872001532 0.0011486865891802926 0 0.0058838117872001532 0.0011486865891802926 0 0.0061258108886571329 0.0010108926942597751 0 0.0062048282427942239 0.0013279279013160591 0 0.0068296042158873639 0.00033694573851482569 0 0.0072968079754979383 0.00041534126029348333 0 0.0059041244789177086 0.00091236860818037714 0 0.0058838117872001532 0.0011486865891802926 0 0.0061258108886571329 0.0010108926942597751 0 0.0063465631872132947 0.0011955873331557587 0 0.0072968079754979383 0.00041534126029348333 0 0.0061258108886571329 0.0010108926942597751 0 0.0062075450541719049 0.0013367981336830867 0 0.0064339761128441222 0.0011508393590398387 0 0.0076328326404411645 -0.00070899652522511442 0 0.0079142361813320551 -0.00057446643168525204 0 0.0077595569808041531 -0.00042576544893357032 0 0.0079142361813320551 -0.00057446643168525204 0 0.0077595569808041531 -0.00042576544893357032 0 0.0080244752886278765 -0.00023728648592006088 0 0.0072968079754979383 0.00041534126029348333 0 0.0084283947353664696 -0.00015264738031963324 0 0.0076328326404411645 -0.00070899652522511442 0 0.0077595569808041531 -0.00042576544893357032 0 0.0074907071089387687 -0.00043128688746954432 0 0.0077595569808041531 -0.00042576544893357032 0 0.0074907071089387687 -0.00043128688746954432 0 0.007759874401671368 -0.00012706026265074717 0 0.0076142949537416384 -0.00031616148611282005 0 0.0074377470167695872 -0.00039989307798081892 0 0.0070402641087268418 0.00092801651453814325 0 0.0066751533825457387 0.0009722451539931887 0 0.0068574670657779871 0.0013331642773812121 0 0.0066751533825457387 0.0009722451539931887 0 0.0064339761128441222 0.0011508393590398387 0 0.0068574670657779871 0.0013331642773812121 0 0.0063407548345862505 0.00091677035792815751 0 0.0066751533825457387 0.0009722451539931887 0 0.0064339761128441222 0.0011508393590398387 0 0.0063407548345862505 0.00091677035792815751 0 0.0061258108886571329 0.0010108926942597751 0 0.0064339761128441222 0.0011508393590398387 0 0.0087833642059872673 -0.00017246939186961604 0 0.0091356485830359352 2.9010713456338948e-05 0 0.0088949132041597333 0.00025331069965077441 0 0.0091356485830359352 2.9010713456338948e-05 0 0.0094784224228334352 0.00023336318260088387 0 0.0088949132041597333 0.00025331069965077441 0 0.0064339761128441222 0.0011508393590398387 0 0.0065322790350207036 0.0015234809918393977 0 0.0068574670657779871 0.0013331642773812121 0 0.0062075450541719049 0.0013367981336830867 0 0.0064339761128441222 0.0011508393590398387 0 0.0065322790350207036 0.0015234809918393977 0 0.0072968079754979383 0.00041534126029348333 0 0.0077145647860985579 0.00065132466213831087 0 0.0077145647860985579 0.00065132466213831087 0 0.0099520522797181005 0.00070766223450530999 0 0.0070884584662940491 0.0018296578042773311 0 0.0068574670657779871 0.0013331642773812121 0 0.0068679627579851547 0.0017123533750319257 0 0.0065322790350207036 0.0015234809918393977 0 0.0068574670657779871 0.0013331642773812121 0 0.0068679627579851547 0.0017123533750319257 0 0.011774892380233812 0.0017838158899989179 0 0.014575709549168082 0.0017916466441511537 0 0.011774892380233812 0.0017838158899989179 0 0.0099520522797181005 0.00070766223450530999 0 0.012649273752617407 0.0013608562255741955 0 0.012657993659552929 0.0013389895613859692 0 0.012680976860287616 0.0013240247021295193 0 0.01263372524078517 0.0013522164773371881 0 0.012649273752617407 0.0013608562255741955 0 0.012657993659552929 0.0013389895613859692 0 0.01263372524078517 0.0013522164773371881 0 0.012657993659552929 0.0013389895613859692 0 0.012666765796526227 0.0013198366762103831 0 0.012666765796526227 0.0013198366762103831 0 0.012680976860287616 0.0013240247021295193 0 0.012696470195699481 0.00129652512528476 0 0.014575709549168082 0.0017916466441511537 0 0.015568403230934268 0.001560335542994565 0 0.012657993659552929 0.0013389895613859692 0 0.012666765796526227 0.0013198366762103831 0 0.012680976860287616 0.0013240247021295193 0 0.012680976860287616 0.0013240247021295193 0 0.012700351964194848 0.0013150150411393004 0 0.012696470195699481 0.00129652512528476 0 0.014415844469932333 -0.0014511376363084321 0 0.014292891767798859 -0.0015700683678896599 0 0.014254818136906496 -0.00097571145530308894 0 0.013396182363788093 0.00060332635285441458 0 0.015568403230934268 0.001560335542994565 0 0.012680976860287616 0.0013240247021295193 0 0.012700351964194848 0.0013150150411393004 0 0.01269963278577131 0.0013222945411107496 0 0.013396182363788093 0.00060332635285441458 0 0.010978810924697217 0.00035902416806065713 0 0.012194772005061671 0.00014766270367015858 0 0.011985474310738601 -5.9811358224421772e-05 0 0.012117507153759699 -0.00018167449256306886 0 0.013396182363788093 0.00060332635285441458 0 0.010962357830157962 -0.00018477384045304971 0 0.010962357830157962 -0.00018477384045304971 0 0.010978810924697217 0.00035902416806065713 0 0.0099520522797181005 0.00070766223450530999 0 0.010978810924697217 0.00035902416806065713 0 0.0094784224228334352 0.00023336318260088387 0 0.0090018150484906384 0.00067403183422458965 0 0.0088949132041597333 0.00025331069965077441 0 0.010978810924697217 0.00035902416806065713 0 0.0084283947353664696 -0.00015264738031963324 0 0.012649273752617407 0.0013608562255741955 0 0.012680976860287616 0.0013240247021295193 0 0.01269963278577131 0.0013222945411107496 0 0.0081393789667730376 0.00015021539925264861 0 0.0080244752886278765 -0.00023728648592006088 0 0.007759874401671368 -0.00012706026265074717 0 0.0077595569808041531 -0.00042576544893357032 0 0.0080244752886278765 -0.00023728648592006088 0 0.007759874401671368 -0.00012706026265074717 0 0.010962357830157962 -0.00018477384045304971 0 0.0074377470167695872 -0.00039989307798081892 0 0.0080935242459897506 0.0001938092202013115 0 0.0081393789667730376 0.00015021539925264861 0 0.007759874401671368 -0.00012706026265074717 0 0.0074907071089387687 -0.00043128688746954432 0 0.0077236957020782654 -0.00025315332449007554 0 0.0074686971315320481 -0.00021906093588672194 0 0.0077236957020782654 -0.00025315332449007554 0 0.0074686971315320481 -0.00021906093588672194 0 0.0076040372360220354 -4.2069275430074107e-05 0 0.0074686971315320481 -0.00021906093588672194 0 0.0076040372360220354 -4.2069275430074107e-05 0 0.0073215783159749489 -5.5653028398615515e-05 0 0.0076040372360220354 -4.2069275430074107e-05 0 0.0077090126726420934 0.00017622868977404152 0 0.0074447283749308974 0.00014795634429256283 0 0.0076040372360220354 -4.2069275430074107e-05 0 0.0074447283749308974 0.00014795634429256283 0 0.0073215783159749489 -5.5653028398615515e-05 0 0.0079680834561715683 -4.5034121063532472e-05 0 0.0076040372360220354 -4.2069275430074107e-05 0 0.0077090126726420934 0.00017622868977404152 0 0.0079680834561715683 -4.5034121063532472e-05 0 0.0077236957020782654 -0.00025315332449007554 0 0.0076040372360220354 -4.2069275430074107e-05 0 0.014292891767798859 -0.0015700683678896599 0 0.01368247661389013 -0.0010341826133392685 0 0.014254818136906496 -0.00097571145530308894 0 0.010962357830157962 -0.00018477384045304971 0 0.01076577152811985 -0.00053273113832002584 0 0.01368247661389013 -0.0010341826133392685 0 0.014197030749743447 -0.00033493988410688663 0 0.014254818136906496 -0.00097571145530308894 0 0.0077090126726420934 0.00017622868977404152 0 0.0074447283749308974 0.00014795634429256283 0 0.0074600938307112846 0.00038663317641102261 0 0.01076577152811985 -0.00053273113832002584 0 0.010246075657376947 0.00010504982853831287 0 0.01368247661389013 -0.0010341826133392685 0 0.013553335390261658 -7.6214954011493894e-05 0 0.013025653225784247 -0.00047114951314124756 0 0.013553335390261658 -7.6214954011493894e-05 0 0.013025653225784247 -0.00047114951314124756 0 0.012755385105497263 0.00050594150450414222 0 0.013553335390261658 -7.6214954011493894e-05 0 0.014197030749743447 -0.00033493988410688663 0 0.013984977234991093 0.00053464418930973361 0 0.01368247661389013 -0.0010341826133392685 0 0.013553335390261658 -7.6214954011493894e-05 0 0.014197030749743447 -0.00033493988410688663 0 0.014683728903880647 -0.00047617031540709176 0 0.014479439632571575 8.9655615581249733e-05 0 0.014950596418746374 0.00048265060158722941 0 0.01703063841127618 0.00090518436756825303 0 0.016671486544859844 0.00041139573039080621 0 0.01692392095490055 -0.00022227217740514396 0 0.015639692300460774 0.00019380901043073963 0 0.020150187602228274 -0.00059926177342018534 0 0.014197030749743447 -0.00033493988410688663 0 0.014683728903880647 -0.00047617031540709176 0 0.014479439632571575 8.9655615581249733e-05 0 0.01703063841127618 0.00090518436756825303 0 0.016671486544859844 0.00041139573039080621 0 0.01686873141096713 0.00098315181792404819 0 0.016091834626544555 0.00077664381348504054 0 0.016671486544859844 0.00041139573039080621 0 0.01686873141096713 0.00098315181792404819 0 0.01588580510886008 0.0016914672762625969 0 0.016091834626544555 0.00077664381348504054 0 0.016808466535027863 0.001562371083720198 0 0.016091834626544555 0.00077664381348504054 0 0.016724276278446297 0.0013392906161622661 0 0.01686873141096713 0.00098315181792404819 0 0.01588580510886008 0.0016914672762625969 0 0.016460359394807784 0.0023755790390205243 0 0.016808466535027863 0.001562371083720198 0 0.015568403230934268 0.001560335542994565 0 0.016399582485773501 0.00088155568051568461 0 0.016418115681750601 0.00095910050800705488 0 0.015568403230934268 0.001560335542994565 0 0.013396182363788093 0.00060332635285441458 0 0.015639692300460774 0.00019380901043073963 0 0.014197030749743447 -0.00033493988410688663 0 0.014683728903880647 -0.00047617031540709176 0 0.014254818136906496 -0.00097571145530308894 0 0.014415844469932333 -0.0014511376363084321 0 0.014683728903880647 -0.00047617031540709176 0 0.014254818136906496 -0.00097571145530308894 0 0.017049231137061277 0.001491715671425471 0 0.01703063841127618 0.00090518436756825303 0 0.016772878511605617 0.0011770828925503712 0 0.01703063841127618 0.00090518436756825303 0 0.016772878511605617 0.0011770828925503712 0 0.01686873141096713 0.00098315181792404819 0 0.0064390589103118295 -0.0022413211771526789 0 0.0068239774957200095 -0.0021208337185884721 0 0.0068036998206894815 -0.0025625064516108065 0 0.0068239774957200095 -0.0021208337185884721 0 0.0068036998206894815 -0.0025625064516108065 0 0.0070676446762465558 -0.0022566871424080479 0 0.0064390589103118295 -0.0022413211771526789 0 0.0068239774957200095 -0.0021208337185884721 0 0.0068468726808057464 -0.0016661350291801689 0 0.0068036998206894815 -0.0025625064516108065 0 0.0072648258324036676 -0.0026156653196763814 0 0.0070565529405320999 -0.0029441576566803097 0 0.0068036998206894815 -0.0025625064516108065 0 0.0070676446762465558 -0.0022566871424080479 0 0.0072648258324036676 -0.0026156653196763814 0 0.0064390589103118295 -0.0022413211771526789 0 0.0068036998206894815 -0.0025625064516108065 0 0.0064557147933365774 -0.0026666329473798577 0 0.0068036998206894815 -0.0025625064516108065 0 0.0064557147933365774 -0.0026666329473798577 0 0.0066514638067462165 -0.0029104829637200836 0 0.0064348629610622233 -0.0010883583215536591 0 0.0088808307943942771 -0.0011882156283662074 0 0.0068661625973990316 0.00027477465239805613 0 0.0072166682949675919 0.00021876963297224686 0 0.007219270640343751 0.00059736938127153631 0 0.0064390589103118295 -0.0022413211771526789 0 0.0064557147933365774 -0.0026666329473798577 0 0.0061135879804128249 -0.0027129967128445877 0 0.0074600938307112846 0.00038663317641102261 0 0.0072166682949675919 0.00021876963297224686 0 0.007219270640343751 0.00059736938127153631 0 0.013025653225784247 -0.00047114951314124756 0 0.01235661967366649 0.00010925172531642933 0 0.012755385105497263 0.00050594150450414222 0 0.010246075657376947 0.00010504982853831287 0 0.0088808307943942771 -0.0011882156283662074 0 0.0074447283749308974 0.00014795634429256283 0 0.0074600938307112846 0.00038663317641102261 0 0.0072166682949675919 0.00021876963297224686 0 0.0068661625973990316 0.00027477465239805613 0 0.0072166682949675919 0.00021876963297224686 0 0.0069911933410513353 -3.6996663129993628e-05 0 0.0074447283749308974 0.00014795634429256283 0 0.0072166682949675919 0.00021876963297224686 0 0.0073215783159749489 -5.5653028398615515e-05 0 0.0072166682949675919 0.00021876963297224686 0 0.0069911933410513353 -3.6996663129993628e-05 0 0.0073215783159749489 -5.5653028398615515e-05 0 0.0069911933410513353 -3.6996663129993628e-05 0 0.0073215783159749489 -5.5653028398615515e-05 0 0.0071995411263273005 -0.00027672466391534702 0 0.0074686971315320481 -0.00021906093588672194 0 0.0073215783159749489 -5.5653028398615515e-05 0 0.0071995411263273005 -0.00027672466391534702 0 0.0074907071089387687 -0.00043128688746954432 0 0.0074686971315320481 -0.00021906093588672194 0 0.0071995411263273005 -0.00027672466391534702 0 0.0069911933410513353 -3.6996663129993628e-05 0 0.0071995411263273005 -0.00027672466391534702 0 0.0068132667839928508 -0.00029783024304787925 0 0.0045252242950373613 0.00076329304944304077 0 0.0056250266599655709 -0.00037345510575487493 0 0.0069911933410513353 -3.6996663129993628e-05 0 0.0068132667839928508 -0.00029783024304787925 0 0.0065235834145001307 -5.0248550485984173e-05 0 0.0068661625973990316 0.00027477465239805613 0 0.0069911933410513353 -3.6996663129993628e-05 0 0.0065235834145001307 -5.0248550485984173e-05 0 0.0064348629610622233 -0.0010883583215536591 0 0.0056250266599655709 -0.00037345510575487493 0 0.0068239774957200095 -0.0021208337185884721 0 0.0068468726808057464 -0.0016661350291801689 0 0.0071820702899586157 -0.0018698007897952015 0 0.0035369039946213333 -7.3221823602681398e-05 0 0.0035336519743708232 0.0011651589194140288 0 0.005555499704516304 0.00098617566426336583 0 0.0024451192797352349 0.0017312181852028633 0 0.0035369039946213333 -7.3221823602681398e-05 0 0.0035336519743708232 0.0011651589194140288 0 0.0056250266599655709 -0.00037345510575487493 0 0.0052492641667422034 0.00071310275205457472 0 0.0024451192797352349 0.0017312181852028633 0 0.0035336519743708232 0.0011651589194140288 0 0.0034528225307299313 0.0021868552803160383 0 0.0035336519743708232 0.0011651589194140288 0 0.0034528225307299313 0.0021868552803160383 0 0.005555499704516304 0.00098617566426336583 0 0.0024451192797352349 0.0017312181852028633 0 0.0034528225307299313 0.0021868552803160383 0 0.002863475962452045 0.0021846531370587952 0 0.0034528225307299313 0.0021868552803160383 0 0.0029882942584608958 0.0021998622544512035 0 0.0027063152314975403 0.0021412968662786291 0 0.0029882942584608958 0.0021998622544512035 0 0.002863475962452045 0.0021846531370587952 0 0.0028236056097212187 0.0022367193871420366 0 0.0034528225307299313 0.0021868552803160383 0 0.0029882942584608958 0.0021998622544512035 0 0.002863475962452045 0.0021846531370587952 0 0.0024451192797352349 0.0017312181852028633 0 0.002863475962452045 0.0021846531370587952 0 0.0022336207239087962 0.0021614537989064291 0 0.002863475962452045 0.0021846531370587952 0 0.0027677787538130062 0.0022937395940419549 0 0.0022336207239087962 0.0021614537989064291 0 0.0027677787538130062 0.0022937395940419549 0 0.0027710167069511663 0.0022671709378146256 0 0.0027701039233181094 0.0022629549537260102 0 0.0027264849116588057 0.0023148513994844908 0 0.0026791136650309963 0.0022976590099137058 0 0.0027677787538130062 0.0022937395940419549 0 0.0027710167069511663 0.0022671709378146256 0 0.0028236056097212187 0.0022367193871420366 0 0.0027710167069511663 0.0022671709378146256 0 0.0028236056097212187 0.0022367193871420366 0 0.002761186756480535 0.0022645724566824309 0 0.0028236056097212187 0.0022367193871420366 0 0.0027153846762052233 0.0021881475844870465 0 0.0024299054541125067 0.00221529483834115 0 0.0029882942584608958 0.0021998622544512035 0 0.0028236056097212187 0.0022367193871420366 0 0.0027153846762052233 0.0021881475844870465 0 0.002863475962452045 0.0021846531370587952 0 0.0027677787538130062 0.0022937395940419549 0 0.0028236056097212187 0.0022367193871420366 0 0.0074907071089387687 -0.00043128688746954432 0 0.0071995411263273005 -0.00027672466391534702 0 0.0070939685931671308 -0.00054586937341714761 0 0.0074244959812305522 -0.0006262113472959072 0 0.0074907071089387687 -0.00043128688746954432 0 0.0070939685931671308 -0.00054586937341714761 0 0.0071995411263273005 -0.00027672466391534702 0 0.0068132667839928508 -0.00029783024304787925 0 0.0070939685931671308 -0.00054586937341714761 0 0.0045252242950373613 0.00076329304944304077 0 0.0047193153019286244 0.00071490290830493887 0 0.0027677787538130062 0.0022937395940419549 0 0.0022336207239087962 0.0021614537989064291 0 0.0025022204399709914 0.0024886922884458504 0 0.0022336207239087962 0.0021614537989064291 0 0.0022442359535069911 0.0024203126207108603 0 0.0025022204399709914 0.0024886922884458504 0 0.0074244959812305522 -0.0006262113472959072 0 0.007382622587769695 -0.00082077409933166954 0 0.0070939685931671308 -0.00054586937341714761 0 0.0046125721153786594 0.0012370253031391326 0 0.0047193153019286244 0.00071490290830493887 0 0.0019947126672104345 0.002440514765785406 0 0.0022336207239087962 0.0021614537989064291 0 0.0022442359535069911 0.0024203126207108603 0 0.0019947126672104345 0.002440514765785406 0 0.0022442359535069911 0.0024203126207108603 0 0.0022777407045681099 0.0026381183768347644 0 0.0046125721153786594 0.0012370253031391326 0 0.0015231717683093851 0.0020382797136388755 0 0.0029665321372030502 0.0019620928716326319 0 0.0022469924669241766 0.0015487498668127686 0 0.0027006404165279729 0.0011581023522531683 0 0.0027622082146560221 0.0022558182860331856 0 0.0027701039233181094 0.0022629549537260102 0 0.0027624947675971815 0.0022463234968881957 0 0.0022442359535069911 0.0024203126207108603 0 0.0022777407045681099 0.0026381183768347644 0 0.0025022204399709914 0.0024886922884458504 0 0.0015231717683093851 0.0020382797136388755 0 0.0026791136650309963 0.0022976590099137058 0 -8.7067686911765843e-05 0.0016825341564750483 0 -1.0808381529596093e-05 0.0017618195338037254 0 -0.00018685696350625192 0.0017479840432572554 0 0.0015231717683093851 0.0020382797136388755 0 0.0012843084238271709 0.0019991102988352921 0 2.8796308400544451e-06 0.0018966728109452264 0 -1.0808381529596093e-05 0.0017618195338037254 0 -0.00018685696350625192 0.0017479840432572554 0 5.1845228756132102e-05 0.0016113447594310662 0 -1.0808381529596093e-05 0.0017618195338037254 0 0.00013460213579987357 0.0017907504700815796 0 0.0015231717683093851 0.0020382797136388755 0 0.0014452580259760304 0.0014619228216164772 0 2.8796308400544451e-06 0.0018966728109452264 0 -1.0808381529596093e-05 0.0017618195338037254 0 0.00013460213579987357 0.0017907504700815796 0 0.0015194443283124163 0.0014095600007802596 0 0.0014452580259760304 0.0014619228216164772 0 0.0028236056097212187 0.0022367193871420366 0 0.0021414472652269791 0.0022506069403895822 0 0.0024299054541125067 0.00221529483834115 0 0.0028236056097212187 0.0022367193871420366 0 0.002761186756480535 0.0022645724566824309 0 0.00271590533982311 0.0022637545649804819 0 0.0027421802943055746 0.0022444286366020629 0 0.0025486469021100003 0.0023318335414968675 0 0.002761186756480535 0.0022645724566824309 0 0.002744828359028301 0.0022468273496129652 0 0.00271590533982311 0.0022637545649804819 0 0.0027710167069511663 0.0022671709378146256 0 0.0027701039233181094 0.0022629549537260102 0 0.002761186756480535 0.0022645724566824309 0 0.0027701039233181094 0.0022629549537260102 0 0.002761186756480535 0.0022645724566824309 0 0.0027624947675971815 0.0022463234968881957 0 0.002761186756480535 0.0022645724566824309 0 0.0027624947675971815 0.0022463234968881957 0 0.002744828359028301 0.0022468273496129652 0 -8.508018374883885e-05 0.0017062666488115385 0 -0.00019925581004620014 0.0017048835570952563 0 -0.00018685696350625192 0.0017479840432572554 0 -0.00019925581004620014 0.0017048835570952563 0 -8.7067686911765843e-05 0.0016825341564750483 0 -0.00018685696350625192 0.0017479840432572554 0 0.0012828487267807131 0.0019247006584856515 0 0.0012843084238271709 0.0019991102988352921 0 0.0027283115603133549 0.0022022076586678463 0 0.002744828359028301 0.0022468273496129652 0 0.00271590533982311 0.0022637545649804819 0 0.0027283115603133549 0.0022022076586678463 0 0.0027624947675971815 0.0022463234968881957 0 0.002744828359028301 0.0022468273496129652 0 0.0015442780247255303 0.0022642686165834374 0 0.0025486469021100003 0.0023318335414968675 0 0.0021414472652269791 0.0022506069403895822 0 0.002104056371390673 0.0022720534789155262 0 0.001897657675618682 0.0024176333970124426 0 0.0016227772424155359 0.002620354720702977 0 0.0021414472652269791 0.0022506069403895822 0 0.001897657675618682 0.0024176333970124426 0 0.0021414472652269791 0.0022506069403895822 0 0.002104056371390673 0.0022720534789155262 0 0.0024299054541125067 0.00221529483834115 0 0.002104056371390673 0.0022720534789155262 0 0.0024299054541125067 0.00221529483834115 0 0.0022836468866067119 0.0021700545461286976 0 0.002104056371390673 0.0022720534789155262 0 0.0020972360409721017 0.0022677448800924355 0 0.0022836468866067119 0.0021700545461286976 0 0.002104056371390673 0.0022720534789155262 0 0.0019033129158177945 0.0024412343671507668 0 0.0020972360409721017 0.0022677448800924355 0 0.0017129007456348452 0.0025748317880934742 0 0.001897657675618682 0.0024176333970124426 0 0.0019033129158177945 0.0024412343671507668 0 0.002104056371390673 0.0022720534789155262 0 0.001897657675618682 0.0024176333970124426 0 0.0019033129158177945 0.0024412343671507668 0 0.0019033129158177945 0.0024412343671507668 0 0.0019628734151362834 0.0025189858714257168 0 0.0020589740524613641 0.0023786690160627231 0 0.0017836332180248514 0.0026254210582836168 0 0.0019033129158177945 0.0024412343671507668 0 0.0019628734151362834 0.0025189858714257168 0 0.0019628734151362834 0.0025189858714257168 0 0.0021514871836103011 0.0024155047703299935 0 0.0021777626855136599 0.0025975499483436976 0 0.0018826898162205656 0.0026829193145425393 0 0.0019628734151362834 0.0025189858714257168 0 0.0021777626855136599 0.0025975499483436976 0 0.0019628734151362834 0.0025189858714257168 0 0.0021514871836103011 0.0024155047703299935 0 0.0020589740524613641 0.0023786690160627231 0 0.0020589740524613641 0.0023786690160627231 0 0.0020972360409721017 0.0022677448800924355 0 0.0021944977317287016 0.0022698750198748173 0 0.0021514871836103011 0.0024155047703299935 0 0.0020589740524613641 0.0023786690160627231 0 0.0021944977317287016 0.0022698750198748173 0 0.0019033129158177945 0.0024412343671507668 0 0.0020589740524613641 0.0023786690160627231 0 0.0020972360409721017 0.0022677448800924355 0 0.0020972360409721017 0.0022677448800924355 0 0.0021742664654753252 0.0021747692330755359 0 0.0022836468866067119 0.0021700545461286976 0 0.0020972360409721017 0.0022677448800924355 0 0.0021742664654753252 0.0021747692330755359 0 0.0021944977317287016 0.0022698750198748173 0 0.0021742664654753252 0.0021747692330755359 0 0.0021944977317287016 0.0022698750198748173 0 0.0022608708497740284 0.0021185742285729755 0 0.0022608708497740284 0.0021185742285729755 0 0.0022063302964258932 0.0021160790560672588 0 0.0022361888198148389 0.0019678224834743007 0 0.0021742664654753252 0.0021747692330755359 0 0.0022608708497740284 0.0021185742285729755 0 0.0022063302964258932 0.0021160790560672588 0 0.0021742664654753252 0.0021747692330755359 0 0.0022063302964258932 0.0021160790560672588 0 0.0022145859590756308 0.0021517887621784579 0 0.0023818847130982284 0.002163492806239428 0 0.0027063152314975403 0.0021412968662786291 0 0.0022836468866067119 0.0021700545461286976 0 0.0021742664654753252 0.0021747692330755359 0 0.0023818847130982284 0.002163492806239428 0 0.0022145859590756308 0.0021517887621784579 0 0.0034528225307299313 0.0021868552803160383 0 0.0023818847130982284 0.002163492806239428 0 0.0027063152314975403 0.0021412968662786291 0 0.0027063152314975403 0.0021412968662786291 0 0.0027153846762052233 0.0021881475844870465 0 0.0024299054541125067 0.00221529483834115 0 0.0027063152314975403 0.0021412968662786291 0 0.0024299054541125067 0.00221529483834115 0 0.0022836468866067119 0.0021700545461286976 0 0.0029882942584608958 0.0021998622544512035 0 0.0027063152314975403 0.0021412968662786291 0 0.0027153846762052233 0.0021881475844870465 0 0.0021742664654753252 0.0021747692330755359 0 0.0023818847130982284 0.002163492806239428 0 0.0022836468866067119 0.0021700545461286976 0 0.0034273811551307994 0.0025982021900869566 0 0.0030937383763053965 0.0025618234918130516 0 0.0033478048993741075 0.0023980508247337961 0 0.0030937383763053965 0.0025618234918130516 0 0.0032035685122026791 0.0027426068142522232 0 0.0028334810771767529 0.0027182897318563369 0 0.0034273811551307994 0.0025982021900869566 0 0.0030937383763053965 0.0025618234918130516 0 0.0032035685122026791 0.0027426068142522232 0 0.0030937383763053965 0.0025618234918130516 0 0.0028334810771767529 0.0027182897318563369 0 0.0026947726241748184 0.0025250767429041542 0 0.0028334810771767529 0.0027182897318563369 0 0.0026947726241748184 0.0025250767429041542 0 0.0025274592855565291 0.0026911257575076772 0 0.0026947726241748184 0.0025250767429041542 0 0.0026286301251251848 0.0023631323185359216 0 0.0029293991877965982 0.0023927388071705072 0 0.0030937383763053965 0.0025618234918130516 0 0.0026947726241748184 0.0025250767429041542 0 0.0029293991877965982 0.0023927388071705072 0 0.0026947726241748184 0.0025250767429041542 0 0.0024177469371016369 0.0025580454294055815 0 0.0023720730935632905 0.0024177449980767652 0 0.0026947726241748184 0.0025250767429041542 0 0.0023720730935632905 0.0024177449980767652 0 0.0026286301251251848 0.0023631323185359216 0 0.0024177469371016369 0.0025580454294055815 0 0.0025274592855565291 0.0026911257575076772 0 0.0021777626855136599 0.0025975499483436976 0 0.0026947726241748184 0.0025250767429041542 0 0.0024177469371016369 0.0025580454294055815 0 0.0025274592855565291 0.0026911257575076772 0 0.0021514871836103011 0.0024155047703299935 0 0.0021777626855136599 0.0025975499483436976 0 0.0023720730935632905 0.0024177449980767652 0 0.0024177469371016369 0.0025580454294055815 0 0.0021777626855136599 0.0025975499483436976 0 0.0023720730935632905 0.0024177449980767652 0 0.0021514871836103011 0.0024155047703299935 0 0.0021944977317287016 0.0022698750198748173 0 0.0023720730935632905 0.0024177449980767652 0 0.0021944977317287016 0.0022698750198748173 0 0.0023720730935632905 0.0024177449980767652 0 0.0024328165243177363 0.0022448304791337606 0 0.0021944977317287016 0.0022698750198748173 0 0.0022608708497740284 0.0021185742285729755 0 0.0024328165243177363 0.0022448304791337606 0 0.0022608708497740284 0.0021185742285729755 0 0.0024328165243177363 0.0022448304791337606 0 0.0025167791860790044 0.0020680991384330171 0 0.0022608708497740284 0.0021185742285729755 0 0.0025167791860790044 0.0020680991384330171 0 0.0023926296347318785 0.0018864934883286387 0 0.0024328165243177363 0.0022448304791337606 0 0.0025167791860790044 0.0020680991384330171 0 0.0027445869245314742 0.0022219552117663239 0 0.0025167791860790044 0.0020680991384330171 0 0.0027445869245314742 0.0022219552117663239 0 0.0029104819511215638 0.0020019034929620173 0 0.0024328165243177363 0.0022448304791337606 0 0.0027445869245314742 0.0022219552117663239 0 0.0026286301251251848 0.0023631323185359216 0 0.0023720730935632905 0.0024177449980767652 0 0.0024328165243177363 0.0022448304791337606 0 0.0026286301251251848 0.0023631323185359216 0 0.0027445869245314742 0.0022219552117663239 0 0.0026286301251251848 0.0023631323185359216 0 0.0029293991877965982 0.0023927388071705072 0 0.0027445869245314742 0.0022219552117663239 0 0.0029293991877965982 0.0023927388071705072 0 0.003053143224720768 0.0022422450583320544 0 0.0029104819511215638 0.0020019034929620173 0 0.003053143224720768 0.0022422450583320544 0 0.0033271037274607055 0.0021420949448251992 0 0.0027445869245314742 0.0022219552117663239 0 0.0029104819511215638 0.0020019034929620173 0 0.003053143224720768 0.0022422450583320544 0 0.0036621752939260386 0.0023126283324398276 0 0.0033271037274607055 0.0021420949448251992 0 0.0033478048993741075 0.0023980508247337961 0 0.003053143224720768 0.0022422450583320544 0 0.0033271037274607055 0.0021420949448251992 0 0.0033478048993741075 0.0023980508247337961 0 0.0036621752939260386 0.0023126283324398276 0 0.0036823747428350452 0.0020572003278867485 0 0.0033271037274607055 0.0021420949448251992 0 0.0030937383763053965 0.0025618234918130516 0 0.0029293991877965982 0.0023927388071705072 0 0.0033478048993741075 0.0023980508247337961 0 0.0029293991877965982 0.0023927388071705072 0 0.003053143224720768 0.0022422450583320544 0 0.0033478048993741075 0.0023980508247337961 0 0.0040153282231472466 0.0016690631267419459 0 0.0034579063300266234 0.0013509179514408791 0 0.003320225836448574 0.0017457344267266469 0 0.0040153282231472466 0.0016690631267419459 0 0.0034579063300266234 0.0013509179514408791 0 0.003669806422070581 0.00079953319354617795 0 0.0032208583034085531 0.0010117704220072865 0 0.0034579063300266234 0.0013509179514408791 0 0.003669806422070581 0.00079953319354617795 0 0.0032208583034085531 0.0010117704220072865 0 0.0034579063300266234 0.0013509179514408791 0 0.0031597457989415161 0.001416319682339816 0 0.0034579063300266234 0.0013509179514408791 0 0.003320225836448574 0.0017457344267266469 0 0.0031597457989415161 0.001416319682339816 0 0.0029104819511215638 0.0020019034929620173 0 0.0033271037274607055 0.0021420949448251992 0 0.003320225836448574 0.0017457344267266469 0 0.0036823747428350452 0.0020572003278867485 0 0.0033271037274607055 0.0021420949448251992 0 0.003320225836448574 0.0017457344267266469 0 0.0029104819511215638 0.0020019034929620173 0 0.0029243850281919703 0.0016289585301461332 0 0.0026369513026771249 0.0017839053107143185 0 0.0029104819511215638 0.0020019034929620173 0 0.003320225836448574 0.0017457344267266469 0 0.0029243850281919703 0.0016289585301461332 0 0.0029243850281919703 0.0016289585301461332 0 0.0029167845851631926 0.0012828690043322605 0 0.0026842328560685992 0.0014679484581571584 0 0.0029243850281919703 0.0016289585301461332 0 0.0031597457989415161 0.001416319682339816 0 0.0029167845851631926 0.0012828690043322605 0 0.003320225836448574 0.0017457344267266469 0 0.0029243850281919703 0.0016289585301461332 0 0.0031597457989415161 0.001416319682339816 0 0.0032208583034085531 0.0010117704220072865 0 0.0031597457989415161 0.001416319682339816 0 0.0029167845851631926 0.0012828690043322605 0 0.0032208583034085531 0.0010117704220072865 0 0.0029167845851631926 0.0012828690043322605 0 0.0029604713152688519 0.00092106980380171231 0 0.0029167845851631926 0.0012828690043322605 0 0.0027017400286801735 0.0011295621489460976 0 0.0029604713152688519 0.00092106980380171231 0 0.0029167845851631926 0.0012828690043322605 0 0.0026842328560685992 0.0014679484581571584 0 0.0027017400286801735 0.0011295621489460976 0 0.00255703320159879 0.0013666331527447863 0 0.0023875172148576521 0.0012869753202214645 0 0.0027017400286801735 0.0011295621489460976 0 0.00255703320159879 0.0013666331527447863 0 0.0026842328560685992 0.0014679484581571584 0 0.0027017400286801735 0.0011295621489460976 0 0.00255703320159879 0.0013666331527447863 0 0.0024828057044623294 0.0015840211181477907 0 0.0023875172148576521 0.0012869753202214645 0 0.00255703320159879 0.0013666331527447863 0 0.0024828057044623294 0.0015840211181477907 0 0.0026842328560685992 0.0014679484581571584 0 0.0024828057044623294 0.0015840211181477907 0 0.0026842328560685992 0.0014679484581571584 0 0.0026369513026771249 0.0017839053107143185 0 0.0025167791860790044 0.0020680991384330171 0 0.0029104819511215638 0.0020019034929620173 0 0.0026369513026771249 0.0017839053107143185 0 0.0025167791860790044 0.0020680991384330171 0 0.0026369513026771249 0.0017839053107143185 0 0.0023926296347318785 0.0018864934883286387 0 0.0029243850281919703 0.0016289585301461332 0 0.0026842328560685992 0.0014679484581571584 0 0.0026369513026771249 0.0017839053107143185 0 0.0024828057044623294 0.0015840211181477907 0 0.0026369513026771249 0.0017839053107143185 0 0.0023926296347318785 0.0018864934883286387 0 0.0024828057044623294 0.0015840211181477907 0 0.0023926296347318785 0.0018864934883286387 0 0.0023199876615840184 0.0017275107605958877 0 0.0023926296347318785 0.0018864934883286387 0 0.0023199876615840184 0.0017275107605958877 0 0.0022361888198148389 0.0019678224834743007 0 0.0023199876615840184 0.0017275107605958877 0 0.0023875172148576521 0.0012869753202214645 0 0.0021846077110928815 0.0018605096708233201 0 0.0024828057044623294 0.0015840211181477907 0 0.0023199876615840184 0.0017275107605958877 0 0.0023875172148576521 0.0012869753202214645 0 0.010487390475238792 -0.001792905465789501 0 0.010367528147665877 -0.0019677727564003399 0 0.010124096070025505 -0.0017913045679138662 0 0.010487390475238792 -0.001792905465789501 0 0.010367528147665877 -0.0019677727564003399 0 0.010480912240832464 -0.0018606918229332936 0 0.010367528147665877 -0.0019677727564003399 0 0.010266607076413409 -0.0022239023560297207 0 0.010099199228741159 -0.002119145657848071 0 0.010266607076413409 -0.0022239023560297207 0 0.010502281693237314 -0.0020983563969428991 0 0.010351657780831351 -0.0025482286407964632 0 0.010367528147665877 -0.0019677727564003399 0 0.010266607076413409 -0.0022239023560297207 0 0.010502281693237314 -0.0020983563969428991 0 0.010367528147665877 -0.0019677727564003399 0 0.010502281693237314 -0.0020983563969428991 0 0.010480912240832464 -0.0018606918229332936 0 0.010502281693237314 -0.0020983563969428991 0 0.010595830573727308 -0.0020337692611708648 0 0.010480912240832464 -0.0018606918229332936 0 0.01054890262720793 -0.0018634972229104288 0 0.010327417538139106 -0.0019869130597857695 0 0.010595830573727308 -0.0020337692611708648 0 0.010480912240832464 -0.0018606918229332936 0 0.010727539633009025 -0.0019912818678423407 0 0.010502281693237314 -0.0020983563969428991 0 0.010595830573727308 -0.0020337692611708648 0 0.010569405818818005 -0.0021123926891896132 0 0.010487390475238792 -0.001792905465789501 0 0.010480912240832464 -0.0018606918229332936 0 0.010370489620970084 -0.0018696532197889886 0 0.0023875172148576521 0.0012869753202214645 0 0.0027017400286801735 0.0011295621489460976 0 0.0028625112001013815 0.00049911121338739684 0 0.0065228433723650966 -0.00025408602584912795 0 0.0062698084172103591 -0.00075767468620274183 0 0.010480912240832464 -0.0018606918229332936 0 0.010370489620970084 -0.0018696532197889886 0 0.010343054232423333 -0.0017972663069705753 0 0.0027017400286801735 0.0011295621489460976 0 0.0029604713152688519 0.00092106980380171231 0 0.0028625112001013815 0.00049911121338739684 0 0.0032208583034085531 0.0010117704220072865 0 0.0029604713152688519 0.00092106980380171231 0 0.0031844480002953339 0.00064612874072642957 0 0.0029604713152688519 0.00092106980380171231 0 0.0031844480002953339 0.00064612874072642957 0 0.0028625112001013815 0.00049911121338739684 0 0.0031844480002953339 0.00064612874072642957 0 0.0028625112001013815 0.00049911121338739684 0 0.0035133684249110805 0.00018121780589934155 0 0.010595830573727308 -0.0020337692611708648 0 0.010682955578564274 -0.0020498623286198114 0 0.010640085296789602 -0.0021046364204300384 0 0.010595830573727308 -0.0020337692611708648 0 0.010682955578564274 -0.0020498623286198114 0 0.010727539633009025 -0.0019912818678423407 0 0.010682955578564274 -0.0020498623286198114 0 0.010727539633009025 -0.0019912818678423407 0 0.010760076508155289 -0.0020582851157554048 0 0.010004454063912658 -0.0017070753007071822 0 0.010370489620970084 -0.0018696532197889886 0 0.010343054232423333 -0.0017972663069705753 0 0.010004454063912658 -0.0017070753007071822 0 0.010343054232423333 -0.0017972663069705753 0 0.010054217336300858 -0.0016544526832377358 0 0.0040060397998301755 -0.00069825392517436228 0 0.0028625112001013815 0.00049911121338739684 0 0.0035133684249110805 0.00018121780589934155 0 0.010727539633009025 -0.0019912818678423407 0 0.010760076508155289 -0.0020582851157554048 0 0.010860696737358396 -0.0020337539540978798 0 0.010327417538139106 -0.0019869130597857695 0 0.011925747350946011 -0.00015986758548966281 0 0.0088968610917081695 -0.00041720167083911269 0 0.0062698084172103591 -0.00075767468620274183 0 0.0040060397998301755 -0.00069825392517436228 0 0.0038364772359135257 -6.0238106715993079e-05 0 0.0035133684249110805 0.00018121780589934155 0 0.0040301811250874212 7.8130236432756212e-05 0 0.0038364772359135257 -6.0238106715993079e-05 0 0.0037479187873213781 0.00037031494445436428 0 0.0037479187873213781 0.00037031494445436428 0 0.0035133684249110805 0.00018121780589934155 0 0.0034504810550997135 0.00057627189970924065 0 0.0038364772359135257 -6.0238106715993079e-05 0 0.0037479187873213781 0.00037031494445436428 0 0.0035133684249110805 0.00018121780589934155 0 0.0031844480002953339 0.00064612874072642957 0 0.0035133684249110805 0.00018121780589934155 0 0.0034504810550997135 0.00057627189970924065 0 0.0032208583034085531 0.0010117704220072865 0 0.0034504810550997135 0.00057627189970924065 0 0.003669806422070581 0.00079953319354617795 0 0.0032208583034085531 0.0010117704220072865 0 0.0031844480002953339 0.00064612874072642957 0 0.0034504810550997135 0.00057627189970924065 0 0.0037479187873213781 0.00037031494445436428 0 0.0034504810550997135 0.00057627189970924065 0 0.003669806422070581 0.00079953319354617795 0 0.0083241980336473346 -0.001138067039639487 0 0.0085000988601840934 0.00052271758577727295 0 0.0091928437202809677 -0.0011731025391283673 0 0.0083241980336473346 -0.001138067039639487 0 0.0072670996054721932 -0.00040341495186966718 0 0.0085000988601840934 0.00052271758577727295 0 0.0083241980336473346 -0.001138067039639487 0 0.0091928437202809677 -0.0011731025391283673 0 0.0091296940544537079 -0.0019380252943407257 0 0.0083241980336473346 -0.001138067039639487 0 0.0074981774567256122 -0.001244619883508226 0 0.0080867055319085827 -0.0019101059599645233 0 0.0083241980336473346 -0.001138067039639487 0 0.0074981774567256122 -0.001244619883508226 0 0.0072670996054721932 -0.00040341495186966718 0 0.0074981774567256122 -0.001244619883508226 0 0.0063379836981520242 -0.00060533247124845843 0 0.0071820702899586157 -0.0018698007897952015 0 0.0048215676289938957 -0.00056152324560161671 0 0.0063379836981520242 -0.00060533247124845843 0 0.0071820702899586157 -0.0018698007897952015 0 0.0056250266599655709 -0.00037345510575487493 0 0.0071392199807927973 -0.0020057545349047301 0 0.0048215676289938957 -0.00056152324560161671 0 0.0063379836981520242 -0.00060533247124845843 0 0.005555499704516304 0.00098617566426336583 0 0.0074981774567256122 -0.001244619883508226 0 0.0063379836981520242 -0.00060533247124845843 0 0.0072670996054721932 -0.00040341495186966718 0 0.0072670996054721932 -0.00040341495186966718 0 0.005555499704516304 0.00098617566426336583 0 0.0085000988601840934 0.00052271758577727295 0 0.0036080807819874323 0.0021574510865263134 0 0.0053599065411128804 0.0013929622204304443 0 0.0034528225307299313 0.0021868552803160383 0 0.005555499704516304 0.00098617566426336583 0 0.0085000988601840934 0.00052271758577727295 0 0.0034528225307299313 0.0021868552803160383 0 0.0023818847130982284 0.002163492806239428 0 0.0023416047193035375 0.0023628169856061351 0 0.0063379836981520242 -0.00060533247124845843 0 0.0072670996054721932 -0.00040341495186966718 0 0.005555499704516304 0.00098617566426336583 0 0.0023818847130982284 0.002163492806239428 0 0.0023416047193035375 0.0023628169856061351 0 0.0022145859590756308 0.0021517887621784579 0 0.0022063302964258932 0.0021160790560672588 0 0.0022145859590756308 0.0021517887621784579 0 0.0022361888198148389 0.0019678224834743007 0 0.0022145859590756308 0.0021517887621784579 0 0.0022361888198148389 0.0019678224834743007 0 0.0021846077110928815 0.0018605096708233201 0 0.0023416047193035375 0.0023628169856061351 0 0.0022145859590756308 0.0021517887621784579 0 0.0021846077110928815 0.0018605096708233201 0 0.0022608708497740284 0.0021185742285729755 0 0.0023926296347318785 0.0018864934883286387 0 0.0022361888198148389 0.0019678224834743007 0 0.0023199876615840184 0.0017275107605958877 0 0.0022361888198148389 0.0019678224834743007 0 0.0021846077110928815 0.0018605096708233201 0 0.010487390475238792 -0.001792905465789501 0 0.010054553007855078 -0.0011303537166465344 0 0.010124096070025505 -0.0017913045679138662 0 0.0065228433723650966 -0.00025408602584912795 0 0.0061005792906619607 0.00040111230423039805 0 0.010054553007855078 -0.0011303537166465344 0 0.0096777172337571219 -0.0016245623011937999 0 0.010124096070025505 -0.0017913045679138662 0 0.0053599065411128804 0.0013929622204304443 0 0.0061005792906619607 0.00040111230423039805 0 0.0085000988601840934 0.00052271758577727295 0 0.010054553007855078 -0.0011303537166465344 0 0.0091928437202809677 -0.0011731025391283673 0 0.010054553007855078 -0.0011303537166465344 0 0.0091928437202809677 -0.0011731025391283673 0 0.0096777172337571219 -0.0016245623011937999 0 0.0091928437202809677 -0.0011731025391283673 0 0.0096777172337571219 -0.0016245623011937999 0 0.0091296940544537079 -0.0019380252943407257 0 0.0096777172337571219 -0.0016245623011937999 0 0.0097428709630695571 -0.0020468735380595343 0 0.0091296940544537079 -0.0019380252943407257 0 0.0096777172337571219 -0.0016245623011937999 0 0.0097428709630695571 -0.0020468735380595343 0 0.010124096070025505 -0.0017913045679138662 0 0.0097428709630695571 -0.0020468735380595343 0 0.0094441991797879158 -0.002410840555017921 0 0.0091296940544537079 -0.0019380252943407257 0 0.0097428709630695571 -0.0020468735380595343 0 0.010124096070025505 -0.0017913045679138662 0 0.010099199228741159 -0.002119145657848071 0 0.010367528147665877 -0.0019677727564003399 0 0.010124096070025505 -0.0017913045679138662 0 0.010099199228741159 -0.002119145657848071 0 0.0097428709630695571 -0.0020468735380595343 0 0.010099199228741159 -0.002119145657848071 0 0.0098291010309197874 -0.002324507361491499 0 0.0098291010309197874 -0.002324507361491499 0 0.0098391412563504713 -0.0025328872707821308 0 0.010023607706584791 -0.0024400880578544248 0 0.010099199228741159 -0.002119145657848071 0 0.0098291010309197874 -0.002324507361491499 0 0.010023607706584791 -0.0024400880578544248 0 0.010266607076413409 -0.0022239023560297207 0 0.010099199228741159 -0.002119145657848071 0 0.010023607706584791 -0.0024400880578544248 0 0.0097428709630695571 -0.0020468735380595343 0 0.0094441991797879158 -0.002410840555017921 0 0.0098291010309197874 -0.002324507361491499 0 0.0098291010309197874 -0.002324507361491499 0 0.0096466376859449775 -0.0026237754558517314 0 0.0098391412563504713 -0.0025328872707821308 0 0.0094441991797879158 -0.002410840555017921 0 0.0098291010309197874 -0.002324507361491499 0 0.0096466376859449775 -0.0026237754558517314 0 0.0094441991797879158 -0.002410840555017921 0 0.009489404536214446 -0.0025752057365907117 0 0.0096466376859449775 -0.0026237754558517314 0 0.0094441991797879158 -0.002410840555017921 0 0.009489404536214446 -0.0025752057365907117 0 0.0092800725077087851 -0.0025552531113011688 0 0.009489404536214446 -0.0025752057365907117 0 0.0092800725077087851 -0.0025552531113011688 0 0.0095570603342025398 -0.0026865227153369227 0 0.0092800725077087851 -0.0025552531113011688 0 0.0089550905475899861 -0.0023442617922504426 0 0.0091616344406716208 -0.0025364850589948825 0 0.0094441991797879158 -0.002410840555017921 0 0.0092800725077087851 -0.0025552531113011688 0 0.0089550905475899861 -0.0023442617922504426 0 0.0094441991797879158 -0.002410840555017921 0 0.0089550905475899861 -0.0023442617922504426 0 0.0091296940544537079 -0.0019380252943407257 0 0.0089550905475899861 -0.0023442617922504426 0 0.0080867055319085827 -0.0019101059599645233 0 0.0091296940544537079 -0.0019380252943407257 0 0.0083241980336473346 -0.001138067039639487 0 0.0080867055319085827 -0.0019101059599645233 0 0.0091296940544537079 -0.0019380252943407257 0 0.0080867055319085827 -0.0019101059599645233 0 0.0070676446762465558 -0.0022566871424080479 0 0.0072648258324036676 -0.0026156653196763814 0 0.008215041146550273 -0.0019062347319029984 0 0.0081608107803760356 -0.0024373441022833751 0 0.0068239774957200095 -0.0021208337185884721 0 0.0071820702899586157 -0.0018698007897952015 0 0.0070676446762465558 -0.0022566871424080479 0 0.0089550905475899861 -0.0023442617922504426 0 0.0080867055319085827 -0.0019101059599645233 0 0.0091616344406716208 -0.0025364850589948825 0 0.0074981774567256122 -0.001244619883508226 0 0.0080867055319085827 -0.0019101059599645233 0 0.0071820702899586157 -0.0018698007897952015 0 0.0080867055319085827 -0.0019101059599645233 0 0.0071820702899586157 -0.0018698007897952015 0 0.0070676446762465558 -0.0022566871424080479 0 0.0081608107803760356 -0.0024373441022833751 0 0.009764673591321155 -0.003577433435737117 0 0.0092800725077087851 -0.0025552531113011688 0 0.0091616344406716208 -0.0025364850589948825 0 0.0094886393676211055 -0.00269278335715064 0 0.0091616344406716208 -0.0025364850589948825 0 0.0094886393676211055 -0.00269278335715064 0 0.0097189305621867752 -0.00284900001563268 0 0.0091616344406716208 -0.0025364850589948825 0 0.0097189305621867752 -0.00284900001563268 0 0.0096535254299289948 -0.0028552982428571684 0 0.0094886393676211055 -0.00269278335715064 0 0.0097214494102274857 -0.0027871544028148648 0 0.0097189305621867752 -0.00284900001563268 0 0.0097214494102274857 -0.0027871544028148648 0 0.0098832983613725174 -0.0028361056021797126 0 0.0097189305621867752 -0.00284900001563268 0 0.0097214494102274857 -0.0027871544028148648 0 0.0098832983613725174 -0.0028361056021797126 0 0.0098604462974236327 -0.0027808147791183145 0 0.0099117459400644495 -0.0028626470513211685 0 0.010091065233902919 -0.0028641476663622775 0 0.010022863085215552 -0.0029341019084561611 0 0.0097189305621867752 -0.00284900001563268 0 0.0099117459400644495 -0.0028626470513211685 0 0.010022863085215552 -0.0029341019084561611 0 0.0097799878272245809 -0.0033320455259330298 0 0.009764673591321155 -0.003577433435737117 0 0.0098832983613725174 -0.0028361056021797126 0 0.0099117459400644495 -0.0028626470513211685 0 0.010091065233902919 -0.0028641476663622775 0 0.0098832983613725174 -0.0028361056021797126 0 0.0097189305621867752 -0.00284900001563268 0 0.0099117459400644495 -0.0028626470513211685 0 0.010091065233902919 -0.0028641476663622775 0 0.010305094749132045 -0.0028336037439468573 0 0.010395236783502402 -0.0028866410881736686 0 0.010091065233902919 -0.0028641476663622775 0 0.010033054325503013 -0.0028056584661421851 0 0.010305094749132045 -0.0028336037439468573 0 0.0098832983613725174 -0.0028361056021797126 0 0.010091065233902919 -0.0028641476663622775 0 0.010033054325503013 -0.0028056584661421851 0 0.010033054325503013 -0.0028056584661421851 0 0.0099958510420413132 -0.0027337013623999415 0 0.0098604462974236327 -0.0027808147791183145 0 0.0098832983613725174 -0.0028361056021797126 0 0.010033054325503013 -0.0028056584661421851 0 0.0098604462974236327 -0.0027808147791183145 0 0.010033054325503013 -0.0028056584661421851 0 0.010158758557118321 -0.0027581335045096826 0 0.0099958510420413132 -0.0027337013623999415 0 0.010158758557118321 -0.0027581335045096826 0 0.0099958510420413132 -0.0027337013623999415 0 0.010151506152373138 -0.0026797949990338857 0 0.010158758557118321 -0.0027581335045096826 0 0.010305094749132045 -0.0028336037439468573 0 0.010356150729607225 -0.0027207637985355148 0 0.010033054325503013 -0.0028056584661421851 0 0.010158758557118321 -0.0027581335045096826 0 0.010305094749132045 -0.0028336037439468573 0 0.0099320957164987442 -0.0026704613877727048 0 0.0099958510420413132 -0.0027337013623999415 0 0.0098507756944356366 -0.0027268651334858719 0 0.0099320957164987442 -0.0026704613877727048 0 0.0098507756944356366 -0.0027268651334858719 0 0.0098641745375710656 -0.0026765029282132054 0 0.0099320957164987442 -0.0026704613877727048 0 0.0099958510420413132 -0.0027337013623999415 0 0.010042095488538405 -0.0026253113591866036 0 0.0098604462974236327 -0.0027808147791183145 0 0.0098507756944356366 -0.0027268651334858719 0 0.0097287676100582324 -0.0027395728738777588 0 0.0099958510420413132 -0.0027337013623999415 0 0.0098604462974236327 -0.0027808147791183145 0 0.0098507756944356366 -0.0027268651334858719 0 0.0098507756944356366 -0.0027268651334858719 0 0.0097287676100582324 -0.0027395728738777588 0 0.0097885992983107878 -0.0027031528670934872 0 0.0097287676100582324 -0.0027395728738777588 0 0.0096466376859449775 -0.0026237754558517314 0 0.0097885992983107878 -0.0027031528670934872 0 0.0097214494102274857 -0.0027871544028148648 0 0.0097287676100582324 -0.0027395728738777588 0 0.0095570603342025398 -0.0026865227153369227 0 0.0097214494102274857 -0.0027871544028148648 0 0.0098604462974236327 -0.0027808147791183145 0 0.0097287676100582324 -0.0027395728738777588 0 0.0092800725077087851 -0.0025552531113011688 0 0.0094886393676211055 -0.00269278335715064 0 0.0095570603342025398 -0.0026865227153369227 0 0.0094886393676211055 -0.00269278335715064 0 0.0097214494102274857 -0.0027871544028148648 0 0.0095570603342025398 -0.0026865227153369227 0 0.009489404536214446 -0.0025752057365907117 0 0.0095570603342025398 -0.0026865227153369227 0 0.0096466376859449775 -0.0026237754558517314 0 0.0097287676100582324 -0.0027395728738777588 0 0.0095570603342025398 -0.0026865227153369227 0 0.0096466376859449775 -0.0026237754558517314 0 0.0096466376859449775 -0.0026237754558517314 0 0.0098391412563504713 -0.0025328872707821308 0 0.0098051442300375498 -0.0026627083061500478 0 0.0098051442300375498 -0.0026627083061500478 0 0.0098995193948183593 -0.0026291437169485427 0 0.0098673337606588977 -0.0026633523482436109 0 0.0098391412563504713 -0.0025328872707821308 0 0.0098051442300375498 -0.0026627083061500478 0 0.0098995193948183593 -0.0026291437169485427 0 0.0096466376859449775 -0.0026237754558517314 0 0.0098051442300375498 -0.0026627083061500478 0 0.0097885992983107878 -0.0027031528670934872 0 0.0098391412563504713 -0.0025328872707821308 0 0.010023607706584791 -0.0024400880578544248 0 0.0098995193948183593 -0.0026291437169485427 0 0.010023607706584791 -0.0024400880578544248 0 0.0098995193948183593 -0.0026291437169485427 0 0.0099695335875246652 -0.002678123795615757 0 0.0098995193948183593 -0.0026291437169485427 0 0.0099695335875246652 -0.002678123795615757 0 0.0098965702573657419 -0.0026511222849426069 0 0.0099695335875246652 -0.002678123795615757 0 0.0098965702573657419 -0.0026511222849426069 0 0.0097799193476696775 -0.0026252223374786704 0 0.0098995193948183593 -0.0026291437169485427 0 0.0098965702573657419 -0.0026511222849426069 0 0.0098673337606588977 -0.0026633523482436109 0 0.0098965702573657419 -0.0026511222849426069 0 0.0098673337606588977 -0.0026633523482436109 0 0.0098997582917979051 -0.0025830547464679348 0 0.0098965702573657419 -0.0026511222849426069 0 0.0098997582917979051 -0.0025830547464679348 0 0.009849858736406222 -0.0025367748189519656 0 0.0098965702573657419 -0.0026511222849426069 0 0.009849858736406222 -0.0025367748189519656 0 0.0097799193476696775 -0.0026252223374786704 0 0.0098051442300375498 -0.0026627083061500478 0 0.0097885992983107878 -0.0027031528670934872 0 0.0098641745375710656 -0.0026765029282132054 0 0.0098507756944356366 -0.0027268651334858719 0 0.0097885992983107878 -0.0027031528670934872 0 0.0098641745375710656 -0.0026765029282132054 0 0.0098051442300375498 -0.0026627083061500478 0 0.0098673337606588977 -0.0026633523482436109 0 0.0098641745375710656 -0.0026765029282132054 0 0.0098673337606588977 -0.0026633523482436109 0 0.0098641745375710656 -0.0026765029282132054 0 0.0098997582917979051 -0.0025830547464679348 0 0.0099320957164987442 -0.0026704613877727048 0 0.0098641745375710656 -0.0026765029282132054 0 0.0099443375536691012 -0.0025916941461102995 0 0.0098641745375710656 -0.0026765029282132054 0 0.0099443375536691012 -0.0025916941461102995 0 0.0098997582917979051 -0.0025830547464679348 0 0.0099443375536691012 -0.0025916941461102995 0 0.0098997582917979051 -0.0025830547464679348 0 0.0099684678820975425 -0.002447384831964656 0 0.0098997582917979051 -0.0025830547464679348 0 0.0099684678820975425 -0.002447384831964656 0 0.0099079249712325894 -0.0024096502154032284 0 0.0099684678820975425 -0.002447384831964656 0 0.010062430784766012 -0.0022991370117209876 0 0.0100613238603531 -0.0024819682811425678 0 0.0099443375536691012 -0.0025916941461102995 0 0.0099684678820975425 -0.002447384831964656 0 0.0100613238603531 -0.0024819682811425678 0 0.0098997582917979051 -0.0025830547464679348 0 0.009849858736406222 -0.0025367748189519656 0 0.0099079249712325894 -0.0024096502154032284 0 0.009849858736406222 -0.0025367748189519656 0 0.0099079249712325894 -0.0024096502154032284 0 0.0097370120284365237 -0.0023720596101566042 0 0.0099241427943907549 -0.0021993450631644304 0 0.0097370120284365237 -0.0023720596101566042 0 0.0099886389176912452 -0.0019196879175568627 0 0.010079223268046555 -0.0014813295107803889 0 0.009970604982250976 -0.0019494459217667471 0 0.0099079249712325894 -0.0024096502154032284 0 0.0099241427943907549 -0.0021993450631644304 0 0.0097370120284365237 -0.0023720596101566042 0 0.0099079249712325894 -0.0024096502154032284 0 0.0099241427943907549 -0.0021993450631644304 0 0.0099782448013497841 -0.0022611231998730993 0 0.0099241427943907549 -0.0021993450631644304 0 0.0099675930830878164 -0.0020875547800265253 0 0.0099886389176912452 -0.0019196879175568627 0 0.0099684678820975425 -0.002447384831964656 0 0.0099782448013497841 -0.0022611231998730993 0 0.010062430784766012 -0.0022991370117209876 0 0.0099684678820975425 -0.002447384831964656 0 0.0099079249712325894 -0.0024096502154032284 0 0.0099782448013497841 -0.0022611231998730993 0 0.0099782448013497841 -0.0022611231998730993 0 0.0099675930830878164 -0.0020875547800265253 0 0.010038055389078159 -0.0021139996821370106 0 0.0099241427943907549 -0.0021993450631644304 0 0.0099782448013497841 -0.0022611231998730993 0 0.0099675930830878164 -0.0020875547800265253 0 0.0099782448013497841 -0.0022611231998730993 0 0.010038055389078159 -0.0021139996821370106 0 0.010062430784766012 -0.0022991370117209876 0 0.010062430784766012 -0.0022991370117209876 0 0.010183530970842363 -0.0023528721726680333 0 0.010198848139047881 -0.0021060471482356891 0 0.010038055389078159 -0.0021139996821370106 0 0.010062430784766012 -0.0022991370117209876 0 0.010198848139047881 -0.0021060471482356891 0 0.010062430784766012 -0.0022991370117209876 0 0.010183530970842363 -0.0023528721726680333 0 0.0100613238603531 -0.0024819682811425678 0 0.010183530970842363 -0.0023528721726680333 0 0.010379738545859921 -0.0023188441184090608 0 0.010232869352819559 -0.002533357637073845 0 0.010183530970842363 -0.0023528721726680333 0 0.010198848139047881 -0.0021060471482356891 0 0.010379738545859921 -0.0023188441184090608 0 0.010198848139047881 -0.0021060471482356891 0 0.010609319492705016 -0.0020612659618314336 0 0.010379738545859921 -0.0023188441184090608 0 0.010609319492705016 -0.0020612659618314336 0 0.010577178071435956 -0.0024724148764294629 0 0.010913770597947738 -0.0023125725963569444 0 0.010609319492705016 -0.0020612659618314336 0 0.010577178071435956 -0.0024724148764294629 0 0.010379738545859921 -0.0023188441184090608 0 0.010577178071435956 -0.0024724148764294629 0 0.010379738545859921 -0.0023188441184090608 0 0.010232869352819559 -0.002533357637073845 0 0.010577178071435956 -0.0024724148764294629 0 0.010232869352819559 -0.002533357637073845 0 0.010356150729607225 -0.0027207637985355148 0 0.010577178071435956 -0.0024724148764294629 0 0.010356150729607225 -0.0027207637985355148 0 0.010639773451006402 -0.0027281901118139905 0 0.010305094749132045 -0.0028336037439468573 0 0.010356150729607225 -0.0027207637985355148 0 0.010519456047028043 -0.0027966041349025456 0 0.010356150729607225 -0.0027207637985355148 0 0.010519456047028043 -0.0027966041349025456 0 0.010639773451006402 -0.0027281901118139905 0 0.010158758557118321 -0.0027581335045096826 0 0.010356150729607225 -0.0027207637985355148 0 0.010151506152373138 -0.0026797949990338857 0 0.010232869352819559 -0.002533357637073845 0 0.010356150729607225 -0.0027207637985355148 0 0.010151506152373138 -0.0026797949990338857 0 0.0099958510420413132 -0.0027337013623999415 0 0.010151506152373138 -0.0026797949990338857 0 0.010042095488538405 -0.0026253113591866036 0 0.010232869352819559 -0.002533357637073845 0 0.010151506152373138 -0.0026797949990338857 0 0.010042095488538405 -0.0026253113591866036 0 0.0099443375536691012 -0.0025916941461102995 0 0.010042095488538405 -0.0026253113591866036 0 0.0100613238603531 -0.0024819682811425678 0 0.0099320957164987442 -0.0026704613877727048 0 0.0099443375536691012 -0.0025916941461102995 0 0.010042095488538405 -0.0026253113591866036 0 0.010183530970842363 -0.0023528721726680333 0 0.010232869352819559 -0.002533357637073845 0 0.0100613238603531 -0.0024819682811425678 0 0.010232869352819559 -0.002533357637073845 0 0.010042095488538405 -0.0026253113591866036 0 0.0100613238603531 -0.0024819682811425678 0 0.015100383007254548 0.00071098484071423402 0 0.0150799856352363 0.00069709838377411866 0 0.015089372673686695 0.00071082826569902934 0 0.015086218371534146 0.00069856529960518675 0 0.015100383007254548 0.00071098484071423402 0 0.0150799856352363 0.00069709838377411866 0 0.015086218371534146 0.00069856529960518675 0 0.015067540156240415 0.00067995311749896104 0 0.0150799856352363 0.00069709838377411866 0 0.011925747350946011 -0.00015986758548966281 0 0.012990788065564252 -0.00072168229517516986 0 0.010760076508155289 -0.0020582851157554048 0 0.010860696737358396 -0.0020337539540978798 0 0.010756344109821458 -0.0021331796164119183 0 0.010756344109821458 -0.0021331796164119183 0 0.01060894269299398 -0.0021489254667488265 0 0.010640085296789602 -0.0021046364204300384 0 0.010682955578564274 -0.0020498623286198114 0 0.010760076508155289 -0.0020582851157554048 0 0.010640085296789602 -0.0021046364204300384 0 0.010760076508155289 -0.0020582851157554048 0 0.010756344109821458 -0.0021331796164119183 0 0.010640085296789602 -0.0021046364204300384 0 0.010756344109821458 -0.0021331796164119183 0 0.010665168228708954 -0.0021852535681551868 0 0.01060894269299398 -0.0021489254667488265 0 0.0150799856352363 0.00069709838377411866 0 0.015065583934257887 0.00070922353439512465 0 0.015089372673686695 0.00071082826569902934 0 0.012990788065564252 -0.00072168229517516986 0 0.01295664960634229 -0.0007114772509207736 0 0.010607970078857039 -0.0021819082952117303 0 0.01060894269299398 -0.0021489254667488265 0 0.010562750150370958 -0.0021750924110218927 0 0.010665168228708954 -0.0021852535681551868 0 0.010607970078857039 -0.0021819082952117303 0 0.01060894269299398 -0.0021489254667488265 0 0.010502281693237314 -0.0020983563969428991 0 0.010569405818818005 -0.0021123926891896132 0 0.010560426164462634 -0.0021297647307109602 0 0.01060894269299398 -0.0021489254667488265 0 0.010640085296789602 -0.0021046364204300384 0 0.010569405818818005 -0.0021123926891896132 0 0.010595830573727308 -0.0020337692611708648 0 0.010640085296789602 -0.0021046364204300384 0 0.010569405818818005 -0.0021123926891896132 0 0.01060894269299398 -0.0021489254667488265 0 0.010569405818818005 -0.0021123926891896132 0 0.010560426164462634 -0.0021297647307109602 0 0.010514039714987929 -0.0020882533196044848 0 0.010425599621668771 -0.0024280299228211849 0 0.010266607076413409 -0.0022239023560297207 0 0.010023607706584791 -0.0024400880578544248 0 0.010351657780831351 -0.0025482286407964632 0 0.010023607706584791 -0.0024400880578544248 0 0.0099695335875246652 -0.002678123795615757 0 0.010351657780831351 -0.0025482286407964632 0 0.010117743023882181 -0.0027050495458669829 0 0.010342899508789414 -0.0019544384034538538 0 0.01060894269299398 -0.0021489254667488265 0 0.010560426164462634 -0.0021297647307109602 0 0.010562750150370958 -0.0021750924110218927 0 0.010425599621668771 -0.0024280299228211849 0 0.010342899508789414 -0.0019544384034538538 0 0.0099695335875246652 -0.002678123795615757 0 0.010351657780831351 -0.0025482286407964632 0 0.010204814405640071 -0.002961255298816857 0 0.010342899508789414 -0.0019544384034538538 0 0.011801975400892891 -0.00047030489071801551 0 0.010607970078857039 -0.0021819082952117303 0 0.010562750150370958 -0.0021750924110218927 0 0.010613539484789592 -0.0022125828065462246 0 0.009849858736406222 -0.0025367748189519656 0 0.0097799193476696775 -0.0026252223374786704 0 0.0097370120284365237 -0.0023720596101566042 0 0.010654409174289765 8.4595405079131438e-05 0 0.01076884081710981 -0.00051508104353635478 0 0.010358652832926763 -0.00083001840069563441 0 0.010654409174289765 8.4595405079131438e-05 0 0.01076884081710981 -0.00051508104353635478 0 0.011296484567474299 -0.00068401031395544842 0 0.010342899508789414 -0.0019544384034538538 0 0.010079223268046555 -0.0014813295107803889 0 0.01076884081710981 -0.00051508104353635478 0 0.010358652832926763 -0.00083001840069563441 0 0.010663740631652794 -0.0014090646303704113 0 0.01076884081710981 -0.00051508104353635478 0 0.010663740631652794 -0.0014090646303704113 0 0.011296484567474299 -0.00068401031395544842 0 0.010358652832926763 -0.00083001840069563441 0 0.010663740631652794 -0.0014090646303704113 0 0.0099886389176912452 -0.0019196879175568627 0 0.010663740631652794 -0.0014090646303704113 0 0.011477192582066005 -0.00073746490233590463 0 0.011464760697022052 -0.001503569187457907 0 0.010663740631652794 -0.0014090646303704113 0 0.011477192582066005 -0.00073746490233590463 0 0.01151904652565542 -0.00038247541054854325 0 0.010627515947629475 -0.0013973292565449495 0 0.011801975400892891 -0.00047030489071801551 0 0.011464760697022052 -0.001503569187457907 0 0.012030005757537009 -0.00099847460423701118 0 0.012906563404649848 -0.0020018226541787931 0 0.011477192582066005 -0.00073746490233590463 0 0.011464760697022052 -0.001503569187457907 0 0.012030005757537009 -0.00099847460423701118 0 0.011477192582066005 -0.00073746490233590463 0 0.012078944809284337 -0.0010325727623828947 0 0.01151904652565542 -0.00038247541054854325 0 0.013534761349016227 -7.7389557057436014e-05 0 0.011801975400892891 -0.00047030489071801551 0 0.011888307725529778 -0.0002120291970783741 0 0.013534761349016227 -7.7389557057436014e-05 0 0.015048488419351221 0.0006808798407531391 0 0.015022130738388033 0.00069373541581082177 0 0.015065831617215336 0.00070120511706090935 0 0.015065583934257887 0.00070922353439512465 0 0.015022130738388033 0.00069373541581082177 0 0.015065831617215336 0.00070120511706090935 0 0.010665168228708954 -0.0021852535681551868 0 0.010607970078857039 -0.0021819082952117303 0 0.010613539484789592 -0.0022125828065462246 0 0.01295664960634229 -0.0007114772509207736 0 0.011801975400892891 -0.00047030489071801551 0 0.015065583934257887 0.00070922353439512465 0 0.015089372673686695 0.00071082826569902934 0 0.015065831617215336 0.00070120511706090935 0 0.015089372673686695 0.00071082826569902934 0 0.015065831617215336 0.00070120511706090935 0 0.015093215798317006 0.00070278621796977412 0 0.015048488419351221 0.0006808798407531391 0 0.015093215798317006 0.00070278621796977412 0 0.015132190700163634 0.00068611129098607821 0 0.015048488419351221 0.0006808798407531391 0 0.015065831617215336 0.00070120511706090935 0 0.015093215798317006 0.00070278621796977412 0 0.013534761349016227 -7.7389557057436014e-05 0 0.016840339730917628 0.0014061629794040373 0 0.013534761349016227 -7.7389557057436014e-05 0 0.017130314911002299 0.0015737389978982381 0 0.015093215798317006 0.00070278621796977412 0 0.015126671956424639 0.00070932957192247311 0 0.015132190700163634 0.00068611129098607821 0 0.015093215798317006 0.00070278621796977412 0 0.015126671956424639 0.00070932957192247311 0 0.015116916438351521 0.00071430565714974894 0 0.015126671956424639 0.00070932957192247311 0 0.015156604597954653 0.0007169634191017206 0 0.015140911648757038 0.00071860389888174199 0 0.015126671956424639 0.00070932957192247311 0 0.015156604597954653 0.0007169634191017206 0 0.015132190700163634 0.00068611129098607821 0 0.015126671956424639 0.00070932957192247311 0 0.015140911648757038 0.00071860389888174199 0 0.015116916438351521 0.00071430565714974894 0 0.015134592830537823 0.00071954430036171458 0 0.015140911648757038 0.00071860389888174199 0 0.015116916438351521 0.00071430565714974894 0 0.015134592830537823 0.00071954430036171458 0 0.015122624434367309 0.00071695629861236892 0 0.015116916438351521 0.00071430565714974894 0 0.015089372673686695 0.00071082826569902934 0 0.015093215798317006 0.00070278621796977412 0 0.015116916438351521 0.00071430565714974894 0 0.015100383007254548 0.00071098484071423402 0 0.015089372673686695 0.00071082826569902934 0 0.015116916438351521 0.00071430565714974894 0 0.015110175874975961 0.00071285486569794753 0 0.015122624434367309 0.00071695629861236892 0 0.015100383007254548 0.00071098484071423402 0 0.015122624434367309 0.00071695629861236892 0 0.015100383007254548 0.00071098484071423402 0 0.015116916438351521 0.00071430565714974894 0 0.019878371229044754 0.0041126039564477312 0 0.019824391543221583 0.0042750525680824766 0 0.019568824315899357 0.0043554247143250367 0 0.019878371229044754 0.0041126039564477312 0 0.019937245964198581 0.0039145553871122894 0 0.019948047594584892 0.0040517428250675556 0 0.019878371229044754 0.0041126039564477312 0 0.019948047594584892 0.0040517428250675556 0 0.019987907497301227 0.0042324408861354572 0 0.020541905371177456 0.0048448311573029848 0 0.017130314911002299 0.0015737389978982381 0 0.019924901974389345 0.0042005104251021811 0 0.019878371229044754 0.0041126039564477312 0 0.019824391543221583 0.0042750525680824766 0 0.019973278057435182 0.004317039531646018 0 0.019824391543221583 0.0042750525680824766 0 0.019762988031219814 0.004399932415971146 0 0.017536344464608337 0.0025862710469982818 0 0.016840339730917628 0.0014061629794040373 0 0.019824391543221583 0.0042750525680824766 0 0.019762988031219814 0.004399932415971146 0 0.019568824315899357 0.0043554247143250367 0 0.015192153977509688 0.00073844606651727912 0 0.015156604597954653 0.0007169634191017206 0 0.015132190700163634 0.00068611129098607821 0 0.014716255494939953 0.0006979572536358425 0 0.016840339730917628 0.0014061629794040373 0 0.016840339730917628 0.0014061629794040373 0 0.017130314911002299 0.0015737389978982381 0 0.014888501294626126 0.0013714667181281923 0 0.016582355944066093 0.00052627991777703833 0 0.015723728996890805 0.00037560217609272433 0 0.019937245964198581 0.0039145553871122894 0 0.020019619143558636 0.0039862998793556694 0 0.019948047594584892 0.0040517428250675556 0 0.019948047594584892 0.0040517428250675556 0 0.020053549308707959 0.0040624192246818047 0 0.019987907497301227 0.0042324408861354572 0 0.020019619143558636 0.0039862998793556694 0 0.019948047594584892 0.0040517428250675556 0 0.020053549308707959 0.0040624192246818047 0 0.020117597450093349 0.0041534044447094865 0 0.020053549308707959 0.0040624192246818047 0 0.020233078904426417 0.004053713841518666 0 0.020053549308707959 0.0040624192246818047 0 0.020161781735775142 0.003901873878055634 0 0.020233078904426417 0.004053713841518666 0 0.020019619143558636 0.0039862998793556694 0 0.020053549308707959 0.0040624192246818047 0 0.020161781735775142 0.003901873878055634 0 0.020117597450093349 0.0041534044447094865 0 0.020233078904426417 0.004053713841518666 0 0.020255420275716775 0.004156537255932919 0 0.019937245964198581 0.0039145553871122894 0 0.020019619143558636 0.0039862998793556694 0 0.020161781735775142 0.003901873878055634 0 0.011464760697022052 -0.001503569187457907 0 0.012906563404649848 -0.0020018226541787931 0 0.01125551486324519 -0.0022516576017866069 0 0.017130314911002299 0.0015737389978982381 0 0.015557908052885216 0.00076185752775166421 0 0.01125551486324519 -0.0022516576017866069 0 0.0099886389176912452 -0.0019196879175568627 0 0.0099586127296145636 -0.002169945859706843 0 0.015557908052885216 0.00076185752775166421 0 0.015305840660152144 0.00090092425084281082 0 0.010663740631652794 -0.0014090646303704113 0 0.01125551486324519 -0.0022516576017866069 0 0.0099886389176912452 -0.0019196879175568627 0 0.010663740631652794 -0.0014090646303704113 0 0.011464760697022052 -0.001503569187457907 0 0.01125551486324519 -0.0022516576017866069 0 0.020233078904426417 0.004053713841518666 0 0.020394252166068872 0.0040988581103221363 0 0.02049953789083923 0.0039173085976613366 0 0.020161781735775142 0.003901873878055634 0 0.020233078904426417 0.004053713841518666 0 0.02049953789083923 0.0039173085976613366 0 0.020233078904426417 0.004053713841518666 0 0.020255420275716775 0.004156537255932919 0 0.020394252166068872 0.0040988581103221363 0 0.020343909528548716 0.004265156584456955 0 0.020251695033958978 0.0044068237828473224 0 0.020476501838566204 0.0043705074677003065 0 0.020394252166068872 0.0040988581103221363 0 0.020343909528548716 0.004265156584456955 0 0.020510672130216304 0.0042245906254697839 0 0.020255420275716775 0.004156537255932919 0 0.020394252166068872 0.0040988581103221363 0 0.020343909528548716 0.004265156584456955 0 0.020255420275716775 0.004156537255932919 0 0.020343909528548716 0.004265156584456955 0 0.02018237684778592 0.0042464433690587011 0 0.020343909528548716 0.004265156584456955 0 0.020251695033958978 0.0044068237828473224 0 0.02018237684778592 0.0042464433690587011 0 0.024276557316344788 0.0055170051010006056 0 0.025035825187622162 0.0062752689846561618 0 0.022798575897609655 0.005665181793550857 0 0.022633462592421872 0.005339321779811829 0 0.021738803016110749 0.0051030017085521876 0 0.024747081448020881 0.0050600271428529629 0 0.024276557316344788 0.0055170051010006056 0 0.02524613744188986 0.0057178636746741916 0 0.024276557316344788 0.0055170051010006056 0 0.02524613744188986 0.0057178636746741916 0 0.025035825187622162 0.0062752689846561618 0 0.024747081448020881 0.0050600271428529629 0 0.025545085133237926 0.0048598144199612451 0 0.02524613744188986 0.0057178636746741916 0 0.02524613744188986 0.0057178636746741916 0 0.025035825187622162 0.0062752689846561618 0 0.026082811460678156 0.0056176033323354375 0 0.026418330092565896 0.0047834765021784196 0 0.02524613744188986 0.0057178636746741916 0 0.026082811460678156 0.0056176033323354375 0 0.025035825187622162 0.0062752689846561618 0 0.026082811460678156 0.0056176033323354375 0 0.0266001657528168 0.0065885407142833386 0 0.020117597450093349 0.0041534044447094865 0 0.020053549308707959 0.0040624192246818047 0 0.019987907497301227 0.0042324408861354572 0 0.022633462592421872 0.005339321779811829 0 0.023289565973654613 0.0053926244510980673 0 0.020117597450093349 0.0041534044447094865 0 0.02018237684778592 0.0042464433690587011 0 0.019987907497301227 0.0042324408861354572 0 0.020251695033958978 0.0044068237828473224 0 0.02018237684778592 0.0042464433690587011 0 0.019987907497301227 0.0042324408861354572 0 0.020117597450093349 0.0041534044447094865 0 0.020255420275716775 0.004156537255932919 0 0.02018237684778592 0.0042464433690587011 0 0.0266001657528168 0.0065885407142833386 0 0.026880116115218282 0.0056413653923570563 0 0.027506494719599917 0.0063339081952848882 0 0.026082811460678156 0.0056176033323354375 0 0.0266001657528168 0.0065885407142833386 0 0.026880116115218282 0.0056413653923570563 0 0.026565301598141963 0.0052989553528964735 0 0.026082811460678156 0.0056176033323354375 0 0.026880116115218282 0.0056413653923570563 0 0.026876805144568323 0.005147024013688337 0 0.027348254678482588 0.0052843245540417057 0 0.026880116115218282 0.0056413653923570563 0 0.026565301598141963 0.0052989553528964735 0 0.026876805144568323 0.005147024013688337 0 0.026880116115218282 0.0056413653923570563 0 0.026880116115218282 0.0056413653923570563 0 0.027516393178188263 0.0057083788392265303 0 0.027506494719599917 0.0063339081952848882 0 0.027348254678482588 0.0052843245540417057 0 0.027516393178188263 0.0057083788392265303 0 0.027942720924616374 0.0054006298931015108 0 0.027348254678482588 0.0052843245540417057 0 0.026880116115218282 0.0056413653923570563 0 0.027516393178188263 0.0057083788392265303 0 0.028232558709237993 0.0056988047484218454 0 0.027942720924616374 0.0054006298931015108 0 0.027905376658173046 0.0058764038835093929 0 0.027516393178188263 0.0057083788392265303 0 0.027942720924616374 0.0054006298931015108 0 0.027905376658173046 0.0058764038835093929 0 0.028375369464006206 0.006156086044176951 0 0.027905376658173046 0.0058764038835093929 0 0.027506494719599917 0.0063339081952848882 0 0.027516393178188263 0.0057083788392265303 0 0.027905376658173046 0.0058764038835093929 0 0.027506494719599917 0.0063339081952848882 0 0.028119240938152046 0.0069821633566302744 0 0.0266001657528168 0.0065885407142833386 0 0.027506494719599917 0.0063339081952848882 0 0.028375369464006206 0.006156086044176951 0 0.028119240938152046 0.0069821633566302744 0 0.027506494719599917 0.0063339081952848882 0 0.019893087004673699 0.0041021624695241126 0 0.019878371229044754 0.0041126039564477312 0 0.019987907497301227 0.0042324408861354572 0 0.024017539327434591 0.0057157874205917463 0 0.023289565973654613 0.0053926244510980673 0 0.015508459042928463 0.0011405095339273596 0 0.015940041734173488 0.0013844408768205248 0 0.02090151634757265 0.0040202321004964604 0 0.020879924868986613 0.0043061246307344496 0 0.021091214368536441 0.0042918484382232945 0 0.02090151634757265 0.0040202321004964604 0 0.021177350029131747 0.0041696453613752982 0 0.021091214368536441 0.0042918484382232945 0 0.010198848139047881 -0.0021060471482356891 0 0.010609319492705016 -0.0020612659618314336 0 0.010698121755371161 -0.0013997275637489966 0 0.010609319492705016 -0.0020612659618314336 0 0.010698121755371161 -0.0013997275637489966 0 0.011075552784578125 -0.0018272372740839662 0 0.010038055389078159 -0.0021139996821370106 0 0.010198848139047881 -0.0021060471482356891 0 0.0101020607914877 -0.0017262598270157269 0 0.010198848139047881 -0.0021060471482356891 0 0.0101020607914877 -0.0017262598270157269 0 0.010698121755371161 -0.0013997275637489966 0 0.010038055389078159 -0.0021139996821370106 0 0.0101020607914877 -0.0017262598270157269 0 0.0099682610130933675 -0.002022302598934747 0 0.0101020607914877 -0.0017262598270157269 0 0.0099682610130933675 -0.002022302598934747 0 0.0099586127296145636 -0.002169945859706843 0 0.0099675930830878164 -0.0020875547800265253 0 0.010038055389078159 -0.0021139996821370106 0 0.0099682610130933675 -0.002022302598934747 0 0.0099675930830878164 -0.0020875547800265253 0 0.0099682610130933675 -0.002022302598934747 0 0.0099886389176912452 -0.0019196879175568627 0 0.0099682610130933675 -0.002022302598934747 0 0.0099886389176912452 -0.0019196879175568627 0 0.0099586127296145636 -0.002169945859706843 0 0.020394252166068872 0.0040988581103221363 0 0.02049953789083923 0.0039173085976613366 0 0.020524985237010976 0.0040796389374958778 0 0.02049953789083923 0.0039173085976613366 0 0.020524985237010976 0.0040796389374958778 0 0.020681244263115826 0.0041201873640564698 0 0.020524985237010976 0.0040796389374958778 0 0.020681244263115826 0.0041201873640564698 0 0.020510672130216304 0.0042245906254697839 0 0.020394252166068872 0.0040988581103221363 0 0.020524985237010976 0.0040796389374958778 0 0.020510672130216304 0.0042245906254697839 0 0.02090151634757265 0.0040202321004964604 0 0.02049953789083923 0.0039173085976613366 0 0.020681244263115826 0.0041201873640564698 0 0.02090151634757265 0.0040202321004964604 0 0.020681244263115826 0.0041201873640564698 0 0.020879924868986613 0.0043061246307344496 0 0.015508459042928463 0.0011405095339273596 0 0.015305840660152144 0.00090092425084281082 0 0.020681244263115826 0.0041201873640564698 0 0.020879924868986613 0.0043061246307344496 0 0.020673323025851769 0.0043578421169141127 0 0.020879924868986613 0.0043061246307344496 0 0.020673323025851769 0.0043578421169141127 0 0.020907916418024686 0.0044799352109510145 0 0.020879924868986613 0.0043061246307344496 0 0.020907916418024686 0.0044799352109510145 0 0.021117072355605067 0.0044754649707297173 0 0.020681244263115826 0.0041201873640564698 0 0.020510672130216304 0.0042245906254697839 0 0.020673323025851769 0.0043578421169141127 0 0.020343909528548716 0.004265156584456955 0 0.020510672130216304 0.0042245906254697839 0 0.020476501838566204 0.0043705074677003065 0 0.020510672130216304 0.0042245906254697839 0 0.020673323025851769 0.0043578421169141127 0 0.020476501838566204 0.0043705074677003065 0 0.023697366777421621 0.0050237778540083199 0 0.024276557316344788 0.0055170051010006056 0 0.022798575897609655 0.005665181793550857 0 0.020251695033958978 0.0044068237828473224 0 0.020476501838566204 0.0043705074677003065 0 0.020629958578217578 0.0045986681429192166 0 0.020673323025851769 0.0043578421169141127 0 0.020476501838566204 0.0043705074677003065 0 0.020629958578217578 0.0045986681429192166 0 0.021270666755049249 0.0047867728634384491 0 0.021738803016110749 0.0051030017085521876 0 0.021238844151741831 0.0047217426633456372 0 0.020629958578217578 0.0045986681429192166 0 0.020907916418024686 0.0044799352109510145 0 0.020673323025851769 0.0043578421169141127 0 0.020629958578217578 0.0045986681429192166 0 0.020907916418024686 0.0044799352109510145 0 0.021238844151741831 0.0047217426633456372 0 0.021117072355605067 0.0044754649707297173 0 0.021231959179375301 0.004582666403975348 0 0.021238844151741831 0.0047217426633456372 0 0.020907916418024686 0.0044799352109510145 0 0.021117072355605067 0.0044754649707297173 0 0.021117072355605067 0.0044754649707297173 0 0.021091214368536441 0.0042918484382232945 0 0.021225767046773984 0.0044321638124785439 0 0.020879924868986613 0.0043061246307344496 0 0.021117072355605067 0.0044754649707297173 0 0.021091214368536441 0.0042918484382232945 0 0.021177350029131747 0.0041696453613752982 0 0.021091214368536441 0.0042918484382232945 0 0.021225767046773984 0.0044321638124785439 0 0.021258334047934542 0.0045360578140878609 0 0.021225767046773984 0.0044321638124785439 0 0.021231959179375301 0.004582666403975348 0 0.021117072355605067 0.0044754649707297173 0 0.021225767046773984 0.0044321638124785439 0 0.021231959179375301 0.004582666403975348 0 0.021258334047934542 0.0045360578140878609 0 0.021345648441325145 0.004507442791000002 0 0.021297986254146879 0.0043775151554359898 0 0.021258334047934542 0.0045360578140878609 0 0.021225767046773984 0.0044321638124785439 0 0.021297986254146879 0.0043775151554359898 0 0.021345648441325145 0.004507442791000002 0 0.021387764047760518 0.0044049430844392504 0 0.021297986254146879 0.0043775151554359898 0 0.021364607225057741 0.0038458459616990521 0 0.016407856787275136 0.0014319040137955625 0 0.020155154651192626 0.0024224815092810633 0 0.019545862336400356 0.0012822076400817726 0 0.02097698556299785 0.0015337819693930054 0 0.021387764047760518 0.0044049430844392504 0 0.021297986254146879 0.0043775151554359898 0 0.021311372785460313 0.0042326968151279029 0 0.021177350029131747 0.0041696453613752982 0 0.021225767046773984 0.0044321638124785439 0 0.021297986254146879 0.0043775151554359898 0 0.021177350029131747 0.0041696453613752982 0 0.021297986254146879 0.0043775151554359898 0 0.021311372785460313 0.0042326968151279029 0 0.016407856787275136 0.0014319040137955625 0 0.0098618980303018054 -0.0026103154559611133 0 0.010698121755371161 -0.0013997275637489966 0 0.011456284207187233 -0.001198424794214635 0 0.011075552784578125 -0.0018272372740839662 0 0.015940041734173488 0.0013844408768205248 0 0.016407856787275136 0.0014319040137955625 0 0.01212975483044889 0.0011502125601757678 0 0.014201470656571376 -0.00019568221780204002 0 0.012546032946689259 -0.0013499816656653747 0 0.014201470656571376 -0.00019568221780204002 0 0.012546032946689259 -0.0013499816656653747 0 0.013371993213259149 -0.0019193953182387281 0 0.012546032946689259 -0.0013499816656653747 0 0.013371993213259149 -0.0019193953182387281 0 0.012961829946798613 -0.0022437682550354209 0 0.013371993213259149 -0.0019193953182387281 0 0.012961829946798613 -0.0022437682550354209 0 0.013346241491077592 -0.0024306822590516399 0 0.012546032946689259 -0.0013499816656653747 0 0.012961829946798613 -0.0022437682550354209 0 0.011995639698754971 -0.0020233922595950288 0 0.01212975483044889 0.0011502125601757678 0 0.012546032946689259 -0.0013499816656653747 0 0.011075552784578125 -0.0018272372740839662 0 0.012546032946689259 -0.0013499816656653747 0 0.011995639698754971 -0.0020233922595950288 0 0.011075552784578125 -0.0018272372740839662 0 0.017871326837985275 -0.0032161461119667475 0 0.016259663066226525 -0.0006351711304928133 0 0.019684127773301769 -0.00039435674772537581 0 0.017871326837985275 -0.0032161461119667475 0 0.019684127773301769 -0.00039435674772537581 0 0.021318765016281747 -0.0018563762767649589 0 0.013632999473252033 -0.0019988333055675671 0 0.015942552237087397 -0.0027675728331288331 0 0.013371993213259149 -0.0019193953182387281 0 0.017871326837985275 -0.0032161461119667475 0 0.016259663066226525 -0.0006351711304928133 0 0.013371993213259149 -0.0019193953182387281 0 0.014417753185304446 -0.002208160012771992 0 0.013777037780233708 -0.0025590851410947179 0 0.014201470656571376 -0.00019568221780204002 0 0.013371993213259149 -0.0019193953182387281 0 0.016259663066226525 -0.0006351711304928133 0 0.014201470656571376 -0.00019568221780204002 0 0.016259663066226525 -0.0006351711304928133 0 0.016947045310824839 0.0019913062914551343 0 0.016407856787275136 0.0014319040137955625 0 0.018841311423989534 0.0016647607665799865 0 0.01212975483044889 0.0011502125601757678 0 0.014201470656571376 -0.00019568221780204002 0 0.016947045310824839 0.0019913062914551343 0 0.019684127773301769 -0.00039435674772537581 0 0.016947045310824839 0.0019913062914551343 0 0.022083039682898001 0.0017070606605158456 0 0.016259663066226525 -0.0006351711304928133 0 0.019684127773301769 -0.00039435674772537581 0 0.016947045310824839 0.0019913062914551343 0 0.02097698556299785 0.0015337819693930054 0 0.021538519299726982 0.0026637228588331403 0 0.022083039682898001 0.0017070606605158456 0 0.018841311423989534 0.0016647607665799865 0 0.021921246955323721 0.0017907206321760285 0 0.020155154651192626 0.0024224815092810633 0 0.02097698556299785 0.0015337819693930054 0 0.021538519299726982 0.0026637228588331403 0 0.021029268274982388 0.003961983072926444 0 0.021364607225057741 0.0038458459616990521 0 0.020767895394028853 0.003608820596977055 0 0.020155154651192626 0.0024224815092810633 0 0.021538519299726982 0.0026637228588331403 0 0.021538519299726982 0.0026637228588331403 0 0.022837889581224392 0.0026283572357303233 0 0.022083039682898001 0.0017070606605158456 0 0.022537115029743624 0.0035421997575926173 0 0.021538519299726982 0.0026637228588331403 0 0.022837889581224392 0.0026283572357303233 0 0.022083039682898001 0.0017070606605158456 0 0.02407280551148613 0.001965257702101542 0 0.023757392015791398 0.00050937621060350856 0 0.022837889581224392 0.0026283572357303233 0 0.022083039682898001 0.0017070606605158456 0 0.02407280551148613 0.001965257702101542 0 0.026378402850355441 0.0024302731828525206 0 0.025770498565652541 0.0027650446224782846 0 0.025615266592214043 0.0019880067332881061 0 0.024651346249143922 0.0029829716063117973 0 0.025770498565652541 0.0027650446224782846 0 0.025615266592214043 0.0019880067332881061 0 0.024651346249143922 0.0029829716063117973 0 0.022837889581224392 0.0026283572357303233 0 0.02407280551148613 0.001965257702101542 0 0.024651346249143922 0.0029829716063117973 0 0.025615266592214043 0.0019880067332881061 0 0.02407280551148613 0.001965257702101542 0 0.025615266592214043 0.0019880067332881061 0 0.025030490077387467 0.00087830676376566023 0 0.02407280551148613 0.001965257702101542 0 0.025030490077387467 0.00087830676376566023 0 0.02407280551148613 0.001965257702101542 0 0.023757392015791398 0.00050937621060350856 0 0.026409840683035164 0.00094336031516879164 0 0.025615266592214043 0.0019880067332881061 0 0.025030490077387467 0.00087830676376566023 0 0.027243690855925286 0.00035928341411632544 0 0.025004669019909411 0.00094579378858281721 0 0.027126387330182272 0.0010213435529809348 0 0.025030490077387467 0.00087830676376566023 0 0.025266812922573392 -0.00057755680339376103 0 0.027126387330182272 0.0010213435529809348 0 0.025266812922573392 -0.00057755680339376103 0 0.026640793964801519 -0.0013418314547361146 0 0.025030490077387467 0.00087830676376566023 0 0.025266812922573392 -0.00057755680339376103 0 0.023757392015791398 0.00050937621060350856 0 0.025266812922573392 -0.00057755680339376103 0 0.02392723030608428 -0.0013762967692902879 0 0.023757392015791398 0.00050937621060350856 0 0.025266812922573392 -0.00057755680339376103 0 0.02392723030608428 -0.0013762967692902879 0 0.025313567064180961 -0.0023141267876655761 0 0.02392723030608428 -0.0013762967692902879 0 0.025313567064180961 -0.0023141267876655761 0 0.023984022421773925 -0.0033498135979353194 0 0.025266812922573392 -0.00057755680339376103 0 0.025313567064180961 -0.0023141267876655761 0 0.026640793964801519 -0.0013418314547361146 0 0.019684127773301769 -0.00039435674772537581 0 0.022083039682898001 0.0017070606605158456 0 0.022379103559822689 -0.00052437159078162819 0 0.022083039682898001 0.0017070606605158456 0 0.023757392015791398 0.00050937621060350856 0 0.022379103559822689 -0.00052437159078162819 0 0.02392723030608428 -0.0013762967692902879 0 0.023757392015791398 0.00050937621060350856 0 0.022379103559822689 -0.00052437159078162819 0 0.02392723030608428 -0.0013762967692902879 0 0.022807537486706293 -0.0020489791006989264 0 0.023984022421773925 -0.0033498135979353194 0 0.022379103559822689 -0.00052437159078162819 0 0.022807537486706293 -0.0020489791006989264 0 0.021318765016281747 -0.0018563762767649589 0 0.02392723030608428 -0.0013762967692902879 0 0.022379103559822689 -0.00052437159078162819 0 0.022807537486706293 -0.0020489791006989264 0 0.017871326837985275 -0.0032161461119667475 0 0.021318765016281747 -0.0018563762767649589 0 0.021809049219294677 -0.0039259614899254868 0 0.022807537486706293 -0.0020489791006989264 0 0.021318765016281747 -0.0018563762767649589 0 0.021723521494696182 -0.0030207292926897615 0 0.021137077030907642 -0.0026361274672891915 0 0.019655794326579542 -0.0020130926976798177 0 0.019684127773301769 -0.00039435674772537581 0 0.022379103559822689 -0.00052437159078162819 0 0.021318765016281747 -0.0018563762767649589 0 0.015942552237087397 -0.0027675728331288331 0 0.019655794326579542 -0.0020130926976798177 0 0.015699369118710775 -0.0024445280918229716 0 0.015265117113880003 -0.0032238671103042497 0 0.014750232148693037 -0.0028752981912411866 0 0.022807537486706293 -0.0020489791006989264 0 0.021723521494696182 -0.0030207292926897615 0 0.023984022421773925 -0.0033498135979353194 0 0.019655794326579542 -0.0020130926976798177 0 0.022138963401845457 -0.0019576422514099388 0 0.019583032820060776 -0.0002512457261530886 0 0.020136194934527146 -0.0010048360644495603 0 0.020555765834106749 -0.00043288094965863744 0 0.020136194934527146 -0.0010048360644495603 0 0.019826206056555433 -0.0013103794533906978 0 0.0205498927708311 -0.001588287039383783 0 0.019583032820060776 -0.0002512457261530886 0 0.020136194934527146 -0.0010048360644495603 0 0.01983212216087216 -0.0013180786132666762 0 0.019826252200844819 -0.0006969724108357694 0 0.017645701275690387 -0.0021406002128928443 0 0.015998288748072024 -0.0037165766714195407 0 0.015085977664882563 -0.0038131689957529489 0 0.015265117113880003 -0.0032238671103042497 0 0.019655794326579542 -0.0020130926976798177 0 0.017645701275690387 -0.0021406002128928443 0 0.015699369118710775 -0.0024445280918229716 0 0.015998288748072024 -0.0037165766714195407 0 0.015265117113880003 -0.0032238671103042497 0 0.028353583359581467 0.00036993875213458811 0 0.028355076322742041 0.00033427946121977048 0 0.028355304695193997 0.00038323023749281554 0 0.027699696621876192 -0.00058391446777702463 0 0.025627863793776899 -0.00071165829527514244 0 0.025313567064180961 -0.0023141267876655761 0 0.026640793964801519 -0.0013418314547361146 0 0.026128943136224565 -0.003729820914278622 0 0.028353583359581467 0.00036993875213458811 0 0.02834147311326201 0.0003974802005626654 0 0.028355304695193997 0.00038323023749281554 0 0.027551802398223198 -0.00059545449083315389 0 0.025627863793776899 -0.00071165829527514244 0 0.025313567064180961 -0.0023141267876655761 0 0.026128943136224565 -0.003729820914278622 0 0.023984022421773925 -0.0033498135979353194 0 0.025627863793776899 -0.00071165829527514244 0 0.022138963401845457 -0.0019576422514099388 0 0.021561290359424081 -0.00062277652578534269 0 0.020555765834106749 -0.00043288094965863744 0 0.020823554263073293 -0.0010462966493224408 0 0.020823554263073293 -0.0010462966493224408 0 0.021340265964836701 -0.0014814622204713285 0 0.0205498927708311 -0.001588287039383783 0 0.020136194934527146 -0.0010048360644495603 0 0.020555765834106749 -0.00043288094965863744 0 0.020823554263073293 -0.0010462966493224408 0 0.020136194934527146 -0.0010048360644495603 0 0.020823554263073293 -0.0010462966493224408 0 0.0205498927708311 -0.001588287039383783 0 0.02834147311326201 0.0003974802005626654 0 0.028327944501727549 0.00039854878161953768 0 0.028280795117423083 0.00043183213643851527 0 0.028333314257410876 0.00043445379908107405 0 0.02834147311326201 0.0003974802005626654 0 0.028280795117423083 0.00043183213643851527 0 0.021561290359424081 -0.00062277652578534269 0 0.020823554263073293 -0.0010462966493224408 0 0.021340265964836701 -0.0014814622204713285 0 0.025627863793776899 -0.00071165829527514244 0 0.024984073792459982 -0.00037078026102262428 0 0.024984073792459982 -0.00037078026102262428 0 0.020150187602228274 -0.00059926177342018534 0 0.02831026252286923 0.0004808170103844803 0 0.028280795117423083 0.00043183213643851527 0 0.02820119138141141 0.00040491642981416035 0 0.021340265964836701 -0.0014814622204713285 0 0.0205498927708311 -0.001588287039383783 0 0.021122035802978952 -0.0023338373974869427 0 0.0205498927708311 -0.001588287039383783 0 0.021122035802978952 -0.0023338373974869427 0 0.020060870363869211 -0.002356492249679331 0 0.014479439632571575 8.9655615581249733e-05 0 0.014950596418746374 0.00048265060158722941 0 0.014055637852477508 0.00045810966312928131 0 0.020150187602228274 -0.00059926177342018534 0 0.015788468360375351 -0.0011489703348659854 0 0.022522041574145626 0.00017684516599377471 0 0.020150187602228274 -0.00059926177342018534 0 0.015677981459998387 -0.00031801025266710623 0 0.016671486544859844 0.00041139573039080621 0 0.01692392095490055 -0.00022227217740514396 0 0.015998288748072024 -0.0037165766714195407 0 0.015085977664882563 -0.0038131689957529489 0 0.015365968425184789 -0.0043612142160193296 0 0.015008598862552786 -0.0033750039856765574 0 0.013484352216230063 -0.0020636284698689576 0 0.017645701275690387 -0.0021406002128928443 0 0.015008598862552786 -0.0033750039856765574 0 0.015667308254801272 -0.0013823901201654167 0 0.015109003155806809 -0.0019473300118365254 0 0.015926458937858774 -0.0024801845124410773 0 0.017645701275690387 -0.0021406002128928443 0 0.015788468360375351 -0.0011489703348659854 0 0.019826206056555433 -0.0013103794533906978 0 0.0205498927708311 -0.001588287039383783 0 0.020060870363869211 -0.002356492249679331 0 0.014197030749743447 -0.00033493988410688663 0 0.014479439632571575 8.9655615581249733e-05 0 0.014055637852477508 0.00045810966312928131 0 0.013824109541892017 0.00044327399714329284 0 0.015788468360375351 -0.0011489703348659854 0 0.015788468360375351 -0.0011489703348659854 0 0.013484352216230063 -0.0020636284698689576 0 0.013553335390261658 -7.6214954011493894e-05 0 0.013984977234991093 0.00053464418930973361 0 0.012755385105497263 0.00050594150450414222 0 0.015109003155806809 -0.0019473300118365254 0 0.015926458937858774 -0.0024801845124410773 0 0.014552019368714928 -0.0025143122250406631 0 0.013484352216230063 -0.0020636284698689576 0 0.011158514290279475 -0.0037280075795872976 0 0.01473091235456871 -0.0050053003868210837 0 0.014404688342709568 -0.0042434466844890892 0 0.013697577291983233 -0.005036258387828966 0 0.011247541618806568 -0.0028560043075176924 0 0.011785509524202932 -0.0023045415747485138 0 0.010678085865731511 -0.0023383679861459835 0 0.0088808307943942771 -0.0011882156283662074 0 0.013484352216230063 -0.0020636284698689576 0 0.015085977664882563 -0.0038131689957529489 0 0.015365968425184789 -0.0043612142160193296 0 0.014404688342709568 -0.0042434466844890892 0 0.015365968425184789 -0.0043612142160193296 0 0.01473091235456871 -0.0050053003868210837 0 0.014404688342709568 -0.0042434466844890892 0 0.015085977664882563 -0.0038131689957529489 0 0.014404688342709568 -0.0042434466844890892 0 0.014481520421858473 -0.0036582183228525602 0 0.014404688342709568 -0.0042434466844890892 0 0.013615239870027336 -0.0041528465331389696 0 0.013697577291983233 -0.005036258387828966 0 0.013615239870027336 -0.0041528465331389696 0 0.013697577291983233 -0.005036258387828966 0 0.013226959316849019 -0.0040639326916723003 0 0.013615239870027336 -0.0041528465331389696 0 0.013226959316849019 -0.0040639326916723003 0 0.01335635618566914 -0.00370181867333659 0 0.014404688342709568 -0.0042434466844890892 0 0.013615239870027336 -0.0041528465331389696 0 0.013900882899175812 -0.0036847959295745695 0 0.0064557147933365774 -0.0026666329473798577 0 0.0061135879804128249 -0.0027129967128445877 0 0.0063005456293092343 -0.0028902660403408342 0 0.0088808307943942771 -0.0011882156283662074 0 0.011158514290279475 -0.0037280075795872976 0 0.012984119477244227 -0.0044691985012476508 0 0.012541317075609961 -0.0044850522894288999 0 0.012561716418835529 -0.0042495691233750852 0 0.0064557147933365774 -0.0026666329473798577 0 0.0063005456293092343 -0.0028902660403408342 0 0.0066514638067462165 -0.0029104829637200836 0 0.011158514290279475 -0.0037280075795872976 0 0.009279960870024636 -0.003710896879931134 0 0.012541317075609961 -0.0044850522894288999 0 0.012273017441500698 -0.0042518726668493451 0 0.012561716418835529 -0.0042495691233750852 0 0.009279960870024636 -0.003710896879931134 0 0.009764673591321155 -0.003577433435737117 0 0.012541317075609961 -0.0044850522894288999 0 0.011972191648224637 -0.0045464619463283845 0 0.012273017441500698 -0.0042518726668493451 0 0.0068036998206894815 -0.0025625064516108065 0 0.0066514638067462165 -0.0029104829637200836 0 0.0070565529405320999 -0.0029441576566803097 0 0.010022863085215552 -0.0029341019084561611 0 0.010395236783502402 -0.0028866410881736686 0 0.01097346855533902 -0.0029389876553150124 0 0.009764673591321155 -0.003577433435737117 0 0.011944129811008588 -0.0032347269858633595 0 0.011972191648224637 -0.0045464619463283845 0 0.012273017441500698 -0.0042518726668493451 0 0.012379383113895952 -0.0036845329258193378 0 0.012273017441500698 -0.0042518726668493451 0 0.01244214780700939 -0.0040636981082741649 0 0.012379383113895952 -0.0036845329258193378 0 0.010091065233902919 -0.0028641476663622775 0 0.010022863085215552 -0.0029341019084561611 0 0.010395236783502402 -0.0028866410881736686 0 0.012273017441500698 -0.0042518726668493451 0 0.01244214780700939 -0.0040636981082741649 0 0.012561716418835529 -0.0042495691233750852 0 0.01244214780700939 -0.0040636981082741649 0 0.012523574516510186 -0.0039358630597627698 0 0.012379383113895952 -0.0036845329258193378 0 0.010585500303683305 -0.0028666832886829062 0 0.010395236783502402 -0.0028866410881736686 0 0.01097346855533902 -0.0029389876553150124 0 0.010305094749132045 -0.0028336037439468573 0 0.010585500303683305 -0.0028666832886829062 0 0.010519456047028043 -0.0027966041349025456 0 0.010305094749132045 -0.0028336037439468573 0 0.010585500303683305 -0.0028666832886829062 0 0.010395236783502402 -0.0028866410881736686 0 0.011158514290279475 -0.0037280075795872976 0 0.013427156325264287 -0.0045044240837863112 0 0.012984119477244227 -0.0044691985012476508 0 0.012561716418835529 -0.0042495691233750852 0 0.012523574516510186 -0.0039358630597627698 0 0.013697577291983233 -0.005036258387828966 0 0.012523574516510186 -0.0039358630597627698 0 0.013226959316849019 -0.0040639326916723003 0 0.01244214780700939 -0.0040636981082741649 0 0.012561716418835529 -0.0042495691233750852 0 0.012523574516510186 -0.0039358630597627698 0 0.013226959316849019 -0.0040639326916723003 0 0.012978925847955449 -0.003557768086714359 0 0.01335635618566914 -0.00370181867333659 0 0.012978925847955449 -0.003557768086714359 0 0.01335635618566914 -0.00370181867333659 0 0.013490637173055013 -0.0032493386196273876 0 0.012523574516510186 -0.0039358630597627698 0 0.013226959316849019 -0.0040639326916723003 0 0.012978925847955449 -0.003557768086714359 0 0.012523574516510186 -0.0039358630597627698 0 0.012978925847955449 -0.003557768086714359 0 0.012379383113895952 -0.0036845329258193378 0 0.012978925847955449 -0.003557768086714359 0 0.012379383113895952 -0.0036845329258193378 0 0.013156791950620545 -0.0029661917465805439 0 0.012978925847955449 -0.003557768086714359 0 0.013156791950620545 -0.0029661917465805439 0 0.013490637173055013 -0.0032493386196273876 0 0.01097346855533902 -0.0029389876553150124 0 0.010933017655650492 -0.0026838144236561211 0 0.011515230763830785 -0.0024836301986776257 0 0.010519456047028043 -0.0027966041349025456 0 0.010723410988247454 -0.0028174741885352308 0 0.010639773451006402 -0.0027281901118139905 0 0.010585500303683305 -0.0028666832886829062 0 0.010519456047028043 -0.0027966041349025456 0 0.010723410988247454 -0.0028174741885352308 0 0.010585500303683305 -0.0028666832886829062 0 0.010723410988247454 -0.0028174741885352308 0 0.01097346855533902 -0.0029389876553150124 0 0.010723410988247454 -0.0028174741885352308 0 0.01097346855533902 -0.0029389876553150124 0 0.010933017655650492 -0.0026838144236561211 0 0.010577178071435956 -0.0024724148764294629 0 0.010933017655650492 -0.0026838144236561211 0 0.010639773451006402 -0.0027281901118139905 0 0.010723410988247454 -0.0028174741885352308 0 0.010933017655650492 -0.0026838144236561211 0 0.010639773451006402 -0.0027281901118139905 0 0.010577178071435956 -0.0024724148764294629 0 0.010933017655650492 -0.0026838144236561211 0 0.010913770597947738 -0.0023125725963569444 0 0.010933017655650492 -0.0026838144236561211 0 0.011515230763830785 -0.0024836301986776257 0 0.010913770597947738 -0.0023125725963569444 0 0.011995639698754971 -0.0020233922595950288 0 0.011075552784578125 -0.0018272372740839662 0 0.011515230763830785 -0.0024836301986776257 0 0.011075552784578125 -0.0018272372740839662 0 0.011515230763830785 -0.0024836301986776257 0 0.010913770597947738 -0.0023125725963569444 0 0.010609319492705016 -0.0020612659618314336 0 0.011075552784578125 -0.0018272372740839662 0 0.010913770597947738 -0.0023125725963569444 0 0.012961829946798613 -0.0022437682550354209 0 0.012379383113895952 -0.0036845329258193378 0 0.013156791950620545 -0.0029661917465805439 0 0.012793976380992897 -0.0022160655524112575 0 0.011944129811008588 -0.0032347269858633595 0 0.012961829946798613 -0.0022437682550354209 0 0.01097346855533902 -0.0029389876553150124 0 0.011515230763830785 -0.0024836301986776257 0 0.012961829946798613 -0.0022437682550354209 0 0.011995639698754971 -0.0020233922595950288 0 0.011515230763830785 -0.0024836301986776257 0 0.012961829946798613 -0.0022437682550354209 0 0.013156791950620545 -0.0029661917465805439 0 0.013346241491077592 -0.0024306822590516399 0 0.013156791950620545 -0.0029661917465805439 0 0.013346241491077592 -0.0024306822590516399 0 0.013777037780233708 -0.0025590851410947179 0 0.013371993213259149 -0.0019193953182387281 0 0.013346241491077592 -0.0024306822590516399 0 0.013777037780233708 -0.0025590851410947179 0 0.014417753185304446 -0.002208160012771992 0 0.013777037780233708 -0.0025590851410947179 0 0.014095365324236933 -0.003122990666708438 0 0.013156791950620545 -0.0029661917465805439 0 0.013777037780233708 -0.0025590851410947179 0 0.013490637173055013 -0.0032493386196273876 0 0.013777037780233708 -0.0025590851410947179 0 0.013490637173055013 -0.0032493386196273876 0 0.014095365324236933 -0.003122990666708438 0 0.014417753185304446 -0.002208160012771992 0 0.015699369118710775 -0.0024445280918229716 0 0.014750232148693037 -0.0028752981912411866 0 0.014417753185304446 -0.002208160012771992 0 0.014750232148693037 -0.0028752981912411866 0 0.014095365324236933 -0.003122990666708438 0 0.014750232148693037 -0.0028752981912411866 0 0.014481520421858473 -0.0036582183228525602 0 0.014095365324236933 -0.003122990666708438 0 0.015265117113880003 -0.0032238671103042497 0 0.014750232148693037 -0.0028752981912411866 0 0.014481520421858473 -0.0036582183228525602 0 0.015085977664882563 -0.0038131689957529489 0 0.015265117113880003 -0.0032238671103042497 0 0.014481520421858473 -0.0036582183228525602 0 0.014404688342709568 -0.0042434466844890892 0 0.014481520421858473 -0.0036582183228525602 0 0.013900882899175812 -0.0036847959295745695 0 0.014481520421858473 -0.0036582183228525602 0 0.013900882899175812 -0.0036847959295745695 0 0.014095365324236933 -0.003122990666708438 0 0.013900882899175812 -0.0036847959295745695 0 0.01335635618566914 -0.00370181867333659 0 0.013490637173055013 -0.0032493386196273876 0 0.013615239870027336 -0.0041528465331389696 0 0.013900882899175812 -0.0036847959295745695 0 0.01335635618566914 -0.00370181867333659 0 0.013900882899175812 -0.0036847959295745695 0 0.013490637173055013 -0.0032493386196273876 0 0.014095365324236933 -0.003122990666708438 0 
</DataArray>
</PointData>
<CellData Scalars="region_id,cross_section_updated," Vectors="" Tensors="stress,">
<DataArray type="Float64" Name="region_id" format="ascii">
5 5 5 5 5 5 6 5 5 5 6 5 5 5 6 5 5 5 5 5 5 6 6 5 5 5 5 6 6 5 6 6 5 6 5 5 5 6 5 5 6 5 5 5 5 5 5 5 6 5 5 5 5 5 5 5 5 6 5 5 6 5 6 5 6 5 6 5 5 5 5 5 5 5 5 5 5 5 5 5 5 5 5 6 5 5 5 5 5 5 5 5 6 5 5 6 6 5 5 5 5 5 5 5 5 5 5 5 5 6 5 5 5 5 5 6 5 5 6 5 5 5 5 5 5 5 5 5 5 5 5 5 5 5 5 5 5 5 6 5 5 5 5 5 6 5 5 5 5 5 5 5 5 5 5 5 5 5 5 5 5 5 5 5 5 5 5 5 5 6 5 6 5 5 5 6 5 5 5 6 5 5 5 6 6 5 5 6 5 5 5 5 6 5 5 5 5 5 6 5 5 5 5 6 5 6 5 5 6 5 5 5 6 5 5 6 5 5 5 5 5 5 5 5 5 5 6 5 5 6 5 5 5 5 5 5 5 6 5 5 5 5 5 5 5 5 5 5 5 5 5 5 5 5 5 5 5 5 5 6 5 6 5 5 5 5 5 6 5 5 5 5 5 5 5 5 6 5 5 5 6 5 5 6 5 5 5 5 6 5 5 6 5 5 5 5 5 6 5 6 5 5 5 5 5 5 5 5 5 5 5 5 5 5 5 5 5 5 6 5 5 5 5 5 6 6 5 5 5 5 5 5 5 5 5 5 6 5 5 5 5 5 5 5 5 5 6 5 5 6 6 5 5 5 6 5 5 6 5 5 5 5 5 5 5 5 5 5 5 5 5 5 5 6 5 5 5 5 5 5 5 5 6 5 5 6 5 5 5 5 6 5 5 5 5 5 5 5 5 5 5 5 5 5 5 6 6 5 5 6 6 5 6 5 6 5 6 5 5 6 5 5 5 5 5 5 5 5 5 6 6 5 5 6 5 5 5 5 5 6 5 5 6 5 5 5 5 6 5 5 5 6 5 5 5 6 5 6 5 5 6 5 5 5 5 5 5 5 5 5 5 5 6 5 5 5 5 5 5 6 5 5 5 6 5 5 5 5 5 5 5 6 5 5 5 5 5 6 5 6 5 5 5 5 5 6 6 5 5 5 6 6 5 6 5 5 5 5 5 5 5 6 5 5 5 5 5 5 5 5 5 5 5 5 5 5 6 5 5 6 5 6 5 5 5 5 5 5 5 5 5 5 5 5 5 5 6 5 5 5 5 5 5 5 5 5 5 5 5 5 5 5 5 6 5 5 5 5 5 5 5 5 5 5 5 6 6 5 5 5 5 5 5 5 5 5 5 5 5 5 5 5 5 6 5 5 5 5 5 5 5 6 5 5 5 5 5 5 5 5 6 5 5 5 6 5 5 5 5 5 5 5 5 5 5 5 5 5 5 5 5 5 5 5 5 5 5 5 5 5 5 5 5 6 5 6 5 5 5 5 5 5 5 5 5 5 5 5 5 6 5 5 5 6 5 5 5 5 5 5 5 5 5 5 5 5 5 6 6 5 5 5 5 5 5 5 6 5 5 5 5 5 5 5 5 5 5 5 6 5 5 5 5 5 5 5 6 5 5 5 5 5 5 5 5 5 5 5 5 5 5 5 5 5 6 5 5 5 5 5 5 5 5 5 5 6 5 5 5 5 5 6 5 5 5 6 5 5 5 5 6 5 5 5 5 5 5 5 6 5 6 5 5 6 5 6 5 5 5 5 5 5 5 5 5 5 5 5 5 5 5 5 5 5 5 5 5 5 5 5 5 5 5 5 5 5 5 5 5 5 5 6 5 6 6 5 5 5 5 5 5 5 5 5 5 5 6 5 5 5 5 5 5 5 6 5 6 5 6 5 5 5 5 5 5 6 5 6 6 5 5 5 5 5 5 5 5 5 5 5 5 5 5 5 5 5 6 5 5 5 5 5 5 5 5 5 5 5 5 5 5 6 5 5 5 5 5 5 5 5 5 5 5 5 5 6 5 5 5 5 5 5 5 5 5 6 5 5 5 5 5 6 6 5 5 5 5 6 6 5 5 5 5 5 5 5 5 5 5 5 6 5 5 5 5 6 5 5 5 5 5 5 6 5 5 6 5 6 5 5 5 6 5 5 5 5 5 5 5 6 5 5 5 5 6 6 5 5 6 5 5 5 6 6 6 6 5 5 6 5 5 5 5 5 5 5 5 6 6 5 5 5 5 5 5 6 5 6 5 5 5 6 5 5 5 5 5 5 5 5 5 5 5 5 5 5 5 5 5 5 5 5 5 5 5 5 5 5 5 5 6 5 5 5 5 5 5 5 5 5 5 5 5 5 5 5 5 5 5 5 5 5 6 5 5 5 5 5 5 5 5 5 6 5 5 5 5 5 5 6 5 5 5 5 5 6 5 5 5 5 5 6 5 5 5 5 5 5 5 5 5 5 6 5 5 5 5 6 6 5 5 6 5 5 5 5 6 5 5 6 5 5 5 5 5 6 6 5 5 5 5 5 5 6 5 5 5 5 5 5 5 6 6 5 5 5 6 5 5 5 6 5 5 6 5 6 5 5 5 6 5 5 6 6 5 5 5 5 5 5 6 5 6 5 6 5 5 5 6 6 5 6 5 5 5 5 5 5 5 5 5 5 5 5 5 5 5 5 6 5 5 5 5 5 5 5 6 5 5 5 5 5 6 5 5 5 6 5 5 5 5 6 5 6 5 6 5 5 5 5 6 5 5 6 5 5 5 5 5 5 5 5 5 5 5 6 5 5 5 5 6 5 5 5 5 6 5 5 5 5 5 5 6 5 5 5 6 5 6 6 5 5 5 5 5 5 5 5 5 5 5 5 5 5 5 5 5 5 5 5 5 5 5 5 5 5 5 5 6 5 5 6 6 5 6 5 5 5 5 6 5 5 6 5 5 5 5 5 5 5 5 5 5 5 5 5 5 5 5 5 5 5 5 5 5 5 5 5 5 5 5 6 5 5 5 5 5 5 5 5 6 5 5 5 5 5 5 5 6 5 6 5 5 5 6 5 5 5 5 5 5 5 6 5 6 5 5 5 5 5 6 5 5 5 5 5 5 5 5 5 5 5 5 5 5 5 5 5 5 5 5 5 5 5 5 5 5 5 5 5 5 5 5 5 5 5 5 5 5 5 6 6 5 5 6 5 5 5 6 5 5 5 6 6 5 5 6 5 5 5 5 5 5 5 5 5 5 5 5 5 5 5 5 5 5 5 5 5 6 5 6 5 5 5 5 5 5 5 5 5 5 5 5 5 5 5 5 5 5 5 5 5 5 5 5 5 5 5 5 5 5 5 5 5 5 5 5 5 5 5 5 5 5 5 5 5 6 5 6 5 6 5 5 6 5 5 5 5 5 5 5 5 5 5 5 5 5 5 5 5 5 5 5 5 5 5 5 5 5 5 5 6 5 5 5 5 5 5 5 5 5 5 5 5 5 5 5 5 5 5 5 5 5 5 5 5 5 5 5 5 5 5 5 5 5 5 5 5 5 5 5 5 5 5 5 5 5 5 5 5 5 6 5 5 5 5 6 5 5 5 5 5 5 5 5 6 5 5 5 5 5 6 6 6 5 5 5 5 6 6 5 5 6 5 5 5 5 5 5 5 5 5 5 5 5 5 5 6 6 5 6 5 5 5 5 5 5 5 5 5 5 5 5 5 5 5 5 5 5 6 5 5 5 5 5 5 6 5 5 5 5 5 5 5 5 5 5 5 5 5 5 5 5 5 5 6 5 5 5 5 5 5 5 5 5 6 5 5 6 5 5 5 5 5 5 5 5 5 5 5 5 5 5 5 5 6 5 6 5 5 5 5 6 5 6 5 5 6 6 5 5 6 5 5 5 6 5 5 5 5 5 5 6 5 5 5 6 5 5 5 5 6 5 5 5 5 5 5 5 6 5 5 5 5 5 6 5 5 6 5 5 5 5 5 5 5 6 5 5 5 6 6 5 5 5 6 5 5 5 5 5 6 6 6 5 5 5 5 5 5 5 5 5 6 6 5 6 5 5 5 5 5 6 5 5 6 5 6 5 5 5 6 5 5 6 5 5 5 5 5 5 5 6 5 5 6 6 5 5 6 5 6 5 5 6 5 5 6 5 6 5 5 5 6 5 5 6 5 6 5 5 6 5 6 5 5 5 5 6 6 5 5 5 5 5 5 5 5 5 6 5 5 5 5 5 5 5 5 5 5 5 5 5 5 5 5 5 5 6 6 5 5 5 6 5 5 5 5 6 5 5 6 5 5 5 6 5 5 6 5 5 5 5 6 5 5 5 5 5 6 5 5 5 6 6 5 5 6 5 5 5 5 5 6 6 5 5 5 5 6 5 5 5 5 6 5 5 5 5 5 5 5 5 5 5 5 5 5 5 5 5 5 5 5 5 5 5 5 5 5 5 5 5 6 5 5 5 5 5 5 5 5 5 5 5 6 5 5 5 5 6 5 5 5 6 5 5 6 5 5 5 5 5 6 5 5 5 5 5 5 5 5 5 5 5 5 5 5 5 5 5 5 5 5 6 5 5 5 5 5 6 5 5 5 5 5 5 5 6 5 5 5 5 5 5 5 5 5 5 5 5 5 6 5 5 5 5 5 6 6 5 5 5 5 6 5 6 5 5 5 6 6 5 5 6 5 5 5 6 5 5 5 5 6 5 5 6 6 5 5 5 5 5 5 6 5 5 6 5 5 5 5 6 5 5 5 5 5 5 5 5 5 5 5 5 5 5 5 5 5 5 5 6 5 6 5 5 5 6 5 6 5 6 5 5 6 5 5 6 6 6 5 5 5 6 5 5 5 5 5 5 6 5 5 5 5 5 5 5 6 5 6 5 5 5 5 5 5 5 6 5 5 5 5 5 5 5 5 5 5 5 6 5 5 6 5 5 5 5 5 5 5 5 5 5 5 5 5 5 5 5 6 5 5 5 5 5 5 5 5 5 5 5 5 5 5 5 5 5 5 5 5 5 6 5 5 5 6 5 5 5 5 5 5 5 5 5 5 6 5 5 5 5 5 5 5 5 5 5 6 5 5 5 5 5 5 6 5 5 5 6 5 5 5 5 5 5 5 5 5 5 5 5 5 5 5 5 5 5 5 5 5 6 5 5 5 5 5 6 5 5 6 5 5 5 5 5 5 6 5 5 5 5 6 5 5 5 5 5 5 5 5 5 5 5 5 5 5 5 5 5 5 6 5 5 5 5 5 6 5 5 5 6 5 6 5 5 5 5 5 5 5 6 5 5 5 6 6 5 5 5 5 5 6 5 5 5 6 5 5 5 5 5 5 5 5 5 5 5 5 5 5 5 6 5 5 5 5 5 5 6 5 5 5 5 5 5 5 5 5 5 5 6 5 5 5 5 5 5 5 5 5 6 5 5 5 5 6 6 5 5 5 5 5 5 5 5 6 6 5 6 5 5 5 5 5 6 5 5 5 5 5 5 6 5 6 5 5 5 5 5 5 5 5 5 5 6 5 5 5 5 5 5 6 5 5 5 5 5 5 5 5 6 5 5 5 5 5 6 5 5 6 5 5 5 5 5 5 6 5 5 5 5 5 5 5 5 6 5 5 5 5 6 5 5 5 5 5 5 5 5 5 5 6 5 5 5 5 5 5 5 5 5 6 5 5 5 5 6 5 5 5 5 5 5 5 5 6 5 6 5 5 5 6 5 5 5 5 5 5 5 5 6 5 5 5 6 5 5 5 6 5 5 6 5 5 5 5 5 5 5 5 5 5 5 5 5 5 5 5 5 5 5 5 5 5 5 5 5 5 5 5 5 5 5 5 5 5 5 5 5 5 5 5 5 5 5 5 5 5 5 5 5 5 5 5 5 6 5 5 5 6 5 5 5 5 5 5 6 5 6 5 5 5 5 6 6 5 5 5 5 5 5 5 5 5 5 5 5 5 5 5 5 5 5 5 5 5 5 6 5 5 6 5 5 5 6 5 5 5 5 5 5 5 5 5 5 5 5 5 5 6 5 6 5 6 5 5 5 5 5 5 5 5 5 5 5 5 5 5 5 5 5 6 5 5 5 5 5 5 5 5 5 5 5 5 5 5 5 5 5 5 5 5 5 5 5 5 5 5 5 5 5 5 5 5 5 6 5 5 5 5 5 5 6 5 5 6 5 6 5 5 6 5 5 5 6 5 5 5 5 5 5 5 5 5 5 5 5 5 5 5 5 5 5 5 5 5 5 5 5 5 6 5 5 5 5 6 5 5 6 5 5 5 5 5 5 5 5 5 5 5 5 5 5 5 5 5 5 5 5 5 5 5 5 5 5 5 5 5 5 6 5 5 5 6 5 5 5 5 6 5 5 5 5 5 6 5 5 5 5 6 5 5 5 5 5 5 5 5 5 5 5 5 5 5 6 6 5 6 5 6 5 5 5 5 5 5 5 5 5 5 5 5 5 5 5 5 5 5 5 5 5 5 5 5 5 6 6 5 5 6 5 5 6 5 5 5 5 5 5 5 5 5 5 5 6 5 5 6 5 5 5 5 5 5 5 5 5 5 5 5 5 5 6 6 5 6 6 5 5 5 5 6 5 5 5 6 6 5 5 5 5 5 5 5 6 5 5 5 5 5 5 5 5 5 5 5 5 5 5 5 5 6 5 5 5 5 6 5 5 5 5 5 5 5 6 5 5 5 5 5 5 5 6 5 5 6 5 5 5 5 5 5 5 5 5 5 5 5 5 5 5 6 5 5 5 5 5 5 5 5 6 5 5 5 5 5 5 5 6 5 5 5 5 5 6 5 5 5 5 6 5 5 5 5 5 5 5 5 5 5 5 5 6 5 5 5 5 5 5 5 5 5 5 5 5 5 5 6 5 5 5 5 5 5 5 5 5 5 5 5 5 6 6 5 5 6 5 5 5 5 6 5 5 5 6 5 5 6 5 5 5 5 6 5 5 5 5 5 5 5 5 5 5 5 5 5 5 5 5 5 5 5 5 5 5 5 5 5 5 5 5 5 5 5 5 5 5 6 5 5 5 6 5 6 5 5 5 5 5 5 5 5 5 5 5 5 5 5 6 5 5 5 5 5 5 5 5 6 5 5 5 6 5 5 5 5 5 5 5 6 5 6 5 5 5 5 5 5 5 5 5 5 5 5 5 5 6 5 5 6 5 5 5 5 5 5 5 6 5 5 5 5 5 5 5 5 5 5 5 5 5 5 5 5 5 5 5 5 5 5 5 5 5 5 5 6 5 5 6 5 5 5 6 5 5 6 5 5 5 5 5 5 5 5 5 5 5 5 5 5 5 5 5 5 5 6 5 5 5 5 5 5 5 5 5 5 5 5 5 6 5 5 5 5 5 5 5 5 5 5 5 5 5 5 5 5 5 5 5 6 5 5 5 5 5 5 5 5 5 5 5 5 5 5 5 5 6 5 5 6 5 5 5 6 5 5 6 5 5 5 5 5 5 5 5 5 5 5 5 5 5 6 5 5 6 5 5 5 5 5 5 5 5 5 5 5 5 5 5 5 5 5 5 5 5 5 5 5 5 5 5 5 5 5 5 5 5 5 5 5 5 6 5 5 5 5 6 5 5 5 5 5 5 5 5 5 5 5 5 5 5 5 6 5 6 6 5 5 6 5 6 5 5 5 5 5 5 5 5 6 5 5 6 5 5 5 5 6 6 5 6 5 5 5 5 5 5 5 5 5 5 5 5 5 5 5 5 5 5 5 5 5 6 5 5 5 5 5 5 5 5 5 5 5 5 5 5 5 5 5 5 5 5 5 5 5 5 5 6 5 5 5 5 5 6 5 5 5 5 5 5 5 5 5 6 5 5 5 5 5 5 5 5 5 5 5 5 5 5 5 5 5 6 6 5 5 6 5 5 5 6 5 5 5 5 5 5 5 5 5 5 6 5 5 6 5 6 5 5 5 5 6 5 5 5 6 5 5 5 5 5 5 6 5 5 5 5 5 5 6 5 5 5 5 5 5 5 5 5 5 5 5 5 5 6 5 5 6 5 5 5 6 6 5 5 5 5 5 5 5 5 5 5 6 5 5 5 6 5 5 5 5 6 5 5 5 5 5 5 5 5 6 5 5 5 5 5 6 6 5 5 5 6 5 6 6 5 5 5 5 5 6 5 5 5 5 5 5 6 5 5 5 5 5 5 5 6 5 5 6 5 5 6 5 5 5 5 5 5 5 5 5 5 5 5 5 5 6 5 5 5 6 5 5 6 5 5 5 5 6 5 5 5 5 5 5 5 5 6 5 5 5 5 6 5 5 5 5 5 5 5 5 6 5 5 5 5 5 5 5 5 5 6 5 5 5 6 5 5 6 5 5 6 5 5 5 5 5 5 5 5 5 6 5 5 5 5 5 5 5 5 5 5 5 5 5 5 5 5 6 5 5 5 5 5 5 5 5 5 5 5 5 5 5 5 5 5 5 5 5 5 5 5 5 5 5 6 5 6 5 5 5 5 5 5 5 5 5 5 6 5 5 6 5 5 5 5 5 5 5 5 5 5 5 5 5 5 5 5 5 5 5 5 5 6 5 5 5 5 5 5 5 5 5 6 5 6 5 5 5 5 5 5 5 6 5 6 5 5 5 5 5 5 5 5 5 5 5 6 5 5 5 5 6 5 6 5 5 5 5 5 5 6 5 5 6 5 5 6 5 5 5 6 6 6 5 5 5 5 5 5 5 5 5 5 5 5 5 6 5 5 5 5 5 5 5 6 5 6 5 6 5 5 6 6 5 5 5 5 5 5 6 5 5 5 5 6 5 6 5 6 5 6 5 5 5 5 6 5 5 5 5 5 6 5 5 5 5 5 5 5 5 5 5 5 5 5 5 6 5 5 5 5 5 6 5 5 5 6 5 5 5 5 5 5 5 5 5 5 5 5 5 5 5 5 5 6 5 5 5 5 6 5 5 5 5 5 5 6 5 5 5 5 5 5 5 5 5 5 6 5 5 6 5 6 5 5 5 5 5 5 5 5 5 5 5 6 5 5 5 5 5 5 6 5 6 6 5 6 5 5 5 5 5 5 5 6 5 5 5 5 5 5 5 5 5 5 5 5 5 5 5 5 6 5 5 5 5 5 5 5 5 5 5 6 5 5 5 5 5 5 5 5 5 5 6 5 5 5 5 6 5 5 5 5 5 6 5 5 5 5 6 5 5 5 5 5 5 5 5 5 5 5 5 5 5 5 5 5 5 6 5 5 5 5 5 5 5 5 6 5 6 6 5 5 5 5 5 6 5 5 5 5 5 5 5 5 5 5 5 5 5 5 6 5 5 6 5 6 6 5 5 5 5 5 5 6 5 5 5 5 6 5 6 5 5 6 5 5 5 5 5 5 6 6 5 5 5 5 5 5 5 5 5 5 5 5 5 5 5 6 5 5 5 5 5 5 5 6 5 6 5 5 5 6 5 6 5 5 5 5 5 5 5 5 6 5 5 5 5 5 6 5 6 5 5 5 5 6 5 5 5 5 5 6 5 5 5 5 5 5 5 5 5 5 5 5 5 5 5 5 5 5 5 5 5 5 5 5 6 5 5 5 6 5 6 5 5 5 6 5 5 5 5 5 5 5 5 5 5 5 5 5 5 5 5 5 6 6 6 6 5 5 5 5 5 5 6 5 5 5 6 5 5 5 5 5 5 5 5 5 5 6 6 6 5 5 6 6 5 5 5 5 5 5 5 5 5 6 5 5 5 5 5 5 5 5 6 6 5 5 5 6 5 5 5 5 5 5 5 5 5 5 5 6 5 6 5 5 5 5 5 6 6 5 5 6 6 5 5 5 5 5 5 5 5 5 5 5 5 5 5 5 5 5 5 5 5 5 5 5 5 5 5 5 5 5 5 5 5 5 5 5 5 5 5 5 5 5 5 6 6 5 5 5 5 5 5 5 5 5 5 5 5 5 5 5 5 5 5 5 5 6 5 5 5 5 5 5 5 5 5 5 5 5 5 5 5 5 6 5 6 5 5 5 5 5 5 5 5 6 5 5 5 5 5 5 5 5 5 5 5 6 5 5 6 5 5 6 5 5 5 5 6 5 5 5 5 6 5 5 6 5 6 5 5 5 5 5 6 5 5 5 5 5 5 5 6 5 5 5 5 5 5 5 5 5 5 5 5 5 5 5 5 5 5 5 5 5 5 5 5 6 5 5 5 6 5 5 6 5 5 5 6 5 5 5 5 6 5 6 5 5 5 5 5 5 5 5 6 5 5 5 5 5 5 5 5 5 5 6 5 5 6 5 5 6 5 5 6 6 5 5 5 5 5 5 5 6 6 5 5 5 6 5 5 6 6 5 5 5 6 6 5 6 5 5 6 5 5 5 5 6 5 6 6 5 5 5 6 5 6 6 5 6 6 6 6 5 6 5 6 5 6 5 5 5 6 5 5 6 5 6 6 5 5 5 5 6 5 6 6 5 5 5 6 6 5 5 6 6 5 5 5 5 6 5 5 5 5 6 5 5 5 5 6 5 6 5 6 5 6 5 6 5 6 5 5 5 5 5 6 5 5 6 6 6 5 5 6 6 5 6 5 5 6 5 5 5 5 5 5 6 5 5 6 5 6 5 5 5 5 6 5 6 5 6 5 5 5 6 5 5 6 5 6 5 6 5 5 5 5 5 6 5 5 5 5 5 5 5 5 5 5 6 5 5 5 5 6 5 5 6 5 5 5 5 5 6 5 5 6 5 5 5 6 5 6 5 5 5 6 5 5 5 5 6 5 5 5 5 6 6 5 5 5 5 5 5 6 5 5 6 5 5 5 5 5 5 5 5 5 5 5 5 5 5 5 5 5 5 5 5 5 5 5 5 5 5 5 5 5 5 5 5 5 5 5 5 5 5 5 5 5 5 5 5 5 5 5 5 5 5 5 5 5 5 5 5 5 5 6 5 5 5 5 5 5 5 5 5 5 5 5 6 5 5 6 5 5 5 6 5 5 5 5 5 5 5 5 5 5 5 5 5 5 5 6 5 5 5 5 5 5 5 5 5 5 5 5 5 5 5 5 6 5 5 5 5 5 5 5 5 5 5 5 5 5 6 5 5 6 5 5 6 5 6 5 5 5 5 5 5 5 6 5 5 5 5 5 5 5 5 5 5 5 5 6 5 5 5 6 5 5 5 5 5 5 5 5 5 6 5 5 5 5 5 5 6 5 5 5 5 5 5 6 5 5 5 6 5 5 5 5 5 5 5 6 5 5 5 5 5 5 5 5 5 5 6 5 5 5 5 5 5 5 5 5 5 5 5 5 5 5 5 6 5 6 5 5 5 5 5 5 5 5 5 5 6 5 6 5 5 5 5 5 5 5 5 5 5 5 6 5 5 5 5 5 5 5 5 5 5 5 6 5 5 5 5 5 5 5 6 5 5 5 5 5 5 5 6 5 5 5 5 5 5 5 5 5 5 5 6 5 5 5 5 5 5 5 5 6 5 6 5 5 5 5 5 5 5 5 5 5 6 5 5 5 6 5 5 5 5 5 5 5 5 5 6 5 5 5 5 5 5 5 5 5 5 5 5 5 5 5 5 6 5 5 5 5 5 5 5 5 5 5 5 5 5 5 5 5 5 5 6 5 5 6 5 5 6 5 5 5 5 5 6 5 5 5 5 5 5 5 5 5 5 5 5 5 5 5 5 5 5 5 5 5 5 5 5 5 5 5 5 5 5 5 5 5 5 5 5 5 5 5 5 5 5 5 5 5 5 5 5 5 5 5 5 5 5 5 5 5 5 5 6 5 5 6 5 5 5 5 5 5 5 5 5 5 5 5 5 5 5 5 5 5 5 5 5 5 5 5 6 6 5 5 5 5 5 5 5 5 5 5 5 5 5 5 5 5 6 6 5 5 5 5 5 5 5 6 5 6 5 5 6 6 5 5 5 5 5 5 5 5 5 5 5 6 5 6 5 5 5 6 5 5 5 6 5 6 5 5 5 5 5 6 6 5 5 5 5 5 5 5 5 5 5 5 5 5 5 5 5 5 5 5 5 5 5 5 5 5 5 5 5 5 5 5 5 5 5 5 5 5 5 5 5 5 5 5 5 5 5 5 5 5 5 5 5 5 5 5 5 5 5 5 5 5 5 5 5 5 5 5 5 5 5 5 5 5 5 5 5 5 5 5 5 5 5 5 5 5 5 5 5 5 5 5 5 5 5 5 5 5 5 5 5 5 5 5 5 6 6 5 6 5 6 5 5 6 5 5 5 5 6 5 5 5 5 5 5 5 6 6 6 5 5 5 5 5 6 6 5 5 5 5 5 5 5 5 5 5 5 5 5 5 5 5 5 5 5 5 5 5 5 5 5 5 5 5 5 5 5 5 5 5 6 5 5 6 5 5 5 5 5 5 5 5 5 5 5 6 5 5 5 5 5 5 5 6 5 5 5 5 5 5 5 5 5 5 5 5 5 5 5 5 6 5 5 6 5 5 5 5 5 5 5 5 5 5 5 5 5 5 5 5 5 5 5 5 5 5 5 6 5 5 6 5 5 6 5 5 5 5 5 5 5 6 5 5 5 5 5 5 6 5 5 6 5 5 5 5 6 5 6 5 5 6 5 5 5 5 6 5 6 5 5 6 5 5 5 5 5 5 5 5 5 5 5 5 6 5 5 5 6 5 5 6 5 5 5 5 6 5 5 5 5 5 5 5 5 5 5 6 5 5 5 5 5 5 5 5 5 5 6 5 5 5 5 5 5 5 5 5 5 5 5 6 5 5 6 5 5 5 5 5 5 5 5 5 5 6 5 5 5 5 5 6 5 6 6 5 5 6 5 5 5 5 5 5 5 5 5 6 6 5 5 5 5 5 5 6 5 5 5 5 5 5 5 5 5 5 5 5 5 5 5 5 5 5 5 5 5 5 5 5 5 6 5 5 5 5 5 5 5 5 5 5 5 5 5 5 5 5 5 5 5 5 5 5 5 5 5 5 5 5 5 5 5 5 5 5 5 5 5 5 5 5 6 5 5 5 5 5 5 5 5 5 5 6 5 5 5 6 5 6 5 5 5 6 5 5 5 6 5 6 5 6 5 6 6 5 5 6 5 5 5 6 5 5 5 5 5 6 5 5 5 5 6 5 5 5 6 5 5 5 5 6 5 6 5 5 5 5 5 5 5 5 5 5 5 5 5 5 6 5 5 5 5 6 5 5 6 5 5 6 6 5 5 6 5 6 5 5 5 6 6 6 6 5 5 6 5 5 5 5 6 5 6 5 5 6 6 6 5 6 5 5 6 6 6 5 5 5 5 5 5 5 5 5 6 6 5 5 5 5 6 6 5 5 5 6 5 6 5 5 5 5 5 5 5 5 5 5 5 6 5 5 5 5 5 5 5 5 5 5 5 5 5 5 5 5 5 5 5 5 5 5 5 6 5 5 5 5 5 5 5 5 5 5 5 5 5 5 5 5 6 5 5 6 5 5 5 5 5 5 5 5 5 6 5 5 5 6 6 5 5 6 5 5 5 5 5 6 5 6 5 5 5 6 5 5 5 5 5 5 5 6 5 5 6 5 5 5 5 6 5 5 5 6 6 5 5 6 5 5 5 6 5 5 5 5 5 5 5 6 5 5 6 5 6 6 6 5 6 5 6 6 5 5 5 5 5 5 6 5 5 6 5 5 5 5 5 5 5 5 5 5 5 5 5 5 5 5 5 5 5 5 5 5 5 5 5 5 5 5 5 5 5 5 5 5 5 6 6 5 5 5 5 5 5 5 5 6 6 6 6 5 5 6 5 5 5 5 5 5 5 5 6 5 5 6 5 5 5 6 5 5 5 5 6 5 5 5 5 5 5 5 5 5 5 5 5 5 5 6 5 5 5 5 5 6 5 5 5 5 5 5 5 5 6 5 5 5 6 6 5 5 6 6 5 5 5 5 5 6 5 5 5 5 5 5 6 5 6 5 5 5 5 5 5 5 5 6 6 5 6 6 6 5 6 5 5 5 5 5 5 6 5 5 5 5 5 5 5 6 5 5 5 5 5 5 5 5 5 5 5 5 5 5 5 5 5 5 5 5 5 5 5 5 5 5 5 5 5 5 5 5 5 5 5 5 5 5 5 5 5 5 5 5 5 5 5 5 5 5 5 5 5 5 5 5 5 6 5 5 5 5 5 5 5 6 5 5 6 5 5 5 6 5 6 5 5 6 5 5 5 5 5 5 5 6 5 5 5 6 5 5 5 5 5 5 5 6 5 6 5 5 5 5 5 5 5 5 5 5 5 5 5 5 5 5 5 5 5 5 5 5 5 5 5 6 6 5 6 5 5 5 5 5 5 5 6 5 6 5 6 6 6 5 5 6 5 5 6 5 5 5 6 5 5 5 5 5 5 5 6 6 5 5 6 5 5 5 6 5 5 5 5 6 5 6 5 5 5 5 5 5 6 5 6 5 5 5 5 5 6 5 5 6 5 5 5 5 5 5 5 5 5 5 5 5 5 5 5 5 6 5 5 6 6 5 6 5 5 5 5 5 5 5 5 6 5 5 5 5 5 5 5 5 5 5 5 5 5 5 5 5 6 5 5 5 6 5 5 6 5 5 5 5 5 5 6 5 5 5 5 5 5 5 5 5 5 5 5 5 5 5 5 5 5 5 6 6 5 5 5 5 5 5 5 6 5 5 5 6 5 5 6 5 6 5 5 6 5 6 6 5 6 5 6 5 6 5 5 5 5 5 5 5 5 5 5 5 5 5 5 5 6 6 5 5 5 5 5 5 5 6 5 5 5 5 5 5 5 5 5 5 5 5 5 5 5 6 5 6 5 5 5 5 5 5 6 5 5 5 6 5 5 5 6 5 5 5 5 5 5 5 5 5 5 5 5 5 5 5 5 5 5 5 5 5 6 5 5 5 5 6 5 5 5 5 5 6 5 5 5 6 5 5 5 5 5 5 5 5 5 5 5 5 6 5 5 5 5 6 5 5 5 5 5 5 5 5 6 5 5 5 5 5 5 5 6 5 5 5 5 6 5 5 5 5 5 5 5 5 6 5 5 5 5 5 5 5 5 5 6 5 5 5 5 5 5 5 5 5 5 5 5 5 5 5 5 5 5 5 5 5 5 5 5 5 5 5 5 6 5 5 5 5 5 5 5 6 5 5 5 5 5 5 5 5 5 5 5 5 5 5 5 5 5 5 5 5 5 5 5 5 5 5 5 5 5 6 5 5 5 5 5 5 5 5 5 5 5 5 5 5 5 5 5 5 5 5 5 5 5 5 5 5 5 5 5 5 5 5 6 5 5 6 5 5 5 5 6 5 5 6 5 5 5 5 6 5 5 5 6 5 5 5 6 5 5 5 5 5 5 5 5 5 5 6 5 5 6 5 5 5 5 5 5 6 5 5 5 5 5 6 5 5 5 5 6 5 5 5 5 5 5 5 5 5 5 6 5 5 5 5 5 5 5 5 5 6 5 5 5 5 5 5 5 5 5 5 5 5 5 6 5 5 5 5 5 5 5 6 5 5 5 5 5 6 5 5 5 5 5 5 5 5 5 5 5 5 5 5 6 5 5 5 5 5 5 5 5 6 5 5 5 5 5 5 5 5 5 5 5 5 5 5 5 5 5 5 5 5 5 5 5 5 5 5 5 5 5 5 5 5 5 6 5 5 5 5 6 6 5 5 6 5 5 6 5 5 6 5 5 5 5 5 5 5 5 5 5 5 5 5 5 5 5 5 5 5 6 5 5 5 5 6 5 5 5 5 5 5 5 5 5 5 5 5 5 5 5 5 5 5 5 5 5 5 5 5 5 5 5 5 5 5 5 5 5 5 5 5 5 5 5 5 5 5 5 5 5 5 5 5 5 5 5 5 5 5 5 5 5 5 5 5 5 5 5 5 5 5 5 5 5 5 5 6 5 5 5 5 6 5 6 5 5 6 5 5 5 5 6 5 5 6 5 5 5 5 5 5 5 5 5 5 5 5 5 5 5 5 5 5 5 5 5 5 5 5 5 5 5 5 5 5 5 5 5 5 5 5 5 5 5 5 5 5 5 5 5 5 5 5 5 5 5 5 5 5 5 5 5 5 5 5 6 5 5 5 5 5 5 5 5 5 6 5 5 5 5 5 5 5 6 5 5 5 5 5 5 5 5 5 5 5 5 5 5 5 5 5 5 5 6 6 5 5 6 5 6 5 5 5 5 5 5 5 5 5 5 5 5 5 5 5 5 5 5 5 5 5 5 5 5 5 5 5 5 5 5 5 5 5 5 5 5 5 5 5 5 5 5 5 5 5 5 5 5 5 5 5 5 5 5 5 6 6 5 5 5 5 5 5 5 5 5 5 5 5 5 5 5 5 5 5 5 5 6 5 5 5 5 5 5 5 5 5 5 6 5 5 5 6 5 5 5 5 5 5 6 5 5 5 5 5 5 5 5 5 5 5 5 5 6 5 5 5 5 5 5 6 6 5 6 5 5 6 5 5 5 6 5 5 5 6 5 5 5 5 5 6 5 6 5 5 5 5 6 5 5 5 5 6 5 6 5 5 6 6 5 5 5 5 5 6 5 5 5 5 5 6 6 6 5 6 5 6 5 5 5 5 5 6 5 5 5 5 5 5 5 5 6 6 5 5 6 5 5 5 5 6 5 5 6 5 5 6 5 5 5 5 5 5 5 5 5 6 5 5 5 5 5 5 5 5 6 5 5 5 5 5 5 5 5 5 6 6 5 5 5 5 5 5 5 5 5 5 5 5 5 5 5 5 5 5 5 5 5 5 5 5 5 5 5 5 5 5 5 5 5 5 5 6 5 5 5 5 6 5 5 5 5 5 5 5 5 5 5 5 5 5 5 5 5 6 6 5 5 5 5 5 5 5 5 5 6 5 5 5 5 6 5 5 6 5 5 5 5 5 5 5 5 5 5 5 5 5 6 5 5 5 5 5 5 5 5 5 5 5 5 5 5 5 5 5 5 5 5 5 5 5 5 5 6 5 5 5 5 5 6 5 5 5 6 5 5 5 6 6 5 5 5 5 5 5 5 5 5 5 5 5 5 5 6 5 5 5 6 5 5 5 5 6 6 5 5 5 5 5 5 5 5 5 5 5 5 5 5 5 5 5 5 5 5 5 5 5 6 5 5 5 5 5 5 5 5 5 6 5 5 5 5 6 5 6 5 5 5 5 6 5 5 5 5 5 5 5 5 5 5 5 5 5 5 5 6 5 5 6 5 5 5 5 5 5 5 5 5 5 6 6 5 5 5 5 6 5 5 5 6 5 5 5 5 6 6 5 6 5 6 5 6 5 5 6 5 5 6 5 5 6 5 5 5 6 5 5 6 5 6 5 6 5 5 6 5 5 5 5 5 5 5 5 5 5 5 5 5 6 5 5 5 5 5 5 5 5 5 5 5 5 5 5 5 5 6 6 5 5 5 5 5 6 5 5 5 5 6 5 5 6 5 5 5 5 6 5 5 5 5 5 5 5 5 5 5 5 5 5 5 5 5 5 5 5 5 5 5 5 5 5 5 5 5 5 5 5 5 5 5 5 5 5 5 6 5 5 5 5 5 5 5 5 5 5 5 5 5 6 5 6 5 5 5 5 6 5 5 5 5 5 5 5 5 5 5 5 5 5 5 5 5 5 5 6 5 6 5 5 6 5 5 5 6 5 5 5 5 5 5 5 5 5 5 5 5 5 5 5 5 5 5 5 5 5 5 5 5 5 5 5 6 5 5 6 5 5 5 5 5 5 5 5 5 5 5 5 5 5 5 5 5 5 5 5 5 5 5 5 5 5 5 5 5 5 5 5 5 5 5 6 5 6 5 5 5 5 5 5 5 5 5 5 5 5 5 5 5 5 5 6 6 5 5 5 5 5 6 5 5 5 5 6 5 5 5 5 6 5 5 5 5 5 5 5 5 5 5 5 5 5 5 5 5 5 5 6 5 5 5 5 5 5 6 5 5 6 5 5 5 5 5 5 5 5 5 5 5 5 6 5 5 6 5 5 5 5 5 5 5 5 6 5 5 5 5 5 5 6 5 5 6 5 5 5 5 5 5 5 5 5 5 5 5 5 5 5 5 5 5 5 5 5 5 5 5 5 5 5 5 5 5 5 5 5 5 5 5 6 5 5 5 6 5 5 6 5 5 5 5 5 5 6 5 5 5 5 5 6 5 5 5 5 5 5 6 5 5 5 5 6 5 6 5 5 6 5 5 5 6 5 5 5 5 5 5 5 5 5 5 5 5 5 6 5 5 5 5 5 5 5 5 5 5 5 5 5 5 5 5 5 5 5 5 5 5 5 5 6 5 6 5 6 5 6 5 5 5 5 6 5 5 5 5 6 5 5 5 5 5 5 5 5 5 5 5 5 5 5 6 5 5 5 6 5 5 5 6 5 5 6 5 5 5 6 5 5 5 5 6 5 5 5 5 6 5 5 5 5 5 5 5 5 5 5 6 5 5 5 5 5 6 5 6 5 5 5 5 5 6 6 5 5 6 5 6 5 5 6 5 5 5 5 5 5 5 5 5 5 5 5 5 6 5 5 5 5 5 6 5 5 5 5 5 5 5 5 5 5 6 5 6 5 5 6 5 5 6 5 6 5 6 5 5 5 5 5 6 6 5 5 5 5 5 5 5 5 5 5 5 6 5 5 5 5 5 6 5 5 5 6 5 6 5 5 5 5 5 5 5 5 5 5 5 5 5 5 5 6 5 5 5 5 6 5 5 5 5 5 5 5 5 5 5 5 5 5 5 5 5 5 5 5 5 5 5 5 6 5 5 6 5 5 5 5 5 5 5 6 5 5 6 5 6 5 5 5 5 5 5 5 5 5 6 5 5 6 5 5 5 6 5 5 5 5 5 5 5 6 5 5 5 5 6 6 5 5 5 5 5 5 5 5 5 6 5 5 5 5 5 5 5 5 5 5 5 5 5 5 5 5 6 5 6 5 5 5 6 5 5 5 5 5 5 5 5 5 5 5 5 5 6 5 5 5 5 5 6 5 5 5 6 6 5 5 5 6 5 5 6 5 5 5 5 6 6 5 5 5 6 5 5 6 5 5 5 5 6 5 6 5 5 5 6 5 5 5 5 5 5 5 5 5 5 5 5 5 5 5 5 5 5 5 5 5 6 5 5 5 5 5 5 5 5 5 6 5 5 5 6 5 6 5 5 5 5 5 5 5 5 5 5 5 6 5 5 5 5 5 6 5 5 5 5 5 6 5 5 5 5 5 5 5 5 5 5 5 5 5 5 5 5 6 5 5 5 5 5 5 5 5 5 6 5 5 5 5 5 5 5 5 5 5 5 5 5 5 5 6 5 5 5 5 5 5 5 5 5 5 5 5 5 5 5 5 5 5 5 5 5 5 5 5 5 5 5 5 5 6 5 5 5 5 6 5 6 6 5 5 5 5 5 5 6 5 6 5 5 5 6 5 5 6 5 5 5 5 5 5 6 5 5 5 5 5 5 5 6 5 5 5 5 6 5 5 5 5 5 5 6 5 5 5 5 5 5 5 5 5 5 5 5 6 5 6 5 5 5 5 5 5 5 6 6 5 5 5 5 5 5 5 5 6 5 5 5 6 5 5 6 5 5 5 5 5 5 5 5 5 5 5 5 5 5 5 5 5 5 5 5 5 5 5 5 5 6 5 5 6 5 5 5 5 5 6 5 5 6 5 6 5 5 5 6 5 5 5 5 6 5 5 6 6 5 5 5 5 5 6 5 5 6 5 5 5 5 5 6 5 5 5 5 5 5 5 5 5 6 5 5 5 5 6 5 5 5 5 5 5 6 5 6 5 5 5 6 5 6 5 5 6 5 6 5 5 5 6 5 5 5 5 5 5 5 5 5 5 5 5 5 6 5 5 5 5 6 5 5 5 5 5 5 6 5 5 5 5 5 5 5 6 5 5 5 5 5 5 6 5 5 5 5 5 5 5 6 5 5 6 5 5 5 5 5 5 5 5 5 6 6 5 5 5 5 5 5 5 5 5 5 5 5 6 5 5 5 5 5 5 5 6 5 5 5 6 5 6 5 5 6 5 5 5 5 5 6 5 5 5 6 5 5 5 5 6 5 5 5 6 5 5 5 5 5 5 5 6 5 5 6 5 5 5 6 5 5 5 6 5 5 5 5 6 5 5 5 6 5 5 5 5 5 5 5 5 5 6 5 5 5 5 5 5 5 5 5 6 5 5 5 5 6 5 5 6 5 5 5 5 5 5 5 5 5 5 5 5 5 5 5 5 5 5 5 5 5 5 5 5 5 5 6 5 5 5 5 5 5 5 5 5 5 5 6 5 5 5 6 5 5 5 5 5 5 6 5 5 5 5 5 5 5 5 5 5 5 5 5 5 5 5 5 5 5 5 5 5 5 5 5 5 6 5 6 5 5 6 6 5 5 5 5 5 5 5 5 5 5 5 5 5 5 5 5 5 6 5 5 5 5 5 5 5 5 5 5 5 5 5 5 5 5 5 5 5 5 5 5 5 5 5 5 5 5 5 5 5 5 5 5 5 5 5 5 5 5 5 5 5 5 5 5 5 5 5 5 5 5 5 5 5 5 5 5 5 5 5 6 5 5 6 5 5 5 5 6 5 5 5 5 5 5 5 5 5 5 6 5 6 5 5 5 6 5 5 5 6 5 6 5 5 5 6 5 6 5 6 5 5 5 6 5 5 5 5 6 5 6 5 5 5 5 5 6 5 6 6 5 5 5 5 5 5 6 5 5 5 6 5 5 5 5 5 5 5 5 5 5 5 5 5 5 5 5 5 5 5 6 5 5 5 6 6 5 5 5 5 5 6 5 5 5 5 5 5 5 5 5 5 5 5 5 5 6 5 5 6 5 6 5 5 5 6 5 6 5 5 6 5 5 5 5 5 5 5 5 5 5 5 6 5 5 5 5 5 5 5 5 5 5 6 6 5 5 5 5 5 5 5 6 5 5 5 5 5 5 5 5 5 5 5 5 5 5 6 5 5 5 5 5 5 5 5 5 5 6 5 5 5 6 5 6 6 5 5 5 5 5 5 5 5 6 5 5 5 5 5 5 5 5 5 6 5 6 5 6 5 5 5 5 5 5 5 5 6 5 6 5 5 5 5 5 5 6 5 5 6 5 6 5 5 5 5 5 5 5 5 5 5 5 5 5 5 6 5 5 5 5 5 5 5 5 5 5 6 5 5 5 5 5 5 6 5 5 5 5 5 5 5 5 5 5 5 5 5 5 5 5 5 5 5 5 5 5 5 5 5 6 5 5 5 5 5 6 5 5 5 5 5 5 5 5 5 5 5 6 5 5 5 5 6 5 5 5 5 5 6 5 5 5 5 5 6 5 5 6 5 5 5 5 5 5 5 5 5 5 5 5 5 5 5 5 5 5 5 5 5 5 5 5 5 5 6 5 5 6 5 5 5 5 5 5 5 5 5 5 5 5 5 5 5 6 5 5 5 5 5 5 5 5 5 6 5 5 5 5 5 5 5 6 5 5 5 5 5 6 5 5 5 5 5 5 6 5 5 5 5 6 5 5 5 5 5 5 5 6 5 5 6 5 5 6 5 5 5 5 6 5 5 5 5 5 5 5 5 6 5 5 6 5 5 5 5 5 5 5 5 5 6 5 5 5 5 5 6 5 5 5 5 6 5 5 5 6 5 5 5 5 5 5 5 5 5 5 5 6 6 5 5 5 5 5 5 5 5 5 5 5 6 5 5 5 5 5 6 5 6 6 5 6 6 5 5 6 5 5 5 5 5 5 6 5 6 6 5 5 5 5 5 6 5 5 5 5 5 5 5 5 6 5 5 5 5 6 5 5 5 5 5 6 5 5 6 5 5 5 5 5 5 5 6 5 6 5 5 5 5 5 5 5 6 6 5 5 5 5 5 5 5 6 5 5 5 5 5 5 6 5 5 5 5 5 5 5 5 5 5 5 5 5 5 6 5 5 6 5 5 5 5 6 5 5 5 5 6 5 5 5 5 5 5 6 5 5 5 5 5 5 5 6 5 5 5 6 5 5 5 5 6 5 5 6 5 5 5 5 5 5 5 6 5 5 5 5 6 5 6 5 5 5 5 5 5 5 5 5 5 5 5 5 5 6 5 5 5 5 5 5 5 6 5 5 6 5 5 6 5 5 5 5 5 5 5 5 5 6 5 5 5 6 5 5 5 5 5 5 5 5 5 6 5 5 5 5 5 5 5 5 5 5 5 6 5 5 5 6 5 5 5 5 5 5 5 5 5 5 5 6 5 5 5 5 5 5 5 5 5 5 6 5 5 5 5 5 6 5 5 5 5 5 5 5 5 6 5 5 6 5 5 6 5 5 5 5 6 6 5 5 5 5 6 5 5 5 5 6 5 5 6 5 5 5 5 6 5 5 6 5 5 5 5 5 6 5 5 5 5 5 5 5 5 6 5 6 5 5 5 5 5 5 5 5 5 6 6 5 5 5 5 5 5 6 5 5 6 5 5 6 5 6 5 5 5 6 5 5 6 5 5 5 5 5 5 5 5 6 6 5 5 6 6 5 5 5 5 6 5 5 5 6 5 6 5 6 6 6 5 6 5 5 5 6 5 5 5 5 5 5 5 5 5 6 5 5 6 5 5 5 5 5 5 6 5 5 5 5 5 5 6 6 6 5 5 5 5 5 5 5 5 5 5 5 6 5 5 5 5 6 5 5 5 5 5 5 5 5 6 5 5 6 5 5 5 6 5 5 5 5 5 5 5 5 5 6 5 5 5 5 5 5 5 5 6 5 5 5 6 5 5 6 5 5 5 6 5 6 5 5 6 5 6 5 5 6 5 5 5 5 5 5 6 5 5 6 5 5 5 5 5 5 5 5 5 5 5 5 5 5 5 5 5 5 5 5 5 5 5 5 5 5 5 5 5 5 5 5 5 5 5 5 5 5 5 5 5 5 5 5 5 5 5 5 5 5 5 5 5 5 5 5 5 5 5 5 5 5 5 5 5 5 5 5 5 5 5 5 5 5 5 5 5 5 5 5 5 5 5 5 5 5 5 5 5 5 5 5 5 5 5 5 6 5 5 5 5 6 5 5 5 5 5 5 5 5 5 5 5 5 6 6 5 5 5 5 5 5 5 5 5 5 5 5 5 5 5 6 5 5 5 6 5 5 5 5 5 5 5 5 5 5 6 5 6 5 5 5 5 5 5 5 5 5 5 5 5 5 5 5 5 5 5 5 5 5 5 5 5 6 5 5 5 5 6 5 5 5 5 5 5 5 5 6 5 5 5 5 5 5 5 5 5 5 5 5 5 5 5 5 5 5 5 5 5 5 5 5 5 5 5 5 5 5 5 5 5 5 5 5 5 5 5 5 5 5 5 5 5 5 5 5 5 6 5 5 5 5 5 5 5 5 5 5 5 5 5 5 5 5 5 5 5 5 5 5 5 5 5 5 5 5 5 5 5 5 6 5 5 5 5 5 5 6 5 5 5 5 5 5 6 5 5 6 5 6 5 6 5 5 5 5 6 5 5 5 5 5 6 5 5 5 6 6 5 5 5 6 5 5 5 5 6 6 5 5 5 5 5 5 5 5 5 5 5 5 5 5 6 5 5 6 5 5 6 6 5 5 5 5 5 5 5 5 5 5 6 5 6 5 5 5 5 5 5 5 5 5 5 5 6 5 5 5 5 5 5 5 6 5 5 5 5 5 5 5 5 5 5 5 5 5 5 5 5 5 5 6 6 5 5 5 5 5 5 5 5 5 5 5 5 5 5 5 5 5 6 5 5 5 5 5 5 5 5 5 6 5 5 5 5 5 5 5 5 5 5 5 5 6 5 5 5 5 6 5 6 5 5 5 5 5 5 5 5 5 6 5 5 5 5 6 5 5 5 5 6 5 6 5 5 5 5 5 5 5 5 5 5 5 5 6 5 5 5 5 5 5 5 5 5 5 5 5 5 5 5 6 5 6 5 5 6 5 5 5 6 5 6 5 5 6 5 5 6 5 6 5 5 5 5 5 5 5 6 6 5 5 5 5 6 6 5 5 6 6 5 6 5 5 6 6 5 5 6 5 5 6 5 5 5 5 5 5 5 5 6 5 5 6 5 6 5 5 5 6 5 5 5 5 5 5 5 5 6 5 5 5 5 5 5 5 5 5 5 5 5 5 5 5 5 5 5 5 5 5 5 6 5 5 5 5 5 5 5 5 5 5 5 5 5 5 5 5 5 5 
</DataArray>
<DataArray type="Float64" Name="stress" NumberOfComponents="9" format="ascii">
2548.4125896277001 -209.13716515283784 0 -209.13716515283784 1.394172040806867 0 0 0 0 4490.7828426985507 -1289.6614746198084 0 -1289.6614746198084 -555.6706223473941 0 0 0 0 2970.9821204334385 -2498.1663324705487 0 -2498.1663324705487 471.37350912999653 0 0 0 0 2332.5917088617098 -734.77443350355202 0 -734.77443350355202 -13.378073518229556 0 0 0 0 -450.48522041684919 -25.119121171640586 0 -25.119121171640586 514.1592378044918 0 0 0 0 1575.1841162348937 -2273.5763615773221 0 -2273.5763615773221 1727.1264909593995 0 0 0 0 24.838347269620954 -2.1846525094360629 0 -2.1846525094360629 -0.42896294002030744 0 0 0 0 157.15326686258049 -243.50453643180873 0 -243.50453643180873 132.07725656242536 0 0 0 0 1089.9209773892071 303.53787340058642 0 303.53787340058642 -1439.2750390289966 0 0 0 0 263.70146223393385 -352.17254235198141 0 -352.17254235198141 -466.66775870216941 0 0 0 0 42.005474650569511 0.17739649687126757 0 0.17739649687126757 -3.5313733544386166 0 0 0 0 1974.492695805151 118.13017020594586 0 118.13017020594586 -154.57793967397853 0 0 0 0 -709.17257640996831 -353.38879532574487 0 -353.38879532574487 -227.28959476917976 0 0 0 0 -268.29951226970297 471.84341908032587 0 471.84341908032587 746.66654360921643 0 0 0 0 8.2806859583401433 2.6112263042090831 0 2.6112263042090831 1.0131940034688927 0 0 0 0 1341.2980269632244 -322.8244194658372 0 -322.8244194658372 548.94807817593198 0 0 0 0 673.94771368431975 -565.08084476922954 0 -565.08084476922954 539.24754322268609 0 0 0 0 1331.8155039547637 -450.32225398474418 0 -450.32225398474418 -62.922763986329045 0 0 0 0 289.43270891475549 102.68594538390025 0 102.68594538390025 -23.148742710948241 0 0 0 0 115.41590015910333 26.074750551528279 0 26.074750551528279 -0.0095057527168830019 0 0 0 0 193.40197807690129 -32.948582304672769 0 -32.948582304672769 7.663372960372044 0 0 0 0 4.4752126234737943 2.1444031580136311 0 2.1444031580136311 -0.75807618262139498 0 0 0 0 23.072646055708617 4.0747274406459333 0 4.0747274406459333 -0.7819460011700512 0 0 0 0 581.32261980228941 223.76248047442402 0 223.76248047442402 -485.0017516098182 0 0 0 0 14.124263719109877 -1.5109290626504566 0 -1.5109290626504566 -3.8101093499529921 0 0 0 0 -12.366609250806505 -14.042198217911855 0 -14.042198217911855 -8.605627224745497 0 0 0 0 8.767748643149389 -1.6229092416244342 0 -1.6229092416244342 -1.5519882185509104 0 0 0 0 -0.0029169798070824982 -0.68076909864912238 0 -0.68076909864912238 0.62739335326597034 0 0 0 0 0.83486548819166728 -0.58449548131815732 0 -0.58449548131815732 0.20808493710401865 0 0 0 0 14.163654728661641 -3.6274967967636735 0 -3.6274967967636735 -2.6811745278031345 0 0 0 0 10.742397622939507 -2.1119664840105123 0 -2.1119664840105123 -0.89166804393812515 0 0 0 0 16.571480347620763 -5.5071916086366173 0 -5.5071916086366173 -2.3281246681075647 0 0 0 0 4.8628712214413099 -13.189089700639492 0 -13.189089700639492 8.6005361189310747 0 0 0 0 4.3897716513715466 -6.3108987868504869 0 -6.3108987868504869 0.4410846867050322 0 0 0 0 3.1469622966469615 -12.525973341056684 0 -12.525973341056684 15.366605873257704 0 0 0 0 34.25212714659574 37.469328557004332 0 37.469328557004332 38.325920277060504 0 0 0 0 2.7886760313122068 -26.628717116744639 0 -26.628717116744639 -3.9867624428236752 0 0 0 0 16.153514885270738 -11.843059323432698 0 -11.843059323432698 2.485942140150299 0 0 0 0 112.41728007768688 -575.82050223915735 0 -575.82050223915735 -100.80674344873921 0 0 0 0 -498.79045187363226 413.12837911916711 0 413.12837911916711 783.68066350237314 0 0 0 0 4.0161100703157899 -2.4313764145888115 0 -2.4313764145888115 -1.275087621733725 0 0 0 0 64.545649819017854 -116.71718017362252 0 -116.71718017362252 63.392289478751309 0 0 0 0 -484.78557096782606 -132.4026784014261 0 -132.4026784014261 234.17505205799057 0 0 0 0 62.72472106533678 10.490790004462553 0 10.490790004462553 -34.932419838232818 0 0 0 0 42.346095721353777 15.601099625994152 0 15.601099625994152 29.504192631779006 0 0 0 0 87.65752737809089 -8.3080353422740245 0 -8.3080353422740245 -137.62901539899667 0 0 0 0 -40.712443026772235 121.19448886688178 0 121.19448886688178 -99.485451931503349 0 0 0 0 128.59799986945291 452.7870232059509 0 452.7870232059509 -194.09761485446086 0 0 0 0 17.768054289059137 0.92851231836257853 0 0.92851231836257853 -0.72908424569232055 0 0 0 0 458.30063704697022 1035.4836170525261 0 1035.4836170525261 -625.53414545352052 0 0 0 0 1303.5583412334963 -174.82155004809186 0 -174.82155004809186 -260.80546747914383 0 0 0 0 447.29081637176569 -789.34795863118552 0 -789.34795863118552 765.3050375218819 0 0 0 0 91.122777365293587 -213.98725509772913 0 -213.98725509772913 340.83487120529537 0 0 0 0 275.84828929456125 -85.834993534777595 0 -85.834993534777595 -285.63504314421652 0 0 0 0 577.085761174254 -411.02060409532476 0 -411.02060409532476 -33.228394171460991 0 0 0 0 118.53531143802684 245.12270674716797 0 245.12270674716797 -211.41986497421806 0 0 0 0 134.2863138706889 -31.285812768753203 0 -31.285812768753203 -34.917989241243504 0 0 0 0 115.05748761880631 -3.0689308943442839 0 -3.0689308943442839 -9.0018550642876303 0 0 0 0 142.89772326782077 0.69267968052116657 0 0.69267968052116657 -95.35132326207713 0 0 0 0 61.494270530725771 -21.273859684692766 0 -21.273859684692766 -17.203038028740991 0 0 0 0 41.707623510736937 -19.304620681677356 0 -19.304620681677356 -2.8175155482893501 0 0 0 0 -1.1153009887202643 191.32332501841663 0 191.32332501841663 -264.82281643579722 0 0 0 0 120.98776935711862 -2.8191142740030273 0 -2.8191142740030273 -11.487040749682411 0 0 0 0 223.52435551716189 312.34524274578678 0 312.34524274578678 -227.8651165201814 0 0 0 0 31.559744443591569 2.4870242126817175 0 2.4870242126817175 -15.117569546671531 0 0 0 0 127.85748031857656 -34.476070536734369 0 -34.476070536734369 -27.105056712801797 0 0 0 0 57.065460720768499 -31.68855757624263 0 -31.68855757624263 4.8050862124836193 0 0 0 0 127.19518929342667 -33.197473405206665 0 -33.197473405206665 -17.005533854296118 0 0 0 0 93.536517236047075 -34.970296115543078 0 -34.970296115543078 -16.230846361333533 0 0 0 0 132.23244026856264 -61.005232338467067 0 -61.005232338467067 -6.6943925097675674 0 0 0 0 134.69616208721891 -43.740228449100385 0 -43.740228449100385 -46.942931204437627 0 0 0 0 125.40756894101651 -106.8716557078593 0 -106.8716557078593 -42.389263702976223 0 0 0 0 78.635916156261374 -115.4982357231745 0 -115.4982357231745 115.84890324137405 0 0 0 0 115.15936251090898 -92.142429753737588 0 -92.142429753737588 -0.83417486930233053 0 0 0 0 122.58211621380178 -17.190735999036406 0 -17.190735999036406 -61.239700373901314 0 0 0 0 196.8039801195082 -1.8596609555060013 0 -1.8596609555060013 -58.411974537456445 0 0 0 0 178.33931711995683 -72.241140291621377 0 -72.241140291621377 -32.379534618126399 0 0 0 0 166.12547349811211 -50.674282549982991 0 -50.674282549982991 -68.655632523596978 0 0 0 0 242.74647427169839 -54.651973889824603 0 -54.651973889824603 -69.326115567708996 0 0 0 0 163.89722816133872 22.263323193263886 0 22.263323193263886 -74.86542253468042 0 0 0 0 166.73494130885229 63.278502098141189 0 63.278502098141189 3.0515372806103187 0 0 0 0 139.89148835931701 22.800980544627237 0 22.800980544627237 -37.179431944090993 0 0 0 0 112.85331755834341 46.317579214658508 0 46.317579214658508 -54.493437514417565 0 0 0 0 12.043363633913444 16.521394155489702 0 16.521394155489702 -32.382220204017159 0 0 0 0 420.85283770602837 364.22726391861261 0 364.22726391861261 437.63190886575421 0 0 0 0 156.96531633626364 40.231361617924904 0 40.231361617924904 -69.000790074127508 0 0 0 0 891.33771988618537 630.81698992205361 0 630.81698992205361 -201.02576739019031 0 0 0 0 2699.8054972652899 2282.3608660676582 0 2282.3608660676582 -150.25927420878207 0 0 0 0 778.5309772247565 1128.5925529962717 0 1128.5925529962717 1190.474772923164 0 0 0 0 4492.7848525947775 3151.7086192087104 0 3151.7086192087104 436.15309071497097 0 0 0 0 2747.1462904548389 1913.3622715115343 0 1913.3622715115343 -313.61856304435901 0 0 0 0 950.19200477426057 2602.746573179696 0 2602.746573179696 4478.5864860365382 0 0 0 0 22.714989482896044 8.3839965725836976 0 8.3839965725836976 7.003764143178338 0 0 0 0 597.97183036907518 595.20725118102564 0 595.20725118102564 451.22239749695746 0 0 0 0 434.45454002177212 553.56751621764158 0 553.56751621764158 767.43986071625977 0 0 0 0 56.020068424018802 21.224315754450661 0 21.224315754450661 0.73383748469106957 0 0 0 0 23.288092011731649 0.23612796123873636 0 0.23612796123873636 5.0788286425368732 0 0 0 0 444.04636364879843 -205.93403476884743 0 -205.93403476884743 421.85771042285523 0 0 0 0 1204.2772473601417 9.9435013757309125 0 9.9435013757309125 -54.586817375047531 0 0 0 0 1350.9254173917288 -549.57036393238479 0 -549.57036393238479 -151.479263778974 0 0 0 0 4493.8458896086959 -2210.5423324354783 0 -2210.5423324354783 436.79748930071355 0 0 0 0 4488.0016392124235 -823.61046991476803 0 -823.61046991476803 -190.29889542323832 0 0 0 0 2266.7684077947779 291.78179754187335 0 291.78179754187335 263.20521082834506 0 0 0 0 720.23160474422912 1106.7414585244496 0 1106.7414585244496 -110.63725353145219 0 0 0 0 -72.458860946760979 -124.69955299740957 0 -124.69955299740957 858.24250406780038 0 0 0 0 64.341516405629591 -1010.8633879327009 0 -1010.8633879327009 407.74271710149537 0 0 0 0 74.465969578697695 -304.05542425892713 0 -304.05542425892713 126.84775690158176 0 0 0 0 -91.693153540043568 -271.9951920345477 0 -271.9951920345477 326.04286505065602 0 0 0 0 137.39159159644623 38.306068278042403 0 38.306068278042403 124.94029627098644 0 0 0 0 105.19013334556024 -3.9848634540120216 0 -3.9848634540120216 -12.539802169204213 0 0 0 0 140.4046381228909 57.548317923480454 0 57.548317923480454 -83.215285849481006 0 0 0 0 147.92096650091116 195.97236601275972 0 195.97236601275972 550.91683666433664 0 0 0 0 54.463143518420111 -5.992075560813376 0 -5.992075560813376 10.352080100605463 0 0 0 0 71.3581190185796 -35.825649062557318 0 -35.825649062557318 4.0638978203807028 0 0 0 0 3.9895231294176483 55.833443422973971 0 55.833443422973971 11.99550898047741 0 0 0 0 3.197974190772527 2.3029983578770157 0 2.3029983578770157 0.84129712470912255 0 0 0 0 77.860578309795528 -6.5603275074088527 0 -6.5603275074088527 32.559889204591315 0 0 0 0 51.00020269434026 -46.059871039057505 0 -46.059871039057505 -9.2511950152128666 0 0 0 0 1.9250965860531437 1.2660308670198219 0 1.2660308670198219 0.27548845385058718 0 0 0 0 -12.498570780517184 30.776365380976252 0 30.776365380976252 6.5121638388815377 0 0 0 0 10.042281250207452 -20.291508269107975 0 -20.291508269107975 9.8662518418235514 0 0 0 0 28.958170360936492 -1.708061199167062 0 -1.708061199167062 0.075927479683889493 0 0 0 0 15.2955009569705 -15.043188455389986 0 -15.043188455389986 6.0711723623205298 0 0 0 0 76.92147809418384 -10.534107882256123 0 -10.534107882256123 -8.4007277477739599 0 0 0 0 100.72693645271647 -50.421728271201445 0 -50.421728271201445 25.54997973321672 0 0 0 0 186.50038659828715 -35.253038458320717 0 -35.253038458320717 -3.3726241893708266 0 0 0 0 188.44830787754472 -21.36171210719251 0 -21.36171210719251 31.748324744005991 0 0 0 0 196.01527190567867 -13.450797812372331 0 -13.450797812372331 -0.013537287232276506 0 0 0 0 279.60887156128592 -52.997912829418986 0 -52.997912829418986 -0.35315983248359117 0 0 0 0 292.60867777598651 -13.171685178984934 0 -13.171685178984934 -0.053197331566635656 0 0 0 0 334.6492662543169 -35.57421170572426 0 -35.57421170572426 -20.885774859621549 0 0 0 0 326.48075344332938 52.646179169510127 0 52.646179169510127 69.385557646858786 0 0 0 0 197.98752199162845 -75.639084511370584 0 -75.639084511370584 10.766347935856743 0 0 0 0 265.04778159252601 -10.190194428246542 0 -10.190194428246542 -1.8718950119991646 0 0 0 0 58.260447909597133 -101.10416497117629 0 -101.10416497117629 31.865654497222408 0 0 0 0 363.01467366797442 -106.32326865159666 0 -106.32326865159666 -78.99870869214908 0 0 0 0 380.2738125781907 107.68040091922111 0 107.68040091922111 -40.264997905346263 0 0 0 0 476.15915262176713 44.701768959391458 0 44.701768959391458 -11.477203231963415 0 0 0 0 0.46150873419715666 1.724504529562779 0 1.724504529562779 4.1376265910018049 0 0 0 0 77.322420999815222 -1.7834061170830466 0 -1.7834061170830466 4.1338271297335609 0 0 0 0 76.658093937940976 -23.937606642829198 0 -23.937606642829198 -6.3001303462833675 0 0 0 0 73.896532248618314 -8.5287405198776582 0 -8.5287405198776582 -3.6805572606263581 0 0 0 0 568.15026329102693 3.6457391586729671 0 3.6457391586729671 -48.711086740400951 0 0 0 0 89.454700508344104 -10.388489593280102 0 -10.388489593280102 10.193482830957446 0 0 0 0 0.54103015435729773 0.61777666315094848 0 0.61777666315094848 1.266557312787703 0 0 0 0 331.82513796747662 -38.64053800401765 0 -38.64053800401765 15.521117636130764 0 0 0 0 285.44185094157365 73.154090988376282 0 73.154090988376282 11.080272641950565 0 0 0 0 146.16645434170641 -26.260847488640838 0 -26.260847488640838 0.029137049018800813 0 0 0 0 105.00227506025112 -17.080245489733311 0 -17.080245489733311 2.2015892580364493 0 0 0 0 91.914201067440445 12.348597340909734 0 12.348597340909734 53.137742262719847 0 0 0 0 62.330371659889352 -41.091900491626134 0 -41.091900491626134 27.732598542064451 0 0 0 0 50.816823658024077 -19.631444929729923 0 -19.631444929729923 7.8040082689020664 0 0 0 0 71.660602748612291 -13.215009954195793 0 -13.215009954195793 -20.25549211383472 0 0 0 0 79.181161013009842 16.231355207592529 0 16.231355207592529 33.727099955002608 0 0 0 0 6.8730811866989825 -29.092651518495412 0 -29.092651518495412 0.028022505106219852 0 0 0 0 5.2239552445244044 -13.311564121871172 0 -13.311564121871172 9.5325294049127933 0 0 0 0 9.2360495068132877 -37.028508542768236 0 -37.028508542768236 27.546553799063773 0 0 0 0 24.769384185987292 -16.920361786936297 0 -16.920361786936297 -12.738617543156579 0 0 0 0 2.0505305189017236 -22.969107054407107 0 -22.969107054407107 16.361290588103998 0 0 0 0 31.822169222694356 -33.20381041073307 0 -33.20381041073307 11.947138144786322 0 0 0 0 58.887838088296121 -23.358026870062304 0 -23.358026870062304 9.8227274841178485 0 0 0 0 59.783317155510304 -23.834961878494838 0 -23.834961878494838 -7.6087881128504478 0 0 0 0 44.35977714866749 -34.48910720226479 0 -34.48910720226479 -5.9884663449279856 0 0 0 0 59.615609211206902 -31.589293427890539 0 -31.589293427890539 -10.27475518078495 0 0 0 0 46.055144764191937 -26.267578649312213 0 -26.267578649312213 0.051434069177744846 0 0 0 0 51.63361550992704 -33.246485759941379 0 -33.246485759941379 -3.536516923556178 0 0 0 0 59.256912472250406 -20.237621980996892 0 -20.237621980996892 -0.19233410277183793 0 0 0 0 47.930206360819284 -34.524951430517717 0 -34.524951430517717 -3.9313749142406778 0 0 0 0 50.751868522595032 -27.223212316337523 0 -27.223212316337523 -39.411126363753738 0 0 0 0 6.1354036411551647 -11.937710811094313 0 -11.937710811094313 0.84040459146854274 0 0 0 0 29.5275624031201 -25.792656531351213 0 -25.792656531351213 -9.5078683210871304 0 0 0 0 22.116484445544302 -9.2474866533356703 0 -9.2474866533356703 -2.467415289353307 0 0 0 0 27.266379297652747 -37.684677918929083 0 -37.684677918929083 -14.994867866840643 0 0 0 0 53.393944881609059 -30.474023768500501 0 -30.474023768500501 -5.1453041943663038 0 0 0 0 33.426399812713498 -42.212520857000698 0 -42.212520857000698 5.5457954824664455 0 0 0 0 35.809192879587329 -26.229465564573189 0 -26.229465564573189 15.284582236240437 0 0 0 0 28.506765598314814 -36.797061896371815 0 -36.797061896371815 3.4351102629333354 0 0 0 0 33.418060055613751 -22.709632278729032 0 -22.709632278729032 13.699407940931906 0 0 0 0 46.558819927638979 -42.203733087948308 0 -42.203733087948308 -5.6492354982785855 0 0 0 0 44.972858543523358 -40.790945274157536 0 -40.790945274157536 14.637274522998032 0 0 0 0 56.696232021218748 -24.90874329645203 0 -24.90874329645203 12.074008790394146 0 0 0 0 46.853841463911522 -76.004527479245098 0 -76.004527479245098 18.682268525039945 0 0 0 0 66.440536704863916 -81.123062836487406 0 -81.123062836487406 20.01704283091658 0 0 0 0 14.718336877250579 -15.808673006276379 0 -15.808673006276379 0.47644400019457045 0 0 0 0 63.611966433939187 -56.493364480471229 0 -56.493364480471229 13.858842809770387 0 0 0 0 -13.50631936211721 -76.317871709996496 0 -76.317871709996496 32.592139165663866 0 0 0 0 -38.42475037658005 -155.22491233792312 0 -155.22491233792312 70.013010639944497 0 0 0 0 -5.7548983163849812 -28.254613946393405 0 -28.254613946393405 0.14543274335711875 0 0 0 0 11.807297427323647 -42.082167607794759 0 -42.082167607794759 24.621752681284988 0 0 0 0 52.611542800679672 -55.781673890663498 0 -55.781673890663498 24.749712242085252 0 0 0 0 13.772533852825291 -47.597716511668864 0 -47.597716511668864 8.2256748260908807 0 0 0 0 0.11219207580614921 51.530770165161556 0 51.530770165161556 53.440635155482823 0 0 0 0 -18.196832559064489 -9.7393687564671154 0 -9.7393687564671154 3.0675998264103987 0 0 0 0 39.392002110049361 -150.60719570224387 0 -150.60719570224387 135.87120821224948 0 0 0 0 349.635013468127 -292.74960647898456 0 -292.74960647898456 73.621289916560386 0 0 0 0 532.05500317427504 149.21530549132416 0 149.21530549132416 42.268297482180174 0 0 0 0 2.838812545829569 -192.52654450069065 0 -192.52654450069065 351.09508571280821 0 0 0 0 824.54497967287807 -236.24472238281479 0 -236.24472238281479 16.776138380500015 0 0 0 0 0.41406343633241249 -2.822273318526328 0 -2.822273318526328 2.3408416040419184 0 0 0 0 383.01101403462235 217.60603764178427 0 217.60603764178427 66.431232975267903 0 0 0 0 823.457492741436 -47.232098775730748 0 -47.232098775730748 -69.162666647117817 0 0 0 0 0.20956721446790993 -22.506347866277515 0 -22.506347866277515 313.08658584610544 0 0 0 0 34.375658762466628 88.572515012224514 0 88.572515012224514 221.73145262967282 0 0 0 0 0.26135579466752645 0.89495181042869376 0 0.89495181042869376 -0.3899137136804347 0 0 0 0 109.69673327429336 -19.08802624090918 0 -19.08802624090918 -4.842417560754825 0 0 0 0 11.258545801692605 -3.6679411519693446 0 -3.6679411519693446 4.0396612667624954 0 0 0 0 769.1068379612334 -109.46565888558288 0 -109.46565888558288 -87.000277100669479 0 0 0 0 724.67998783790972 -225.71080738271723 0 -225.71080738271723 64.53322692087616 0 0 0 0 1.6610621887182013 1.6020420906884283 0 1.6020420906884283 4.7717173906421602 0 0 0 0 390.42526791196724 -174.3873223936663 0 -174.3873223936663 197.29997013120067 0 0 0 0 215.82504877589236 83.212121034355619 0 83.212121034355619 38.920874545672518 0 0 0 0 43.088960523062269 -11.426048507092048 0 -11.426048507092048 4.2958851885177864 0 0 0 0 -0.22730796219411786 0.015724398645161841 0 0.015724398645161841 1.8078890762864697 0 0 0 0 25.43792280429625 1.5406702555787888 0 1.5406702555787888 9.6658725122180158 0 0 0 0 33.180014567362377 -17.774394010685683 0 -17.774394010685683 5.693931318198338 0 0 0 0 23.74942722652105 -17.944874580572815 0 -17.944874580572815 10.640519939731629 0 0 0 0 41.96746618533507 -15.838446600699172 0 -15.838446600699172 4.5253701936470634 0 0 0 0 39.204381942196051 -13.23154843519896 0 -13.23154843519896 7.2510890700237951 0 0 0 0 31.505155059658136 -19.10860576958477 0 -19.10860576958477 7.9021072334255678 0 0 0 0 55.710897213430144 -22.202464322322157 0 -22.202464322322157 -2.2483840026046664 0 0 0 0 55.189504823478273 -4.3246985297511449 0 -4.3246985297511449 7.6679500863905332 0 0 0 0 681.805732601817 223.9524139023282 0 223.9524139023282 -80.976390679134624 0 0 0 0 759.88234903788543 -427.96778770739775 0 -427.96778770739775 337.89578527939119 0 0 0 0 196.02576604728529 -252.24580550491572 0 -252.24580550491572 182.05849640321242 0 0 0 0 725.51706039096462 -110.656319728342 0 -110.656319728342 -79.655334670984558 0 0 0 0 52.738984788215021 53.222554003303344 0 53.222554003303344 25.516024356276716 0 0 0 0 2.8966597273346224 3.1320037314900446 0 3.1320037314900446 1.0327883094090544 0 0 0 0 -47.325044083234388 -92.109148843836181 0 -92.109148843836181 -26.506377675969588 0 0 0 0 24.725458850036375 -22.559436368998831 0 -22.559436368998831 -137.82636129729417 0 0 0 0 3.8067114099033006 -1.1069513471317975 0 -1.1069513471317975 -0.93407269934347048 0 0 0 0 18.08829489749769 -4.7944031329516719 0 -4.7944031329516719 -22.477467190911511 0 0 0 0 -15.539353412357741 -10.584611182788436 0 -10.584611182788436 69.90204811838467 0 0 0 0 -33.4468952488387 -63.024527124193355 0 -63.024527124193355 34.373295530679741 0 0 0 0 -1.7669250628096052 8.5783859411913852 0 8.5783859411913852 67.84238754500393 0 0 0 0 -99.378273059963249 88.26753024243493 0 88.26753024243493 130.62266570027373 0 0 0 0 6.1854707531165332 -6.7076424443360168 0 -6.7076424443360168 94.167018081449953 0 0 0 0 134.45138778089313 152.86057085623128 0 152.86057085623128 101.34324489028154 0 0 0 0 5.1105998728028794 -2.3364407422096178 0 -2.3364407422096178 1.472108262658397 0 0 0 0 426.48668057622854 252.40252127620312 0 252.40252127620312 158.2506583045739 0 0 0 0 60.781148876762018 115.07382560334031 0 115.07382560334031 315.74408608142141 0 0 0 0 289.47599597524095 54.319944878592068 0 54.319944878592068 52.641210170713634 0 0 0 0 367.62503724060662 162.80139867817977 0 162.80139867817977 0.82998178475327222 0 0 0 0 743.57899881218327 187.79436953423513 0 187.79436953423513 2.2453961344328945 0 0 0 0 858.91296666197013 80.868418475187099 0 80.868418475187099 -116.46508973408379 0 0 0 0 793.66145410839817 -100.10529560700002 0 -100.10529560700002 -99.115291480359389 0 0 0 0 707.19989665955654 63.792055017150375 0 63.792055017150375 -71.205068807116334 0 0 0 0 648.09141295112204 6.6874657093862311 0 6.6874657093862311 -10.749439613100492 0 0 0 0 586.55770479526836 -103.81882822242596 0 -103.81882822242596 -52.970361666642475 0 0 0 0 585.58102123247227 -104.30914259761033 0 -104.30914259761033 58.20842663824169 0 0 0 0 347.88577622230514 23.909097372229439 0 23.909097372229439 11.992391152159001 0 0 0 0 334.07625608486342 94.847954941974038 0 94.847954941974038 28.04048688653188 0 0 0 0 178.98928450673702 39.576948365735461 0 39.576948365735461 158.62441543624641 0 0 0 0 387.05819198339304 -185.08601784897616 0 -185.08601784897616 312.80047491112634 0 0 0 0 9.1094774419616442 41.568250432851471 0 41.568250432851471 36.978737411539782 0 0 0 0 210.38907310552895 115.34100055714001 0 115.34100055714001 26.738242671930379 0 0 0 0 120.11455902451416 -4.5015524395226976 0 -4.5015524395226976 91.209361456041734 0 0 0 0 18.581166475687496 77.057526659079045 0 77.057526659079045 120.68838517825475 0 0 0 0 15.87119445141434 55.030376366883154 0 55.030376366883154 37.112514076034415 0 0 0 0 -88.482249177090125 56.350494345213249 0 56.350494345213249 41.761123334245951 0 0 0 0 75.970075798402235 53.182442339504689 0 53.182442339504689 -15.583958306544671 0 0 0 0 -41.555647020286415 21.606298419874804 0 21.606298419874804 28.474066593705743 0 0 0 0 64.29874985327632 57.600839670084241 0 57.600839670084241 -10.207916788414504 0 0 0 0 -77.946755376135116 181.8234237280418 0 181.8234237280418 1.4834406008340721 0 0 0 0 89.248388371808687 84.248108094714553 0 84.248108094714553 3.1460222053028701 0 0 0 0 102.98992653145979 89.581067394385855 0 89.581067394385855 -16.13085530889839 0 0 0 0 95.756676567689283 97.622289798389829 0 97.622289798389829 16.592766583195043 0 0 0 0 83.784759104775731 94.935118203849925 0 94.935118203849925 16.897676051552253 0 0 0 0 -26.878905321008745 19.470568066396382 0 19.470568066396382 18.020462213261659 0 0 0 0 165.61965372634586 127.60602042637174 0 127.60602042637174 -45.893409863675515 0 0 0 0 142.971464122209 127.33531802826337 0 127.33531802826337 17.597805789328959 0 0 0 0 168.99528353953428 108.91442706146233 0 108.91442706146233 -42.428311298577682 0 0 0 0 201.86634204976144 107.31448470205805 0 107.31448470205805 -101.92215982640369 0 0 0 0 197.07897063190467 26.081916062313212 0 26.081916062313212 -49.038191455686501 0 0 0 0 188.35650051253469 49.186134525421949 0 49.186134525421949 -104.91791639447729 0 0 0 0 156.03100038426055 81.589211398737461 0 81.589211398737461 -42.332298837252893 0 0 0 0 496.0787878746778 -63.166787311289681 0 -63.166787311289681 -380.08577010962335 0 0 0 0 153.73088517979005 -8.5530995936315399 0 -8.5530995936315399 -9.7171780759202129 0 0 0 0 -7.4335329556342913 0.43075841975991125 0 0.43075841975991125 -1.3999772630138523 0 0 0 0 -41.770613462795154 32.849675832605229 0 32.849675832605229 -1.216577005296017 0 0 0 0 51.78531477303477 2.0284592587240695 0 2.0284592587240695 0.28311653984872009 0 0 0 0 13.876798585341362 3.9514400679296457 0 3.9514400679296457 -1.3226186209501978 0 0 0 0 50.048224614984065 -15.91714311485697 0 -15.91714311485697 -2.3151268322205851 0 0 0 0 39.928291298449039 4.3589865312238771 0 4.3589865312238771 3.5172985542963033 0 0 0 0 16.284167877491001 -10.04156644195632 0 -10.04156644195632 -14.142721722063037 0 0 0 0 74.40290323314548 -12.843823527779023 0 -12.843823527779023 -5.6107607041972187 0 0 0 0 -455.68431484920438 6.5984412336343894 0 6.5984412336343894 1167.6593407253704 0 0 0 0 23.203882004178013 4.1747987711657402 0 4.1747987711657402 0.81417722352423993 0 0 0 0 18.872540970944101 4.9142276478185067 0 4.9142276478185067 1.3477149629056839 0 0 0 0 11.856852190513592 -1.0266831064650859 0 -1.0266831064650859 1.4049968805033464 0 0 0 0 11.687972863670439 0.43895338089089364 0 0.43895338089089364 3.2638012488632739 0 0 0 0 21.17265348687215 -0.058328527716810186 0 -0.058328527716810186 3.2442374279858086 0 0 0 0 10.924733523102276 2.3897174203443967 0 2.3897174203443967 3.3786056944379177 0 0 0 0 47.876886027836008 -14.199951188979128 0 -14.199951188979128 22.875632157067031 0 0 0 0 33.46374089292658 2.7065061645027271 0 2.7065061645027271 2.9581120875592433 0 0 0 0 36.199456805545196 4.7623222323889536 0 4.7623222323889536 -0.87001840096399974 0 0 0 0 3.566160224203486 -9.7716652018655168 0 -9.7716652018655168 9.6729474482485784 0 0 0 0 31.044151390480692 13.723316457002511 0 13.723316457002511 -9.1236920735464082 0 0 0 0 6.7759256231302203 2.5816247819281273 0 2.5816247819281273 -0.17347038484371424 0 0 0 0 28.729843527602497 16.595427700745404 0 16.595427700745404 7.440232504134018 0 0 0 0 17.299221615516785 1.5750066723586258 0 1.5750066723586258 0.029607360535213179 0 0 0 0 36.30478975000733 -8.1665826623350313 0 -8.1665826623350313 -47.887525427082437 0 0 0 0 31.830766164959641 40.590329028491738 0 40.590329028491738 83.181527844193624 0 0 0 0 -11.900229396705981 -47.264207304806405 0 -47.264207304806405 36.957575532251667 0 0 0 0 20.06110573670594 20.540978815746712 0 20.540978815746712 111.55765144003954 0 0 0 0 17.455162131242105 52.395553339971684 0 52.395553339971684 76.18956203079415 0 0 0 0 55.466432511573657 114.90654790647773 0 114.90654790647773 165.62623298888229 0 0 0 0 122.55085645713552 145.2408183593916 0 145.2408183593916 101.84437542839714 0 0 0 0 79.617339783944772 120.31007923568313 0 120.31007923568313 89.769241704727392 0 0 0 0 83.803630017166142 120.31874640049386 0 120.31874640049386 79.561713110994788 0 0 0 0 101.25448688682809 123.30219931044303 0 123.30219931044303 20.061833007132918 0 0 0 0 143.48644018034975 170.79161073163186 0 170.79161073163186 71.598739134415155 0 0 0 0 87.350978986331029 74.271664268939048 0 74.271664268939048 13.088430399737263 0 0 0 0 139.79816755678621 64.997435830099676 0 64.997435830099676 14.658457681465734 0 0 0 0 73.420496192586143 96.003010579022884 0 96.003010579022884 20.373217876993294 0 0 0 0 94.89827062979748 122.56420508197789 0 122.56420508197789 40.489395452860663 0 0 0 0 49.319900147151202 85.290838795259333 0 85.290838795259333 47.250706022243662 0 0 0 0 71.473104700737167 73.160203936019798 0 73.160203936019798 3.2946174026328663 0 0 0 0 49.588400135166012 82.426455398013786 0 82.426455398013786 26.424610678174759 0 0 0 0 -0.30102230867819912 0.51246772961798115 0 0.51246772961798115 0.12195277651608727 0 0 0 0 4.7255997671818477 19.663788359318687 0 19.663788359318687 29.264783140629334 0 0 0 0 18.528224818728631 15.979860214605196 0 15.979860214605196 7.4370820777843853 0 0 0 0 37.286238809378119 53.387490926350665 0 53.387490926350665 51.430791767360006 0 0 0 0 9.7693317823468533 -15.526701616032938 0 -15.526701616032938 13.861581585356362 0 0 0 0 19.623966677565477 19.357740357780585 0 19.357740357780585 14.28795995871269 0 0 0 0 82.937946249509253 21.686344004945383 0 21.686344004945383 -13.394191513812578 0 0 0 0 31.466657463737405 20.839036306415352 0 20.839036306415352 8.338565453448096 0 0 0 0 48.826714814727893 20.293853830006356 0 20.293853830006356 -12.084514517031494 0 0 0 0 184.63777194640716 246.72083713743109 0 246.72083713743109 -173.53333403525016 0 0 0 0 63.079791193638812 1.2086038626594018 0 1.2086038626594018 30.228775706606029 0 0 0 0 104.48446196438999 -55.85082172199607 0 -55.85082172199607 -46.775523528942585 0 0 0 0 112.92325620245174 -9.6434795581010917 0 -9.6434795581010917 3.6925007164609269 0 0 0 0 112.29867635891424 -6.2827512847215985 0 -6.2827512847215985 -1.2548596401775285 0 0 0 0 109.43887861090479 0.2254695896776866 0 0.2254695896776866 -2.0998529790406337 0 0 0 0 106.81321621195821 -2.2841394873764784 0 -2.2841394873764784 9.9753048293468964 0 0 0 0 94.596682624178356 3.6021733895135526 0 3.6021733895135526 8.4547593005194699 0 0 0 0 100.30062888446264 -11.575257935603872 0 -11.575257935603872 4.1057415323961095 0 0 0 0 18.569306711178498 17.701462864237101 0 17.701462864237101 -6.370557230519756 0 0 0 0 108.19544068962568 -0.19882652614558083 0 -0.19882652614558083 11.451081221124696 0 0 0 0 27.661168651868138 20.408532980340937 0 20.408532980340937 -11.226947173337066 0 0 0 0 33.101969547336921 15.574204179904427 0 15.574204179904427 -10.419154226220371 0 0 0 0 26.458842767751776 24.78893331662357 0 24.78893331662357 6.5226899411431987 0 0 0 0 27.976762572827283 19.970282115611099 0 19.970282115611099 -7.6474349215814073 0 0 0 0 33.34368060977431 12.921673025729433 0 12.921673025729433 -13.940626524046365 0 0 0 0 30.323729003488552 21.674197142661797 0 21.674197142661797 -9.1623576611773387 0 0 0 0 23.374400789478386 13.9585563080052 0 13.9585563080052 -19.716853396765146 0 0 0 0 29.888145256525604 23.446455590698179 0 23.446455590698179 -16.371165858779932 0 0 0 0 12.564528274235649 5.5546232074088806 0 5.5546232074088806 -0.94699991082718782 0 0 0 0 40.505618323324597 15.252720298182115 0 15.252720298182115 -2.0701484690927838 0 0 0 0 40.278607230422494 2.379481091964557 0 2.379481091964557 0.5187742965589095 0 0 0 0 31.273494496268199 4.6587685143638282 0 4.6587685143638282 -1.0358034334389661 0 0 0 0 3.5058787550515262 2.016241327181433 0 2.016241327181433 0.70087256599553527 0 0 0 0 38.485307581780944 4.1613948084523145 0 4.1613948084523145 -49.083978069484147 0 0 0 0 106.59957475522242 20.954125337957521 0 20.954125337957521 -9.6135475153478183 0 0 0 0 115.77128530101618 4.8977790285193805 0 4.8977790285193805 0.65463035944924286 0 0 0 0 -3.2075419542699706 10.576786030768989 0 10.576786030768989 0.68962180761973413 0 0 0 0 151.51061297842534 -25.925911663559532 0 -25.925911663559532 -17.711736928344635 0 0 0 0 9.2420955970228533 27.156765523823196 0 27.156765523823196 -6.8617259739567089 0 0 0 0 21.680957983737528 19.24955165320803 0 19.24955165320803 0.32937506895492019 0 0 0 0 95.023178381015896 4.9424916658922484 0 4.9424916658922484 0.22104536484312121 0 0 0 0 100.26023093637195 -23.389512183381612 0 -23.389512183381612 -0.67100338186855879 0 0 0 0 85.534688782441663 -20.810889965795582 0 -20.810889965795582 10.514417798161503 0 0 0 0 116.20101475785486 -6.1344058335547516 0 -6.1344058335547516 4.3389979571789468 0 0 0 0 103.43098329097847 7.3925323232933806 0 7.3925323232933806 0.18725797781780784 0 0 0 0 107.94213852327084 0.28168889541916542 0 0.28168889541916542 2.0126412696592979 0 0 0 0 92.540008908050368 -6.0524754179023148 0 -6.0524754179023148 5.8068753717529944 0 0 0 0 95.264633951213909 -11.848178120161265 0 -11.848178120161265 17.733057046329577 0 0 0 0 70.853542042634217 2.3396525465241211 0 2.3396525465241211 12.287907183434072 0 0 0 0 74.440325330302585 -9.4388899364639656 0 -9.4388899364639656 45.397319895370856 0 0 0 0 58.566996790497797 -26.924607671890499 0 -26.924607671890499 27.021404744871916 0 0 0 0 72.059523169751628 -60.436779889160334 0 -60.436779889160334 108.45625033120768 0 0 0 0 89.419263248404604 -35.297118603341573 0 -35.297118603341573 29.28652214478393 0 0 0 0 87.962414249370568 -3.1543056563933227 0 -3.1543056563933227 -34.448998593152055 0 0 0 0 114.37508977529069 -49.624810634187156 0 -49.624810634187156 -23.887912367741365 0 0 0 0 25.086564481597122 -5.6753917870406809 0 -5.6753917870406809 -0.8902232031084587 0 0 0 0 83.874962027926813 -63.983801949052577 0 -63.983801949052577 18.164096214661186 0 0 0 0 138.04424487233337 0.62805577000483481 0 0.62805577000483481 10.297558958696754 0 0 0 0 150.73793456712156 -18.773771273103876 0 -18.773771273103876 -3.611088480415674 0 0 0 0 134.80468031036435 -21.553790685021909 0 -21.553790685021909 -3.3250514930257395 0 0 0 0 110.92936698635458 -6.5417427735012552 0 -6.5417427735012552 9.0517494373225418 0 0 0 0 115.27975431276718 -0.41338281562229895 0 -0.41338281562229895 1.5274305200299523 0 0 0 0 117.56320650220732 -5.4754751664495416 0 -5.4754751664495416 7.361433068300812 0 0 0 0 116.56712423503632 -6.2334367703383577 0 -6.2334367703383577 21.391390385286286 0 0 0 0 114.12518266401577 16.027255336848796 0 16.027255336848796 -11.542679641292802 0 0 0 0 126.51829892608657 -0.37708192131981377 0 -0.37708192131981377 -3.0729885230066429 0 0 0 0 174.11298849212471 -9.9360100254243662 0 -9.9360100254243662 -1.4030778474007093 0 0 0 0 26.798833153671154 2.8221193220949345 0 2.8221193220949345 -9.2547194287704588 0 0 0 0 246.24403745989548 24.438775646422357 0 24.438775646422357 -204.48731738468211 0 0 0 0 119.35394472404732 -109.87838813797578 0 -109.87838813797578 -71.473938666634808 0 0 0 0 135.11334637527762 -125.64868863817046 0 -125.64868863817046 -79.369904885738464 0 0 0 0 60.583323979051784 -87.148593674595645 0 -87.148593674595645 43.157089683937272 0 0 0 0 79.804038606287861 -47.64996132301242 0 -47.64996132301242 9.52219509833877 0 0 0 0 48.0982301793847 -71.765659029140807 0 -71.765659029140807 36.916663357899779 0 0 0 0 59.283760074889869 -55.652571714832561 0 -55.652571714832561 8.4391089820692287 0 0 0 0 75.312417434397503 -73.757890178332104 0 -73.757890178332104 21.518773411762481 0 0 0 0 72.392735895024089 -63.756204968354268 0 -63.756204968354268 -1.5621458739915397 0 0 0 0 72.349652845536184 -68.112880022734089 0 -68.112880022734089 -45.711866778880449 0 0 0 0 39.674539675441338 -61.571541593309007 0 -61.571541593309007 5.8256011237194798 0 0 0 0 70.20480296680762 -75.733314761551128 0 -75.733314761551128 -3.3434033309290498 0 0 0 0 59.663995795141091 -56.759057514310371 0 -56.759057514310371 82.339424535651688 0 0 0 0 24.293216873309575 -88.990180644318116 0 -88.990180644318116 135.67187871965098 0 0 0 0 38.287822466401849 -69.962958487948299 0 -69.962958487948299 134.08036534562424 0 0 0 0 117.16179354059568 -73.862865428300893 0 -73.862865428300893 14.531767368079727 0 0 0 0 31.078917341794295 63.345103740750005 0 63.345103740750005 31.392250590055482 0 0 0 0 5.4781723655942187 -1.9038430399153867 0 -1.9038430399153867 8.3791427233134073 0 0 0 0 31.69635021299473 52.524772821308318 0 52.524772821308318 -16.900837771494707 0 0 0 0 22.148602412349845 9.4154224686581358 0 9.4154224686581358 -0.11902320558401092 0 0 0 0 -3.3086814344245852 14.939281736485739 0 14.939281736485739 12.018407109619186 0 0 0 0 38.167045113601489 -50.906045639871081 0 -50.906045639871081 58.41290462912184 0 0 0 0 5.6782268525130348 9.7468244383163665 0 9.7468244383163665 65.66298673878191 0 0 0 0 69.298848931384185 15.931794744462152 0 15.931794744462152 5.5581568196879907 0 0 0 0 61.130845858835954 15.186302858652681 0 15.186302858652681 -0.2822745292525044 0 0 0 0 153.66809635194659 -57.171314578554302 0 -57.171314578554302 -45.93648994459636 0 0 0 0 5.5420869733759162 -2.7287040469971799 0 -2.7287040469971799 -0.71346010489564371 0 0 0 0 59.260336210507376 -5.24765760882633 0 -5.24765760882633 -17.393963949682075 0 0 0 0 57.977600342186804 -6.7616760751531144 0 -6.7616760751531144 -3.4255663548930952 0 0 0 0 61.403414218773833 8.2054816053814648 0 8.2054816053814648 -33.482469099082664 0 0 0 0 37.959624968982752 -12.260860000720314 0 -12.260860000720314 -30.178541476941053 0 0 0 0 155.30416774380137 -191.20139593996464 0 -191.20139593996464 -73.333149911195505 0 0 0 0 87.729030570932082 102.75446736296362 0 102.75446736296362 -116.6876712999001 0 0 0 0 68.397974731229453 22.592058571791235 0 22.592058571791235 0.84281824823992224 0 0 0 0 32.170572059992992 7.6121282419103409 0 7.6121282419103409 -20.499050019183414 0 0 0 0 24.652584447394474 92.728009650370041 0 92.728009650370041 5.3760790664018714 0 0 0 0 57.35544720087637 26.836759803178211 0 26.836759803178211 75.312943499020548 0 0 0 0 322.66274034584785 9.4818333835237354 0 9.4818333835237354 29.184533796153119 0 0 0 0 387.85767899800157 151.34661515352332 0 151.34661515352332 29.336930375644442 0 0 0 0 150.43961908109486 37.599535362839561 0 37.599535362839561 70.275180566848576 0 0 0 0 284.94006901454122 64.755317738938174 0 64.755317738938174 27.665942971707409 0 0 0 0 243.81114093027645 113.44027545361723 0 113.44027545361723 82.364984038471448 0 0 0 0 169.90198503120337 56.849381844156596 0 56.849381844156596 46.781977430300685 0 0 0 0 -2.400984389355628 -6.9456237199185438 0 -6.9456237199185438 -1.7195519451335599 0 0 0 0 28.13241332469164 -29.460899335345275 0 -29.460899335345275 -15.000933000293742 0 0 0 0 -145.08072242231356 -116.68093266640039 0 -116.68093266640039 -18.089785092208331 0 0 0 0 259.84524105476157 83.166388508315322 0 83.166388508315322 46.459390739121773 0 0 0 0 4.1133413664483953 -2.2526136320131656 0 -2.2526136320131656 -2.0875385608808941 0 0 0 0 -169.63680206261051 -8.9176933639027993 0 -8.9176933639027993 -71.867992037121439 0 0 0 0 87.043723865954234 -18.288683644136427 0 -18.288683644136427 -9.9211729207618191 0 0 0 0 68.994556283418206 1.7099985624668079 0 1.7099985624668079 -12.645836375452745 0 0 0 0 -92.39701711909089 119.39011830000948 0 119.39011830000948 67.010450287475578 0 0 0 0 -92.541575148818083 103.99126228909472 0 103.99126228909472 7.1037779885191412 0 0 0 0 22.831851176488286 11.279574318527153 0 11.279574318527153 -13.003349893246824 0 0 0 0 83.46495196838805 -17.266027887074415 0 -17.266027887074415 -1.6824421382320907 0 0 0 0 74.295049222499074 3.2633031667919568 0 3.2633031667919568 -17.272706890180302 0 0 0 0 12.681783052502141 13.03496702634736 0 13.03496702634736 -11.44682547985872 0 0 0 0 125.20255588808141 0.49193652910776109 0 0.49193652910776109 -55.098244982995311 0 0 0 0 33.102736162836663 105.28677374096469 0 105.28677374096469 -49.973056116075327 0 0 0 0 86.310166742565343 22.047629337320586 0 22.047629337320586 -47.737446614446981 0 0 0 0 71.833145113007049 0.75210765918222933 0 0.75210765918222933 -33.22452987613724 0 0 0 0 30.010041368304243 10.921823597124387 0 10.921823597124387 -12.844792257484816 0 0 0 0 61.528208733972861 -6.809291827650668 0 -6.809291827650668 -9.1150322593386193 0 0 0 0 31.572826531919418 41.205392555252956 0 41.205392555252956 103.85440062590533 0 0 0 0 50.422070791035367 55.128462598753458 0 55.128462598753458 12.048582338474262 0 0 0 0 68.178926373666116 5.3547231179424326 0 5.3547231179424326 -4.0069258353034547 0 0 0 0 93.176965104081319 33.301921713121374 0 33.301921713121374 -49.858665729545919 0 0 0 0 95.047179104629322 5.2747973262894448 0 5.2747973262894448 -3.5940194470567803 0 0 0 0 44.046135185944877 15.949576888528094 0 15.949576888528094 -10.705967324466229 0 0 0 0 51.776074207775764 7.1909947900977205 0 7.1909947900977205 -3.0697929012904752 0 0 0 0 71.427927147698938 6.1906813044156479 0 6.1906813044156479 -6.3166836754321025 0 0 0 0 39.012221339224695 22.306655896523111 0 22.306655896523111 -11.716451481214929 0 0 0 0 69.097418018787721 -0.23683512967107845 0 -0.23683512967107845 -15.240715491946503 0 0 0 0 66.898495068380726 -4.3928974753141574 0 -4.3928974753141574 -10.138937885556516 0 0 0 0 15.576977897748023 -5.1458996058666031 0 -5.1458996058666031 0.40810833544316605 0 0 0 0 70.566312665134319 -8.3675354794904706 0 -8.3675354794904706 -7.4072656867194837 0 0 0 0 75.973714912674041 -5.3434962161899193 0 -5.3434962161899193 -13.125186107508853 0 0 0 0 81.645754277982633 -4.7024813148990461 0 -4.7024813148990461 -49.39449004153812 0 0 0 0 88.754100418082089 13.013226056927579 0 13.013226056927579 -19.014123166945183 0 0 0 0 103.64140813121048 6.3186728035889246 0 6.3186728035889246 -55.774960518353737 0 0 0 0 115.17693113730638 -7.9527775498504525 0 -7.9527775498504525 -49.90794133781219 0 0 0 0 363.55374024864432 -66.95383255421757 0 -66.95383255421757 -28.278448652534507 0 0 0 0 108.09788482273143 -0.78100519968620574 0 -0.78100519968620574 -40.419833740023932 0 0 0 0 -24.862161431279674 -22.739237414512672 0 -22.739237414512672 32.702513457334817 0 0 0 0 -130.20931691830629 -114.76108500049259 0 -114.76108500049259 100.95797543348181 0 0 0 0 137.21378240187914 -39.222529065787739 0 -39.222529065787739 -60.442703953834098 0 0 0 0 2.8924080882012078 0.76956910398854461 0 0.76956910398854461 0.096302463892781631 0 0 0 0 75.040917641774286 -47.867810823105174 0 -47.867810823105174 -56.63277127960464 0 0 0 0 10.315153129733517 -38.48253041626208 0 -38.48253041626208 -22.4123052508005 0 0 0 0 57.884910904394928 -10.560732668466812 0 -10.560732668466812 5.5606931214679207 0 0 0 0 59.542465676244319 -9.5459775840555494 0 -9.5459775840555494 3.0366083797962347 0 0 0 0 87.922129577331361 -7.8651115863151517 0 -7.8651115863151517 2.0875356470266979 0 0 0 0 56.389331204118207 -9.0314424409045841 0 -9.0314424409045841 4.490979744510696 0 0 0 0 -0.6168336075174139 0.98452036886298799 0 0.98452036886298799 0.66369240622251624 0 0 0 0 184.63404893910774 -28.825938337088701 0 -28.825938337088701 -0.19578077059941279 0 0 0 0 100.98046500733471 -78.097960908821051 0 -78.097960908821051 47.626524343990241 0 0 0 0 21.642877084268548 -18.653851132283876 0 -18.653851132283876 34.733857238625205 0 0 0 0 12.217158628769837 -3.8153719598197995 0 -3.8153719598197995 1.41030051029181 0 0 0 0 0.71678526498726569 -16.202602916425349 0 -16.202602916425349 59.890770951617924 0 0 0 0 39.490764400863554 -34.828250321049381 0 -34.828250321049381 41.084218149935623 0 0 0 0 42.50426227357093 -30.538352486876647 0 -30.538352486876647 39.537143158728213 0 0 0 0 43.009671600870206 -24.524194786557473 0 -24.524194786557473 12.397386183840354 0 0 0 0 49.608335570686904 -23.15286900927174 0 -23.15286900927174 12.17619702661932 0 0 0 0 69.344217656864203 -43.055173081295834 0 -43.055173081295834 26.67411907944097 0 0 0 0 52.10995264997473 -9.1430424883487831 0 -9.1430424883487831 9.400294457586142 0 0 0 0 16.87667438384095 -21.944471167372456 0 -21.944471167372456 15.667918106163352 0 0 0 0 60.286085944419028 -15.505286890384582 0 -15.505286890384582 8.395196067834604 0 0 0 0 54.479179332105559 -9.5708092482975644 0 -9.5708092482975644 8.9387101935653845 0 0 0 0 49.360676282609347 -10.078450113123381 0 -10.078450113123381 10.863088814391006 0 0 0 0 58.651769842719659 -8.3321822010809683 0 -8.3321822010809683 1.7070046005810582 0 0 0 0 51.079016910021892 -1.3061467809943679 0 -1.3061467809943679 2.4186300539632093 0 0 0 0 20.059988640880732 3.3683306314310784 0 3.3683306314310784 -1.6776026142344347 0 0 0 0 34.951016796156182 1.8059162065424204 0 1.8059162065424204 4.0526851424424137 0 0 0 0 23.827849949921472 0.37155218949549251 0 0.37155218949549251 1.4529597993992873 0 0 0 0 18.731192426934285 -1.1800173311497968 0 -1.1800173311497968 2.1808485323483211 0 0 0 0 34.166411919737584 2.7927542116863719 0 2.7927542116863719 2.8285625022105023 0 0 0 0 15.269849106844049 -5.0509903250163006 0 -5.0509903250163006 -2.9562094217740196 0 0 0 0 21.431243297422043 -31.070965425689565 0 -31.070965425689565 35.089768076757537 0 0 0 0 20.374765196756925 -25.979061150595498 0 -25.979061150595498 17.56361445406219 0 0 0 0 20.669844810531828 -2.1389073498520332 0 -2.1389073498520332 0.97780979290559933 0 0 0 0 20.752836731481295 -2.4577887397438616 0 -2.4577887397438616 7.607476848401272 0 0 0 0 21.799430053011747 -16.481708215673279 0 -16.481708215673279 11.878230526332118 0 0 0 0 27.940677161735948 -23.75279015786964 0 -23.75279015786964 19.645658347661083 0 0 0 0 46.024046753096627 -14.377244405207875 0 -14.377244405207875 11.274943765918579 0 0 0 0 1.6683987538024212 -9.358117833403238 0 -9.358117833403238 1.6102019758087494 0 0 0 0 18.699275393375771 -20.019004192828248 0 -20.019004192828248 12.564821892313924 0 0 0 0 58.795577672019135 -28.632574868199754 0 -28.632574868199754 7.2410522881618817 0 0 0 0 31.555635849977506 -4.4800988234983414 0 -4.4800988234983414 -0.31852306245328776 0 0 0 0 52.162718056701124 -12.425624482396671 0 -12.425624482396671 10.731355198794745 0 0 0 0 1767.3336560799798 146.75351845089699 0 146.75351845089699 380.79391483735287 0 0 0 0 896.15834712107244 63.106302978237295 0 63.106302978237295 227.26342999340977 0 0 0 0 841.15060964063741 120.72466371021574 0 120.72466371021574 427.971714215063 0 0 0 0 1592.2824337492639 465.41433297210142 0 465.41433297210142 261.25490483332396 0 0 0 0 1620.1957288486883 162.47656124154514 0 162.47656124154514 197.08264391643525 0 0 0 0 1212.5815086247458 220.28639759016244 0 220.28639759016244 288.17340086925219 0 0 0 0 4.3463868232175429 3.9625309754530349 0 3.9625309754530349 -4.2625313601432513 0 0 0 0 2333.4708526477625 333.17604514837592 0 333.17604514837592 -17.228467284283909 0 0 0 0 4010.9913495150395 870.64974566217347 0 870.64974566217347 767.15485347178014 0 0 0 0 1683.7346201851906 482.1819377442207 0 482.1819377442207 375.8854935458391 0 0 0 0 3896.7517279743115 489.11015674310664 0 489.11015674310664 -261.37709127005405 0 0 0 0 3539.958462985509 603.79874581095282 0 603.79874581095282 -274.4220752119241 0 0 0 0 3488.2188449876849 247.33194252123707 0 247.33194252123707 -641.81930454926032 0 0 0 0 4498.5786270356402 560.74881903073731 0 560.74881903073731 -565.56127342300852 0 0 0 0 3692.5214643526542 975.32262427521187 0 975.32262427521187 -448.85651775575354 0 0 0 0 3525.1414987426542 517.29186341465106 0 517.29186341465106 -251.0151271449476 0 0 0 0 3201.8381347104551 711.09561698988932 0 711.09561698988932 -287.35484221621084 0 0 0 0 3309.8031558415823 854.7605210367459 0 854.7605210367459 -115.97215512416636 0 0 0 0 3192.8177769586473 1162.9816722517448 0 1162.9816722517448 -475.32737222249449 0 0 0 0 4500.5828121190898 1815.3290456562686 0 1815.3290456562686 -747.1613202925256 0 0 0 0 923.38047724378703 1271.8447092104097 0 1271.8447092104097 267.03021676080061 0 0 0 0 3.3768408495355331 2.1781030681696052 0 2.1781030681696052 -5.6404909912445138 0 0 0 0 3060.6848590139562 1264.8238270273253 0 1264.8238270273253 -207.06810898198853 0 0 0 0 1812.4866744692117 -59.250835310385355 0 -59.250835310385355 208.48797552564429 0 0 0 0 -3.4904527391277753 4.5970653896758051 0 4.5970653896758051 -8.6412827549660314 0 0 0 0 1806.9383313653234 1109.8714752380188 0 1109.8714752380188 17.104081775902614 0 0 0 0 5.1042853945912512 6.5166774768275388 0 6.5166774768275388 -9.776248131971176 0 0 0 0 2916.3687225437752 600.53986835768728 0 600.53986835768728 -313.41818308224993 0 0 0 0 686.48286766887031 -100.31734415244398 0 -100.31734415244398 -156.84046048944947 0 0 0 0 501.02260234010464 262.02637817840741 0 262.02637817840741 381.85067452259659 0 0 0 0 282.8741466404972 215.68266587876587 0 215.68266587876587 -230.51643479154336 0 0 0 0 115.09657204988616 107.70522238410615 0 107.70522238410615 -30.804251708458651 0 0 0 0 291.46949684203719 28.5622140887358 0 28.5622140887358 -99.466203908487387 0 0 0 0 391.09242579028069 -16.286609213888369 0 -16.286609213888369 -81.460561936080467 0 0 0 0 258.9654552955908 -70.031113988144398 0 -70.031113988144398 -56.547193240022352 0 0 0 0 345.49194069794612 -58.893080473400005 0 -58.893080473400005 -55.118897701151468 0 0 0 0 245.29053877109254 -125.36613596951076 0 -125.36613596951076 50.332101032973696 0 0 0 0 264.98684928724833 -74.325823728886007 0 -74.325823728886007 52.521483495143499 0 0 0 0 496.23566228238633 -118.83223233866988 0 -118.83223233866988 -14.76762971968185 0 0 0 0 441.55575287203828 -78.009354904823113 0 -78.009354904823113 288.04495727170934 0 0 0 0 321.11921271236497 -38.343621516104122 0 -38.343621516104122 -34.980374589894382 0 0 0 0 -1.8306603154980507 0.44028305260168565 0 0.44028305260168565 0.22759382341698497 0 0 0 0 89.779232671935461 -43.637229712698627 0 -43.637229712698627 -229.83333806899827 0 0 0 0 216.16666263209481 -67.071599937020437 0 -67.071599937020437 -59.676992630548099 0 0 0 0 198.53814227047769 -130.16016457910558 0 -130.16016457910558 -57.110425096293511 0 0 0 0 132.01587743226264 -74.921991332799735 0 -74.921991332799735 60.607863735261816 0 0 0 0 40.129545130126644 -100.72975479631441 0 -100.72975479631441 58.033065486746182 0 0 0 0 42.044175323186209 -114.57136954455177 0 -114.57136954455177 73.213806206126947 0 0 0 0 32.926724923296206 -74.805936832149769 0 -74.805936832149769 146.11610069320341 0 0 0 0 46.848010499612428 -47.97429752295966 0 -47.97429752295966 194.96628581364394 0 0 0 0 116.34071930793289 -77.737465637755804 0 -77.737465637755804 136.56472643607799 0 0 0 0 104.56821166038571 -59.194483826193903 0 -59.194483826193903 208.03304686338288 0 0 0 0 197.43128467693168 -79.148964814875399 0 -79.148964814875399 206.50574645045333 0 0 0 0 171.64771395952994 -139.45051364684923 0 -139.45051364684923 162.33571272874497 0 0 0 0 100.2836369821398 -2.142289753670056 0 -2.142289753670056 287.83282161476905 0 0 0 0 106.54120688440162 -10.216670101472971 0 -10.216670101472971 143.05662433027675 0 0 0 0 24.278865140207927 74.511271299192146 0 74.511271299192146 130.78652410664884 0 0 0 0 94.507791589785484 -33.051831918185144 0 -33.051831918185144 101.1110650840069 0 0 0 0 -1.9908031562639508 1.287127904917071 0 1.287127904917071 2.7214006060625548 0 0 0 0 37.301695135698537 -64.333536811035742 0 -64.333536811035742 167.463476302853 0 0 0 0 495.55053635820514 -151.49808501091013 0 -151.49808501091013 334.40510894311319 0 0 0 0 296.77159819475492 -156.54179893314824 0 -156.54179893314824 233.17502690008632 0 0 0 0 402.37182141191442 -41.506622400075685 0 -41.506622400075685 216.48489363838158 0 0 0 0 196.58587003770026 -73.939105972603357 0 -73.939105972603357 306.60066071111214 0 0 0 0 411.76260874868603 -61.43771249060751 0 -61.43771249060751 246.98988686466487 0 0 0 0 1015.9786699246324 -105.30582108525044 0 -105.30582108525044 196.93706080670461 0 0 0 0 435.01815060983063 12.089665487060302 0 12.089665487060302 367.90509093980859 0 0 0 0 465.35337202036317 -216.15839431157906 0 -216.15839431157906 45.46376447475933 0 0 0 0 742.04944219659228 83.549665065179681 0 83.549665065179681 258.30129064318169 0 0 0 0 -120.28824690036708 -80.67574409772493 0 -80.67574409772493 356.73052014769223 0 0 0 0 -0.64378443282055997 1.1298141178195635 0 1.1298141178195635 0.50485587281333233 0 0 0 0 10.894387930588215 7.5780826374862045 0 7.5780826374862045 -1.7057774269603101 0 0 0 0 126.18496955586306 49.060645715083638 0 49.060645715083638 -40.425398364545799 0 0 0 0 -147.10446915547072 47.383886343838412 0 47.383886343838412 183.94210424679795 0 0 0 0 365.89944149339863 194.61186387581188 0 194.61186387581188 25.480375303575912 0 0 0 0 937.38180855197425 87.727450765367394 0 87.727450765367394 -21.325260910234874 0 0 0 0 759.88021283560374 -151.12205320378575 0 -151.12205320378575 106.04429648248697 0 0 0 0 16.115035389477271 44.054255620219806 0 44.054255620219806 42.27629085113972 0 0 0 0 59.282487610413227 95.581059034762518 0 95.581059034762518 -11.616823660237472 0 0 0 0 48.411672793270554 91.214362870228797 0 91.214362870228797 -12.896848719097989 0 0 0 0 135.49059117799334 67.67508508291553 0 67.67508508291553 30.855499638157994 0 0 0 0 72.406900395719276 69.147868487027267 0 69.147868487027267 -24.14395284217062 0 0 0 0 65.442632195452461 85.769742332918895 0 85.769742332918895 44.830058919473458 0 0 0 0 138.11988363969431 111.32933757355585 0 111.32933757355585 212.83804068660217 0 0 0 0 301.74638259023186 82.633731290089059 0 82.633731290089059 26.780835277359074 0 0 0 0 106.71117528683408 130.7858546253189 0 130.7858546253189 -36.881511792611036 0 0 0 0 101.54079542672844 30.039180246038541 0 30.039180246038541 13.008088526813026 0 0 0 0 91.065469776134705 109.75515563155932 0 109.75515563155932 -29.725478526010988 0 0 0 0 94.883386340490233 52.23899379495073 0 52.23899379495073 24.077513812284074 0 0 0 0 112.62438454382936 119.17245394223994 0 119.17245394223994 -80.10302973103353 0 0 0 0 113.90281844053243 105.7750099332643 0 105.7750099332643 -29.535109671524083 0 0 0 0 134.83530347447959 67.297892874714307 0 67.297892874714307 -28.788235189203533 0 0 0 0 75.146503670461243 67.9536269161581 0 67.9536269161581 -27.911834677229763 0 0 0 0 44.195072673261166 61.331379716045831 0 61.331379716045831 -26.049519727853749 0 0 0 0 61.142642404105572 70.962490339373289 0 70.962490339373289 37.790321859472897 0 0 0 0 109.37602847717062 67.180238921866476 0 67.180238921866476 26.940239819243288 0 0 0 0 74.252013392758869 48.736022369898151 0 48.736022369898151 25.591926256709321 0 0 0 0 60.679894722051472 90.001007238028592 0 90.001007238028592 12.792410392885358 0 0 0 0 68.41964998644653 71.170040779954661 0 71.170040779954661 12.838822400359277 0 0 0 0 76.518966615170939 52.045597615594488 0 52.045597615594488 46.95193436176487 0 0 0 0 89.392919558740687 68.441769845452654 0 68.441769845452654 57.685340008829371 0 0 0 0 170.65766085288487 58.45285548990978 0 58.45285548990978 23.103551691608118 0 0 0 0 124.99083924934894 85.696489871581889 0 85.696489871581889 40.814374503981526 0 0 0 0 957.76021514867898 -126.5731909034439 0 -126.5731909034439 -149.89302026664427 0 0 0 0 289.34321277594699 -17.892309585655909 0 -17.892309585655909 90.770213169842464 0 0 0 0 13.122962338641958 47.411916978836487 0 47.411916978836487 21.969482674341588 0 0 0 0 276.86971412924686 151.88190813637428 0 151.88190813637428 -141.96085825350474 0 0 0 0 -69.215241420242819 28.539475300555296 0 28.539475300555296 66.405844354632791 0 0 0 0 46.210677590483101 75.906893213084913 0 75.906893213084913 32.8155068849901 0 0 0 0 -8.6020827630640611 4.1640384603400449 0 4.1640384603400449 7.1835935080316826 0 0 0 0 502.89060269832407 117.55620808752974 0 117.55620808752974 -81.6195945672589 0 0 0 0 314.78896331900614 29.167217762576911 0 29.167217762576911 -24.407372939897868 0 0 0 0 186.04366082638444 -113.07930348921036 0 -113.07930348921036 48.913269834136372 0 0 0 0 323.54055538805551 -80.232791112413906 0 -80.232791112413906 73.341855886824305 0 0 0 0 1115.805041694286 -234.37983400133453 0 -234.37983400133453 -136.39683509796731 0 0 0 0 1206.3022327954386 -280.34792057459163 0 -280.34792057459163 -137.68484571409562 0 0 0 0 1764.8706665146492 -26.806644509367061 0 -26.806644509367061 -244.66569021868418 0 0 0 0 1144.5150103530759 -88.939979112390574 0 -88.939979112390574 -89.900223456675121 0 0 0 0 2182.8370582442585 -214.80673840289001 0 -214.80673840289001 -404.40340798398211 0 0 0 0 1835.3016426177746 -189.50343578591719 0 -189.50343578591719 -369.83293028615299 0 0 0 0 2232.5942580322444 -39.562400473684193 0 -39.562400473684193 -331.31947211050101 0 0 0 0 1758.361735554834 14.744501735562608 0 14.744501735562608 -22.869987243362175 0 0 0 0 1610.9449659431411 -184.20101691486957 0 -184.20101691486957 -209.85522277439787 0 0 0 0 1209.1945460187708 152.85739465543668 0 152.85739465543668 -48.329032717530481 0 0 0 0 1031.8358541213966 96.744080345171767 0 96.744080345171767 215.97608676355242 0 0 0 0 1061.449716588344 -118.00558927359577 0 -118.00558927359577 84.678462823059817 0 0 0 0 1580.4515360607911 4.3692234658198004 0 4.3692234658198004 -17.635556686783616 0 0 0 0 2299.8754416696574 -85.00070677736494 0 -85.00070677736494 386.11210708138259 0 0 0 0 2356.6323228787369 -118.265024370167 0 -118.265024370167 -108.68649468579162 0 0 0 0 1579.0805575773993 -12.9102713023712 0 -12.9102713023712 322.29193644173517 0 0 0 0 2576.8635191564281 -93.110897094557785 0 -93.110897094557785 13.147387523750353 0 0 0 0 1887.179512060924 -18.040971842859108 0 -18.040971842859108 88.75427571704904 0 0 0 0 2773.0593505144461 -850.90142208418069 0 -850.90142208418069 708.72318230852056 0 0 0 0 1418.9562255117053 -175.90418487710991 0 -175.90418487710991 142.08661355607194 0 0 0 0 1602.9444257295399 108.2624156496496 0 108.2624156496496 164.73704368329058 0 0 0 0 3257.865056543822 -483.52944812263411 0 -483.52944812263411 -336.59462349874241 0 0 0 0 4499.5706875582546 -7.6725773428412039 0 -7.6725773428412039 -755.00955009720383 0 0 0 0 5300.0108460486554 -696.56273775058116 0 -696.56273775058116 -813.88761167007885 0 0 0 0 8.8889920458824179 4.6530135221487399 0 4.6530135221487399 1.1050379301782534 0 0 0 0 2258.9369007555579 453.72414019062279 0 453.72414019062279 -62.218291827695623 0 0 0 0 13.000896856468557 12.199052652593707 0 12.199052652593707 11.189713448120569 0 0 0 0 3759.8735102587671 -668.26088905605968 0 -668.26088905605968 -36.689196506034719 0 0 0 0 4137.6279423262895 -672.66634479834158 0 -672.66634479834158 -323.55584538878844 0 0 0 0 4499.0562594744479 -874.60502652997786 0 -874.60502652997786 -281.31922246406759 0 0 0 0 3967.5350030946283 -1062.2459039884418 0 -1062.2459039884418 145.71976679676064 0 0 0 0 2789.611419594592 -372.94746291871365 0 -372.94746291871365 -138.9148428817407 0 0 0 0 2118.0847604291339 -410.05170343424561 0 -410.05170343424561 6.3231898782241842 0 0 0 0 1402.402721071383 -5.53023350719468 0 -5.53023350719468 -222.03140054818959 0 0 0 0 2295.5666780889151 99.661995035510699 0 99.661995035510699 -377.87448754953948 0 0 0 0 2128.0283011302381 -123.51813066475097 0 -123.51813066475097 -554.9498388233078 0 0 0 0 4348.3246848824783 -1173.5907102476453 0 -1173.5907102476453 152.58965364169541 0 0 0 0 4500.0623558664447 -1424.8780342967214 0 -1424.8780342967214 444.9996733811891 0 0 0 0 3764.9540080799343 -1427.175691140917 0 -1427.175691140917 659.76417230439063 0 0 0 0 1267.1934450797708 460.8544671263362 0 460.8544671263362 -175.27855143321358 0 0 0 0 14.824202388440469 12.081479333630696 0 12.081479333630696 32.029304984139181 0 0 0 0 4243.2317037397297 -1464.7514067467962 0 -1464.7514067467962 1259.1933670047913 0 0 0 0 4165.9479863439501 -2578.0554610246731 0 -2578.0554610246731 953.38692512062653 0 0 0 0 5831.0471887542226 -1354.7809353257996 0 -1354.7809353257996 288.74928751293965 0 0 0 0 2.4675111324005456 8.6358444130074759 0 8.6358444130074759 9.0598747206895531 0 0 0 0 1497.2285618288006 230.94657894475313 0 230.94657894475313 -509.18668338892212 0 0 0 0 1600.3259012920316 526.33163005795359 0 526.33163005795359 -427.43245289635161 0 0 0 0 1594.6713601128577 247.48204352377616 0 247.48204352377616 -393.78900589401019 0 0 0 0 2209.3307814580621 530.26800105256916 0 530.26800105256916 -555.80735905015172 0 0 0 0 2743.1487169400207 -156.1715059373164 0 -156.1715059373164 -556.73075373198719 0 0 0 0 2370.8583992712083 455.18182426155545 0 455.18182426155545 -557.26032008175753 0 0 0 0 3192.2246090451081 1075.910907833837 0 1075.910907833837 -630.00579533454584 0 0 0 0 2067.7902176691277 1282.6390348789573 0 1282.6390348789573 -48.121420373325236 0 0 0 0 1224.1969968278136 572.03523247103294 0 572.03523247103294 -28.824521820930386 0 0 0 0 225.59184938152612 2635.1643372204235 0 2635.1643372204235 2779.9691128916165 0 0 0 0 -862.09569344158808 -344.1822109390796 0 -344.1822109390796 1172.2467483711116 0 0 0 0 4671.0979735660658 1582.5956662254321 0 1582.5956662254321 -23.437136746777696 0 0 0 0 4499.8019306269998 -985.30944356812199 0 -985.30944356812199 276.27912001942161 0 0 0 0 10.812267220470758 6.3326578924946944 0 6.3326578924946944 18.974475557942146 0 0 0 0 22.77791070847492 -22.522310604074448 0 -22.522310604074448 30.988640902432955 0 0 0 0 89.071898332604178 -110.80907955584803 0 -110.80907955584803 603.52383457611472 0 0 0 0 845.5211364186398 -583.61234847518335 0 -583.61234847518335 486.97784291322387 0 0 0 0 1895.9659478036119 -665.54784095126524 0 -665.54784095126524 -49.804723787960029 0 0 0 0 949.65766363094008 -396.10433476613889 0 -396.10433476613889 189.99020490397743 0 0 0 0 2025.8821292450448 -274.53776672234926 0 -274.53776672234926 -426.88859720199071 0 0 0 0 2190.972535820365 -390.49436072504432 0 -390.49436072504432 -555.62007159634413 0 0 0 0 3493.8995865875886 -652.31393131430252 0 -652.31393131430252 -594.97725277979043 0 0 0 0 52.342177571443187 -11.59103229152138 0 -11.59103229152138 4.6066783116479932 0 0 0 0 1699.5294890473451 -1403.1912004725737 0 -1403.1912004725737 669.38177103216913 0 0 0 0 5148.2158872307991 -580.59440918312475 0 -580.59440918312475 -609.91038272971127 0 0 0 0 -164.0926960413999 -56.91945047230729 0 -56.91945047230729 321.35892142327066 0 0 0 0 879.52422978429968 1158.717678956298 0 1158.717678956298 168.12269251187695 0 0 0 0 3277.6497832114401 1278.4908433775599 0 1278.4908433775599 -129.30659723639474 0 0 0 0 2916.540808409678 163.19768475181445 0 163.19768475181445 57.298624494340402 0 0 0 0 5416.7252064224158 747.71338137667396 0 747.71338137667396 -379.16396232049544 0 0 0 0 4492.3902597650231 1929.7542357147511 0 1929.7542357147511 -456.23203589647585 0 0 0 0 1866.1097356740029 2352.6770220159256 0 2352.6770220159256 1550.2726342009646 0 0 0 0 5892.4721189929987 -752.95641738702852 0 -752.95641738702852 -781.23674059641417 0 0 0 0 572.93965965092866 422.59061604644461 0 422.59061604644461 488.20292721500175 0 0 0 0 24.816172555832438 -30.612607229644979 0 -30.612607229644979 29.587952238016218 0 0 0 0 2961.9423714556251 -107.95005478532312 0 -107.95005478532312 -711.30748398243895 0 0 0 0 2777.4759469715573 1074.1260261754001 0 1074.1260261754001 -264.87255271954007 0 0 0 0 2832.8304051233645 990.45186616940418 0 990.45186616940418 -599.3884110511284 0 0 0 0 4500.8024350546521 603.12195082604478 0 603.12195082604478 -680.32027616850007 0 0 0 0 3054.477679942971 -23.263293698334991 0 -23.263293698334991 -594.72010640617043 0 0 0 0 3211.0230148455666 -451.45196065218528 0 -451.45196065218528 210.80896018490859 0 0 0 0 980.68877952865296 -47.377657322964282 0 -47.377657322964282 161.10210242155853 0 0 0 0 13.276482276450835 -10.858311778136084 0 -10.858311778136084 9.2010644122089431 0 0 0 0 1135.7282614567011 -129.01274764403666 0 -129.01274764403666 1106.1572816950734 0 0 0 0 2841.3748920744838 771.90828869356778 0 771.90828869356778 -7.7963379854563755 0 0 0 0 3838.453239509241 -309.30855281339757 0 -309.30855281339757 -399.84965756928 0 0 0 0 2465.3761662045454 -139.99882358097736 0 -139.99882358097736 -340.19219437624315 0 0 0 0 2541.4595673218773 2.2120120580153468 0 2.2120120580153468 -81.943706930674239 0 0 0 0 766.6929348734011 644.16926208087216 0 644.16926208087216 173.7916522174811 0 0 0 0 1608.3973550843657 101.78194215319508 0 101.78194215319508 -71.468068625073556 0 0 0 0 871.20791212122276 -138.41642851814652 0 -138.41642851814652 205.72877048003124 0 0 0 0 2503.6316302664854 -322.52019504894383 0 -322.52019504894383 -166.31100689272853 0 0 0 0 2437.3217175145119 -622.69385510576376 0 -622.69385510576376 -143.70196544741543 0 0 0 0 4502.2350380725329 -1071.9974293058187 0 -1071.9974293058187 -599.62924920380192 0 0 0 0 4497.7069223084545 -375.38569787692927 0 -375.38569787692927 -555.02865471661414 0 0 0 0 3324.0543194782949 -789.74107949473057 0 -789.74107949473057 -581.08112194594014 0 0 0 0 3395.2474277185174 -492.3999295066734 0 -492.3999295066734 -398.69347693991921 0 0 0 0 47.059130005443876 -73.541040359596195 0 -73.541040359596195 45.99943458578467 0 0 0 0 45.512791078268492 -31.642410612811148 0 -31.642410612811148 279.07451057868457 0 0 0 0 -30.122224043159804 -102.53128906945192 0 -102.53128906945192 178.10359343617631 0 0 0 0 0.61430052137042424 0.72158610270038537 0 0.72158610270038537 0.84684001535801512 0 0 0 0 66.743374190853501 154.83576142117067 0 154.83576142117067 52.82651749328484 0 0 0 0 286.04602225690905 42.899512799443698 0 42.899512799443698 156.22328328644284 0 0 0 0 42.14162589119951 89.43624715231644 0 89.43624715231644 291.3970822276105 0 0 0 0 873.78170984312965 -44.023965381787178 0 -44.023965381787178 195.12315006062556 0 0 0 0 320.73551932265764 155.20490072816636 0 155.20490072816636 363.40665496185318 0 0 0 0 746.23630648276708 66.531628789632421 0 66.531628789632421 139.58894330138992 0 0 0 0 264.56948699717759 -50.223745573073302 0 -50.223745573073302 354.96284286385929 0 0 0 0 231.23834892565901 13.587234812511952 0 13.587234812511952 235.74287633332415 0 0 0 0 -64.012176173418993 -108.73195968542045 0 -108.73195968542045 256.81728620109561 0 0 0 0 257.43645261215715 164.03809666675807 0 164.03809666675807 159.16578628384121 0 0 0 0 -5.6070453625475807 -0.98490913517589718 0 -0.98490913517589718 0.54256676162780504 0 0 0 0 888.38480757541583 569.66188436815355 0 569.66188436815355 -148.10362915152291 0 0 0 0 194.73138290517818 178.49713525662241 0 178.49713525662241 731.45523381001681 0 0 0 0 -514.31546205137238 -1008.4851253819672 0 -1008.4851253819672 384.63625035204745 0 0 0 0 -545.70260663374938 841.65061120430164 0 841.65061120430164 178.98293785464148 0 0 0 0 196.10078819738555 136.08763274815033 0 136.08763274815033 -567.35731549079719 0 0 0 0 -9.4612083428763327 -5.1232553911558902 0 -5.1232553911558902 -1.3043739199760342 0 0 0 0 41.211832846085599 -93.118185023314254 0 -93.118185023314254 93.458789786470192 0 0 0 0 27.282780256487968 -99.660668044506323 0 -99.660668044506323 170.12049621406442 0 0 0 0 16.442439206137351 -114.41279917876578 0 -114.41279917876578 199.45992031830372 0 0 0 0 -6.5528237502838635 -5.2623832523375533 0 -5.2623832523375533 -2.4069810114075838 0 0 0 0 140.11270106009943 -209.49677976837492 0 -209.49677976837492 -206.29826251581358 0 0 0 0 273.68734054348897 24.363998245039454 0 24.363998245039454 -427.42531258926374 0 0 0 0 61.645226688982802 -3.1831206346214458 0 -3.1831206346214458 -39.99812332192505 0 0 0 0 55.412413726447994 113.54321374150692 0 113.54321374150692 -264.97450301102799 0 0 0 0 65.812632786133776 -5.8526190924659396 0 -5.8526190924659396 -7.7290326967815535 0 0 0 0 106.22459220721794 58.153240465525869 0 58.153240465525869 22.317595950672967 0 0 0 0 42.041458968822553 12.955309648369393 0 12.955309648369393 24.936474992749027 0 0 0 0 21.608557592851867 -465.26675205070842 0 -465.26675205070842 -1208.8065292556057 0 0 0 0 91.168567855529545 143.66283224207746 0 143.66283224207746 891.02956192756483 0 0 0 0 824.93453328832493 -932.09723978543752 0 -932.09723978543752 -437.65791189537777 0 0 0 0 -24.692430141876685 196.70292449264929 0 196.70292449264929 -346.47743055328255 0 0 0 0 -1048.5010497815783 -570.50690042028327 0 -570.50690042028327 119.31382226754067 0 0 0 0 28.541468858985869 -6.4469878936585161 0 -6.4469878936585161 -17.338645954239173 0 0 0 0 169.43026708266552 -392.17086562728582 0 -392.17086562728582 -742.71908618157977 0 0 0 0 137.8710840783512 -27.890781237078784 0 -27.890781237078784 -6.1049487349942808 0 0 0 0 327.08168077511073 155.11126828662782 0 155.11126828662782 -443.31463530274596 0 0 0 0 37.518725461343593 6.4848508535743434 0 6.4848508535743434 -7.4460326022308436 0 0 0 0 34.274474399626648 39.072172443987682 0 39.072172443987682 -48.557997526162708 0 0 0 0 91.998669811015134 102.10913958652327 0 102.10913958652327 -66.714631990929774 0 0 0 0 0.54736382007401296 46.069214683381659 0 46.069214683381659 -12.277662406203895 0 0 0 0 16.05441268774257 54.34041344014031 0 54.34041344014031 10.564509197312873 0 0 0 0 -64.973614454345352 98.431841355683332 0 98.431841355683332 117.32390374707575 0 0 0 0 205.66470413432398 104.46539456611117 0 104.46539456611117 -66.669933088671485 0 0 0 0 96.087739422408049 -55.158163296148814 0 -55.158163296148814 292.03708740043112 0 0 0 0 130.77688308531651 36.078398731028301 0 36.078398731028301 1.5284582586223223 0 0 0 0 75.576327929311446 25.950882363580376 0 25.950882363580376 -8.6694847590570134 0 0 0 0 32.767876858983072 36.189651361957658 0 36.189651361957658 29.097286356914083 0 0 0 0 59.513324615370948 45.614574829043704 0 45.614574829043704 -30.454356587591974 0 0 0 0 131.17850424154312 33.728653471079269 0 33.728653471079269 31.309391476492237 0 0 0 0 84.572629967131434 58.155366955674822 0 58.155366955674822 30.485531842075943 0 0 0 0 243.16417825136159 75.70026933652116 0 75.70026933652116 27.917532561017651 0 0 0 0 191.38023286002863 64.859332770653054 0 64.859332770653054 33.737119566171259 0 0 0 0 186.65471330294167 69.935796670815307 0 69.935796670815307 32.681368356388703 0 0 0 0 228.30486185112386 78.356907055276679 0 78.356907055276679 25.788761514901125 0 0 0 0 189.81797820709471 63.329838006224236 0 63.329838006224236 17.672167189432912 0 0 0 0 172.74041229523573 78.996724536212241 0 78.996724536212241 28.748259103096643 0 0 0 0 121.01452714133484 62.524708391054901 0 62.524708391054901 31.20620101923987 0 0 0 0 198.73236185499263 69.61171435231654 0 69.61171435231654 16.765246192224367 0 0 0 0 188.23849747654822 81.700493497994103 0 81.700493497994103 21.162110637801561 0 0 0 0 233.57364397805941 89.316148372035059 0 89.316148372035059 -14.903293696074343 0 0 0 0 215.87446900368377 85.468305811906248 0 85.468305811906248 19.434203672497461 0 0 0 0 255.12268837056763 64.911111621480359 0 64.911111621480359 31.575951670536597 0 0 0 0 256.52744167782657 67.758470470702377 0 67.758470470702377 5.1614388832549594 0 0 0 0 263.75904026354783 107.24701833444334 0 107.24701833444334 36.637521341002866 0 0 0 0 236.50140774788451 95.199734674701176 0 95.199734674701176 36.940133915186379 0 0 0 0 -153.47386537597049 -96.027259389895335 0 -96.027259389895335 -59.988769746189064 0 0 0 0 337.98524492475553 105.52919382564869 0 105.52919382564869 47.591860241707764 0 0 0 0 235.89334264527133 89.965766313385757 0 89.965766313385757 70.459774183695117 0 0 0 0 222.42930359223828 75.693478461114864 0 75.693478461114864 33.943757976201596 0 0 0 0 222.8736809927068 97.387854303839049 0 97.387854303839049 46.257437638740157 0 0 0 0 255.52043376969232 96.054170308068933 0 96.054170308068933 33.610864533588028 0 0 0 0 226.6918795755264 98.206676994628651 0 98.206676994628651 42.660931481455918 0 0 0 0 249.99991935786238 103.43971965380979 0 103.43971965380979 47.819813180834899 0 0 0 0 -224.72699456251576 -25.28769527192344 0 -25.28769527192344 -44.944717898897579 0 0 0 0 -85.683771286196134 12.074563517036495 0 12.074563517036495 -79.875805500594652 0 0 0 0 8.7346744443102011 0.89014947384008281 0 0.89014947384008281 -2.4835123395759737 0 0 0 0 -10.926753932377324 -58.951576043180467 0 -58.951576043180467 -76.089037439265667 0 0 0 0 50.301724502561896 -32.177951068741471 0 -32.177951068741471 -17.903039104271159 0 0 0 0 0.54868865438028536 -2.505078392423556 0 -2.505078392423556 -2.7681326080466668 0 0 0 0 190.37590316571368 170.13995068028726 0 170.13995068028726 126.35930992177873 0 0 0 0 -65.042025402504805 -53.988511424979606 0 -53.988511424979606 130.24923976386708 0 0 0 0 81.717291043387377 -51.414931617685397 0 -51.414931617685397 9.6545902913485406 0 0 0 0 85.024623648883789 -0.45167950661510758 0 -0.45167950661510758 82.658816311921328 0 0 0 0 292.62673826416722 -206.88567277175935 0 -206.88567277175935 274.04087681193096 0 0 0 0 417.15574168208695 -72.048714240738263 0 -72.048714240738263 32.807038145108891 0 0 0 0 -148.26758709026763 -24.057897945285276 0 -24.057897945285276 117.22591815688702 0 0 0 0 80.584582084906287 -47.794400737273918 0 -47.794400737273918 -86.661728257247887 0 0 0 0 66.041755636804737 -107.54433475978203 0 -107.54433475978203 240.60730138910913 0 0 0 0 253.95532220640416 54.779287175334048 0 54.779287175334048 -56.316715191649564 0 0 0 0 -186.36905417493836 -139.83627753278506 0 -139.83627753278506 58.16592844008801 0 0 0 0 24.678379477461462 -23.868480676906202 0 -23.868480676906202 -5.8791955773934621 0 0 0 0 -198.16665552660561 -105.93971738248456 0 -105.93971738248456 -37.990496987571078 0 0 0 0 163.6992381975324 72.784063672140292 0 72.784063672140292 61.637746246000461 0 0 0 0 285.8672413833483 126.96763082139137 0 126.96763082139137 -84.520069012220119 0 0 0 0 175.82337718040765 109.05852162042105 0 109.05852162042105 76.831563308671321 0 0 0 0 229.05447714652109 120.21545961722813 0 120.21545961722813 -100.90669256084766 0 0 0 0 26.521140884382476 -214.83078197034138 0 -214.83078197034138 -25.789609575592067 0 0 0 0 180.61827470035405 -402.21887627507073 0 -402.21887627507073 -275.18896152581829 0 0 0 0 30.065999508139967 -29.835249932489788 0 -29.835249932489788 7.4804846279363382 0 0 0 0 -31.251305087949731 -73.141382141442136 0 -73.141382141442136 67.977352114572568 0 0 0 0 -0.0026381604174368078 -0.020085322547259921 0 -0.020085322547259921 -1.7994357012925981 0 0 0 0 85.066891854425194 -114.65377268262682 0 -114.65377268262682 -13.181991166360376 0 0 0 0 23.433514050822879 -34.111774896572712 0 -34.111774896572712 14.037870981380216 0 0 0 0 -462.24970261218186 -199.21865048308732 0 -199.21865048308732 658.44311976675067 0 0 0 0 996.78498772142484 -87.869342586723846 0 -87.869342586723846 -461.12318101739623 0 0 0 0 918.57350526860682 337.48247408085467 0 337.48247408085467 -295.19847430505826 0 0 0 0 461.80415818125766 471.48231025690978 0 471.48231025690978 337.15496191959664 0 0 0 0 392.37674170354148 -362.76970429636441 0 -362.76970429636441 -238.11489352586756 0 0 0 0 -242.61889210916706 -232.35871540304754 0 -232.35871540304754 -241.17563006104544 0 0 0 0 13.65867026622405 0.05301660822885168 0 0.05301660822885168 -0.73050972400398506 0 0 0 0 233.15158432762837 415.40882967351865 0 415.40882967351865 511.59236625766897 0 0 0 0 -1.9618096081046019 -2.1706334520566024 0 -2.1706334520566024 -1.3447485964977737 0 0 0 0 38.724784156463045 -5.2111434949508464 0 -5.2111434949508464 0.76570906412192064 0 0 0 0 70.619108390288602 -35.276510274258953 0 -35.276510274258953 -544.44321312661566 0 0 0 0 210.58249387514297 -49.6135802335682 0 -49.6135802335682 -722.73847988810735 0 0 0 0 111.81381342001259 11.434187017756358 0 11.434187017756358 -9.114325046000431 0 0 0 0 39.647314095935144 31.238747578287303 0 31.238747578287303 101.28488097835771 0 0 0 0 112.05409911829338 53.829003573333011 0 53.829003573333011 23.618728590221764 0 0 0 0 186.25540507795085 128.87752260141497 0 128.87752260141497 84.263706550133975 0 0 0 0 233.51438712528034 116.47348745226736 0 116.47348745226736 -7.7746911844234319 0 0 0 0 264.37334084489339 150.40953453546979 0 150.40953453546979 24.983644877720508 0 0 0 0 344.34777661324188 245.74480823478575 0 245.74480823478575 -19.810343867881784 0 0 0 0 109.86941227542411 176.91106714784064 0 176.91106714784064 383.35489243557322 0 0 0 0 15.208601144360728 2.3570404973893346 0 2.3570404973893346 2.9895990717495806 0 0 0 0 16.67212325881701 5.6889743244992133 0 5.6889743244992133 5.1900555564102433 0 0 0 0 16.778790858050343 2.7689146577959036 0 2.7689146577959036 1.7020993593264393 0 0 0 0 15.40923819264367 0.9093330191306066 0 0.9093330191306066 0.29215947044849599 0 0 0 0 44.348738281034457 19.249750943540676 0 19.249750943540676 -6.908301068478977 0 0 0 0 15.409158311232545 0.900484862904122 0 0.900484862904122 3.3772760525534977 0 0 0 0 10.399423624025076 -6.5183456225208829 0 -6.5183456225208829 -5.1400450908040511 0 0 0 0 12.363846171542463 -1.0282667204717102 0 -1.0282667204717102 0.04760281866628191 0 0 0 0 49.130787309608422 -25.092485303946887 0 -25.092485303946887 37.292622806312011 0 0 0 0 28.325919132887066 -62.362232108483454 0 -62.362232108483454 65.857813231075852 0 0 0 0 -12.56659001877415 -14.175306534334595 0 -14.175306534334595 13.715554808823072 0 0 0 0 6.5717520625667021 8.752387207025194 0 8.752387207025194 26.144846127022902 0 0 0 0 6.2685331028478686 2.0572393767470203 0 2.0572393767470203 3.9444232898331393 0 0 0 0 9.1412492982490221 22.09396131730864 0 22.09396131730864 9.7933585034188582 0 0 0 0 9.107017749818624 27.036423931641366 0 27.036423931641366 25.266991878024783 0 0 0 0 35.594808779365849 44.119176939324461 0 44.119176939324461 -11.597310150031262 0 0 0 0 26.13754713513481 25.024585223133727 0 25.024585223133727 3.8552726382438323 0 0 0 0 26.687909929769376 46.465555366382318 0 46.465555366382318 61.6078019559518 0 0 0 0 122.84704326983774 49.391650239424052 0 49.391650239424052 8.9721174715650704 0 0 0 0 25.104602130377316 37.543823084118912 0 37.543823084118912 31.73368977606151 0 0 0 0 9.1331923427169386 -96.152459999927032 0 -96.152459999927032 279.40775671079609 0 0 0 0 60.124696725528338 61.65660579382984 0 61.65660579382984 101.66469999736273 0 0 0 0 4.3099081081476243 -0.86805113472935691 0 -0.86805113472935691 0.17250105552695927 0 0 0 0 -20.67290299256274 2.8555347120855004 0 2.8555347120855004 79.141325275187228 0 0 0 0 12.283340455338475 -33.411157084243314 0 -33.411157084243314 60.056761625761737 0 0 0 0 170.98235015696264 -168.93753783387933 0 -168.93753783387933 141.80445313955079 0 0 0 0 194.79778020022786 86.199279439419115 0 86.199279439419115 68.262619020158127 0 0 0 0 460.23664219141938 -79.74762386253451 0 -79.74762386253451 -41.227170709300481 0 0 0 0 267.28660532092908 -60.915755688833087 0 -60.915755688833087 -42.46021709231627 0 0 0 0 361.17317457983154 38.822002843365226 0 38.822002843365226 5.7802719401770446 0 0 0 0 120.66942298956565 20.965553826138603 0 20.965553826138603 4.7540424266289847 0 0 0 0 276.51023813165375 -40.927364114855664 0 -40.927364114855664 -34.224598033020811 0 0 0 0 42.188219937233953 -46.044266663857343 0 -46.044266663857343 -32.517214854939539 0 0 0 0 88.643416569488181 -5.0575060689538986 0 -5.0575060689538986 -51.936729659510092 0 0 0 0 230.87866843110532 -162.08796264387911 0 -162.08796264387911 -129.08473628269348 0 0 0 0 421.92059281336697 -104.83542428219062 0 -104.83542428219062 -115.10685844887121 0 0 0 0 2.137532480995759 -1.5061944967496146 0 -1.5061944967496146 0.8209511308032944 0 0 0 0 265.3323811373848 -178.0819010206942 0 -178.0819010206942 -169.92004390932743 0 0 0 0 574.17363132875471 269.61842032486356 0 269.61842032486356 -101.17635796756622 0 0 0 0 785.00351223064354 -121.71667307865573 0 -121.71667307865573 -365.22805030670861 0 0 0 0 -60.449381864116731 -11.344671815698689 0 -11.344671815698689 -32.022910479039638 0 0 0 0 -19.781112017211854 -177.74489379586248 0 -177.74489379586248 -80.508567593294174 0 0 0 0 152.12527838605456 45.726236647005862 0 45.726236647005862 35.23543347332452 0 0 0 0 132.30676880777173 104.57227482720509 0 104.57227482720509 21.412607503512845 0 0 0 0 287.53740724528325 214.46708486702119 0 214.46708486702119 108.30531029308986 0 0 0 0 121.5480596498528 94.887540161334073 0 94.887540161334073 131.54533752626321 0 0 0 0 9.5263096931485123 -2.2002512729836923 0 -2.2002512729836923 -6.1400985279795961 0 0 0 0 165.25741499579453 -2.0603217880620832 0 -2.0603217880620832 -87.969417614595386 0 0 0 0 114.69732407345145 -31.492484514268199 0 -31.492484514268199 -5.2686908240411867 0 0 0 0 143.54836171425995 -6.0564646829579942 0 -6.0564646829579942 -19.787306766466372 0 0 0 0 188.27493573952233 -8.3746941979788971 0 -8.3746941979788971 -26.43947674238143 0 0 0 0 160.55744844672154 1.2942895269695782 0 1.2942895269695782 70.839634489871969 0 0 0 0 6.2213338495968458 -4.1028642044238381 0 -4.1028642044238381 3.0966424077996137 0 0 0 0 -0.04190656052080044 -0.07987944919415213 0 -0.07987944919415213 1.5629003703805315 0 0 0 0 140.6319792828499 -29.845490047783301 0 -29.845490047783301 18.450817530724635 0 0 0 0 11.050252903020009 -24.72086001700518 0 -24.72086001700518 -47.308096959830436 0 0 0 0 61.475971564796055 39.082787041730171 0 39.082787041730171 11.908440604464886 0 0 0 0 157.48014704705201 54.548752631086927 0 54.548752631086927 8.0732679442644439 0 0 0 0 16.698567002877951 -5.1553298669912806 0 -5.1553298669912806 -0.60049665420616272 0 0 0 0 8.7876426214287164 2.4804108891779464 0 2.4804108891779464 -3.0154598709779723 0 0 0 0 10.316602235175196 -18.379274436321424 0 -18.379274436321424 -17.469178117104093 0 0 0 0 26.648250895144884 5.8468744613628587 0 5.8468744613628587 -32.995948678708373 0 0 0 0 17.688977123805671 8.2548411253196718 0 8.2548411253196718 -23.742269144686361 0 0 0 0 19.179258737174678 12.936007113579763 0 12.936007113579763 -71.224722681668027 0 0 0 0 24.440888376420844 11.917849581310406 0 11.917849581310406 -30.901891559447904 0 0 0 0 23.267465822362283 2.1551233709296866 0 2.1551233709296866 -1.990025735420204 0 0 0 0 17.818607116641942 13.46463589598261 0 13.46463589598261 0.68998578977789293 0 0 0 0 25.905071978597334 18.300054114920044 0 18.300054114920044 -11.132816541097782 0 0 0 0 17.696313896976562 7.6048444212447919 0 7.6048444212447919 2.0364011331421352 0 0 0 0 27.352226435526973 0.35252997661064001 0 0.35252997661064001 -16.715281674996277 0 0 0 0 28.528237804552191 -13.414258692749627 0 -13.414258692749627 -5.1993858824055224 0 0 0 0 11.202778705806566 0.39544481143043697 0 0.39544481143043697 -2.2924663277714501 0 0 0 0 6.400003279262819 -13.811403238636274 0 -13.811403238636274 0.85900921971915523 0 0 0 0 24.508761970093474 -2.8120109825558757 0 -2.8120109825558757 -2.4588427492180926 0 0 0 0 4.5487981794140069 11.1505567059627 0 11.1505567059627 -1.6049472427921501 0 0 0 0 21.055995114291363 0.82741431299317014 0 0.82741431299317014 2.2654111208248651 0 0 0 0 9.228901135517404 5.2247397086575944 0 5.2247397086575944 -1.1980660370750815 0 0 0 0 -2.89016536368581 6.1518219635468085 0 6.1518219635468085 5.0944738131784106 0 0 0 0 20.665443877369398 4.1356472212155495 0 4.1356472212155495 -3.487895549023051 0 0 0 0 41.051575783185399 11.841847767689885 0 11.841847767689885 -28.331130636978742 0 0 0 0 6.2349652126104047 -29.152898425082952 0 -29.152898425082952 18.932916207275071 0 0 0 0 -25.716502508519625 7.4518161970561323 0 7.4518161970561323 6.3547873421657641 0 0 0 0 -12.144834962800815 -8.81501049065389 0 -8.81501049065389 3.4344179142381108 0 0 0 0 14.644220830673277 -7.1153964840522548 0 -7.1153964840522548 2.7782965213102391 0 0 0 0 19.253277678377344 -16.700723727243712 0 -16.700723727243712 -12.225654147805017 0 0 0 0 16.83894405447063 -1.7476081633631111 0 -1.7476081633631111 -4.383010804011974 0 0 0 0 20.190691178993006 -8.805005892910188 0 -8.805005892910188 -1.5955144464012605 0 0 0 0 36.293075337955088 6.5686611099858965 0 6.5686611099858965 5.7930325633406028 0 0 0 0 14.449640214489108 -6.4264668311147801 0 -6.4264668311147801 -4.0583096466653519 0 0 0 0 30.094228526650113 2.7218401259245866 0 2.7218401259245866 6.8408633746888654 0 0 0 0 37.905259935096183 -0.84332446344853906 0 -0.84332446344853906 8.451471592326925 0 0 0 0 53.489477140636154 -23.339219893308552 0 -23.339219893308552 0.4453116908021002 0 0 0 0 19.704430224665003 11.85837992224635 0 11.85837992224635 -0.15689123223581714 0 0 0 0 33.678351374182967 36.344835641047212 0 36.344835641047212 5.4215239744203245 0 0 0 0 26.438926098970114 -7.5591722103313259 0 -7.5591722103313259 -0.076613343881035689 0 0 0 0 99.917814493033802 19.223304126780931 0 19.223304126780931 0.75318792167917081 0 0 0 0 109.58672487817967 -29.04180427574579 0 -29.04180427574579 59.364749069581649 0 0 0 0 116.94527071931952 -23.708431860826977 0 -23.708431860826977 11.8976279740873 0 0 0 0 141.7764657647167 -3.415814559259843 0 -3.415814559259843 -12.167308104268159 0 0 0 0 223.72060179035179 19.397696103542785 0 19.397696103542785 -10.488679139520912 0 0 0 0 -9.5770810862739779 0.14948093298488629 0 0.14948093298488629 3.0632324231955383 0 0 0 0 115.18499206944398 -36.286546731275223 0 -36.286546731275223 7.6629149120367401 0 0 0 0 103.69482214317395 6.7223795132050554 0 6.7223795132050554 -10.286490864116587 0 0 0 0 111.08861182707915 4.1504332641272299 0 4.1504332641272299 -19.246872357868142 0 0 0 0 91.928618687845301 -19.926783953453651 0 -19.926783953453651 15.60254691094633 0 0 0 0 19.752318183976673 -30.313929783160518 0 -30.313929783160518 5.7207979463688394 0 0 0 0 31.340079655667651 9.0689444239547043 0 9.0689444239547043 0.46484552064879558 0 0 0 0 108.14775583106893 20.813865442348629 0 20.813865442348629 16.999899787702986 0 0 0 0 55.577734823556966 13.288100456975542 0 13.288100456975542 -0.27357832674806559 0 0 0 0 -3.2478293513358096 -6.2768244383480791 0 -6.2768244383480791 3.1304991639058253 0 0 0 0 70.091748121900309 26.162094332848284 0 26.162094332848284 32.257193993261808 0 0 0 0 33.498212513077306 -25.944372517311649 0 -25.944372517311649 14.621127515635635 0 0 0 0 9.6923899811445153 -2.8100170022946713 0 -2.8100170022946713 -5.0036595384863176 0 0 0 0 15.127260030977478 -2.8372581093852318 0 -2.8372581093852318 3.3241565578636774 0 0 0 0 40.976020957877665 -15.922278439621536 0 -15.922278439621536 -5.9584565955099196 0 0 0 0 34.599994915654577 3.2214411488317864 0 3.2214411488317864 -1.0133992806352481 0 0 0 0 4.2610073584756805 -1.4600144560618631 0 -1.4600144560618631 -0.57597247670766727 0 0 0 0 40.244425279801362 9.994256690767088 0 9.994256690767088 14.838366246081023 0 0 0 0 156.40896585919836 64.235839934954583 0 64.235839934954583 21.5831203154371 0 0 0 0 7.1331202196967141 2.2457370398452099 0 2.2457370398452099 7.4974517259949174 0 0 0 0 117.62567174084325 8.3834507562983021 0 8.3834507562983021 0.04020678553149537 0 0 0 0 44.925637939577427 9.730389053066574 0 9.730389053066574 12.482942398102978 0 0 0 0 137.36778176512598 19.175333402524359 0 19.175333402524359 -20.238728402233107 0 0 0 0 28.66034067243163 11.042793753519618 0 11.042793753519618 6.0713797722232812 0 0 0 0 44.306694033555686 12.579617437395427 0 12.579617437395427 -0.46074602049498026 0 0 0 0 33.465259577624238 13.439803195837328 0 13.439803195837328 7.7081243111679214 0 0 0 0 34.242854530719342 -0.87413630976848822 0 -0.87413630976848822 -2.2480422574302565 0 0 0 0 48.389359922002768 10.321042554369797 0 10.321042554369797 3.2537311225200938 0 0 0 0 31.325971031962155 2.7982890429010645 0 2.7982890429010645 -0.52501821180994179 0 0 0 0 30.443208595002233 0.40272454526752455 0 0.40272454526752455 -2.6340507887080995 0 0 0 0 33.102477841253858 3.6549852916574253 0 3.6549852916574253 -2.6216901863968474 0 0 0 0 29.014862772812194 3.4669547074577736 0 3.4669547074577736 6.8556625571877987 0 0 0 0 31.914631493120396 12.582171911340311 0 12.582171911340311 -5.1773771029750151 0 0 0 0 35.358042699690486 2.391550026549055 0 2.391550026549055 -14.647809421065631 0 0 0 0 34.717227220411587 9.6597728021699822 0 9.6597728021699822 -2.8109253405091295 0 0 0 0 44.652806284531835 8.6022917864675037 0 8.6022917864675037 -64.752279710488892 0 0 0 0 28.427074786607477 -3.3312947580700403 0 -3.3312947580700403 -1.7818971953051654 0 0 0 0 25.7814355462815 -2.0126059508612002 0 -2.0126059508612002 -23.447901792455013 0 0 0 0 17.46441569988329 -6.1196293497648213 0 -6.1196293497648213 -0.0046817328248378587 0 0 0 0 29.032099384714456 3.4396545705481483 0 3.4396545705481483 5.3648295305859506 0 0 0 0 38.865837782708695 -129.10283123307545 0 -129.10283123307545 169.66626655275135 0 0 0 0 197.57516020972548 -31.165327011898732 0 -31.165327011898732 -9.3410113619253536 0 0 0 0 0.59422217430093838 0.39784585667797501 0 0.39784585667797501 0.70059248031923027 0 0 0 0 50.446582369120733 -98.342192280405129 0 -98.342192280405129 168.18011729292175 0 0 0 0 43.744766591027656 -70.907102861721725 0 -70.907102861721725 197.37020219712713 0 0 0 0 -7.6655730703932932 -132.6560867402178 0 -132.6560867402178 282.47661372935283 0 0 0 0 247.74469716437306 -106.09110753476827 0 -106.09110753476827 162.99825609606643 0 0 0 0 -153.48125548746975 -363.71549555983717 0 -363.71549555983717 -0.89714191443039226 0 0 0 0 353.48908056646178 -379.22295469761798 0 -379.22295469761798 -243.51604552385163 0 0 0 0 586.67149796995 -76.623581422889245 0 -76.623581422889245 -53.177552172052586 0 0 0 0 366.95962313492782 217.78967207319238 0 217.78967207319238 -29.446122675660174 0 0 0 0 -41.437791473623292 73.932509905236031 0 73.932509905236031 38.198392225130902 0 0 0 0 211.07013878047292 -21.38481556696189 0 -21.38481556696189 -69.228714413401065 0 0 0 0 175.95676879918392 22.433935933199379 0 22.433935933199379 21.609294988790509 0 0 0 0 200.20553803089206 18.217391507554524 0 18.217391507554524 -75.780661529307991 0 0 0 0 181.89554786415101 30.959707660202582 0 30.959707660202582 -26.181818934455578 0 0 0 0 176.72949283935304 -8.0787898096162678 0 -8.0787898096162678 -6.7814695709546555 0 0 0 0 185.9646784602337 9.7823456507114486 0 9.7823456507114486 -21.142138576414425 0 0 0 0 265.31865863701387 10.768404710587845 0 10.768404710587845 -17.572923382846625 0 0 0 0 192.15622090292163 104.57023157441148 0 104.57023157441148 76.813326217506699 0 0 0 0 188.5463055914297 4.9843519115625554 0 4.9843519115625554 -12.388174202400165 0 0 0 0 197.08839007719871 7.2635070635503212 0 7.2635070635503212 -25.226272059526082 0 0 0 0 189.65061952819087 12.287683955986324 0 12.287683955986324 -28.055259266885258 0 0 0 0 190.20924851928339 7.5987761472018356 0 7.5987761472018356 -25.418717879283463 0 0 0 0 192.45070455786481 15.999581449206005 0 15.999581449206005 -34.720984137098867 0 0 0 0 146.67474081978435 -7.8915573078439536 0 -7.8915573078439536 -23.71231036187811 0 0 0 0 178.27594461471017 27.124288648018535 0 27.124288648018535 -9.0661068081680227 0 0 0 0 153.14428495211359 21.691900318833859 0 21.691900318833859 -9.5660765405846746 0 0 0 0 69.456248408925603 -37.864613557486422 0 -37.864613557486422 -4.9535465999475434 0 0 0 0 20.853489594701387 36.174173352879464 0 36.174173352879464 25.072084292057532 0 0 0 0 -6.3965065503507503 -29.350387158424237 0 -29.350387158424237 106.95045527851889 0 0 0 0 0.93322327094276147 1.2373427967474484 0 1.2373427967474484 1.6380419085110343 0 0 0 0 17.31875126183877 8.1624703590560728 0 8.1624703590560728 33.568669899396212 0 0 0 0 9.8665251487924479 49.429367441583018 0 49.429367441583018 87.927303439641605 0 0 0 0 9.929294029374887 50.775569839367826 0 50.775569839367826 43.847404480141222 0 0 0 0 75.099426783555828 56.324375797741567 0 56.324375797741567 -81.476458097805789 0 0 0 0 82.535919235844631 40.05836839835888 0 40.05836839835888 -49.473378512328622 0 0 0 0 70.828313175657968 42.400698279476472 0 42.400698279476472 -126.4107103306369 0 0 0 0 52.787390124047306 44.911194880120476 0 44.911194880120476 72.928856775871509 0 0 0 0 48.289035044217599 14.681216161820259 0 14.681216161820259 -10.789046023778155 0 0 0 0 63.008818249880989 52.920733144956465 0 52.920733144956465 54.569731182425471 0 0 0 0 63.127126869698259 34.706668936747121 0 34.706668936747121 41.930348196774048 0 0 0 0 181.58034247054457 29.55677321450267 0 29.55677321450267 -27.441194431285339 0 0 0 0 382.0900193974594 45.665686375542634 0 45.665686375542634 -36.524004118879994 0 0 0 0 199.06166651529929 31.520224534738816 0 31.520224534738816 -33.050790037977549 0 0 0 0 222.05058589921236 -26.622193677385546 0 -26.622193677385546 -28.469951965854079 0 0 0 0 219.10109324315272 23.453279737885168 0 23.453279737885168 -38.837536870327199 0 0 0 0 137.48646814662789 -23.35460919258287 0 -23.35460919258287 0.14377342488359091 0 0 0 0 121.22077306687424 -35.92002471717268 0 -35.92002471717268 3.3268781621475227 0 0 0 0 269.32321278060772 -83.177356882736802 0 -83.177356882736802 13.3309296172431 0 0 0 0 150.94719012356654 188.37778491196985 0 188.37778491196985 179.2418066592254 0 0 0 0 105.26034822887596 35.038098505900336 0 35.038098505900336 32.752757037021979 0 0 0 0 333.58828401114897 141.93839679014559 0 141.93839679014559 -411.10258814757526 0 0 0 0 122.48993630444937 3.5675190471948346 0 3.5675190471948346 -1.0418093444749195 0 0 0 0 226.84990323746752 24.660727014470069 0 24.660727014470069 -296.29229125900645 0 0 0 0 419.24529642020934 -235.39271368519937 0 -235.39271368519937 -13.481645357307301 0 0 0 0 66.270235995167241 257.54660965068274 0 257.54660965068274 34.361712710558379 0 0 0 0 288.45499581153501 359.66854373107822 0 359.66854373107822 -112.78982767015395 0 0 0 0 305.69333221800343 -497.94840517048823 0 -497.94840517048823 0.69076463516648801 0 0 0 0 113.45096345984894 155.29520917758259 0 155.29520917758259 216.75869675741137 0 0 0 0 216.95265483352523 39.754205833377455 0 39.754205833377455 -122.9884266781072 0 0 0 0 124.99627088743046 82.456545001344125 0 82.456545001344125 -120.46551577579248 0 0 0 0 91.518772744368107 47.118133100516729 0 47.118133100516729 33.870306001237964 0 0 0 0 -0.29989985781940476 -1.0469407345659985 0 -1.0469407345659985 -2.0265959900130213 0 0 0 0 -309.04375917685775 184.80769765227114 0 184.80769765227114 32.479402305684971 0 0 0 0 15.951095313876067 -19.729573315233154 0 -19.729573315233154 -19.326461656780452 0 0 0 0 -142.30510672672608 0.96719613902155288 0 0.96719613902155288 -33.499309363794737 0 0 0 0 233.59139116711412 24.779339393005102 0 24.779339393005102 -145.18121954746039 0 0 0 0 7.7120956422713789 257.34653579854648 0 257.34653579854648 -126.715573051104 0 0 0 0 139.4897974397245 -11.510480033884164 0 -11.510480033884164 -199.30549698627163 0 0 0 0 22.029180225195034 -20.442689174693577 0 -20.442689174693577 -16.679657448853614 0 0 0 0 53.93172405515233 12.063623180350703 0 12.063623180350703 -114.81057657471479 0 0 0 0 54.150466050734394 63.265081220931847 0 63.265081220931847 -148.03024537674884 0 0 0 0 99.319183229716145 1.8345896399496269 0 1.8345896399496269 -57.344641838009011 0 0 0 0 105.52786918297352 10.16528267591633 0 10.16528267591633 -109.23022904126765 0 0 0 0 109.68723000570026 -77.230082284633909 0 -77.230082284633909 -179.61242034245328 0 0 0 0 115.7282007109894 5.2337057452710871 0 5.2337057452710871 -1.7278106454125173 0 0 0 0 -326.11343961079547 72.454558309869753 0 72.454558309869753 -62.067660362410379 0 0 0 0 61.263824498135364 -125.36695886427898 0 -125.36695886427898 32.532250594178443 0 0 0 0 194.71746505871465 -76.73182778673953 0 -76.73182778673953 -99.095670290789712 0 0 0 0 181.13895638506801 -62.64734062002367 0 -62.64734062002367 -127.45381352245647 0 0 0 0 16.609173690805619 11.677762673347331 0 11.677762673347331 57.849784721106744 0 0 0 0 20.335886682896813 0.0073965275929559482 0 0.0073965275929559482 0.12246873805823022 0 0 0 0 183.83703953733129 -145.34796664647968 0 -145.34796664647968 -43.866538338691953 0 0 0 0 28.653524903143989 2.2823979975319162 0 2.2823979975319162 37.147144186310413 0 0 0 0 22.341349563766926 15.959064643192988 0 15.959064643192988 44.022437561960032 0 0 0 0 23.024563787748775 23.69341272513725 0 23.69341272513725 13.565277426668672 0 0 0 0 27.622241109973402 13.645293216896562 0 13.645293216896562 13.428414599545476 0 0 0 0 35.731232273727073 29.774579504993653 0 29.774579504993653 -13.829508490590683 0 0 0 0 23.753818423243501 23.77641618424029 0 23.77641618424029 21.083768471297844 0 0 0 0 29.246656399319363 19.981587934620734 0 19.981587934620734 6.6791572069123504 0 0 0 0 31.01662052544998 12.33160436817343 0 12.33160436817343 16.488389859498511 0 0 0 0 -12.923044398245111 94.362411879643105 0 94.362411879643105 -64.837324953075722 0 0 0 0 32.794333516001558 1.0159951735408965 0 1.0159951735408965 -1.5316192197429881 0 0 0 0 28.438463227740954 10.038388822775001 0 10.038388822775001 15.952392720220359 0 0 0 0 -50.378274718441389 44.416341165038261 0 44.416341165038261 103.14343602681129 0 0 0 0 41.683511029747024 9.0674167564363302 0 9.0674167564363302 7.4935046248524486 0 0 0 0 34.403020100289723 7.6606454844800282 0 7.6606454844800282 16.304962898654935 0 0 0 0 31.784563370175078 15.614029922023429 0 15.614029922023429 -0.55263821291185278 0 0 0 0 15.889790305637504 0.87460452724901216 0 0.87460452724901216 -2.4340656347469762 0 0 0 0 42.982184930257063 11.981502531748902 0 11.981502531748902 7.2783634481561421 0 0 0 0 37.470928549617383 15.618916063245138 0 15.618916063245138 6.844111024646736 0 0 0 0 1.8772619083471014 3.1451521489391467 0 3.1451521489391467 4.4821327472592802 0 0 0 0 54.166423191811191 -28.060422278204271 0 -28.060422278204271 19.283715644166818 0 0 0 0 49.933245608932339 14.831454384844278 0 14.831454384844278 2.3387453837053727 0 0 0 0 128.9043181725574 -37.601171273674254 0 -37.601171273674254 -14.497011823110626 0 0 0 0 124.22524342880934 -47.14887896379048 0 -47.14887896379048 -11.900602727250998 0 0 0 0 4.9922953512649713 3.4162227599851698 0 3.4162227599851698 2.2252936041135318 0 0 0 0 0.15750010010378901 93.508286314352887 0 93.508286314352887 233.69827981527001 0 0 0 0 106.20253730524564 -63.904216289835119 0 -63.904216289835119 94.012188985234104 0 0 0 0 2.9729086514375815 8.5937611641946887 0 8.5937611641946887 4.9606795035916793 0 0 0 0 19.995675946294796 13.204484407378004 0 13.204484407378004 2.3565566834258789 0 0 0 0 -43.85199235665641 9.3162762901798146 0 9.3162762901798146 62.711167444821513 0 0 0 0 389.16187796895792 -48.404208023161573 0 -48.404208023161573 -536.0142145985144 0 0 0 0 157.93524534136668 98.789916763576741 0 98.789916763576741 -173.71585373751739 0 0 0 0 63.387885672273114 32.029141125692377 0 32.029141125692377 -32.647971045499958 0 0 0 0 121.8802598963028 2.4364602094620347 0 2.4364602094620347 -3.2836346785864796 0 0 0 0 5.0628066204751088 2.1978011526702375 0 2.1978011526702375 0.90119361136930309 0 0 0 0 213.52901633359579 192.24049627975796 0 192.24049627975796 -191.76612440909116 0 0 0 0 391.94856772298135 -346.45770701175456 0 -346.45770701175456 -350.14300433011931 0 0 0 0 42.46289865490553 -321.26851972759277 0 -321.26851972759277 478.88308514994378 0 0 0 0 188.88390159888149 126.84766833364938 0 126.84766833364938 -97.913962100649769 0 0 0 0 88.729882302917758 112.34134094278215 0 112.34134094278215 198.8540425719516 0 0 0 0 -60.870784146698497 169.92741399605939 0 169.92741399605939 -105.33428066528086 0 0 0 0 19.341389364973121 -2.5943766593982995 0 -2.5943766593982995 -2.1697784762530476 0 0 0 0 -222.19113434281462 -106.31799736711855 0 -106.31799736711855 -31.017349457796172 0 0 0 0 87.586382228318143 5.8174742272576623 0 5.8174742272576623 -269.94623691097172 0 0 0 0 -27.905965493638178 -127.02393342860478 0 -127.02393342860478 96.892798446537654 0 0 0 0 -122.59962225833442 -175.43405643755341 0 -175.43405643755341 -12.113754290303177 0 0 0 0 -11.797667922783148 -195.12460528297379 0 -195.12460528297379 -8.6152802749866169 0 0 0 0 145.7497033913869 -90.421688748929853 0 -90.421688748929853 -46.204736228210095 0 0 0 0 -4.1821908808638 -142.72842651705855 0 -142.72842651705855 -132.72855105439805 0 0 0 0 26.934684290461917 -1.3466878602478545 0 -1.3466878602478545 2.0199950143973426 0 0 0 0 20.650259677422611 17.620097082238402 0 17.620097082238402 3.4558052198085405 0 0 0 0 30.929121255972859 -124.23629915046422 0 -124.23629915046422 -131.3214239717413 0 0 0 0 59.265093493542736 18.017572549917816 0 18.017572549917816 9.967260616374233 0 0 0 0 59.290070509629004 17.996230929578246 0 17.996230929578246 8.3640411839857904 0 0 0 0 71.126925142328787 9.1597446974771444 0 9.1597446974771444 3.6537483917759577 0 0 0 0 0.020364308991702273 -40.156618877720121 0 -40.156618877720121 66.790260433998583 0 0 0 0 265.42671222345962 149.01588028454535 0 149.01588028454535 137.67606522205188 0 0 0 0 -96.07242074405076 -368.89934366915713 0 -368.89934366915713 771.38583840467345 0 0 0 0 49.963678669737021 -13.698582004064843 0 -13.698582004064843 1.538135190504994 0 0 0 0 6.3477022683509858 -126.17995304583724 0 -126.17995304583724 -175.83310821016084 0 0 0 0 98.667105390633878 39.132124711706183 0 39.132124711706183 15.231652576570468 0 0 0 0 23.672130515292572 -13.132758488104416 0 -13.132758488104416 -1.4728565772440927 0 0 0 0 -22.168406461528775 -125.39061723450016 0 -125.39061723450016 172.59416524669359 0 0 0 0 56.206965441639646 -0.7288890748532495 0 -0.7288890748532495 -2.8036108371959791 0 0 0 0 -112.08111486374355 40.121546561957302 0 40.121546561957302 303.12597289460655 0 0 0 0 16.955955587851349 77.877539707503729 0 77.877539707503729 -119.04899180692973 0 0 0 0 44.799233860716413 -7.6801900339226563 0 -7.6801900339226563 -26.90147686134469 0 0 0 0 34.582081238018141 -6.2291069605107134 0 -6.2291069605107134 -0.1894291999881107 0 0 0 0 40.36184144741128 -6.7819160311344149 0 -6.7819160311344149 -24.646300552886714 0 0 0 0 39.195805447813655 -14.041127738498204 0 -14.041127738498204 2.7228436133013929 0 0 0 0 41.522706677639505 2.5078934004379496 0 2.5078934004379496 -0.84119616522249718 0 0 0 0 6.7162870041026679 0.50857443883735476 0 0.50857443883735476 0.17877410472118327 0 0 0 0 101.70979912407347 -150.25579126657271 0 -150.25579126657271 132.02493450543534 0 0 0 0 -113.26297049792629 -5.5597063649092888 0 -5.5597063649092888 188.54194916712345 0 0 0 0 390.56879499668503 466.06245162048464 0 466.06245162048464 -450.20745989832267 0 0 0 0 382.58208445552918 -103.93971924215964 0 -103.93971924215964 -37.105300207372693 0 0 0 0 46.211495937615837 -4.9626968888163674 0 -4.9626968888163674 1.3390215728334169 0 0 0 0 9.7608579200887107 -22.10014573064845 0 -22.10014573064845 3.1521282750775299 0 0 0 0 22.140504838141851 -16.574207055908904 0 -16.574207055908904 3.4871361724653025 0 0 0 0 -11.287439157354584 17.502869940896701 0 17.502869940896701 2.5070765468155685 0 0 0 0 12.905511049447151 -15.693718473573789 0 -15.693718473573789 4.0155935183595357 0 0 0 0 50.009501688628916 -5.1106874448492476 0 -5.1106874448492476 1.3343253286605332 0 0 0 0 0.36815766898323687 -1.1091455418465852 0 -1.1091455418465852 1.6588219763046497 0 0 0 0 2.0415836864503945 -53.834193683677313 0 -53.834193683677313 -37.123274143871186 0 0 0 0 127.73233610611987 -141.04654276736622 0 -141.04654276736622 8.6713685112205265 0 0 0 0 82.852401469901451 -72.923559050589631 0 -72.923559050589631 161.37579066319108 0 0 0 0 1.655273506972204 0.54673390983777725 0 0.54673390983777725 -0.31345509296278506 0 0 0 0 10.083053207587069 -0.37312712652112268 0 -0.37312712652112268 -0.090739030693745892 0 0 0 0 9.7873820731373371 3.0947762200572715 0 3.0947762200572715 4.2102950076165939 0 0 0 0 5.0739268143071943 3.9679682540412373 0 3.9679682540412373 5.3525025370758073 0 0 0 0 -334.10165003059456 10.824512215347909 0 10.824512215347909 199.78784584402888 0 0 0 0 -135.11833687967464 -156.85382016738527 0 -156.85382016738527 153.91712663654084 0 0 0 0 81.499248436568706 -96.326127760435057 0 -96.326127760435057 -33.170984645060912 0 0 0 0 78.104669872085651 -141.74927702172738 0 -141.74927702172738 -141.56631643683801 0 0 0 0 -10.651069163644934 -257.50865804919067 0 -257.50865804919067 -123.90292700352848 0 0 0 0 53.859362598892403 -146.92742083789398 0 -146.92742083789398 7.4530398949685832 0 0 0 0 12.90106505365577 -70.64525297470999 0 -70.64525297470999 -26.321171678592236 0 0 0 0 61.189899932028311 -133.56637994087134 0 -133.56637994087134 -6.1922114481769768 0 0 0 0 37.961943108298158 -118.7388764021585 0 -118.7388764021585 -40.269530568589687 0 0 0 0 296.35968908825993 36.589179086284958 0 36.589179086284958 -78.776570267164743 0 0 0 0 -109.27229004693007 31.550234658312434 0 31.550234658312434 -78.820471096575375 0 0 0 0 212.32401225722879 135.14079797028037 0 135.14079797028037 -67.553166692773459 0 0 0 0 302.44996290700419 146.57331625974155 0 146.57331625974155 -73.827936910668484 0 0 0 0 354.87385266646288 169.01317013826963 0 169.01317013826963 -75.159882816917388 0 0 0 0 537.75664168001367 -233.53728704469017 0 -233.53728704469017 -8.8440599085031408 0 0 0 0 1038.1600728630799 138.5600271543056 0 138.5600271543056 -78.890875300535754 0 0 0 0 14.095994392735959 1.8584355692952164 0 1.8584355692952164 0.65278392859407663 0 0 0 0 291.02402259097857 325.59347259743458 0 325.59347259743458 50.155952692446135 0 0 0 0 747.2961181357532 -776.65098786019075 0 -776.65098786019075 669.32486212820459 0 0 0 0 783.29973346522638 -862.21260817552297 0 -862.21260817552297 599.07680672063634 0 0 0 0 1392.6685485354537 163.43445633357163 0 163.43445633357163 -440.57524814593717 0 0 0 0 112.14274942258271 210.58905638804026 0 210.58905638804026 -77.640151330525129 0 0 0 0 230.5080013834945 -203.9271299900571 0 -203.9271299900571 394.45555267677764 0 0 0 0 799.67828431574367 28.629377472647874 0 28.629377472647874 -105.96442428690801 0 0 0 0 29.004015037152246 26.094703055962764 0 26.094703055962764 3.9894924945062882 0 0 0 0 71.127019375529471 4.9892157099283878 0 4.9892157099283878 12.334184963251573 0 0 0 0 -150.40250681548847 173.54807983979379 0 173.54807983979379 67.888271092516106 0 0 0 0 -110.30078152492138 499.01078586005656 0 499.01078586005656 -174.72913546378368 0 0 0 0 76.274791727095362 7.6068713647057393 0 7.6068713647057393 -4.9003153630442284 0 0 0 0 -192.68825488153925 -220.95077579866086 0 -220.95077579866086 461.61210250144904 0 0 0 0 -9.4644059409736059 7.0719716149551894 0 7.0719716149551894 5.115930050942012 0 0 0 0 -433.58503990680492 6.6404790029610012 0 6.6404790029610012 73.915202040747317 0 0 0 0 -462.72166098811749 -236.82488561157288 0 -236.82488561157288 1137.9162858181762 0 0 0 0 -711.32684877843394 666.41530485969292 0 666.41530485969292 -493.61781818187205 0 0 0 0 24.257144946563173 3.575342896471815 0 3.575342896471815 1.2958783180746547 0 0 0 0 44.842286274954859 -0.44424930017282804 0 -0.44424930017282804 11.763019012050222 0 0 0 0 72.012526713843386 -6.4019762971101324 0 -6.4019762971101324 6.4619268483612871 0 0 0 0 39.412351262868469 -4.7108741158986049 0 -4.7108741158986049 -1.3465762549765259 0 0 0 0 50.231821313998807 -2.2491320919905036 0 -2.2491320919905036 6.9924720846984201 0 0 0 0 29.086268543560848 0.92775909232231868 0 0.92775909232231868 -2.1572510798061053 0 0 0 0 48.06057873330974 -2.8439429294804626 0 -2.8439429294804626 14.682383447934967 0 0 0 0 14.883994975225171 0.57373998574989216 0 0.57373998574989216 -1.8449502683341459 0 0 0 0 38.867193219376531 -7.3853183622325744 0 -7.3853183622325744 7.0825031421261428 0 0 0 0 33.020517932683845 0.55914658560955921 0 0.55914658560955921 0.54964713308474478 0 0 0 0 50.629960672798916 -15.431083245465061 0 -15.431083245465061 10.125680486712042 0 0 0 0 30.648536135785889 -3.5900989978612046 0 -3.5900989978612046 10.767892040187178 0 0 0 0 29.231827813322525 -6.8197499608176031 0 -6.8197499608176031 15.285791108354374 0 0 0 0 19.100839572281984 -10.716325624649471 0 -10.716325624649471 -2.0492966365741268 0 0 0 0 21.309058783943296 -9.826933016007116 0 -9.826933016007116 8.0126481226547916 0 0 0 0 55.386278666252679 -24.627273528551719 0 -24.627273528551719 33.357222821729465 0 0 0 0 56.268210032159004 -59.698375212701649 0 -59.698375212701649 5.7962632611377103 0 0 0 0 -2.038033783155365 -1.4566306871821908 0 -1.4566306871821908 -7.869500216734961 0 0 0 0 119.72671603925846 46.004004766125718 0 46.004004766125718 -51.293475541347902 0 0 0 0 -92.385930462624628 52.89167856733475 0 52.89167856733475 46.16634611315726 0 0 0 0 117.67720382472908 -16.451298814206893 0 -16.451298814206893 -84.418407666513303 0 0 0 0 117.05120518894364 -13.793284670231117 0 -13.793284670231117 1.9733932462702626 0 0 0 0 134.42173425573583 -73.265733843071359 0 -73.265733843071359 194.77809022065694 0 0 0 0 436.60200290295336 20.990207114901061 0 20.990207114901061 -64.770061159092904 0 0 0 0 387.08583362895433 128.14925749527842 0 128.14925749527842 -169.4728833189414 0 0 0 0 315.87173666701358 102.14420601043025 0 102.14420601043025 -11.090818123818565 0 0 0 0 -15.087466349270017 48.064670148709638 0 48.064670148709638 82.567054133700594 0 0 0 0 127.53623250701139 -36.721900156322022 0 -36.721900156322022 -98.514215102824437 0 0 0 0 63.492155644119521 45.810297352431917 0 45.810297352431917 -151.86735281888821 0 0 0 0 40.195247062129674 6.4883673167498142 0 6.4883673167498142 1.1731719371958831 0 0 0 0 190.98667865235166 -71.93479806749059 0 -71.93479806749059 115.4071926368714 0 0 0 0 113.04991252746049 -85.959981295834382 0 -85.959981295834382 95.052034533241567 0 0 0 0 128.76737980176131 -166.60152871319036 0 -166.60152871319036 244.28533892356734 0 0 0 0 129.0180843712169 -70.421658498562607 0 -70.421658498562607 88.565802658495841 0 0 0 0 63.944929017919257 12.012315466598764 0 12.012315466598764 -0.73244122757573216 0 0 0 0 70.3850218922762 -33.256341441089944 0 -33.256341441089944 -46.916450961618921 0 0 0 0 102.5337311847843 -21.871417960798681 0 -21.871417960798681 -77.369848134095719 0 0 0 0 84.034358596442871 -10.478477081147503 0 -10.478477081147503 -21.138062461855498 0 0 0 0 -6.9205218035249345 54.787401239946178 0 54.787401239946178 -15.691350764807112 0 0 0 0 17.619170029478973 -2.6438304594206148 0 -2.6438304594206148 -15.644037905113741 0 0 0 0 104.57235018394113 -12.224674854302293 0 -12.224674854302293 -58.531727108931591 0 0 0 0 34.311719226521745 69.911526724500959 0 69.911526724500959 -41.582182497295435 0 0 0 0 19.941769571327313 31.620360885918899 0 31.620360885918899 -24.038467786248475 0 0 0 0 16.415832271393811 46.626091685772508 0 46.626091685772508 -38.853747145045418 0 0 0 0 69.394963064038166 22.397897921834897 0 22.397897921834897 -61.908731002745299 0 0 0 0 20.130288828365792 36.660927939044527 0 36.660927939044527 -42.628137600871923 0 0 0 0 24.464395673152907 1.7820580219813493 0 1.7820580219813493 -0.12381960082475962 0 0 0 0 21.659901962742879 39.806936360471354 0 39.806936360471354 -41.347230671012312 0 0 0 0 156.52934409715817 -62.107833525517663 0 -62.107833525517663 61.696577776258437 0 0 0 0 140.77008228512204 -12.766330754429191 0 -12.766330754429191 -18.692310040696043 0 0 0 0 76.90429651349335 13.912038994101117 0 13.912038994101117 -12.053505542385507 0 0 0 0 22.698294004658237 47.686074255968492 0 47.686074255968492 -56.033758704298634 0 0 0 0 7.4738201744533335 0.63787860476938363 0 0.63787860476938363 -3.5835077869508907 0 0 0 0 -3.1945867525992142 8.0758870818316488 0 8.0758870818316488 1.6703117011190165 0 0 0 0 90.707698737398459 6.3282393405650055 0 6.3282393405650055 -47.940285044774328 0 0 0 0 139.29837447042519 12.323641196161816 0 12.323641196161816 -58.723942745768454 0 0 0 0 67.982047814111866 20.523088455185189 0 20.523088455185189 -20.273155845810379 0 0 0 0 64.705003125985968 12.656291160124965 0 12.656291160124965 -38.469067506455985 0 0 0 0 4.6961135686688067 29.437076137994609 0 29.437076137994609 -28.422355505585074 0 0 0 0 -8.3192405034455987 4.0372946140205954 0 4.0372946140205954 -34.716150957104219 0 0 0 0 -29.744883345774724 27.974337403378968 0 27.974337403378968 -41.253276403852396 0 0 0 0 7.7291835522628389 59.717668644635523 0 59.717668644635523 -58.57641507196422 0 0 0 0 -149.71870332155595 126.92835743413684 0 126.92835743413684 -86.122052437960519 0 0 0 0 153.36515903408895 31.238533178939349 0 31.238533178939349 -33.733402846562967 0 0 0 0 149.04707797834908 54.622041957539693 0 54.622041957539693 -23.089718765591215 0 0 0 0 278.97265839365173 41.235246258041002 0 41.235246258041002 -36.558261172958737 0 0 0 0 148.51753416658175 -15.520573321360644 0 -15.520573321360644 -24.680460890855556 0 0 0 0 134.53493889218043 46.235576762885557 0 46.235576762885557 9.5359803294327321 0 0 0 0 29.671801584951027 39.046225777424183 0 39.046225777424183 -28.881206856101926 0 0 0 0 68.750481792420032 20.082498761579473 0 20.082498761579473 -31.380160382804092 0 0 0 0 72.677180463146215 -2.4907260523293644 0 -2.4907260523293644 -21.732690150485723 0 0 0 0 110.60264810175795 23.501453659500726 0 23.501453659500726 -12.544465037028658 0 0 0 0 110.5345194728925 -20.443755295239953 0 -20.443755295239953 -13.764262674695331 0 0 0 0 86.646384021964877 4.8179766906533814 0 4.8179766906533814 -40.46636456212309 0 0 0 0 90.385124921544048 13.066480216319405 0 13.066480216319405 -22.641394875391825 0 0 0 0 144.64355539762846 -18.266925727313179 0 -18.266925727313179 -38.886065210726883 0 0 0 0 117.45111226751033 -57.966357479781209 0 -57.966357479781209 -96.819171097785329 0 0 0 0 78.045478514872229 35.28105442711967 0 35.28105442711967 -7.4992106241800229 0 0 0 0 164.37495308352845 12.270357178146696 0 12.270357178146696 -9.4052372434553035 0 0 0 0 58.5692896379187 -8.0937592355617198 0 -8.0937592355617198 -86.754005432811141 0 0 0 0 100.23335804470662 41.462541555846542 0 41.462541555846542 -63.97316414510351 0 0 0 0 -9.9546621764184238 -25.527641243495054 0 -25.527641243495054 -30.338204169788469 0 0 0 0 14.169361656642636 8.303264369916846 0 8.303264369916846 -0.11000146289927848 0 0 0 0 187.03988895446355 137.91357394736906 0 137.91357394736906 49.339241638020212 0 0 0 0 40.954976639473898 -114.24738329977413 0 -114.24738329977413 -116.3278095196805 0 0 0 0 0.01158557476800226 -0.82970755233661109 0 -0.82970755233661109 0.90384728654440938 0 0 0 0 53.987219497150264 11.526633868616152 0 11.526633868616152 0.93069069196939092 0 0 0 0 79.906091558927073 43.473622198271869 0 43.473622198271869 -45.486871184271195 0 0 0 0 55.637558305909799 15.884358205559225 0 15.884358205559225 3.6496177796998603 0 0 0 0 77.541552844249054 25.226792272901776 0 25.226792272901776 -29.574238324598468 0 0 0 0 75.046877670364665 109.85661081336121 0 109.85661081336121 122.75814161894823 0 0 0 0 61.670650125735847 25.119644331785196 0 25.119644331785196 43.053336519779123 0 0 0 0 47.570060356883914 14.364173347498536 0 14.364173347498536 -76.885269756320668 0 0 0 0 8.2054951132644476 3.9722428996960719 0 3.9722428996960719 -1.0313472329993134 0 0 0 0 53.565900676076581 68.059044077318077 0 68.059044077318077 15.479981240346206 0 0 0 0 40.340341120701851 71.524865527419593 0 71.524865527419593 0.35058512835951205 0 0 0 0 0.28593834952509667 -0.56415592827602801 0 -0.56415592827602801 -0.49096501823583028 0 0 0 0 9.3120991783098361 -7.6806441442265054 0 -7.6806441442265054 -19.724946785268685 0 0 0 0 201.63881817853644 182.54486449219354 0 182.54486449219354 90.832316185526224 0 0 0 0 89.428351332188868 -78.767962194774782 0 -78.767962194774782 -166.89244909764977 0 0 0 0 148.85678143380937 19.47047719334148 0 19.47047719334148 -34.351423641421036 0 0 0 0 38.706077154823106 74.346847758827266 0 74.346847758827266 -4.4304923937127114 0 0 0 0 128.59222762830905 107.79982597989749 0 107.79982597989749 -2.6204410283234338 0 0 0 0 98.330041503289067 68.882960453583678 0 68.882960453583678 -9.9569602078852313 0 0 0 0 155.6847293212486 165.19499342302208 0 165.19499342302208 6.4935756030040608 0 0 0 0 83.296711519315068 171.50156133186601 0 171.50156133186601 6.0829031528418227 0 0 0 0 209.48781540513937 126.57884276384948 0 126.57884276384948 -175.29094212861014 0 0 0 0 36.105661609626623 -1.0575863872044238 0 -1.0575863872044238 26.491713664331883 0 0 0 0 -15.547705052742458 17.065082430034636 0 17.065082430034636 309.48902795135592 0 0 0 0 134.60925316407656 298.8386728944061 0 298.8386728944061 289.14103058416367 0 0 0 0 59.386755644459299 84.480131220349904 0 84.480131220349904 -16.310086322566121 0 0 0 0 41.999969955351844 103.32005922667554 0 103.32005922667554 163.36067183909699 0 0 0 0 4872.1831505151104 1218.5590681089172 0 1218.5590681089172 305.58220988848711 0 0 0 0 197.75919839940252 -112.2107750800933 0 -112.2107750800933 -648.25634559144623 0 0 0 0 194.6191370187953 230.81689095987122 0 230.81689095987122 -652.10300206622151 0 0 0 0 -512.58278544391396 245.52691172572202 0 245.52691172572202 -138.76186668507808 0 0 0 0 527.30872128926057 355.25789524756942 0 355.25789524756942 -265.74394458353396 0 0 0 0 228.46205946068403 99.080863447588854 0 99.080863447588854 -286.33974468391352 0 0 0 0 260.79643854079222 197.69476437821811 0 197.69476437821811 -78.868759188308331 0 0 0 0 374.65478079156674 149.76350825281497 0 149.76350825281497 -411.72403465721914 0 0 0 0 340.31082566463556 318.89773765935013 0 318.89773765935013 -77.646670720650292 0 0 0 0 1348.6585826000755 359.0640997672017 0 359.0640997672017 186.06627621064968 0 0 0 0 300.22222499419604 282.71648186976739 0 282.71648186976739 246.15679235304106 0 0 0 0 4505.3912870628565 -2146.5584562139097 0 -2146.5584562139097 2442.2601385942803 0 0 0 0 -1015.4620585500033 -1127.9137101752272 0 -1127.9137101752272 869.46605234370213 0 0 0 0 7.8504441512732885 -8.2357512105741115 0 -8.2357512105741115 3.2918331023897767 0 0 0 0 327.68359171115981 -480.69823208327671 0 -480.69823208327671 232.56652285860537 0 0 0 0 -81.048006630298914 -419.24325271750217 0 -419.24325271750217 314.15637540995499 0 0 0 0 2296.4526145937916 -1814.5924610205134 0 -1814.5924610205134 1103.2204537571788 0 0 0 0 5648.1762937456733 -3246.7525083317764 0 -3246.7525083317764 1396.9215511250954 0 0 0 0 1469.8743140835686 -2011.8411606802124 0 -2011.8411606802124 1567.7404196018729 0 0 0 0 766.52063535835623 -2322.7771523258302 0 -2322.7771523258302 1338.1906405834366 0 0 0 0 4498.013940016559 -1190.7251180654389 0 -1190.7251180654389 92.785646066203384 0 0 0 0 2546.832598394567 -1330.3963264170338 0 -1330.3963264170338 1554.6450136649501 0 0 0 0 13.931046728045033 2.1864242899760598 0 2.1864242899760598 1.0245902017672264 0 0 0 0 2480.7240046999887 -1545.533184266483 0 -1545.533184266483 966.18259683567396 0 0 0 0 230.03955903296264 366.73335368522726 0 366.73335368522726 574.24726398008897 0 0 0 0 787.54437411012805 -1223.8368967589013 0 -1223.8368967589013 1047.7271932412789 0 0 0 0 2136.3469088849743 -905.71697767051 0 -905.71697767051 812.48986723038297 0 0 0 0 1978.9769490251474 167.37366360006513 0 167.37366360006513 -598.2686092749874 0 0 0 0 33.096484760419116 8.5818125104544833 0 8.5818125104544833 39.150522574128445 0 0 0 0 45.11900446614527 31.57802130349819 0 31.57802130349819 -22.517029172311368 0 0 0 0 31.726004997724516 7.1647362264238987 0 7.1647362264238987 1.4507024815253982 0 0 0 0 1055.8150229184278 -78.744760098660024 0 -78.744760098660024 12.279977052673416 0 0 0 0 13.541143467900717 0.53304161562073915 0 0.53304161562073915 2.4292200170297358 0 0 0 0 800.40358577472216 1279.9516903438971 0 1279.9516903438971 -745.66294900618345 0 0 0 0 556.71439450346588 -1585.344379728675 0 -1585.344379728675 52.191259440042813 0 0 0 0 1083.8787891022728 -1091.8445839827693 0 -1091.8445839827693 -439.34093182464693 0 0 0 0 25.658736308376973 -9.9046262005425554 0 -9.9046262005425554 1.9689268955474983 0 0 0 0 2731.3795098084192 370.83063186121581 0 370.83063186121581 -1509.2531894484002 0 0 0 0 1075.1481631174083 -2033.2858371833522 0 -2033.2858371833522 -277.92072079437935 0 0 0 0 204.16938827824924 1513.6771594437946 0 1513.6771594437946 1150.8450744246002 0 0 0 0 3607.9174300013619 511.46387585458183 0 511.46387585458183 -1489.0340636158596 0 0 0 0 4256.6600108342318 -1283.1856944263495 0 -1283.1856944263495 -1172.8743955651353 0 0 0 0 3615.4202408440315 1190.0166695159867 0 1190.0166695159867 188.37676747936439 0 0 0 0 1132.1464515739644 1005.919265799221 0 1005.919265799221 -535.21866997935649 0 0 0 0 19.179335745573994 -1.9384967211177688 0 -1.9384967211177688 -0.73829776333553754 0 0 0 0 629.07170848832175 -796.97986290677363 0 -796.97986290677363 1139.505013336965 0 0 0 0 2.6516275350016087 6.3263524325082727 0 6.3263524325082727 -3.1138772843684848 0 0 0 0 2614.2789857762655 1769.5043490936098 0 1769.5043490936098 -184.35547733836438 0 0 0 0 4491.9903070924483 200.574908791681 0 200.574908791681 -1060.1017592088103 0 0 0 0 -1395.0948575718321 -24.540699631806547 0 -24.540699631806547 597.46894329872259 0 0 0 0 -1029.0608134423892 -615.43478814131117 0 -615.43478814131117 1411.4148664588288 0 0 0 0 2934.9011390742326 1213.5961127224587 0 1213.5961127224587 -1041.9023106118966 0 0 0 0 25.209018037105452 -10.210055999003389 0 -10.210055999003389 3.7208065650305122 0 0 0 0 988.44445816463849 -2404.6093819926991 0 -2404.6093819926991 1184.1968530909924 0 0 0 0 2602.9596768749157 -1486.7897666421309 0 -1486.7897666421309 -123.58127906694786 0 0 0 0 4488.68871345361 -2533.6727108811933 0 -2533.6727108811933 126.51595869819896 0 0 0 0 2624.8671441970728 -1361.5567792256504 0 -1361.5567792256504 471.46989247845448 0 0 0 0 1620.4961160892344 -994.73314052030696 0 -994.73314052030696 1450.5716454297092 0 0 0 0 2486.3043739006753 -508.50515645056635 0 -508.50515645056635 -185.72390040826301 0 0 0 0 3053.3891916943103 -924.76099089810032 0 -924.76099089810032 -145.78318614669811 0 0 0 0 2177.0465417159103 -870.34738637543569 0 -870.34738637543569 -45.992427553116642 0 0 0 0 2997.951122022323 -1357.7608645223966 0 -1357.7608645223966 -161.30897114248049 0 0 0 0 1455.4680227397912 -501.80059200857875 0 -501.80059200857875 -96.403869422894772 0 0 0 0 -67.985624087908946 -714.92214509815494 0 -714.92214509815494 -232.23706918687952 0 0 0 0 976.23912889610301 -200.10714238581878 0 -200.10714238581878 -111.76071692814548 0 0 0 0 2417.6816497122418 -299.32321821950762 0 -299.32321821950762 -90.784313313678126 0 0 0 0 1094.3684991458522 -1016.3278585640538 0 -1016.3278585640538 -153.74510719188947 0 0 0 0 1038.9293082865079 -156.27035022214778 0 -156.27035022214778 414.52797665739877 0 0 0 0 1715.7951517818146 356.55158374056248 0 356.55158374056248 -40.538395039644286 0 0 0 0 2179.6492978242986 -792.99706096963189 0 -792.99706096963189 480.45083813892603 0 0 0 0 1461.4868857122347 -541.66768472849981 0 -541.66768472849981 35.790357967429401 0 0 0 0 2195.0593456589231 -678.26789842973449 0 -678.26789842973449 17.595432239652894 0 0 0 0 1790.4008081651846 -348.82830264221406 0 -348.82830264221406 17.457413859979624 0 0 0 0 1532.2453797540293 -258.51193449123565 0 -258.51193449123565 -42.363287300510365 0 0 0 0 1548.5512613743158 -212.37824360853807 0 -212.37824360853807 51.758955965922269 0 0 0 0 661.00244183204268 -279.44392274586988 0 -279.44392274586988 200.0868586309852 0 0 0 0 706.44183731697649 -31.747797951580637 0 -31.747797951580637 -47.676207003824175 0 0 0 0 217.78292243240139 21.413318917110018 0 21.413318917110018 225.69870651506187 0 0 0 0 20.25467466281043 -166.60966985347966 0 -166.60966985347966 -72.504753250312547 0 0 0 0 46.873748403108038 240.37039384789318 0 240.37039384789318 -154.07810988247979 0 0 0 0 129.61504220629286 -9.5055406780146541 0 -9.5055406780146541 17.571200378169465 0 0 0 0 206.37737025790398 146.68373416567863 0 146.68373416567863 200.09657138475711 0 0 0 0 34.8963626576151 224.9604687785467 0 224.9604687785467 118.17897119688834 0 0 0 0 -30.446543742098584 21.542610203658143 0 21.542610203658143 70.882884070039722 0 0 0 0 -31.85606330443261 -3.819396013252458 0 -3.819396013252458 255.39089946796676 0 0 0 0 32.746678848065585 83.089255996303507 0 83.089255996303507 -69.356199303505264 0 0 0 0 26.944503581304161 122.70919869667355 0 122.70919869667355 -22.23482190712474 0 0 0 0 4.5534207576347399 156.19172618449903 0 156.19172618449903 -117.46383015624269 0 0 0 0 19.270505631777269 30.957671483804234 0 30.957671483804234 10.311592294619913 0 0 0 0 140.31714774627653 24.950772113161293 0 24.950772113161293 -517.38123544277903 0 0 0 0 98.308998486820201 73.928125380359688 0 73.928125380359688 -262.27577412121587 0 0 0 0 72.207411816758395 -12.88317481750687 0 -12.88317481750687 -37.477184262407462 0 0 0 0 54.793751691961859 9.3405884388429961 0 9.3405884388429961 0.20858025199475272 0 0 0 0 57.029428683469078 5.2995790734128683 0 5.2995790734128683 0.026457548426669142 0 0 0 0 181.25426373107439 -56.699977090528932 0 -56.699977090528932 -1.4355730394822785 0 0 0 0 78.613784511646372 13.055779532692213 0 13.055779532692213 -47.513912277836198 0 0 0 0 51.976827065740821 16.33979480901818 0 16.33979480901818 4.2494367609518626 0 0 0 0 99.174435823081694 58.236069720003059 0 58.236069720003059 -7.8065242758307249 0 0 0 0 50.359485168068204 -10.781349173475746 0 -10.781349173475746 22.842487832315214 0 0 0 0 -602.84400429776724 91.909687644925697 0 91.909687644925697 6.4132487804230323 0 0 0 0 16.307102642461075 3.1041805197683416 0 3.1041805197683416 2.4371816478626043 0 0 0 0 61.298634193209637 31.109941483901423 0 31.109941483901423 16.035880252240531 0 0 0 0 -605.37992092130662 58.758456040437807 0 58.758456040437807 1174.1337047096913 0 0 0 0 472.67291315242619 18.721653733202373 0 18.721653733202373 -669.31682305210256 0 0 0 0 15.112508743276038 -2.9432968257338921 0 -2.9432968257338921 1.2001326155082328 0 0 0 0 27.047611360566492 1.8440677038187649 0 1.8440677038187649 -0.68255346359393765 0 0 0 0 40.430034131924913 13.269771724613747 0 13.269771724613747 -4.5981153102006829 0 0 0 0 8.9676553159806645 -0.27125875885076312 0 -0.27125875885076312 12.694144239325567 0 0 0 0 43.022523887827944 3.0220262106172999 0 3.0220262106172999 -1.135781273329441 0 0 0 0 72.291505035937007 5.9640624043531716 0 5.9640624043531716 -32.821548384765265 0 0 0 0 606.30611487516012 -297.01211607162804 0 -297.01211607162804 478.17449576500258 0 0 0 0 1245.3460065572961 -5.4344381077371509 0 -5.4344381077371509 -377.60152533493056 0 0 0 0 1846.3554505550946 556.82770035160081 0 556.82770035160081 -45.97780408957442 0 0 0 0 1759.3131807875657 -477.3351852179012 0 -477.3351852179012 47.388108321334585 0 0 0 0 1589.9362829820877 -14.340749445517758 0 -14.340749445517758 -160.50113096196401 0 0 0 0 1109.8342099773754 -10.017666770660071 0 -10.017666770660071 -112.68771124865725 0 0 0 0 1214.1270442919308 -47.064822426596947 0 -47.064822426596947 -76.939887133205048 0 0 0 0 1488.5556599293407 -204.55217124798764 0 -204.55217124798764 -422.38846114678017 0 0 0 0 1328.5992445886584 -309.22810385808225 0 -309.22810385808225 -485.09240708417565 0 0 0 0 933.09376334148237 -0.019487779159362617 0 -0.019487779159362617 66.163507168854267 0 0 0 0 848.80176092905026 -253.74630739408349 0 -253.74630739408349 -198.87944658349079 0 0 0 0 1058.2443764307493 -147.82259473815247 0 -147.82259473815247 -54.864492051465277 0 0 0 0 1159.9313352915212 -132.67235742613229 0 -132.67235742613229 -160.27208609409718 0 0 0 0 -41.962827788912364 -31.583712863789515 0 -31.583712863789515 184.3592148733369 0 0 0 0 151.03923058919099 -75.563658361161288 0 -75.563658361161288 83.483357640828217 0 0 0 0 62.566914100862959 40.127218576668383 0 40.127218576668383 113.95891744488472 0 0 0 0 108.1389227708853 -21.348620916866821 0 -21.348620916866821 78.031636108420571 0 0 0 0 -43.711697464450182 31.101756514731392 0 31.101756514731392 61.788892408236279 0 0 0 0 -12.389050782763661 -1.128108691667876 0 -1.128108691667876 87.549136378635922 0 0 0 0 -4.1003956612785259 22.768406396893624 0 22.768406396893624 32.45200918415776 0 0 0 0 -10.781696701648755 6.8079422074944205 0 6.8079422074944205 5.3483796055451585 0 0 0 0 -110.02146807719573 -126.14535781956067 0 -126.14535781956067 -66.632203283505078 0 0 0 0 -2.7865354899168926 1.2998382503669781 0 1.2998382503669781 -1.5001541388664492 0 0 0 0 562.9928306870695 -114.68915836533597 0 -114.68915836533597 -277.45272211398287 0 0 0 0 -120.31136133550172 -37.152516462891072 0 -37.152516462891072 334.53248020575302 0 0 0 0 464.60861518242541 330.28761286210374 0 330.28761286210374 222.79424211586274 0 0 0 0 -256.78053029184082 78.794980955488427 0 78.794980955488427 172.11073769106588 0 0 0 0 511.78494348138474 385.13004431499576 0 385.13004431499576 35.484298554819588 0 0 0 0 10.498936398653086 -102.09902948972331 0 -102.09902948972331 -55.918424475667052 0 0 0 0 614.32206676837643 158.38103846093372 0 158.38103846093372 137.86550576391892 0 0 0 0 864.32256713663151 596.50789968747722 0 596.50789968747722 820.05829797648403 0 0 0 0 992.32820816027038 -590.56386258564726 0 -590.56386258564726 700.99396919534956 0 0 0 0 1564.8167220686091 62.648612691316885 0 62.648612691316885 61.980247838835567 0 0 0 0 1200.1397042252886 -679.99801557766386 0 -679.99801557766386 165.63889587546691 0 0 0 0 308.2853466243505 -460.76352304421744 0 -460.76352304421744 249.21109081496252 0 0 0 0 133.52471124506246 -381.10259888187375 0 -381.10259888187375 259.40387665905746 0 0 0 0 258.81757725968691 -530.57124271753582 0 -530.57124271753582 299.85615187516123 0 0 0 0 -53.810898196310063 -214.27959233232582 0 -214.27959233232582 190.22296424192973 0 0 0 0 -24.524343154947928 -403.40959483608822 0 -403.40959483608822 451.24297008618851 0 0 0 0 -58.509851668688498 -97.747852363469974 0 -97.747852363469974 110.66355485463282 0 0 0 0 81.041000635586897 -132.27668779808755 0 -132.27668779808755 -372.74274030040942 0 0 0 0 138.21520247907438 -630.03298412303502 0 -630.03298412303502 616.38794341826451 0 0 0 0 0.74609546047577169 -158.57906210123656 0 -158.57906210123656 276.70237977316719 0 0 0 0 69.813261976532885 -175.5085626779055 0 -175.5085626779055 153.57451036920293 0 0 0 0 -43.136211312552405 -211.40164084987555 0 -211.40164084987555 144.29456549347469 0 0 0 0 9.4584185444855393 -260.71263931526482 0 -260.71263931526482 250.14345976387631 0 0 0 0 9.1327290902518143 -359.01819586868805 0 -359.01819586868805 330.66674991168111 0 0 0 0 45.415819459176419 -243.40730930548852 0 -243.40730930548852 159.27606525636293 0 0 0 0 15.868858436675509 -260.05557028021758 0 -260.05557028021758 35.435418105244025 0 0 0 0 -56.653790442049285 -174.07104172249092 0 -174.07104172249092 6.7717735332380471 0 0 0 0 11.700876510432863 -220.29419954203331 0 -220.29419954203331 -271.18977785985044 0 0 0 0 7.1516429630846687 -182.70808209249026 0 -182.70808209249026 -29.087156641038746 0 0 0 0 -61.203406705053567 -224.6502095812466 0 -224.6502095812466 164.74131093388132 0 0 0 0 -97.57037279803626 -194.75036621124491 0 -194.75036621124491 -29.787979072241001 0 0 0 0 -52.533231117425203 -157.19199842666239 0 -157.19199842666239 -75.80647667474841 0 0 0 0 2.7179481333187141 -213.31053334684839 0 -213.31053334684839 -46.97035315249741 0 0 0 0 9.6258461145525871 -125.48551704102283 0 -125.48551704102283 42.348253579504672 0 0 0 0 13.402789650216619 -214.30569177148391 0 -214.30569177148391 -524.08717258590332 0 0 0 0 -55.963274835939956 -182.6238819423852 0 -182.6238819423852 -267.14294950442286 0 0 0 0 -6.3376171208810774 -191.13862830661492 0 -191.13862830661492 -266.81134285606095 0 0 0 0 -58.319339974514151 -102.47685443048249 0 -102.47685443048249 -518.05396079149068 0 0 0 0 -165.04179311850748 -216.19574379749065 0 -216.19574379749065 -266.76143134997983 0 0 0 0 160.972360748965 278.37429978047203 0 278.37429978047203 -344.72849755619427 0 0 0 0 129.54460983187346 -236.50665034820122 0 -236.50665034820122 329.44441962265591 0 0 0 0 -194.44748568381874 534.92071517648583 0 534.92071517648583 713.64956704322594 0 0 0 0 47.048801525965246 -287.90659658824825 0 -287.90659658824825 -660.38340438746673 0 0 0 0 -33.219841096122764 -344.99128610625667 0 -344.99128610625667 -505.09520957488326 0 0 0 0 140.04553933077204 -256.08217952475297 0 -256.08217952475297 -321.70612452689056 0 0 0 0 3.9104914052015616 -2.2255039803114407 0 -2.2255039803114407 1.3197974992235793 0 0 0 0 -273.46655333563223 -472.65424234927605 0 -472.65424234927605 669.56012967196511 0 0 0 0 53.293377417167747 -21.08157910485513 0 -21.08157910485513 7.1164155453944353 0 0 0 0 880.31558647177098 354.64885545878451 0 354.64885545878451 -80.489156379043379 0 0 0 0 17.919245733435538 -6.1999245160134784 0 -6.1999245160134784 2.5551725268068211 0 0 0 0 337.25632799909181 -97.855481891609088 0 -97.855481891609088 -510.11851882349765 0 0 0 0 28.343880441249439 -328.24535694526458 0 -328.24535694526458 -455.69653045977429 0 0 0 0 44.700833161322137 -16.818760738175513 0 -16.818760738175513 5.2083717549879829 0 0 0 0 206.46746630138477 84.86901938304527 0 84.86901938304527 236.68376101868489 0 0 0 0 187.84926058379506 -137.72535518942004 0 -137.72535518942004 -59.50680265192932 0 0 0 0 142.72638775849464 -42.425762721309184 0 -42.425762721309184 242.52840750884025 0 0 0 0 334.32612317952771 171.64018646070781 0 171.64018646070781 143.99471333471956 0 0 0 0 590.12313173796065 97.944268811189431 0 97.944268811189431 277.36270849816174 0 0 0 0 1087.322450077907 1.919030394067704 0 1.919030394067704 89.492898793593668 0 0 0 0 766.88669064800683 158.49774577515154 0 158.49774577515154 232.58896897105478 0 0 0 0 403.48337867747796 114.07384601128797 0 114.07384601128797 262.51629775579022 0 0 0 0 575.91818467204985 58.896345829631855 0 58.896345829631855 189.40956806831855 0 0 0 0 79.211109440908331 -79.037054706572235 0 -79.037054706572235 224.48234382031842 0 0 0 0 260.26039258120727 35.488356715941336 0 35.488356715941336 213.16197083892985 0 0 0 0 324.12069039314247 7.0055291169337579 0 7.0055291169337579 171.36981585898684 0 0 0 0 454.74677843739846 94.25593743104946 0 94.25593743104946 175.36380697218419 0 0 0 0 287.72040441519493 109.04638963017453 0 109.04638963017453 252.274568418934 0 0 0 0 743.25507751007899 87.408506667441088 0 87.408506667441088 183.89607785405951 0 0 0 0 515.86165503465691 181.77801907671801 0 181.77801907671801 291.36854759861308 0 0 0 0 618.59499108799628 28.639359161802986 0 28.639359161802986 246.6042350032767 0 0 0 0 199.94219562533908 -64.68848480408451 0 -64.68848480408451 -22.235218140011057 0 0 0 0 -29.558346720565851 43.089836175246035 0 43.089836175246035 22.941684613477264 0 0 0 0 120.65660986355215 -6.9666768260349272 0 -6.9666768260349272 2.9168681577339157 0 0 0 0 106.78462711306383 -22.214639186882778 0 -22.214639186882778 106.96307419622826 0 0 0 0 280.00348840855577 -183.45528991440551 0 -183.45528991440551 68.472085351306305 0 0 0 0 156.69758808436563 -63.957502124513667 0 -63.957502124513667 122.78324703076578 0 0 0 0 280.33883423763541 69.255729415226938 0 69.255729415226938 53.341214097457851 0 0 0 0 136.62654848500097 121.34275654151043 0 121.34275654151043 157.96729154820332 0 0 0 0 125.74682518646114 46.195919459245488 0 46.195919459245488 -20.121147915143411 0 0 0 0 76.658488981845949 101.89749566292994 0 101.89749566292994 -75.145028570442264 0 0 0 0 -1.0207369628577787 1.010454719486674 0 1.010454719486674 0.49599887913093976 0 0 0 0 89.835868909438432 61.957793302266055 0 61.957793302266055 -24.307911867796065 0 0 0 0 -30.830037265417559 17.686147919841915 0 17.686147919841915 -19.722228256950984 0 0 0 0 160.91217234313626 159.72392383179067 0 159.72392383179067 66.381608428235722 0 0 0 0 96.550610144114216 109.02880850750034 0 109.02880850750034 102.13242583880674 0 0 0 0 53.640015401824257 99.646870855368888 0 99.646870855368888 100.24524578398996 0 0 0 0 272.83453608826403 193.20898847135868 0 193.20898847135868 89.861941853169355 0 0 0 0 154.38823223164673 146.20936790103497 0 146.20936790103497 163.67362114837761 0 0 0 0 247.03421359011281 193.73206138638125 0 193.73206138638125 157.2499120725297 0 0 0 0 223.43629588962176 225.13408887284822 0 225.13408887284822 121.68249381991473 0 0 0 0 175.84522676872166 178.97289637514132 0 178.97289637514132 130.2061510063113 0 0 0 0 200.67331978609218 177.59277423185995 0 177.59277423185995 83.086756642563842 0 0 0 0 563.76647863292055 119.15679355828161 0 119.15679355828161 157.20218913706776 0 0 0 0 566.86793946126545 135.72927539505531 0 135.72927539505531 227.26574548851386 0 0 0 0 302.09476768227114 130.42589692397814 0 130.42589692397814 194.76882662346543 0 0 0 0 384.78332502930971 202.24292489160598 0 202.24292489160598 214.58357680267954 0 0 0 0 252.97716220542225 207.92071659904013 0 207.92071659904013 178.32121236285457 0 0 0 0 373.53313456615069 151.91297133652961 0 151.91297133652961 162.51596208384944 0 0 0 0 388.73069481282073 197.49174418888197 0 197.49174418888197 136.28760581252664 0 0 0 0 420.59101459313479 177.71926163445551 0 177.71926163445551 154.86755847624818 0 0 0 0 478.34146679662354 37.945552675702402 0 37.945552675702402 162.21707289307869 0 0 0 0 388.79635933633108 137.15057028449974 0 137.15057028449974 197.99653090933043 0 0 0 0 483.32986406948658 -78.113828489544176 0 -78.113828489544176 146.02187788915626 0 0 0 0 639.67530535621586 -47.152052349332337 0 -47.152052349332337 136.83860072794778 0 0 0 0 741.79269853079495 -99.397446081620728 0 -99.397446081620728 137.06132303159461 0 0 0 0 649.06153719696522 85.079516446461639 0 85.079516446461639 119.69480217763703 0 0 0 0 626.83619437008292 -200.05265143458564 0 -200.05265143458564 134.70952093005212 0 0 0 0 685.19634365524598 -167.41913571334362 0 -167.41913571334362 114.98261161128357 0 0 0 0 773.64058749963078 -250.67906130640586 0 -250.67906130640586 148.30431603960369 0 0 0 0 709.56229951447131 -307.30877751285561 0 -307.30877751285561 142.2697196682002 0 0 0 0 805.52581590854516 -301.49852914845178 0 -301.49852914845178 111.24559323040376 0 0 0 0 817.66108801840983 -321.92249394671171 0 -321.92249394671171 142.85106305964837 0 0 0 0 965.37687385231584 -179.85201988981316 0 -179.85201988981316 113.84323765540103 0 0 0 0 975.10567964368056 -313.34523363913922 0 -313.34523363913922 110.11187499001835 0 0 0 0 935.43526855323489 -320.68116216971612 0 -320.68116216971612 117.09725999565853 0 0 0 0 775.88811440898462 64.296986454472062 0 64.296986454472062 122.28681644082326 0 0 0 0 786.64087815286075 -58.688240420688999 0 -58.688240420688999 134.86724400452567 0 0 0 0 782.26592581586192 -68.643680273550217 0 -68.643680273550217 116.13664198869628 0 0 0 0 1104.620721513239 -17.543331871624105 0 -17.543331871624105 118.58205029085639 0 0 0 0 851.2001561766715 213.97439667002345 0 213.97439667002345 293.04896547337376 0 0 0 0 999.78200497324633 -28.40959906189255 0 -28.40959906189255 258.62719437743976 0 0 0 0 985.07664300471106 -76.635479102187674 0 -76.635479102187674 471.03023575697534 0 0 0 0 960.25909890379944 -66.458140755032218 0 -66.458140755032218 174.79439781862311 0 0 0 0 1356.2745192203793 169.47667890071716 0 169.47667890071716 279.76376102812173 0 0 0 0 1281.4006888026006 -297.44479350364327 0 -297.44479350364327 224.68011706796642 0 0 0 0 1433.7866001454422 -331.63326227601283 0 -331.63326227601283 108.45859358560756 0 0 0 0 808.21348571303497 -513.16395383165036 0 -513.16395383165036 240.99297271428804 0 0 0 0 1891.2149998618684 -834.43947917755759 0 -834.43947917755759 380.07225335711337 0 0 0 0 683.56623789112928 -859.38901149357116 0 -859.38901149357116 999.37002188838233 0 0 0 0 1866.9671864296542 -711.28954559058366 0 -711.28954559058366 274.51800327436467 0 0 0 0 1.540123852452199 2.4948528591732444 0 2.4948528591732444 1.0485487746744986 0 0 0 0 1481.3908579943486 -158.00172980243224 0 -158.00172980243224 317.69213903634591 0 0 0 0 2221.5097244391518 -475.26731324126013 0 -475.26731324126013 333.74646852234196 0 0 0 0 1536.1739687923437 230.1949460040355 0 230.1949460040355 497.0196323539767 0 0 0 0 985.89160422139923 264.05102017580714 0 264.05102017580714 138.31343002209542 0 0 0 0 3.7648693047666644 1.3585533399921434 0 1.3585533399921434 3.0772850541751247 0 0 0 0 987.01603839882864 603.54599240877133 0 603.54599240877133 -7.5080013962497105 0 0 0 0 1091.7692661867241 -106.30686948685798 0 -106.30686948685798 -42.588257403277566 0 0 0 0 1947.9428297729655 169.85785701141504 0 169.85785701141504 -86.913369718025933 0 0 0 0 1343.1103606979716 -350.18964215463666 0 -350.18964215463666 343.39790480085867 0 0 0 0 13.678090169045845 -20.355458663584386 0 -20.355458663584386 24.496458853861441 0 0 0 0 -1.2473934100808037 -20.231541089636266 0 -20.231541089636266 74.70875696218036 0 0 0 0 25.688870927918288 -43.276016766622888 0 -43.276016766622888 33.171635728422189 0 0 0 0 31.716078033820395 -37.782348786221974 0 -37.782348786221974 -0.62143568843112007 0 0 0 0 0.83924697490969358 -1.9476152296168054 0 -1.9476152296168054 2.7880819313102023 0 0 0 0 32.172194174080232 5.5163181888215149 0 5.5163181888215149 81.044749915138709 0 0 0 0 11.989281373997983 -32.606127825549265 0 -32.606127825549265 79.025601100211929 0 0 0 0 144.64678244635115 -259.48677280126321 0 -259.48677280126321 17.515969284508174 0 0 0 0 -2.8643978894265274 -9.9788257573743522 0 -9.9788257573743522 14.205425759659647 0 0 0 0 73.228071887526312 -49.893328329261749 0 -49.893328329261749 308.16198471748612 0 0 0 0 5.3676857240926381 6.1498497893348176 0 6.1498497893348176 5.497440067564904 0 0 0 0 5.9303468549861531 5.2130768664486968 0 5.2130768664486968 7.282917895874224 0 0 0 0 7.2813966460666126 1.7056096266257796 0 1.7056096266257796 11.027548985519664 0 0 0 0 0.74046438663140179 4.0476328714157717 0 4.0476328714157717 2.3419053856607661 0 0 0 0 802.64919109983543 -492.11945402992023 0 -492.11945402992023 192.29028699424089 0 0 0 0 646.40134258715443 -503.51352296860387 0 -503.51352296860387 236.64562335631672 0 0 0 0 3.3582622552073644 -30.773259461212547 0 -30.773259461212547 31.281884737938981 0 0 0 0 9.2485004793940533 -5.0315240713162428 0 -5.0315240713162428 3.0132959343624752 0 0 0 0 3.1970645186293529 3.5258804036127245 0 3.5258804036127245 5.151945666673643 0 0 0 0 -54.387221585195221 37.713355716359729 0 37.713355716359729 60.617976877824731 0 0 0 0 -6.9099834844583938 7.0313492721516013 0 7.0313492721516013 29.564344683959462 0 0 0 0 9.2650501920193182 6.3170845152870863 0 6.3170845152870863 8.0490574391296512 0 0 0 0 530.42320333802479 -238.35001421029014 0 -238.35001421029014 190.3589667687902 0 0 0 0 529.75906809861135 -426.86013013463344 0 -426.86013013463344 283.41934075738754 0 0 0 0 718.5684898978152 -369.98399009579498 0 -369.98399009579498 165.32146407482833 0 0 0 0 929.4998311149252 -478.77758667934484 0 -478.77758667934484 158.36915922516346 0 0 0 0 948.46354353251809 -176.83071428420408 0 -176.83071428420408 -181.8681965686701 0 0 0 0 648.85082937712832 -295.62493954170804 0 -295.62493954170804 162.70657786501397 0 0 0 0 741.3386959378804 -375.5571691450632 0 -375.5571691450632 164.67295367202701 0 0 0 0 777.38744128627513 -325.49489289397025 0 -325.49489289397025 169.09032028639194 0 0 0 0 738.41245060994152 -342.46358000397277 0 -342.46358000397277 180.2074305196129 0 0 0 0 788.03260846695594 -307.64202935704907 0 -307.64202935704907 163.04319105071809 0 0 0 0 919.54974015352673 -469.66630557819735 0 -469.66630557819735 299.64879286969881 0 0 0 0 643.81932797009995 -296.65005102650139 0 -296.65005102650139 185.36383019518109 0 0 0 0 24.843321220411269 40.927727579406564 0 40.927727579406564 -22.817077222216994 0 0 0 0 65.420129247699151 -10.03974215623748 0 -10.03974215623748 -15.217342142515463 0 0 0 0 22.234094885747741 8.690638434070479 0 8.690638434070479 3.4761662790255032 0 0 0 0 -0.64629643487329425 0.058497786925187256 0 0.058497786925187256 2.3310114251913205 0 0 0 0 95.866781711652834 68.764804268212174 0 68.764804268212174 -15.078871211287606 0 0 0 0 1.7619513542691099 1.3244648596902131 0 1.3244648596902131 0.78127653542770226 0 0 0 0 -56.742151185652972 -68.779719491266178 0 -68.779719491266178 34.617013561000022 0 0 0 0 76.564144126905376 -53.647092820485796 0 -53.647092820485796 -37.24486343837907 0 0 0 0 93.489320257449208 26.470587747828176 0 26.470587747828176 -43.008168327325848 0 0 0 0 44.213066554763714 -63.087867401228777 0 -63.087867401228777 62.688659943006314 0 0 0 0 57.761569337729952 -31.923645043387296 0 -31.923645043387296 8.4342816023263367 0 0 0 0 55.2768658901864 -74.008107869484775 0 -74.008107869484775 -2.807865828625836 0 0 0 0 158.95108026204616 -71.532290776907303 0 -71.532290776907303 119.46922448504574 0 0 0 0 75.077746846086029 -6.2059962157101722 0 -6.2059962157101722 68.80573193971577 0 0 0 0 58.814712556770246 -15.554210570990563 0 -15.554210570990563 95.757514209128203 0 0 0 0 79.536113371881356 -43.299349402622283 0 -43.299349402622283 57.055788192297769 0 0 0 0 108.26347357237705 75.830371045073662 0 75.830371045073662 68.487115478245869 0 0 0 0 63.476362425872594 18.209540393430871 0 18.209540393430871 47.170773711481161 0 0 0 0 127.95041541328828 102.29147075302535 0 102.29147075302535 -45.338901915980387 0 0 0 0 56.572039403799806 27.398117251030271 0 27.398117251030271 270.9157400279073 0 0 0 0 92.98738619941355 192.01526876970729 0 192.01526876970729 121.72310552957606 0 0 0 0 93.94338631747712 63.245461168189536 0 63.245461168189536 61.770382624625199 0 0 0 0 112.81407927926057 20.855437255174365 0 20.855437255174365 -14.09419227818762 0 0 0 0 84.001071899851013 33.517601258189643 0 33.517601258189643 96.910086198283352 0 0 0 0 -0.9316138678616156 -0.79264497621233154 0 -0.79264497621233154 -0.7240578144598917 0 0 0 0 26.46057179809128 -61.727742598176064 0 -61.727742598176064 82.12237687646757 0 0 0 0 90.287955297522501 56.011972653861449 0 56.011972653861449 -134.6186445444564 0 0 0 0 15.42318007703782 -35.629316166810895 0 -35.629316166810895 60.727231256560572 0 0 0 0 -55.589802609195729 57.375848402777024 0 57.375848402777024 23.91456903794824 0 0 0 0 112.13443789285536 22.962845530953587 0 22.962845530953587 69.8408051928036 0 0 0 0 11.532163197038699 47.27527974833265 0 47.27527974833265 -104.25239146929152 0 0 0 0 -1.3347753748366664 -5.7676306588229505 0 -5.7676306588229505 0.33064171068756298 0 0 0 0 7.7428072040621032 -38.603067762117007 0 -38.603067762117007 19.97898296159201 0 0 0 0 -21.105935213736302 -34.257974699833539 0 -34.257974699833539 -29.291058283285565 0 0 0 0 9.2432502457581904 24.890164295134582 0 24.890164295134582 28.982078504200672 0 0 0 0 -74.51940770640681 7.8101703782476761 0 7.8101703782476761 44.010943249533739 0 0 0 0 -15.734568962306184 15.118333073866779 0 15.118333073866779 43.173081878960886 0 0 0 0 -18.995693491171551 23.725570703339599 0 23.725570703339599 72.401168799902734 0 0 0 0 -6.6526519927501795 43.941034979230153 0 43.941034979230153 67.093031882888681 0 0 0 0 7.6921838530415698 13.91140200267273 0 13.91140200267273 75.887054223630003 0 0 0 0 53.970027642317291 -21.189859606610298 0 -21.189859606610298 62.125129686211949 0 0 0 0 2.0165851594581454 -21.627954673825229 0 -21.627954673825229 80.22738433117047 0 0 0 0 7.2748981309876513 20.033912376192347 0 20.033912376192347 206.45793300582682 0 0 0 0 221.99419352866033 -174.15270006858168 0 -174.15270006858168 4.8650407489712961 0 0 0 0 2.0972238858134915 29.628923278852199 0 29.628923278852199 29.276152590777656 0 0 0 0 -36.814589222392783 30.678667263574425 0 30.678667263574425 91.692411323718261 0 0 0 0 1.365650405157453 -1.3454852344757455 0 -1.3454852344757455 129.10942004187746 0 0 0 0 31.078409653353219 71.32721160969777 0 71.32721160969777 94.918000274939459 0 0 0 0 -4.7523099445493244 50.699846145420906 0 50.699846145420906 81.909802466738029 0 0 0 0 -8.7442948461671222 56.322355652300303 0 56.322355652300303 98.284014556244074 0 0 0 0 -0.15660154209383093 0.08108826940733227 0 0.08108826940733227 2.8060542335708014 0 0 0 0 73.406459694783194 108.66587956518197 0 108.66587956518197 107.4571394630002 0 0 0 0 181.60088472951895 20.557716257107586 0 20.557716257107586 38.520041791092808 0 0 0 0 27.689668692316502 77.21323062074498 0 77.21323062074498 185.72776248957189 0 0 0 0 103.00138429572553 54.779275646816131 0 54.779275646816131 26.789375439213472 0 0 0 0 65.364843842298228 28.598894168607785 0 28.598894168607785 20.249226466143227 0 0 0 0 7.5476981812425947 9.3129420531731739 0 9.3129420531731739 -3.8908910441800799 0 0 0 0 67.028744910527223 70.768564472421588 0 70.768564472421588 49.080598675816873 0 0 0 0 -91.03585767940865 -16.256002987448255 0 -16.256002987448255 57.821748556823422 0 0 0 0 67.041252254042433 24.378468788697774 0 24.378468788697774 -11.744173819683056 0 0 0 0 12.873991124364556 0.74123563598086362 0 0.74123563598086362 5.665640566870545 0 0 0 0 102.94166906220948 29.513769331714684 0 29.513769331714684 -28.431459420709871 0 0 0 0 14.882788444584435 39.015679197630561 0 39.015679197630561 -28.641522682666618 0 0 0 0 13.562954597094683 -0.79458147956584657 0 -0.79458147956584657 -3.4735238457505595 0 0 0 0 106.38528529639098 -19.586789571786085 0 -19.586789571786085 43.767643282069002 0 0 0 0 40.370414289541259 -15.136617462114828 0 -15.136617462114828 60.873655569068433 0 0 0 0 1.9139786834870165 53.430229015122336 0 53.430229015122336 59.543291058713294 0 0 0 0 91.810867357728057 29.834260012788491 0 29.834260012788491 35.054800566812901 0 0 0 0 22.258040546508255 31.133457793687739 0 31.133457793687739 52.634428480476345 0 0 0 0 47.500307510258779 17.422076143835397 0 17.422076143835397 58.985967956161403 0 0 0 0 24.013624591108055 36.791605646142671 0 36.791605646142671 67.591958024352152 0 0 0 0 -79.542791474422529 64.100218892285966 0 64.100218892285966 69.805897523087879 0 0 0 0 28.844843279598081 32.14572390336707 0 32.14572390336707 25.258860190705491 0 0 0 0 155.72603718363098 76.378554066856168 0 76.378554066856168 0.19790760853675238 0 0 0 0 28.982866254998608 52.937816239035172 0 52.937816239035172 46.254791996543645 0 0 0 0 201.72468738415182 -4.6080739892845486 0 -4.6080739892845486 0.43252052207526503 0 0 0 0 159.66847351041679 -62.942701610817721 0 -62.942701610817721 34.898189541296233 0 0 0 0 78.884329477601341 -0.042589097068685078 0 -0.042589097068685078 33.253417972504394 0 0 0 0 41.477332608161305 2.4678898158072116 0 2.4678898158072116 9.4498828384607805 0 0 0 0 46.604673328314675 8.3872720768681575 0 8.3872720768681575 2.1338091794002594 0 0 0 0 18.998616189577302 -7.6541733398087395 0 -7.6541733398087395 2.0412365217414132 0 0 0 0 495.25547140405661 -144.45166620659779 0 -144.45166620659779 -71.261908687075447 0 0 0 0 37.253155364891377 -3.063034377589132 0 -3.063034377589132 1.989507682351197 0 0 0 0 27.44340988680392 98.464918739322684 0 98.464918739322684 20.820947461314518 0 0 0 0 69.790439021524435 12.426229865828077 0 12.426229865828077 12.337449244274012 0 0 0 0 57.502850321365258 0.56419002942857333 0 0.56419002942857333 14.13828463001505 0 0 0 0 80.920021663689511 10.295668749573679 0 10.295668749573679 2.3655790722723395 0 0 0 0 46.440628080048178 1.2924162010029594 0 1.2924162010029594 1.9091926592173354 0 0 0 0 46.996565083565656 7.7564499548736876 0 7.7564499548736876 16.049285625786069 0 0 0 0 27.161709714254442 0.54719509736687932 0 0.54719509736687932 9.8505021758060742 0 0 0 0 63.334882992188341 -1.8002177373909944 0 -1.8002177373909944 -45.096365693054395 0 0 0 0 31.020622377761356 3.2324500767390418 0 3.2324500767390418 1.0741876286347178 0 0 0 0 27.606612653966227 1.3191015542011719 0 1.3191015542011719 3.3534955609698835 0 0 0 0 21.049650244621375 0.47093757525333046 0 0.47093757525333046 13.680303146323698 0 0 0 0 29.686280471730242 8.2236461394813887 0 8.2236461394813887 39.403404167067492 0 0 0 0 11.657841561336681 -10.130376845252613 0 -10.130376845252613 40.213208220396609 0 0 0 0 20.643488346256486 -7.480673030274545 0 -7.480673030274545 3.7009953978112913 0 0 0 0 -2.890630746795523 -13.718416210636178 0 -13.718416210636178 60.57984420783032 0 0 0 0 67.505980088831393 3.0473567034414373 0 3.0473567034414373 -19.142405609189893 0 0 0 0 24.044831505402271 -48.235986711469195 0 -48.235986711469195 67.790022321755714 0 0 0 0 6.4677389148183799 1.0259676390718466 0 1.0259676390718466 -1.1996065383234864 0 0 0 0 16.531076013648459 -17.956650742855004 0 -17.956650742855004 46.926888866182708 0 0 0 0 52.257617149876751 8.9478757037804826 0 8.9478757037804826 24.132134087327358 0 0 0 0 129.49699393901074 -24.315252785997473 0 -24.315252785997473 38.455973586212167 0 0 0 0 59.638930812284229 13.271414213251774 0 13.271414213251774 -26.273808447114789 0 0 0 0 45.656423788481334 -19.814044784662201 0 -19.814044784662201 1.0271279946719005 0 0 0 0 54.488198653119071 -5.3204099780417664 0 -5.3204099780417664 10.15525169579314 0 0 0 0 7.5259768038597015 1.4013508177940937 0 1.4013508177940937 -1.1558958067119125 0 0 0 0 33.50160202216739 -5.6240374914846143 0 -5.6240374914846143 13.064969422076047 0 0 0 0 55.388088051849081 -7.6805675077907551 0 -7.6805675077907551 6.2435027393607925 0 0 0 0 54.076203425251151 -4.9903705193588621 0 -4.9903705193588621 4.1191097004242465 0 0 0 0 34.852513535456772 -16.918597759809082 0 -16.918597759809082 9.3057567754565689 0 0 0 0 2.3421788406785709 -52.19946262897497 0 -52.19946262897497 -5.3640864928433984 0 0 0 0 33.473014206056177 -29.330144709080287 0 -29.330144709080287 -22.450205863040821 0 0 0 0 99.945999832943016 -12.6322818040112 0 -12.6322818040112 -24.226404301151433 0 0 0 0 207.85618443922431 280.61605735033299 0 280.61605735033299 251.73593900856577 0 0 0 0 19.052105359084617 -0.69131650603544159 0 -0.69131650603544159 2.4809715005298969 0 0 0 0 121.76016603485914 -50.621176255769115 0 -50.621176255769115 -9.2083130537346278 0 0 0 0 36.648801386465607 -5.3117414538662615 0 -5.3117414538662615 5.3861539416561754 0 0 0 0 -631.17222190053644 -411.67143510385699 0 -411.67143510385699 585.46914381116767 0 0 0 0 57.282374479454575 47.416072212932136 0 47.416072212932136 35.923240797228573 0 0 0 0 -124.75419365785274 -139.70091642963507 0 -139.70091642963507 -33.297530704311157 0 0 0 0 -11.383037450680604 18.386161074869506 0 18.386161074869506 172.99036187364891 0 0 0 0 -155.1381328717016 -47.449593333765733 0 -47.449593333765733 202.35197066694582 0 0 0 0 0.96663336728882676 -2.1799122880644872 0 -2.1799122880644872 3.1309151632714798 0 0 0 0 80.908947451043332 48.418573349572341 0 48.418573349572341 14.572776124156007 0 0 0 0 -167.13817800074139 -41.138225839585175 0 -41.138225839585175 215.82320523568342 0 0 0 0 42.78672697584625 17.013395795777569 0 17.013395795777569 17.741865870278161 0 0 0 0 22.550983489786177 -3.5968927263405703 0 -3.5968927263405703 0.5659988394568245 0 0 0 0 38.545594455121318 -2.572782928876677 0 -2.572782928876677 -0.353057464878475 0 0 0 0 5.7640163428163174 -5.6611727124328883 0 -5.6611727124328883 4.0090080954030114 0 0 0 0 52.220103722283966 -154.18897040576303 0 -154.18897040576303 -135.24458805652671 0 0 0 0 -50.152040934650813 -16.022442248632615 0 -16.022442248632615 -20.290251607260871 0 0 0 0 3.1518977822533776 2.1633619785948195 0 2.1633619785948195 2.3415919679685544 0 0 0 0 9.048401680295683 -26.17754617568562 0 -26.17754617568562 150.74362766449258 0 0 0 0 123.65463980575532 -79.930204318225606 0 -79.930204318225606 61.484676692780795 0 0 0 0 271.87243083564044 -79.841419635486091 0 -79.841419635486091 -170.54108117834221 0 0 0 0 100.39708987527592 76.756407530376691 0 76.756407530376691 18.801710223915961 0 0 0 0 87.309149909009648 -89.26518903795295 0 -89.26518903795295 105.95309045484009 0 0 0 0 42.258308459931868 -50.93025735984429 0 -50.93025735984429 77.21079676326417 0 0 0 0 121.81941214509152 -74.73008913245917 0 -74.73008913245917 57.630665400874022 0 0 0 0 1.9351893925000265 0.93038584837576987 0 0.93038584837576987 1.29015542435446 0 0 0 0 84.16409524973642 -49.789347759570546 0 -49.789347759570546 49.730033915620879 0 0 0 0 103.89850294137523 -65.234289135583822 0 -65.234289135583822 61.039254500717561 0 0 0 0 104.76341494871008 -64.987606732810605 0 -64.987606732810605 54.031074388894922 0 0 0 0 17.547103260458321 7.3500148907638847 0 7.3500148907638847 6.9070822862051262 0 0 0 0 43.622088189526885 0.81048662766226087 0 0.81048662766226087 -1.8525572475277239 0 0 0 0 -200.24169012865855 9.8532974085213709 0 9.8532974085213709 132.25718977902284 0 0 0 0 48.863500098768782 -4.6126210438508224 0 -4.6126210438508224 -6.2342447423624208 0 0 0 0 44.43607995623006 24.622060201816794 0 24.622060201816794 -14.101308650602732 0 0 0 0 19.159754505811165 9.8823827049702704 0 9.8823827049702704 1.7525279815298198 0 0 0 0 52.575095104683896 4.3139134641196506 0 4.3139134641196506 -23.325133289476298 0 0 0 0 45.912375271434939 1.9111877511323883 0 1.9111877511323883 -4.0459287012172354 0 0 0 0 32.369579608417553 -8.0926372530643675 0 -8.0926372530643675 10.859624737617366 0 0 0 0 37.590726881842784 3.6807151583066116 0 3.6807151583066116 9.4399184798327269 0 0 0 0 -4.9317642485699054 8.1748672996048359 0 8.1748672996048359 12.662770541866848 0 0 0 0 0.76493893638242128 3.8759819248901892 0 3.8759819248901892 1.6787576579337771 0 0 0 0 25.306135545217192 1.958917158916871 0 1.958917158916871 -2.1720410765754816 0 0 0 0 15.880249949332292 4.7425805489852593 0 4.7425805489852593 0.83014994414419196 0 0 0 0 23.136444307199781 -3.6685648496297745 0 -3.6685648496297745 -40.44055548866276 0 0 0 0 19.111105314017561 -1.9575945796362495 0 -1.9575945796362495 14.966580326791899 0 0 0 0 19.759718915047415 6.4514052357155549 0 6.4514052357155549 14.014391409977122 0 0 0 0 31.896561177097283 -13.609014625107193 0 -13.609014625107193 7.421078510214592 0 0 0 0 30.383683500326526 -3.8851198730699821 0 -3.8851198730699821 4.9507390204748845 0 0 0 0 30.068985182509095 4.0406467215117345 0 4.0406467215117345 9.6932301998906496 0 0 0 0 47.833053826803734 0.77837502623634691 0 0.77837502623634691 5.6154089794294748 0 0 0 0 44.83319757733716 -6.403064021924024 0 -6.403064021924024 3.3373906952100469 0 0 0 0 36.989898428581228 -8.9770536959230753 0 -8.9770536959230753 11.618445925708983 0 0 0 0 34.642756648148087 1.7600967512003727 0 1.7600967512003727 -1.2736314975828074 0 0 0 0 36.559358193412848 -2.1181569705083834 0 -2.1181569705083834 0.33546778688809864 0 0 0 0 82.889132764947135 77.193212616867754 0 77.193212616867754 -67.242205552636278 0 0 0 0 36.347788102787533 2.8206099806082472 0 2.8206099806082472 -0.28523236712403743 0 0 0 0 35.290119494799001 3.993092342269847 0 3.993092342269847 9.2278091944384641 0 0 0 0 34.803005967567401 0.75048541972397231 0 0.75048541972397231 6.7215094311670782 0 0 0 0 32.866203830773884 0.082302998735030997 0 0.082302998735030997 -25.198363633275335 0 0 0 0 163.21217480326595 -111.10700906274724 0 -111.10700906274724 -290.2116760778016 0 0 0 0 -7.0941998159323703 -22.481519948405094 0 -22.481519948405094 10.969618451727911 0 0 0 0 19.771508023395512 2.6069639809639438 0 2.6069639809639438 0.13832397181939626 0 0 0 0 31.141215495714277 -0.85713382624226142 0 -0.85713382624226142 -3.8337495645097306 0 0 0 0 33.728625547694719 30.910218586198198 0 30.910218586198198 -11.892371075368374 0 0 0 0 28.636942425291736 7.8415375670210299 0 7.8415375670210299 1.7774265404877032 0 0 0 0 23.807689851404575 7.1569861180023508 0 7.1569861180023508 -1.4071907482521055 0 0 0 0 31.119767688007258 4.1511671069970877 0 4.1511671069970877 0.80445194496569372 0 0 0 0 39.508978155069599 0.31130511122336202 0 0.31130511122336202 2.2910863580220848 0 0 0 0 40.911451213378314 2.1319800185655424 0 2.1319800185655424 4.0469981860608186 0 0 0 0 32.840471043445206 2.848885491169967 0 2.848885491169967 -6.1875172405491412 0 0 0 0 31.082158870772407 -2.9839265152165204 0 -2.9839265152165204 -0.11344986401429552 0 0 0 0 54.000828699227355 2.8827012426101106 0 2.8827012426101106 5.1935525474273163 0 0 0 0 53.898342628844148 2.3035740678163847 0 2.3035740678163847 2.4180497055094747 0 0 0 0 10.998281718473757 -5.0411480052027962 0 -5.0411480052027962 3.6627129103039455 0 0 0 0 55.086900927766692 1.9691178206330733 0 1.9691178206330733 10.987525651652163 0 0 0 0 51.478477096963616 1.5622850531499353 0 1.5622850531499353 11.015278357862485 0 0 0 0 47.492600562633015 1.3823765159022514 0 1.3823765159022514 8.9282297514810125 0 0 0 0 52.232995689830659 4.8566338960222311 0 4.8566338960222311 11.409981307871931 0 0 0 0 54.591186692618066 5.3332651104028628 0 5.3332651104028628 11.449436325618422 0 0 0 0 52.013351766387132 5.8747854822845511 0 5.8747854822845511 12.031439612404029 0 0 0 0 56.183402570237376 7.4671093775184545 0 7.4671093775184545 9.4053364082801636 0 0 0 0 20.468504100762832 5.0889386353955572 0 5.0889386353955572 5.2570098819967965 0 0 0 0 61.793296391122567 3.7131519255208332 0 3.7131519255208332 8.7869054191023679 0 0 0 0 29.448062286173808 7.5097908659263339 0 7.5097908659263339 4.36768928420679 0 0 0 0 40.366555165048595 4.4125705655829961 0 4.4125705655829961 0.15954777345725901 0 0 0 0 36.12351328519199 8.5684556609795202 0 8.5684556609795202 1.499150366771326 0 0 0 0 30.357729359908262 6.216544198833617 0 6.216544198833617 1.2292473515958591 0 0 0 0 15.635100271541887 17.734341927636706 0 17.734341927636706 40.316813691868447 0 0 0 0 30.123925717821926 9.553650771398992 0 9.553650771398992 4.2768446945643461 0 0 0 0 39.821953382459469 17.861620726603633 0 17.861620726603633 45.268141442840715 0 0 0 0 33.209204054672696 8.0991212164184958 0 8.0991212164184958 12.101588253242042 0 0 0 0 39.228655208658893 8.7960747055740285 0 8.7960747055740285 5.831014499442972 0 0 0 0 31.892253164463909 6.8236508078744009 0 6.8236508078744009 8.9442669146264961 0 0 0 0 25.941742655266552 7.6782341676096735 0 7.6782341676096735 8.239318366548682 0 0 0 0 36.367383374279598 9.0447411657651173 0 9.0447411657651173 6.8448685383596057 0 0 0 0 -360.09760859233222 70.252365974254104 0 70.252365974254104 51.426027874776992 0 0 0 0 18.049361401220789 7.1118590359908112 0 7.1118590359908112 10.153258544918849 0 0 0 0 36.968224504991667 2.5089885944589696 0 2.5089885944589696 8.3365862214559456 0 0 0 0 21.95794675398848 -2.7578101475428376 0 -2.7578101475428376 3.6929100857695043 0 0 0 0 -16.425522876583273 -5.6081191451328323 0 -5.6081191451328323 -11.140861361898715 0 0 0 0 55.276913455338217 9.3278936188291937 0 9.3278936188291937 -215.7435256547833 0 0 0 0 -1.1846674860353232 8.1135984508946422 0 8.1135984508946422 -64.401227652180751 0 0 0 0 8.5368553715544238 -4.1370977188345677 0 -4.1370977188345677 -1.8190139786861823 0 0 0 0 19.833348777680044 -2.4546801738704627 0 -2.4546801738704627 -0.96017598789512704 0 0 0 0 13.290057104983134 -15.27742528662111 0 -15.27742528662111 -19.849157663139522 0 0 0 0 31.120024714164053 -5.8582455678849641 0 -5.8582455678849641 -8.7196423590877572 0 0 0 0 -25.737890891366987 -5.9948217823695131 0 -5.9948217823695131 -22.039908986995215 0 0 0 0 28.314596359660399 -4.5367821443789325 0 -4.5367821443789325 -8.7742575826793061 0 0 0 0 36.11663172328997 3.1559206273417821 0 3.1559206273417821 -0.95311295860847167 0 0 0 0 30.793407279881649 7.9828257026492793 0 7.9828257026492793 5.2251815059809132 0 0 0 0 24.86199813859886 -0.33255179000465773 0 -0.33255179000465773 0.48986580012809622 0 0 0 0 -18.761539959356014 -33.502077218506201 0 -33.502077218506201 108.37079847535028 0 0 0 0 0.69596740728536588 0.20510808056264906 0 0.20510808056264906 1.9468686438858718 0 0 0 0 47.812379300310567 -97.305314035295396 0 -97.305314035295396 -77.643475071232842 0 0 0 0 18.975016382366448 13.955364105882381 0 13.955364105882381 21.360900539908926 0 0 0 0 1.0672164859661279 -8.1258119868130905 0 -8.1258119868130905 28.848746694075089 0 0 0 0 -3.3993410465627676 -27.340299884859405 0 -27.340299884859405 0.85863372288362427 0 0 0 0 24.361799466210492 -9.8676481162574774 0 -9.8676481162574774 -3.9171956428908663 0 0 0 0 16.745915366651019 -16.375672518567892 0 -16.375672518567892 -4.7271605555784211 0 0 0 0 237.68660380227811 -33.481299962790104 0 -33.481299962790104 6.376899612656814 0 0 0 0 186.32978042973264 248.21990773345738 0 248.21990773345738 -354.44812890764138 0 0 0 0 14.090861573805796 277.96405850440084 0 277.96405850440084 240.87475809127545 0 0 0 0 -314.93625518988119 132.40363032279174 0 132.40363032279174 136.49068293021401 0 0 0 0 19.971918992334395 227.23887148077847 0 227.23887148077847 -34.850561334571012 0 0 0 0 -242.31660090014338 43.434771880294647 0 43.434771880294647 -118.22219080692321 0 0 0 0 366.67413067002053 463.3758057645764 0 463.3758057645764 -125.1176268190145 0 0 0 0 -92.972111137001775 -214.55890912700681 0 -214.55890912700681 347.69150603049593 0 0 0 0 526.33042656301404 -275.55051532597463 0 -275.55051532597463 194.01847003306619 0 0 0 0 6.7249248345042076 -0.57783897991353372 0 -0.57783897991353372 0.25107125210375836 0 0 0 0 -12.212588751841395 15.951220532194156 0 15.951220532194156 160.40767246485245 0 0 0 0 152.39845630857599 -413.14607539345616 0 -413.14607539345616 13.333216621125757 0 0 0 0 -29.235459035291569 61.489310178395272 0 61.489310178395272 126.35464822282938 0 0 0 0 38.277687073823472 -129.16343184272796 0 -129.16343184272796 50.636169198369316 0 0 0 0 193.50159246498151 32.664204270610753 0 32.664204270610753 -135.69819209807565 0 0 0 0 38.025119717902271 30.211276449005936 0 30.211276449005936 69.877773873239221 0 0 0 0 111.01922481802467 81.85045508033113 0 81.85045508033113 16.309044487085657 0 0 0 0 40.555136131108156 -1.8375776518946623 0 -1.8375776518946623 -71.592715905242585 0 0 0 0 30.167600871893228 40.196318432482599 0 40.196318432482599 57.945442136995553 0 0 0 0 36.403023035498336 28.994060723663324 0 28.994060723663324 14.603974473263293 0 0 0 0 26.484021660966391 19.849570949936492 0 19.849570949936492 45.881071600766461 0 0 0 0 36.747609480749816 3.7680178044511194 0 3.7680178044511194 67.804251967496839 0 0 0 0 -41.51639545395301 30.954013745652333 0 30.954013745652333 88.116014647693646 0 0 0 0 -11.242530188683304 -59.951851700106772 0 -59.951851700106772 70.232292633543352 0 0 0 0 69.903719807400194 29.454522560963596 0 29.454522560963596 30.004607724210018 0 0 0 0 14.989643235014228 35.191964563833608 0 35.191964563833608 41.616286611688338 0 0 0 0 43.480441747509758 29.058781509369965 0 29.058781509369965 31.72907093440881 0 0 0 0 68.740062494893209 44.657094174313897 0 44.657094174313897 20.474224000812683 0 0 0 0 6.0234801168674377 5.5863291822008918 0 5.5863291822008918 1.3757808779734795 0 0 0 0 -31.471347434304427 46.070688840572672 0 46.070688840572672 36.680516022924103 0 0 0 0 -4.9099954066559803 21.465574449129235 0 21.465574449129235 41.286449967647059 0 0 0 0 4.3857034271322846 46.111543066737454 0 46.111543066737454 22.536630808135669 0 0 0 0 20.160125076119584 64.158308572519672 0 64.158308572519672 31.400655324057425 0 0 0 0 7.2563878769415737 28.149252406250419 0 28.149252406250419 32.156039618158168 0 0 0 0 8.4038512979504958 17.206559200139054 0 17.206559200139054 41.917998922390325 0 0 0 0 -16.222104983855388 9.7707701469407766 0 9.7707701469407766 59.957713816177375 0 0 0 0 59.034200819573016 21.220157758814366 0 21.220157758814366 13.472681043826924 0 0 0 0 62.659714726426046 38.551716533071868 0 38.551716533071868 32.398081340485078 0 0 0 0 23.14306695045159 24.592226627623248 0 24.592226627623248 32.11562666875264 0 0 0 0 12.659137071621444 13.140444450730683 0 13.140444450730683 40.691173164758084 0 0 0 0 51.162679496150304 14.868021903824683 0 14.868021903824683 15.798099645918228 0 0 0 0 29.043949443595054 -9.1424535655516195 0 -9.1424535655516195 -3.351979803585694 0 0 0 0 53.178264217880496 4.373712441749376 0 4.373712441749376 17.041151069562488 0 0 0 0 47.35692452636161 7.6717021158120851 0 7.6717021158120851 13.312429727627205 0 0 0 0 67.533373122263811 13.436950592641793 0 13.436950592641793 7.4670217827942906 0 0 0 0 14.141866560327353 -9.7901977910698434 0 -9.7901977910698434 4.9371258699463709 0 0 0 0 52.519664794135906 7.9546166549557427 0 7.9546166549557427 11.900587824190097 0 0 0 0 84.218127624502813 39.829449775517674 0 39.829449775517674 41.584490765748342 0 0 0 0 26.458566119993677 -15.210944624978318 0 -15.210944624978318 -3.3210342992446531 0 0 0 0 54.598354191384715 0.8347337245104427 0 0.8347337245104427 21.28152272908028 0 0 0 0 67.345119877605612 9.4855868018544243 0 9.4855868018544243 12.305299508107055 0 0 0 0 82.099252063038875 -0.077431040675946861 0 -0.077431040675946861 18.411660078978457 0 0 0 0 48.808653820193285 12.605805731009241 0 12.605805731009241 63.789569340544404 0 0 0 0 -0.13054094296251151 0.2113898503664231 0 0.2113898503664231 3.9855540242243697 0 0 0 0 73.786474534259469 20.884604071824469 0 20.884604071824469 26.303260827418626 0 0 0 0 88.783544772468304 25.573782524577382 0 25.573782524577382 22.145063582760486 0 0 0 0 65.935230808034248 -221.71531086269579 0 -221.71531086269579 70.871775454741964 0 0 0 0 334.68945757378242 238.35645439117195 0 238.35645439117195 -60.428730189232738 0 0 0 0 73.811675019998802 12.012058191881806 0 12.012058191881806 42.865831404429628 0 0 0 0 64.93676346334 7.1503488124011731 0 7.1503488124011731 -11.580545402757803 0 0 0 0 94.695433477303595 -138.44015357708349 0 -138.44015357708349 -141.28177604522193 0 0 0 0 51.88533211153117 -7.7600339354903554 0 -7.7600339354903554 24.72705965827663 0 0 0 0 68.112207780584868 45.766551263194742 0 45.766551263194742 -14.999646301270332 0 0 0 0 39.864064154273919 7.6534757196119019 0 7.6534757196119019 2.6305397443500533 0 0 0 0 7.6091435462296175 0.13765951368781515 0 0.13765951368781515 -4.5641209300601098 0 0 0 0 100.3921039882116 35.116765592574666 0 35.116765592574666 40.645657875673351 0 0 0 0 147.29217053108732 193.45792949219202 0 193.45792949219202 87.304426126243072 0 0 0 0 4.0667230273355131 0.46471449189879976 0 0.46471449189879976 -0.31510742065234432 0 0 0 0 5.2121323950341321 -44.540120368947385 0 -44.540120368947385 169.02358057700849 0 0 0 0 24.190915585684706 -26.968223714113265 0 -26.968223714113265 -40.987039125979209 0 0 0 0 224.00956021880847 -38.359371688414058 0 -38.359371688414058 60.976423703914691 0 0 0 0 63.065226430029725 180.10708555578094 0 180.10708555578094 224.73904889324922 0 0 0 0 -140.87230291493711 -1.2902604964185684 0 -1.2902604964185684 23.506594567603315 0 0 0 0 -20.008516800483811 65.765551520598109 0 65.765551520598109 42.72840461976439 0 0 0 0 81.289547368328982 13.719019766938665 0 13.719019766938665 -8.4840740968150907 0 0 0 0 10.157174987392864 83.297549729142418 0 83.297549729142418 54.34094079174065 0 0 0 0 208.81843702578044 86.498561712727223 0 86.498561712727223 -187.65332346333889 0 0 0 0 -65.358811825130942 -15.989116918408399 0 -15.989116918408399 -3.9202726861512929 0 0 0 0 -63.083866360204411 68.147303221934635 0 68.147303221934635 22.558844706088166 0 0 0 0 -1.9413714408163081 7.9640864389601873 0 7.9640864389601873 15.340164972011259 0 0 0 0 -8.1745602499559027 17.862278492636506 0 17.862278492636506 -14.345624821891306 0 0 0 0 -99.584105666172036 -18.909209092854326 0 -18.909209092854326 5.7931463927466211 0 0 0 0 86.413053276746268 284.81183306182402 0 284.81183306182402 104.00076150433961 0 0 0 0 -36.773548898955596 104.38374105776893 0 104.38374105776893 45.638125082425177 0 0 0 0 -18.131618693951253 67.388968998754109 0 67.388968998754109 39.577868602561786 0 0 0 0 -268.9134344489471 45.435190534571575 0 45.435190534571575 227.53207932129862 0 0 0 0 73.825885512962486 19.427099528271953 0 19.427099528271953 68.113911012420658 0 0 0 0 303.52975697457623 157.74787714144978 0 157.74787714144978 -27.4577080612587 0 0 0 0 334.59056332311957 57.825276309928867 0 57.825276309928867 -5.6678647135275924 0 0 0 0 148.89549505629111 103.02888350351733 0 103.02888350351733 -3.8425226861293709 0 0 0 0 173.71435016988835 126.2747142041228 0 126.2747142041228 -38.724695889066652 0 0 0 0 18.261312700436974 16.117428931095674 0 16.117428931095674 -20.409732430504619 0 0 0 0 169.81620688964904 139.38774571541717 0 139.38774571541717 -7.4113906799874201 0 0 0 0 210.1273754844442 108.22941016348693 0 108.22941016348693 5.0871204317907086 0 0 0 0 172.90924347033979 102.2379844766172 0 102.2379844766172 5.8646407244984573 0 0 0 0 205.16201918585284 121.42773488711032 0 121.42773488711032 1.656561807608 0 0 0 0 189.969221945561 110.05858215519356 0 110.05858215519356 12.873227322470711 0 0 0 0 243.89513328317844 68.673248932159368 0 68.673248932159368 -42.292837811987283 0 0 0 0 198.76396222685435 132.34645232456569 0 132.34645232456569 12.166540426231109 0 0 0 0 82.793412412502221 112.01889220301655 0 112.01889220301655 21.168196248887853 0 0 0 0 186.14544440682585 180.66714279205007 0 180.66714279205007 23.751607826656482 0 0 0 0 301.61826124649815 121.38149164054175 0 121.38149164054175 -32.013109605020418 0 0 0 0 298.6848491408673 110.79772636599671 0 110.79772636599671 -57.787857057911879 0 0 0 0 276.560604683973 110.86497847054687 0 110.86497847054687 -28.258186403588297 0 0 0 0 305.08751506347971 231.16658731113887 0 231.16658731113887 45.184503617621431 0 0 0 0 31.817642457630427 16.990770617392627 0 16.990770617392627 100.77639409837434 0 0 0 0 151.64839028785809 111.89336241357978 0 111.89336241357978 16.707667464270116 0 0 0 0 153.63300929994966 190.09013695580325 0 190.09013695580325 30.031716622933118 0 0 0 0 225.86070734698205 152.58924735746405 0 152.58924735746405 -17.028156376614788 0 0 0 0 306.83349592465765 279.99595204406114 0 279.99595204406114 127.57076042399058 0 0 0 0 388.89668425875061 123.22566289916267 0 123.22566289916267 33.137111913396438 0 0 0 0 314.30982932482038 275.41539478938103 0 275.41539478938103 -22.159790831077771 0 0 0 0 199.56123978664527 241.00529101722827 0 241.00529101722827 -32.41530415703528 0 0 0 0 -21.514384239467901 68.619560781193627 0 68.619560781193627 32.088249634307608 0 0 0 0 -137.68415596418174 151.50027741939755 0 151.50027741939755 111.9174056881111 0 0 0 0 51.346804637299101 -19.523064498711019 0 -19.523064498711019 -7.7813245507836655 0 0 0 0 -11.975553319876781 -4.0359968468533793 0 -4.0359968468533793 -0.03832963722373961 0 0 0 0 41.573827483392961 35.471319464624742 0 35.471319464624742 -2.0131647639196473 0 0 0 0 4.5950643548567314 11.872545032468224 0 11.872545032468224 -37.061213344790303 0 0 0 0 4.595064354914939 11.872545032475045 0 11.872545032475045 -37.06121334478803 0 0 0 0 55.179153078177478 37.218111628502129 0 37.218111628502129 -44.257531699717219 0 0 0 0 4.5950643548931112 11.872545032498465 0 11.872545032498465 -37.061213344785756 0 0 0 0 17.783162270468893 -23.261793680033406 0 -23.261793680033406 -63.063614440916353 0 0 0 0 29.72800920400914 -3.4278842282551523 0 -3.4278842282551523 33.637097897524058 0 0 0 0 136.72267525409552 -43.057321567254007 0 -43.057321567254007 -179.16145573055019 0 0 0 0 53.053133408420436 -3.5356194533317371 0 -3.5356194533317371 -2.0242730123743198 0 0 0 0 52.970942476073105 -26.032121526942973 0 -26.032121526942973 -16.992664379146277 0 0 0 0 22.742216443228244 -61.913493735772818 0 -61.913493735772818 -49.000910311183333 0 0 0 0 41.88593834911444 -24.402635344582734 0 -24.402635344582734 -16.399223405678413 0 0 0 0 -286.16098295385018 63.320455391651194 0 63.320455391651194 -54.642162332911084 0 0 0 0 3.9050855432960248 -1.5408668276657167 0 -1.5408668276657167 0.25900896040737753 0 0 0 0 44.167805174971363 -59.87965403781164 0 -59.87965403781164 -51.728328142341297 0 0 0 0 47.272990295525233 -17.269634000103707 0 -17.269634000103707 5.0791440033249842 0 0 0 0 56.567702222557273 -11.326217177623903 0 -11.326217177623903 3.6705795201852425 0 0 0 0 52.883869487989543 -6.9196408304948775 0 -6.9196408304948775 -3.3999366690914474 0 0 0 0 78.949429509448237 -5.2135007940228206 0 -5.2135007940228206 6.2738954317788966 0 0 0 0 44.692431473988108 -1.5802925285752281 0 -1.5802925285752281 22.4512741494176 0 0 0 0 10.178660771041336 -1.3625015968698335 0 -1.3625015968698335 -3.6298867330262783 0 0 0 0 74.331096554931719 -27.412287903986282 0 -27.412287903986282 -25.300575116569917 0 0 0 0 86.369974019922665 -24.632220825677507 0 -24.632220825677507 -32.612997593928299 0 0 0 0 52.348804522131104 -658.45211957269146 0 -658.45211957269146 205.6589213585313 0 0 0 0 93.470041480431973 -15.421640342653006 0 -15.421640342653006 -24.220509746968105 0 0 0 0 -365.1662919697701 -223.32017459562402 0 -223.32017459562402 192.40425341335742 0 0 0 0 6.6456910026449716 -1.3481922843443641 0 -1.3481922843443641 -2.8697680114335267 0 0 0 0 -133.90958747497643 29.950235073887484 0 29.950235073887484 -63.331927048698617 0 0 0 0 112.88512274014647 -48.149289717283409 0 -48.149289717283409 -159.9668350069694 0 0 0 0 126.97782149168779 70.562996357565112 0 70.562996357565112 -114.00453062200702 0 0 0 0 -14.162415352126118 -155.94126672432159 0 -155.94126672432159 -49.156327983081951 0 0 0 0 139.59390953580805 28.82210266602408 0 28.82210266602408 -31.860350142111542 0 0 0 0 445.02638135352754 -117.1075460248893 0 -117.1075460248893 -47.568713312786997 0 0 0 0 354.37626685469877 104.03585840366321 0 104.03585840366321 -6.5901614860569566 0 0 0 0 264.64408103139431 -61.603176721582258 0 -61.603176721582258 -250.81658722779548 0 0 0 0 206.56439421333016 93.586249840205113 0 93.586249840205113 95.754038690985112 0 0 0 0 252.11315862933407 31.351819070636566 0 31.351819070636566 45.723290577506532 0 0 0 0 224.58864790629741 -32.211075223252806 0 -32.211075223252806 -94.354399826799636 0 0 0 0 360.45105393923586 77.807770781223553 0 77.807770781223553 -142.86580533595861 0 0 0 0 256.09754605998751 3.5229907665934661 0 3.5229907665934661 -102.99677252653873 0 0 0 0 539.90921587948105 29.300064901871224 0 29.300064901871224 -103.92166617501698 0 0 0 0 1034.8009330557688 191.73759106291345 0 191.73759106291345 38.0622350917264 0 0 0 0 333.36432274524122 173.16613989839198 0 173.16613989839198 37.80176179245791 0 0 0 0 165.15292186303122 -56.140671947914598 0 -56.140671947914598 172.40655347413116 0 0 0 0 122.98081027307489 -201.36439327202834 0 -201.36439327202834 187.59500052588254 0 0 0 0 197.84365238367172 73.018483490308881 0 73.018483490308881 -185.89228872562035 0 0 0 0 -83.156927077714499 -220.9143941106247 0 -220.9143941106247 -87.227349173775792 0 0 0 0 8.7235012476768929 -4.7895786185738345 0 -4.7895786185738345 2.2016584606564926 0 0 0 0 41.886717429177224 -57.039762124863955 0 -57.039762124863955 -51.353165510167855 0 0 0 0 -103.48318172970903 -41.333454941094942 0 -41.333454941094942 128.18162169091613 0 0 0 0 -120.25156611374405 13.20035093505021 0 13.20035093505021 96.896804877774684 0 0 0 0 -33.475165496594855 1.8773509481379733 0 1.8773509481379733 54.387529696059119 0 0 0 0 -98.27425171968207 -77.686450392016468 0 -77.686450392016468 -14.873589966274722 0 0 0 0 11.220728640735587 -6.7649716944148963 0 -6.7649716944148963 3.8663494590424978 0 0 0 0 26.965261049157562 -26.177405618383546 0 -26.177405618383546 -68.065372950242363 0 0 0 0 2.3090769029804505 12.508011829794214 0 12.508011829794214 -0.67508992179500638 0 0 0 0 -0.40515186668926617 25.232616217742816 0 25.232616217742816 -27.631197730906479 0 0 0 0 -87.240441959780583 48.922950014807611 0 48.922950014807611 13.273603911434293 0 0 0 0 -84.519391519199417 67.690210892483265 0 67.690210892483265 142.55726429946162 0 0 0 0 -170.08376753720768 208.9603939447577 0 208.9603939447577 -59.268421197900352 0 0 0 0 45.483180980198085 44.258656196157062 0 44.258656196157062 -130.35536124400073 0 0 0 0 -0.38558437691852987 1.0038942874602128 0 1.0038942874602128 -2.2366794050275516 0 0 0 0 -262.42837898034486 84.150862258808274 0 84.150862258808274 38.583002954179392 0 0 0 0 93.238992522936314 319.26635118316835 0 319.26635118316835 -65.062571963479641 0 0 0 0 495.39701912998498 38.741106504651952 0 38.741106504651952 -113.59013661136032 0 0 0 0 179.77251706901734 -26.858762682816177 0 -26.858762682816177 -51.663422031602749 0 0 0 0 -218.85170442653543 69.203018874631027 0 69.203018874631027 293.54948153890837 0 0 0 0 -38.715868344370392 -136.30145957046443 0 -136.30145957046443 298.62899283873594 0 0 0 0 1106.857706514631 85.463654777194279 0 85.463654777194279 -141.18756277011289 0 0 0 0 353.00144441733573 -321.02440291881476 0 -321.02440291881476 545.82248846140101 0 0 0 0 396.69078310045006 348.17361505767303 0 348.17361505767303 557.08108917391337 0 0 0 0 474.16519651006092 8.1518295154683074 0 8.1518295154683074 -150.43054456037862 0 0 0 0 441.80430574376442 -155.06576742027346 0 -155.06576742027346 -74.567235987909498 0 0 0 0 24.881934457269381 -54.775757075537967 0 -54.775757075537967 -65.798619231774865 0 0 0 0 180.59644903639855 -0.6858215034717432 0 -0.6858215034717432 -171.36488761529117 0 0 0 0 35.567054371774162 5.8420785264939061 0 5.8420785264939061 1.1156504552907704 0 0 0 0 2.1441581443068571 46.847912676699252 0 46.847912676699252 -42.168509900210665 0 0 0 0 85.163643142812361 71.694121304705959 0 71.694121304705959 -42.232036061826875 0 0 0 0 140.81163057585945 99.015766764689715 0 99.015766764689715 -118.23868923010104 0 0 0 0 21.242940098250983 96.039978472595521 0 96.039978472595521 29.12879361999444 0 0 0 0 6.5164428924617823 68.671571616901247 0 68.671571616901247 -21.141634138112749 0 0 0 0 4.2279831190741959 4.1295212697397261 0 4.1295212697397261 -6.2959536950757187 0 0 0 0 57.989559377064069 7.965930737435869 0 7.965930737435869 -4.3679144081181249 0 0 0 0 144.4032526780793 132.20272658112754 0 132.20272658112754 148.72724310673726 0 0 0 0 34.807817714270641 80.289551432579174 0 80.289551432579174 -49.307863270227244 0 0 0 0 80.85102809642558 19.460187990948725 0 19.460187990948725 -90.27632117894882 0 0 0 0 -12.784598831669427 23.193252758724157 0 23.193252758724157 -3.1748988537492551 0 0 0 0 24.130965974354439 17.97409614459518 0 17.97409614459518 -6.3915180682051034 0 0 0 0 73.538330660259817 30.66338663057104 0 30.66338663057104 -1.6741020109366218 0 0 0 0 -3.7291748699748268 0.95377200293859232 0 0.95377200293859232 1.0873533610584012 0 0 0 0 17.52957791116205 1.0620239721629332 0 1.0620239721629332 -0.70975268000825054 0 0 0 0 38.901467343908735 7.1359774645761718 0 7.1359774645761718 -20.284943659366036 0 0 0 0 22.767238877906493 2.4399393433877776 0 2.4399393433877776 -1.7161739462890182 0 0 0 0 19.454739259700489 -0.4281791378372608 0 -0.4281791378372608 -0.77723019791776238 0 0 0 0 10.557298843393156 8.7818724454662203 0 8.7818724454662203 -0.030463545230173139 0 0 0 0 16.797991970481235 3.2093486727130767 0 3.2093486727130767 -1.1792443150216059 0 0 0 0 16.078687189201446 17.539956774698226 0 17.539956774698226 0.021650479337949946 0 0 0 0 137.59330497827762 68.617107346616677 0 68.617107346616677 16.723973780247448 0 0 0 0 200.89148217403272 62.310578279053743 0 62.310578279053743 -113.93618013462265 0 0 0 0 138.71491901752711 145.31845700652582 0 145.31845700652582 -28.110321312837186 0 0 0 0 169.47605186442706 57.599256925115697 0 57.599256925115697 -95.459342046428901 0 0 0 0 128.15084072376939 46.811276510600294 0 46.811276510600294 15.591474676030799 0 0 0 0 151.9125148815142 56.197775973497869 0 56.197775973497869 -87.217335149563951 0 0 0 0 289.23156420955002 96.968604851232158 0 96.968604851232158 -76.308178134133414 0 0 0 0 163.52782514141563 152.54224352502661 0 152.54224352502661 -16.468786939316487 0 0 0 0 98.443943296249472 152.81231268340844 0 152.81231268340844 15.213503777139522 0 0 0 0 -0.25241243174500028 74.376408418096744 0 74.376408418096744 21.75238909675231 0 0 0 0 159.26754543995071 145.14536889672218 0 145.14536889672218 -29.017599936476472 0 0 0 0 -15.900953127194953 64.878968809205162 0 64.878968809205162 52.723224908664633 0 0 0 0 11.618898440175485 18.360345315541132 0 18.360345315541132 3.7882853473726437 0 0 0 0 8.7935274161675352 0.6553389066118136 0 0.6553389066118136 0.055279651274613428 0 0 0 0 657.71240929400665 -408.98176109164797 0 -408.98176109164797 178.41330544677294 0 0 0 0 133.8301311815012 336.33266284783986 0 336.33266284783986 465.24228557703464 0 0 0 0 640.0620975108468 -43.400919157128101 0 -43.400919157128101 -248.06142929313683 0 0 0 0 174.50614355839207 -129.00529275742679 0 -129.00529275742679 36.916110224628483 0 0 0 0 151.35671442360945 38.44098232848134 0 38.44098232848134 -26.182054833280745 0 0 0 0 -13.660953619953943 129.81924645824438 0 129.81924645824438 -74.306834891056951 0 0 0 0 18.941717221317486 9.5505329502709486 0 9.5505329502709486 -24.155544423627774 0 0 0 0 432.43508266514255 142.01420791650617 0 142.01420791650617 -447.36544286811613 0 0 0 0 642.58035486721201 -112.01136372751353 0 -112.01136372751353 -245.42989626256769 0 0 0 0 12.023116321431104 2.7985879064275578 0 2.7985879064275578 1.076335878323883 0 0 0 0 422.66379749985208 -437.07392263198926 0 -437.07392263198926 291.37206171385878 0 0 0 0 1294.5174813903286 -175.74090142799696 0 -175.74090142799696 -455.32802725823763 0 0 0 0 36.44535547515261 37.333441838754652 0 37.333441838754652 951.6104274090203 0 0 0 0 -373.85190386408067 -459.51434697548734 0 -459.51434697548734 1417.0951933973615 0 0 0 0 -2.6166143301547997 -2.7408936648678264 0 -2.7408936648678264 -5.2766922011890784 0 0 0 0 77.087693901783496 350.81937785887976 0 350.81937785887976 249.02008233594825 0 0 0 0 267.40593326065937 312.11198946530658 0 312.11198946530658 -55.371743953860459 0 0 0 0 470.53553493744039 483.25764393335874 0 483.25764393335874 28.542491601343954 0 0 0 0 714.70955763541133 260.73379741034887 0 260.73379741034887 -280.55443793228005 0 0 0 0 132.23753271744226 -27.199443861072439 0 -27.199443861072439 -222.68851140782635 0 0 0 0 450.86716344296292 64.711080976536209 0 64.711080976536209 -372.91081155148277 0 0 0 0 108.24587865190188 151.89148308751601 0 151.89148308751601 -47.157070144322915 0 0 0 0 172.23345970002993 203.17674284393252 0 203.17674284393252 -113.80236896650672 0 0 0 0 118.76635908543176 136.11647326737739 0 136.11647326737739 -121.45537671576494 0 0 0 0 55.64468150619814 217.70828367166015 0 217.70828367166015 65.552028078071999 0 0 0 0 -53.881364355693222 179.57102500041037 0 179.57102500041037 83.747082733608295 0 0 0 0 -14.563508747785818 134.36178563222802 0 134.36178563222802 89.545106596589903 0 0 0 0 7.5620711357842083 69.000538028947176 0 69.000538028947176 59.660082862656054 0 0 0 0 -24.659356165931968 107.93230000026938 0 107.93230000026938 32.51142169950856 0 0 0 0 3.3186663673550356 54.44467154800941 0 54.44467154800941 16.457883707204019 0 0 0 0 53.699328388145659 25.068684355105688 0 25.068684355105688 32.964519067239053 0 0 0 0 47.792674292139054 40.105731973436683 0 40.105731973436683 12.767676104618673 0 0 0 0 45.484278330754023 34.36405403640498 0 34.36405403640498 0.74663286114298444 0 0 0 0 51.52192586612 20.3141783802389 0 20.3141783802389 -0.011603868481415702 0 0 0 0 59.008091560783271 18.242361410901371 0 18.242361410901371 6.6463734691478589 0 0 0 0 71.790385359017819 38.809201902532152 0 38.809201902532152 -14.07841720969742 0 0 0 0 26.446090117620088 20.15195722710434 0 20.15195722710434 0.13341491635283198 0 0 0 0 81.780872640585585 73.498781866768525 0 73.498781866768525 -123.82507966240337 0 0 0 0 46.063557349261828 160.3702687027762 0 160.3702687027762 -13.490968088788804 0 0 0 0 249.37178286572998 193.32701311550227 0 193.32701311550227 166.27932259733916 0 0 0 0 2.6353002282521629 -2.2918717227543226 0 -2.2918717227543226 1.0649341359752622 0 0 0 0 229.37065197146148 167.56448592861761 0 167.56448592861761 167.34217089143385 0 0 0 0 43.77121560954167 14.978322909341141 0 14.978322909341141 -1.1683600562704104 0 0 0 0 58.871815699520084 -80.874202770001034 0 -80.874202770001034 -23.906759373585373 0 0 0 0 8.3315808442134625 4.0646105668275681 0 4.0646105668275681 -3.7803623984348889 0 0 0 0 49.560015903349267 54.087673811859531 0 54.087673811859531 25.363475684740365 0 0 0 0 45.449071937131521 33.922315060430478 0 33.922315060430478 22.565970972459816 0 0 0 0 33.47408584712111 12.014284535413761 0 12.014284535413761 8.4207926874876371 0 0 0 0 25.817767205178825 13.637755772852415 0 13.637755772852415 -6.0579167143164341 0 0 0 0 61.681887546395956 26.754640293711418 0 26.754640293711418 0.82715602542702982 0 0 0 0 33.887660031064641 20.938626809394396 0 20.938626809394396 10.069518480182815 0 0 0 0 37.187089545013237 25.921360961701971 0 25.921360961701971 14.393312431244265 0 0 0 0 14.246904767667303 2.888663464520576 0 2.888663464520576 4.0530495394951025 0 0 0 0 58.095510325313626 27.238959457483361 0 27.238959457483361 -13.226976102810113 0 0 0 0 54.569799883741553 12.915905868682387 0 12.915905868682387 -11.828942517943688 0 0 0 0 55.221947070191163 17.165300375027982 0 17.165300375027982 13.980224937180537 0 0 0 0 39.935254062696401 16.501409227724135 0 16.501409227724135 5.3042725553711723 0 0 0 0 65.107953687302142 33.160730245570448 0 33.160730245570448 17.165819715888574 0 0 0 0 62.096393982198606 28.170478920783694 0 28.170478920783694 -14.134490408869169 0 0 0 0 59.047602128803192 23.803263825026988 0 23.803263825026988 -1.7985757636943163 0 0 0 0 65.136893964625642 40.771781398092571 0 40.771781398092571 3.5044074029137846 0 0 0 0 58.273827897741967 31.650854223962369 0 31.650854223962369 12.249959723463689 0 0 0 0 64.102344612274976 42.022909991119064 0 42.022909991119064 17.618639778638681 0 0 0 0 3.3393196698789005 1.9191397522220619 0 1.9191397522220619 0.73417161256891461 0 0 0 0 -8.2890917431450362 68.00466140786375 0 68.00466140786375 -121.94674222059984 0 0 0 0 8.717774909660875 7.9319911846778268 0 7.9319911846778268 -128.69476408952858 0 0 0 0 60.512234326790349 135.96053130623477 0 135.96053130623477 81.862602630793845 0 0 0 0 45.211453916720529 39.523046603811963 0 39.523046603811963 65.453014598590016 0 0 0 0 46.306229043033454 69.358034333162323 0 69.358034333162323 4.8425911720823933 0 0 0 0 120.34076794925295 -2.8304762861114341 0 -2.8304762861114341 -31.990200770191223 0 0 0 0 48.321310374820314 35.053687620690653 0 35.053687620690653 11.228138393092649 0 0 0 0 60.291220973702217 9.6923446628537171 0 9.6923446628537171 -5.0881752565450995 0 0 0 0 5.9594259574869284 57.420825683442899 0 57.420825683442899 -210.87424983935307 0 0 0 0 5.0325917714041184 -0.97184696803082549 0 -0.97184696803082549 -5.2440151590914574 0 0 0 0 16.339602873596959 -111.80337054130541 0 -111.80337054130541 -55.820487135477379 0 0 0 0 195.948099841562 -34.914315858809459 0 -34.914315858809459 -45.163707777861418 0 0 0 0 199.05352535714701 -21.736107315289701 0 -21.736107315289701 -190.51708495117418 0 0 0 0 723.89256440533609 145.7721818584414 0 145.7721818584414 -175.67195660883226 0 0 0 0 -149.56417216209957 -51.041901525588401 0 -51.041901525588401 -290.05782746442128 0 0 0 0 287.55606455140332 318.09175146002963 0 318.09175146002963 -181.60108040197701 0 0 0 0 553.9188671702268 -302.30688161801481 0 -302.30688161801481 -448.09714263969727 0 0 0 0 4.6301859864957855 -0.45345573660116756 0 -0.45345573660116756 -0.36878063297898755 0 0 0 0 413.21634676066333 253.77998155646583 0 253.77998155646583 -164.54355000303985 0 0 0 0 312.79186878456221 304.48987521895197 0 304.48987521895197 -61.960004499189381 0 0 0 0 271.80033432070559 350.13092721102475 0 350.13092721102475 46.218599910651392 0 0 0 0 310.2927589930141 350.16155318126948 0 350.16155318126948 -107.045388337644 0 0 0 0 297.22314797521858 -3.9663207874027648 0 -3.9663207874027648 -18.834299978214403 0 0 0 0 381.85890897084073 377.29088062343453 0 377.29088062343453 -103.60742266780835 0 0 0 0 302.49150044064652 265.71352665145849 0 265.71352665145849 -167.38873895922734 0 0 0 0 -32.928852795216699 -140.02357806756856 0 -140.02357806756856 -315.93294259006507 0 0 0 0 -3.1204560193109501 -38.103136371375513 0 -38.103136371375513 -303.40837121334516 0 0 0 0 20.63009521501408 279.41521249456764 0 279.41521249456764 -120.33867557060603 0 0 0 0 41.225268873699861 -111.82340603025386 0 -111.82340603025386 -321.38366413740096 0 0 0 0 10.824904157242898 -1.7372478208130673 0 -1.7372478208130673 -0.79598320563430391 0 0 0 0 217.98944946090978 -40.588750768769387 0 -40.588750768769387 -706.60829904061075 0 0 0 0 7.899405650081917 -43.194219149384026 0 -43.194219149384026 -426.30482984278751 0 0 0 0 -0.78040499224327675 -0.37608569041696072 0 -0.37608569041696072 0.2121378752059293 0 0 0 0 -70.056925676937283 -234.5851029356009 0 -234.5851029356009 -249.303244411798 0 0 0 0 72.328774338293442 -88.711403329401946 0 -88.711403329401946 -165.4043775333721 0 0 0 0 -43.55840957738161 115.87846299962609 0 115.87846299962609 -361.12882116505716 0 0 0 0 165.81612176515955 -266.21952581623555 0 -266.21952581623555 -38.816032417475981 0 0 0 0 158.40516254579416 158.87498605721339 0 158.87498605721339 -178.92032362903592 0 0 0 0 158.8224521282491 -116.79407592846837 0 -116.79407592846837 -191.11668724165611 0 0 0 0 167.89440328789988 36.607901029184177 0 36.607901029184177 -33.234987802270552 0 0 0 0 378.21697067025752 -77.499419348572246 0 -77.499419348572246 28.41553515220221 0 0 0 0 283.43878863013526 196.12868089965605 0 196.12868089965605 136.98632675012232 0 0 0 0 63.988886102360084 -221.61488388542421 0 -221.61488388542421 89.922554076019878 0 0 0 0 478.85513614008778 -291.29701340982592 0 -291.29701340982592 100.38030892923962 0 0 0 0 185.1494404128407 -132.96213067040298 0 -132.96213067040298 176.39471011951355 0 0 0 0 632.46622706712287 -86.964370531867644 0 -86.964370531867644 163.65396625760513 0 0 0 0 549.67088747698881 5.3238745641629066 0 5.3238745641629066 60.997253497873416 0 0 0 0 584.26351113587191 377.61737622830526 0 377.61737622830526 404.20527758907156 0 0 0 0 472.60195654674339 457.98902668876235 0 457.98902668876235 346.8843616375716 0 0 0 0 2.8406991206037393 3.0938640496279746 0 3.0938640496279746 5.3349761178108182 0 0 0 0 -9.8930951031356926 -57.467000016399425 0 -57.467000016399425 346.26132750461147 0 0 0 0 116.51149641722486 401.2697085652544 0 401.2697085652544 535.95877485708979 0 0 0 0 747.31005223524039 408.84153878448069 0 408.84153878448069 45.806642979861863 0 0 0 0 326.66084487362514 26.430303450074462 0 26.430303450074462 363.26348422001593 0 0 0 0 292.35658297298414 -306.51263855664956 0 -306.51263855664956 131.21898514765235 0 0 0 0 409.55074730409069 -139.98033748342914 0 -139.98033748342914 253.80210131572062 0 0 0 0 263.69798704288951 -19.48831089464511 0 -19.48831089464511 283.35242077088697 0 0 0 0 122.9803732950495 -203.84524423273979 0 -203.84524423273979 242.9542077253268 0 0 0 0 194.78663022779438 -110.39405670369706 0 -110.39405670369706 273.29241218287643 0 0 0 0 191.32113516633308 -245.00933238644734 0 -245.00933238644734 245.34617981557676 0 0 0 0 143.74327263722455 -382.44541706959217 0 -382.44541706959217 258.52370367939329 0 0 0 0 174.73070681824902 -384.39269518906895 0 -384.39269518906895 204.27035529408658 0 0 0 0 516.42245910870611 -452.54787797795427 0 -452.54787797795427 212.38311807899481 0 0 0 0 325.90076244617285 -373.80834772770504 0 -373.80834772770504 236.81405743104733 0 0 0 0 127.95215585830192 -420.23782098531228 0 -420.23782098531228 207.00769994646862 0 0 0 0 262.69981165004629 -457.26975758626122 0 -457.26975758626122 182.56575280764082 0 0 0 0 487.27785864558518 -476.25425118384965 0 -476.25425118384965 122.24199588193551 0 0 0 0 69.936604682608845 -396.06659370825327 0 -396.06659370825327 343.62557753593956 0 0 0 0 247.81012528828705 -301.18474742269427 0 -301.18474742269427 18.562264460739243 0 0 0 0 29.856696937464221 -262.51789989824465 0 -262.51789989824465 37.492968908810781 0 0 0 0 11.505937472179539 3.5868938783860358 0 3.5868938783860358 -209.28341221882965 0 0 0 0 11.084048741259728 -2.8255058727016227 0 -2.8255058727016227 -0.48483728393562231 0 0 0 0 66.185316437055008 0.46434901371685555 0 0.46434901371685555 -415.74658465922948 0 0 0 0 171.5121896720857 -176.53584400250475 0 -176.53584400250475 -523.0422845763469 0 0 0 0 -44.181298043069773 -101.5866145254447 0 -101.5866145254447 -305.6189829250543 0 0 0 0 4.8116816041437822 -2.0682522167065187 0 -2.0682522167065187 0.30090997834648858 0 0 0 0 248.56431181890912 124.77390494228257 0 124.77390494228257 -74.699277740066464 0 0 0 0 -74.74762495528546 106.29836127175474 0 106.29836127175474 19.265502982831094 0 0 0 0 921.90839363736995 -62.080987494268811 0 -62.080987494268811 -217.08394310842414 0 0 0 0 848.81045108086801 -111.6674226347759 0 -111.6674226347759 237.99956441104064 0 0 0 0 734.36182101822851 -174.71353801632631 0 -174.71353801632631 170.5149273680272 0 0 0 0 466.24323655311218 -9.0487250858486732 0 -9.0487250858486732 291.66305576576724 0 0 0 0 452.85770798994236 -22.721769179721377 0 -22.721769179721377 282.30050885551293 0 0 0 0 589.24175043761443 55.293574364254255 0 55.293574364254255 215.39923940206609 0 0 0 0 233.65946734966928 -222.5510442404784 0 -222.5510442404784 -54.189137041883441 0 0 0 0 42.357505443400441 -223.27996977293969 0 -223.27996977293969 -53.733482587378717 0 0 0 0 3.095383781061777 -1.1729697339999525 0 -1.1729697339999525 0.66785416861958069 0 0 0 0 1026.2579499499061 397.35271700596195 0 397.35271700596195 66.236509883488907 0 0 0 0 943.4161922587391 -1.1229772030033018 0 -1.1229772030033018 80.546707634846825 0 0 0 0 674.51434191627777 152.33698054887327 0 152.33698054887327 22.811878987208729 0 0 0 0 82.068353032200321 96.09773962097006 0 96.09773962097006 -69.037216359006379 0 0 0 0 1.9312038389398367 76.935914320606571 0 76.935914320606571 12.498428541506655 0 0 0 0 29.839323430669538 49.598299689195301 0 49.598299689195301 6.0234170137625824 0 0 0 0 110.49940699263243 187.93325222441399 0 187.93325222441399 -19.575630215739693 0 0 0 0 337.02446845980376 28.687291336150338 0 28.687291336150338 -62.127907732203312 0 0 0 0 -24.165636020105012 25.700863637809562 0 25.700863637809562 -61.586334912385496 0 0 0 0 51.113545760656962 77.588083953612113 0 77.588083953612113 -69.391668567634042 0 0 0 0 5.5623443517652049 -3.4647129747408059 0 -3.4647129747408059 1.309066123723241 0 0 0 0 38.374766870865642 27.601672719014459 0 27.601672719014459 -6.3321414573192669 0 0 0 0 25.269424869746217 -20.897464964182291 0 -20.897464964182291 -101.54324633224087 0 0 0 0 -9.6850061111981631 25.344072658092045 0 25.344072658092045 2.1078877477702918 0 0 0 0 -6.9600521646057132 -0.1272143405686279 0 -0.1272143405686279 105.22560852927563 0 0 0 0 334.75985020520966 -135.66791038698193 0 -135.66791038698193 65.242029342391106 0 0 0 0 199.46719763500914 49.083274588566383 0 49.083274588566383 35.78978786263724 0 0 0 0 10.719221354254785 6.4612797287131132 0 6.4612797287131132 4.1127145234624418 0 0 0 0 49.490588709737494 -18.246570279222169 0 -18.246570279222169 87.12574812222374 0 0 0 0 791.84016278264608 -139.44669691319086 0 -139.44669691319086 -40.720884438188023 0 0 0 0 -128.01052821218036 -20.003268006399594 0 -20.003268006399594 51.570383751221925 0 0 0 0 37.993157842986292 15.807722550753983 0 15.807722550753983 6.4211950252527235 0 0 0 0 -2.1983924033629592 83.012215390759593 0 83.012215390759593 -12.059189718010202 0 0 0 0 -25.797618474003684 87.915475564481312 0 87.915475564481312 73.343940945241229 0 0 0 0 540.38252286056377 628.09352705572564 0 628.09352705572564 -309.95405448575957 0 0 0 0 837.98277185840016 211.38865216965576 0 211.38865216965576 41.05434790351319 0 0 0 0 835.55767063224084 193.49988565777949 0 193.49988565777949 -73.918516243192244 0 0 0 0 545.39421167863838 266.36355946302228 0 266.36355946302228 44.61630731365176 0 0 0 0 1082.7537912047283 436.44970765468588 0 436.44970765468588 87.591152469496137 0 0 0 0 508.02739532309715 204.84648954737349 0 204.84648954737349 366.87545507968207 0 0 0 0 587.53836662912863 38.928966334650319 0 38.928966334650319 95.485551123378173 0 0 0 0 588.94671583243667 106.16184790945121 0 106.16184790945121 971.59869265063026 0 0 0 0 1462.4152129166723 -142.61969236197274 0 -142.61969236197274 -152.9471735677098 0 0 0 0 536.37067860853313 231.17304498650628 0 231.17304498650628 -272.86101766894717 0 0 0 0 788.66411106885243 8.3642827357980423 0 8.3642827357980423 -290.22628831332077 0 0 0 0 463.35458180448404 -158.74968145397793 0 -158.74968145397793 68.386128570768051 0 0 0 0 516.03914764463116 116.81118302452433 0 116.81118302452433 -296.74742459094705 0 0 0 0 460.30101143786487 102.46989612043672 0 102.46989612043672 -212.77082769741446 0 0 0 0 473.38918526856924 172.49819071426805 0 172.49819071426805 -365.81130317999123 0 0 0 0 508.712442394346 109.59604219629136 0 109.59604219629136 -300.28011600107493 0 0 0 0 650.09505834454831 385.87618882391507 0 385.87618882391507 -231.40081057157295 0 0 0 0 700.19568047039138 201.72038166550738 0 201.72038166550738 -303.00236239814183 0 0 0 0 511.89201948653863 27.790707521116474 0 27.790707521116474 -214.37099155832948 0 0 0 0 51.169525961857289 46.005142611653881 0 46.005142611653881 -4.4535546457004038 0 0 0 0 164.43676581245745 77.117750907696973 0 77.117750907696973 -175.56212311802847 0 0 0 0 126.08646448478248 -16.275547040975653 0 -16.275547040975653 -46.592645151412853 0 0 0 0 305.11471944332698 24.950638265100224 0 24.950638265100224 -204.10739971719613 0 0 0 0 312.31893757495345 44.869831456878728 0 44.869831456878728 -235.09315328707635 0 0 0 0 450.88925652748912 268.5287626903928 0 268.5287626903928 23.33298597729663 0 0 0 0 158.44358417933535 30.699742325644671 0 30.699742325644671 -2.3110386704576733 0 0 0 0 395.14770153615063 -13.473080184314313 0 -13.473080184314313 -222.19484197458587 0 0 0 0 51.786751508694579 226.37222255906181 0 226.37222255906181 -143.66280425327568 0 0 0 0 64.091799193612502 -1.4372091714395978 0 -1.4372091714395978 -36.791952438222232 0 0 0 0 190.51554600759664 256.24922942546345 0 256.24922942546345 -280.67111693931201 0 0 0 0 154.73738671921092 -13.12182969683181 0 -13.12182969683181 -11.969929201519335 0 0 0 0 408.78634863405023 -127.98236524772074 0 -127.98236524772074 -7.7861709887456527 0 0 0 0 539.87941401908392 -149.40245095702448 0 -149.40245095702448 153.11129816500488 0 0 0 0 645.97715928899925 -48.688143464284622 0 -48.688143464284622 -29.1110814494441 0 0 0 0 312.82918540532955 78.68380026520299 0 78.68380026520299 -280.37369492936614 0 0 0 0 -5.0244103847748285 -0.29499564002308531 0 -0.29499564002308531 -12.534758576914719 0 0 0 0 -391.54501685787454 772.59376147391754 0 772.59376147391754 -231.56723526359019 0 0 0 0 -668.31223668787788 -74.247711796152544 0 -74.247711796152544 1211.0812037307523 0 0 0 0 -295.46289409284145 -38.914125009120653 0 -38.914125009120653 -306.38126451685582 0 0 0 0 497.42006059139567 874.60727113262692 0 874.60727113262692 717.30882729570931 0 0 0 0 0.33897141732645508 -0.029083852246237996 0 -0.029083852246237996 -2.3649349078028372 0 0 0 0 1334.3958282496878 -93.647542511196207 0 -93.647542511196207 -145.52470743185768 0 0 0 0 -1633.4605735710775 678.93445241698623 0 678.93445241698623 737.89730426259484 0 0 0 0 736.4862456881674 465.63380285155836 0 465.63380285155836 157.43721852095175 0 0 0 0 477.25541039546079 45.199737345184985 0 45.199737345184985 -50.489828804988065 0 0 0 0 30.992408527250518 92.720275364144982 0 92.720275364144982 114.99874264355822 0 0 0 0 261.1291634232839 153.62814679272378 0 153.62814679272378 229.26070583086039 0 0 0 0 250.58779130142648 32.93321037655187 0 32.93321037655187 34.198928506802986 0 0 0 0 69.673356697060626 10.729329923417026 0 10.729329923417026 23.652873170060047 0 0 0 0 91.738592998059175 140.92430341246563 0 140.92430341246563 -60.323617900470708 0 0 0 0 129.2788326532791 75.659709940124685 0 75.659709940124685 -8.6014576027228031 0 0 0 0 595.03083684154899 131.76136965132571 0 131.76136965132571 -0.72038331921794452 0 0 0 0 322.43014375750499 20.894907312991563 0 20.894907312991563 49.507562256462734 0 0 0 0 216.75873172219508 181.76204990465158 0 181.76204990465158 86.659128413233702 0 0 0 0 -38.001954377621587 95.445678982521713 0 95.445678982521713 -21.336292718304321 0 0 0 0 -23.850884324496292 56.517729812419475 0 56.517729812419475 -216.79347637243518 0 0 0 0 -75.89847751103116 45.540692768278291 0 45.540692768278291 53.910833852502037 0 0 0 0 -6.871499693226724 69.591063169906533 0 69.591063169906533 -94.919994353502261 0 0 0 0 -30.772806312510511 70.058638027300731 0 70.058638027300731 67.816392248652846 0 0 0 0 4.0423642448306651 1.3177757556417689 0 1.3177757556417689 -4.3250413143216626 0 0 0 0 7.5636081783741247 14.371828068516152 0 14.371828068516152 55.7150375918809 0 0 0 0 -0.039134621762059396 58.071089259223299 0 58.071089259223299 -126.88257713919484 0 0 0 0 -131.87741696694138 142.14872885646037 0 142.14872885646037 -65.544585279167222 0 0 0 0 -57.977291689912818 200.50492155904067 0 200.50492155904067 -181.29433139689354 0 0 0 0 290.80191401545017 -519.24180590703327 0 -519.24180590703327 176.35166394278167 0 0 0 0 15.398281274442155 16.535638140807826 0 16.535638140807826 13.8942537051215 0 0 0 0 70.07663704837978 128.78603470888834 0 128.78603470888834 253.19905927499531 0 0 0 0 308.07095663418295 -206.7140902022511 0 -206.7140902022511 -135.82520408369237 0 0 0 0 79.833292654271645 193.12137421055377 0 193.12137421055377 -145.01267448071485 0 0 0 0 60.081849235096854 16.370958714703477 0 16.370958714703477 12.744569155226145 0 0 0 0 328.50654097204097 26.811216765655672 0 26.811216765655672 -22.566693342285078 0 0 0 0 197.04028634707532 35.061911855305539 0 35.061911855305539 6.4580968841381541 0 0 0 0 249.22744908055756 -21.51209931917424 0 -21.51209931917424 31.145238958376467 0 0 0 0 252.17303437519877 -35.905103384893664 0 -35.905103384893664 -17.586121697385352 0 0 0 0 332.20923379976011 152.62701889276104 0 152.62701889276104 -23.451849865868098 0 0 0 0 216.06998096471989 70.682416339921247 0 70.682416339921247 -75.075697544889408 0 0 0 0 204.80076686115126 202.64330795048784 0 202.64330795048784 -86.371325503016124 0 0 0 0 68.03599947546536 139.91988183246212 0 139.91988183246212 -109.25169054726393 0 0 0 0 294.2655174806423 81.605660902445948 0 81.605660902445948 -100.06614027154092 0 0 0 0 151.76580891912187 34.238633269120626 0 34.238633269120626 -5.8494929829129312 0 0 0 0 222.36331546798101 165.92158500358528 0 165.92158500358528 -264.44009522847227 0 0 0 0 181.96396089857444 67.417287400753594 0 67.417287400753594 -109.00970429317613 0 0 0 0 189.38811256354165 207.94907562080152 0 207.94907562080152 -136.7154782374455 0 0 0 0 138.38956064980857 51.964023677460524 0 51.964023677460524 14.101356884342401 0 0 0 0 136.32045710739516 58.10286129581668 0 58.10286129581668 10.3203307847572 0 0 0 0 116.98278706027122 152.1904017367259 0 152.1904017367259 14.663380958535527 0 0 0 0 160.31341565563343 -28.734652287354038 0 -28.734652287354038 -0.46312327553096111 0 0 0 0 388.56415523178293 56.224441325414944 0 56.224441325414944 -93.692092021957933 0 0 0 0 121.42531288263854 119.036408468834 0 119.036408468834 103.67337093644801 0 0 0 0 432.83984161483386 417.48447286808937 0 417.48447286808937 282.41784703589292 0 0 0 0 -4.8521796805724762 -0.69054427123666073 0 -0.69054427123666073 1.4482852158836845 0 0 0 0 260.04925716170692 -1330.0507627552624 0 -1330.0507627552624 -1387.8681500641082 0 0 0 0 -15.690185318526346 216.07091083519208 0 216.07091083519208 -993.85949825457146 0 0 0 0 186.77900243486147 -209.04172713933463 0 -209.04172713933463 -491.36129791926942 0 0 0 0 6.3473427237958617 22.687642780714697 0 22.687642780714697 -1.5000791465297141 0 0 0 0 203.81954481193679 -442.84482169076819 0 -442.84482169076819 -1396.0273038427122 0 0 0 0 237.31140438647708 -41.268255880823745 0 -41.268255880823745 -17.76999205649367 0 0 0 0 163.1310269113601 -12.676488378601022 0 -12.676488378601022 -133.49050035173863 0 0 0 0 208.96192277981027 -105.34783664214217 0 -105.34783664214217 -131.16796825916791 0 0 0 0 370.68721046636347 -5.6142946485269931 0 -5.6142946485269931 -125.64311732035969 0 0 0 0 282.17777224426391 -47.822017315521919 0 -47.822017315521919 -103.52297092344122 0 0 0 0 343.53007235146652 14.949996379465688 0 14.949996379465688 -121.88796653416102 0 0 0 0 400.07565104108653 -128.83636683592863 0 -128.83636683592863 -75.692364906633884 0 0 0 0 580.270398744462 217.39063127053021 0 217.39063127053021 -255.0043580497927 0 0 0 0 435.34359039115952 -51.053849518929383 0 -51.053849518929383 -483.18192204279558 0 0 0 0 163.60601423698245 17.693518485220011 0 17.693518485220011 -153.99287214758044 0 0 0 0 282.91146862655296 -76.942424848229621 0 -76.942424848229621 -171.85006457584632 0 0 0 0 55.376001910393825 -31.594861532576942 0 -31.594861532576942 -41.494330301537047 0 0 0 0 182.89188512582041 73.380491954713307 0 73.380491954713307 -285.93363270697932 0 0 0 0 362.13453919018502 -318.66516940357815 0 -318.66516940357815 -2.4305606272328077 0 0 0 0 49.508148636719397 9.8862427321129189 0 9.8862427321129189 2.0138170670812148 0 0 0 0 493.28202770723146 -330.78946622666444 0 -330.78946622666444 -338.14428833063766 0 0 0 0 0.40812191591248848 34.109858519171439 0 34.109858519171439 58.864813027002128 0 0 0 0 98.015600282029482 -0.0762854233021244 0 -0.0762854233021244 -18.776880544364758 0 0 0 0 236.63259495364036 2.789200295669616 0 2.789200295669616 -20.122901756546867 0 0 0 0 344.75306115002604 773.53817912389786 0 773.53817912389786 1191.1278662342738 0 0 0 0 1504.3765016116959 512.40212594710647 0 512.40212594710647 -263.34051051077904 0 0 0 0 16.759980886845995 2.3762326844317414 0 2.3762326844317414 0.889114790579006 0 0 0 0 381.25739353311656 -1054.5992625356157 0 -1054.5992625356157 809.52427332559046 0 0 0 0 22.151452300400706 205.73154354290796 0 205.73154354290796 -227.33931403036604 0 0 0 0 328.65517159077717 543.7021471975695 0 543.7021471975695 273.10169478843727 0 0 0 0 1207.2150112212839 325.15402007715147 0 325.15402007715147 43.009952286116459 0 0 0 0 775.48600146637182 -244.14035192727351 0 -244.14035192727351 1036.4319302661895 0 0 0 0 539.86944705060159 190.80647965719413 0 190.80647965719413 252.72561421820683 0 0 0 0 368.89868672819284 187.53664130945413 0 187.53664130945413 605.80548603525131 0 0 0 0 386.25954115561035 674.68059876356938 0 674.68059876356938 299.45400392852753 0 0 0 0 366.30581741465721 604.40351214809743 0 604.40351214809743 591.96954250263991 0 0 0 0 94.431202017469332 527.21592071225496 0 527.21592071225496 277.48361027884198 0 0 0 0 228.13449980331643 -149.04057377635559 0 -149.04057377635559 -170.00548888233971 0 0 0 0 8.7217837914933511 5.3072636135937756 0 5.3072636135937756 2.4534815114094588 0 0 0 0 1356.5518259588571 550.62265593715983 0 550.62265593715983 206.31390638816447 0 0 0 0 736.83038827235578 574.10611125817832 0 574.10611125817832 219.26179490315894 0 0 0 0 603.57078345445916 467.28006780354099 0 467.28006780354099 263.99163121918355 0 0 0 0 413.95570175988541 613.5378386411287 0 613.5378386411287 235.3720244175729 0 0 0 0 118.80835701627075 177.83019495082817 0 177.83019495082817 201.44026037903177 0 0 0 0 408.6711364926814 149.83170197775848 0 149.83170197775848 114.79905185483949 0 0 0 0 -18.318487841504975 -127.19744193528186 0 -127.19744193528186 -12.993109236205669 0 0 0 0 42.698326844518306 30.546064232983326 0 30.546064232983326 7.0709028509081691 0 0 0 0 -130.31151143590978 -35.872839993731759 0 -35.872839993731759 1.338818645522224 0 0 0 0 55.221065675916009 -19.211831740078679 0 -19.211831740078679 -22.814853888324201 0 0 0 0 67.845972697279649 52.218830647690311 0 52.218830647690311 61.134383042452555 0 0 0 0 168.92357447868562 60.535348963622482 0 60.535348963622482 25.68783996767479 0 0 0 0 68.392437720883208 48.636999380846277 0 48.636999380846277 27.329052525963561 0 0 0 0 44.901063804762089 151.40099778799549 0 151.40099778799549 123.2976098797235 0 0 0 0 19.870244955031069 17.604310571516663 0 17.604310571516663 22.903772206715463 0 0 0 0 7.6963040469719886 5.0619601962319081 0 5.0619601962319081 -6.7234235646892984 0 0 0 0 81.27276273840107 2.1370625519302848 0 2.1370625519302848 9.3310386167702291 0 0 0 0 -27.570248780248221 317.77943592652423 0 317.77943592652423 594.52216301890621 0 0 0 0 224.13444609235739 645.95869355507602 0 645.95869355507602 559.24275250062055 0 0 0 0 132.36699334924924 1704.2276451114731 0 1704.2276451114731 1055.1201519793758 0 0 0 0 84.383337541206856 -45.570390269075233 0 -45.570390269075233 1761.3119671134209 0 0 0 0 171.65207386927796 20.539460406923354 0 20.539460406923354 11.471732389769386 0 0 0 0 76.988180997234849 55.009519958720148 0 55.009519958720148 40.257376580998425 0 0 0 0 326.50533208615525 -45.9832249954693 0 -45.9832249954693 -344.87717911742948 0 0 0 0 268.40444548122798 60.363568853038331 0 60.363568853038331 11.6154094133353 0 0 0 0 55.948943231382259 22.609311961773251 0 22.609311961773251 3.4119873215452081 0 0 0 0 309.54179559584736 305.06972420425313 0 305.06972420425313 -10.981969759064668 0 0 0 0 305.33641573346074 66.721532525224632 0 66.721532525224632 -3.7801409441440006 0 0 0 0 436.25015345565043 -1.7006206211917743 0 -1.7006206211917743 -306.5581331651756 0 0 0 0 333.71390733451699 997.07008550346018 0 997.07008550346018 -795.1755652395841 0 0 0 0 593.93901576186181 87.878193018072125 0 87.878193018072125 -839.71770840694808 0 0 0 0 259.66203843097901 164.41084710458199 0 164.41084710458199 -0.82422314004907093 0 0 0 0 491.41502430287073 145.15535936990636 0 145.15535936990636 -437.12438212056441 0 0 0 0 117.77893247659088 14.565927151359148 0 14.565927151359148 -30.607324225937205 0 0 0 0 604.22035456250887 -90.445592144116745 0 -90.445592144116745 -523.27719013122442 0 0 0 0 2021.5582671235024 -549.77493463181236 0 -549.77493463181236 -976.51752316463671 0 0 0 0 -20.547604899482394 961.00918883015856 0 961.00918883015856 -1362.6554289072665 0 0 0 0 465.33780001393461 -238.97169815451002 0 -238.97169815451002 -666.45705860952512 0 0 0 0 453.92855942825554 -268.90854647187007 0 -268.90854647187007 -584.78478600791277 0 0 0 0 159.89927323586016 91.335914325694375 0 91.335914325694375 -29.940331350965835 0 0 0 0 166.97818801736264 17.273616282346751 0 17.273616282346751 -20.254223723174782 0 0 0 0 -602.94902666087728 -542.67935951459731 0 -542.67935951459731 -594.84194322373116 0 0 0 0 28.864905968165601 -7.2772806842346824 0 -7.2772806842346824 -27.340633431396938 0 0 0 0 -65.605078254855471 652.95348300238129 0 652.95348300238129 -332.59469424499457 0 0 0 0 601.63439875426411 -72.269443058602974 0 -72.269443058602974 -1050.9700759139068 0 0 0 0 630.99022037521354 -302.47753962326669 0 -302.47753962326669 110.65229828676092 0 0 0 0 -446.69324603618588 -270.70565795805487 0 -270.70565795805487 -705.48574950983129 0 0 0 0 -10.002060346712824 -52.547183790138206 0 -52.547183790138206 -1515.4507585611464 0 0 0 0 383.9965693626873 611.59090635805489 0 611.59090635805489 -259.92623581395856 0 0 0 0 430.63514268361905 885.04675304028069 0 885.04675304028069 95.198903158014218 0 0 0 0 314.07996600415208 276.56389391970697 0 276.56389391970697 36.118600117310052 0 0 0 0 1238.1851925278315 1029.131597699341 0 1029.131597699341 328.90834135044133 0 0 0 0 782.30106408300344 390.83463232925715 0 390.83463232925715 313.10926347023042 0 0 0 0 -2.6681183224568485 4.4107344841932559 0 4.4107344841932559 12.27768420042608 0 0 0 0 2187.1974176273798 694.17463010944266 0 694.17463010944266 212.0573395516958 0 0 0 0 976.33777297724737 -917.1170049434777 0 -917.1170049434777 1269.1495537398168 0 0 0 0 1288.3499280946562 1127.9635051667519 0 1127.9635051667519 1364.5648641876196 0 0 0 0 995.88241432840005 -340.70897657774003 0 -340.70897657774003 -661.58688702458699 0 0 0 0 619.35080367632327 597.73806754962698 0 597.73806754962698 115.80103857908398 0 0 0 0 118.21232663314368 -42.731775845599145 0 -42.731775845599145 7.2705601325401403 0 0 0 0 4.9224215127799198 7.2504017102687897 0 7.2504017102687897 1.7700202303098127 0 0 0 0 86.446417921615648 -42.321932881765861 0 -42.321932881765861 29.805644926218747 0 0 0 0 103.9228403341549 -10.295017227255812 0 -10.295017227255812 12.014956873862502 0 0 0 0 61.368469071370782 -38.358167130929814 0 -38.358167130929814 19.580563494801027 0 0 0 0 48.64158607868012 -24.308817568310587 0 -24.308817568310587 24.339192099860156 0 0 0 0 791.09636363951722 -67.492754133072594 0 -67.492754133072594 -121.31924414774528 0 0 0 0 376.90571066121629 7.3755176663638622 0 7.3755176663638622 89.933801438148748 0 0 0 0 305.60327515230165 -231.6205343976635 0 -231.6205343976635 -172.68249960030835 0 0 0 0 336.19818944412145 -463.51843962739861 0 -463.51843962739861 72.859676929921989 0 0 0 0 14.832099471805634 4.5322798075600161 0 4.5322798075600161 7.1077301473838546 0 0 0 0 82.071905613178387 -29.300154052409198 0 -29.300154052409198 8.1471220161042766 0 0 0 0 1094.665617900333 1479.1049333432184 0 1479.1049333432184 2475.2819535691669 0 0 0 0 46.369130637031049 -8.310396590100936 0 -8.310396590100936 30.093805577366766 0 0 0 0 3386.7930277957348 830.06396455323147 0 830.06396455323147 -2794.9439339550336 0 0 0 0 -267.39004613056022 -742.89205018456005 0 -742.89205018456005 -945.49807830783675 0 0 0 0 14.87536985162717 -18.139878432702702 0 -18.139878432702702 12.393824550283622 0 0 0 0 63.544693966105115 -41.19408063243759 0 -41.19408063243759 16.735118641009649 0 0 0 0 479.790244066171 210.73149542539227 0 210.73149542539227 -115.30481052575851 0 0 0 0 23.794295851922257 -8.1150139512813411 0 -8.1150139512813411 -5.5653769994546476 0 0 0 0 9.562480119857355 -5.4937474336907144 0 -5.4937474336907144 3.8617914542573999 0 0 0 0 19.350945796817541 12.822533464367552 0 12.822533464367552 35.839090115482577 0 0 0 0 121.76690715231234 42.299238133870631 0 42.299238133870631 -47.728657791025398 0 0 0 0 175.75409398626653 324.73034003414341 0 324.73034003414341 101.99220521770803 0 0 0 0 265.14306460651278 932.25720937610549 0 932.25720937610549 903.06400707688135 0 0 0 0 73.807757179718465 313.90845239379087 0 313.90845239379087 105.20727462619448 0 0 0 0 24.839678627076438 5.0385588739864584 0 5.0385588739864584 1.475890715081702 0 0 0 0 154.28804103176662 275.71814799641743 0 275.71814799641743 -450.17543093907807 0 0 0 0 28.767452915635658 232.58150085355737 0 232.58150085355737 123.91752946362976 0 0 0 0 116.4762084248614 235.56300696287485 0 235.56300696287485 114.99726356752672 0 0 0 0 -5.3320994239693391 197.75076258690433 0 197.75076258690433 516.26007731568291 0 0 0 0 58.016370038007153 203.22644857791056 0 203.22644857791056 97.882227644831801 0 0 0 0 164.98748320964296 201.92707050748572 0 201.92707050748572 131.29730940454556 0 0 0 0 -9.5653784611931769 354.932577359383 0 354.932577359383 122.45508982040428 0 0 0 0 153.72484727279516 80.621644440329874 0 80.621644440329874 -159.18960669711726 0 0 0 0 71.484451333363523 12.904087333826284 0 12.904087333826284 1.7484804861716645 0 0 0 0 229.44041030001426 175.12230795274999 0 175.12230795274999 -41.384446724609461 0 0 0 0 538.36247779034602 98.404295141549824 0 98.404295141549824 -63.566158164367124 0 0 0 0 75.856927202967199 162.48201492893281 0 162.48201492893281 36.340508822339871 0 0 0 0 146.1638897428129 -24.850957189737073 0 -24.850957189737073 -27.95359490022247 0 0 0 0 111.38938531926345 16.926203201504215 0 16.926203201504215 1.6781182452871812 0 0 0 0 -2.065297125838697 132.56067936322052 0 132.56067936322052 109.34279737603447 0 0 0 0 321.23196856524737 265.7136028582554 0 265.7136028582554 -896.94296854079994 0 0 0 0 24.69627752899396 54.278209959163178 0 54.278209959163178 62.285337773912033 0 0 0 0 271.44781375012826 -55.575481357399894 0 -55.575481357399894 -493.24125522769145 0 0 0 0 138.23865610428038 453.72492848628508 0 453.72492848628508 1184.0275359229299 0 0 0 0 920.51619758187007 154.64078721228066 0 154.64078721228066 38.627419032779471 0 0 0 0 376.12211622396353 -137.61598410623128 0 -137.61598410623128 -223.28496277578688 0 0 0 0 -115.55403939012831 37.198073969975667 0 37.198073969975667 -214.80878845463394 0 0 0 0 263.14380146349697 -483.51437366949091 0 -483.51437366949091 497.37084180232068 0 0 0 0 249.350325726351 42.546196216142562 0 42.546196216142562 264.80319990999669 0 0 0 0 5.2657871221685753 4.4588635039190549 0 4.4588635039190549 5.7361520293571342 0 0 0 0 636.15442241208257 -608.95487680703252 0 -608.95487680703252 439.10497676181603 0 0 0 0 852.01128305069142 -109.25370504856983 0 -109.25370504856983 226.93123963335893 0 0 0 0 -127.03552146390575 15.814550993591183 0 15.814550993591183 4.7708187556872872 0 0 0 0 -100.95179962900147 180.5450380507491 0 180.5450380507491 203.03524819135032 0 0 0 0 -94.046807795248242 111.9386094012259 0 111.9386094012259 117.10703974865464 0 0 0 0 469.92966228542355 -55.202785731807126 0 -55.202785731807126 -24.3816278951399 0 0 0 0 -41.606244291931944 -136.75213429724727 0 -136.75213429724727 -20.451412877062467 0 0 0 0 412.38011840349645 -57.241797308439345 0 -57.241797308439345 -571.25979769111018 0 0 0 0 456.43569161438427 115.55064980059478 0 115.55064980059478 -824.078773651765 0 0 0 0 145.28388839196595 19.524076618520571 0 19.524076618520571 1.9274634066664023 0 0 0 0 220.4157164816861 46.856329755534261 0 46.856329755534261 9.1478098889019748 0 0 0 0 37.673399963212432 11.14599107636036 0 11.14599107636036 280.49050857487657 0 0 0 0 163.0055046666821 -126.94242464276203 0 -126.94242464276203 52.399811658625822 0 0 0 0 116.51103674321348 -55.083720999453135 0 -55.083720999453135 229.2391587948664 0 0 0 0 176.49739873651714 17.637943079791135 0 17.637943079791135 0.73451325960662484 0 0 0 0 -81.549673076457111 5.6286074678200748 0 5.6286074678200748 -147.92909759554635 0 0 0 0 94.371386140584946 -18.642867885883305 0 -18.642867885883305 33.721275909927634 0 0 0 0 119.02296882151859 -74.023354851247376 0 -74.023354851247376 -152.18053438365814 0 0 0 0 63.790462985341946 -37.588393660409054 0 -37.588393660409054 -198.94341554426495 0 0 0 0 26.869116320711328 36.728022152165551 0 36.728022152165551 13.176583672170496 0 0 0 0 47.802669024094939 144.61013460605614 0 144.61013460605614 -269.40980136134999 0 0 0 0 17.349468541549868 -40.14542110510979 0 -40.14542110510979 -457.92156475227785 0 0 0 0 75.450109627185157 -131.68715694847316 0 -131.68715694847316 44.665794498308799 0 0 0 0 3.5087250171015967 -13.230750532965494 0 -13.230750532965494 -5.4434044132226038 0 0 0 0 126.75312720407965 79.011847925368556 0 79.011847925368556 -365.66508108025118 0 0 0 0 84.392594346843623 13.091262542402959 0 13.091262542402959 -2.777199919155807 0 0 0 0 140.70036992570385 -93.441372762932815 0 -93.441372762932815 -286.84654640844337 0 0 0 0 173.59283459404378 82.566246178495746 0 82.566246178495746 -310.81729349191073 0 0 0 0 13.614650464092847 117.1411747216348 0 117.1411747216348 -153.59180416294407 0 0 0 0 14.366764143562705 5.953231218594027 0 5.953231218594027 -3.9115743248859047 0 0 0 0 110.02721822910826 -74.939078634887665 0 -74.939078634887665 -103.98847214408852 0 0 0 0 127.45823667853256 -14.788467736260827 0 -14.788467736260827 -167.42685049880856 0 0 0 0 113.46736936210073 -69.036114219498813 0 -69.036114219498813 -19.010002305462876 0 0 0 0 163.55985017912462 -46.478625004933747 0 -46.478625004933747 -93.828318219117136 0 0 0 0 119.02672154830361 -57.461204870225174 0 -57.461204870225174 -70.574914109406564 0 0 0 0 69.508313300946611 -84.04016045040953 0 -84.04016045040953 -8.7357229018134603 0 0 0 0 150.82986666515353 -60.535080028024822 0 -60.535080028024822 -18.270275983702277 0 0 0 0 113.60848766758136 -44.055656286490603 0 -44.055656286490603 -67.790005541786741 0 0 0 0 83.317650428835634 -27.108492723138482 0 -27.108492723138482 -11.711520519822761 0 0 0 0 93.504265068288078 -13.051994315083903 0 -13.051994315083903 -37.86965078785579 0 0 0 0 144.85459655956947 -82.744019192600433 0 -82.744019192600433 -84.78350590713589 0 0 0 0 77.83959332825907 -118.85126076306096 0 -118.85126076306096 -28.406838154169236 0 0 0 0 77.474517343525605 -47.825889865456304 0 -47.825889865456304 -3.4497727201204373 0 0 0 0 -141.25899543701962 -117.2978334325494 0 -117.2978334325494 -24.988112551024187 0 0 0 0 -383.08701371104689 -18.633101710483288 0 -18.633101710483288 6.7764184444472448 0 0 0 0 91.05737995765594 5.6046478746757344 0 5.6046478746757344 -97.478972289022295 0 0 0 0 20.122891085172711 -7.2396852329581236 0 -7.2396852329581236 -7.4547621433264961 0 0 0 0 138.57569323224016 -60.244771743979527 0 -60.244771743979527 -146.97037002113942 0 0 0 0 -399.45645476037316 -216.30854132131162 0 -216.30854132131162 329.35370693100577 0 0 0 0 -0.41332592278513403 -2.1425134687465075 0 -2.1425134687465075 -1.5148062356208034 0 0 0 0 -51.685439648106694 -13.880844913818464 0 -13.880844913818464 -207.78484036291911 0 0 0 0 82.361404294657405 139.71570568775721 0 139.71570568775721 -73.445880960892964 0 0 0 0 65.163400433910283 142.00888876250252 0 142.00888876250252 -343.62139261357493 0 0 0 0 31.427058290566492 252.03554818844253 0 252.03554818844253 90.999836041664594 0 0 0 0 -110.56065629597288 25.241349019766226 0 25.241349019766226 -19.522326424315658 0 0 0 0 389.1873056331533 191.92057971832628 0 191.92057971832628 -25.293325064608496 0 0 0 0 390.63339860828273 228.87143290994325 0 228.87143290994325 196.12535957142279 0 0 0 0 669.02747931450722 59.632582865862787 0 59.632582865862787 137.94222082155795 0 0 0 0 841.20148089330178 277.37630526952307 0 277.37630526952307 277.78510999080299 0 0 0 0 697.98933815592318 -18.904577410121192 0 -18.904577410121192 476.6387391320859 0 0 0 0 1026.1546393273748 327.4847896350384 0 327.4847896350384 287.24035864108941 0 0 0 0 335.76233324878558 219.2718045179297 0 219.2718045179297 260.95339702590309 0 0 0 0 422.20837983605452 -101.54552731241347 0 -101.54552731241347 152.51076192462187 0 0 0 0 -147.03358968999964 171.43521938501266 0 171.43521938501266 63.460315266487214 0 0 0 0 120.49145438488631 -22.668783162404679 0 -22.668783162404679 100.31686440687804 0 0 0 0 -150.62174014093762 -384.94740554497412 0 -384.94740554497412 42.642347481959405 0 0 0 0 146.28526604022773 -164.45742462873932 0 -164.45742462873932 -197.69166727484685 0 0 0 0 -380.08321554481518 -199.02402029588541 0 -199.02402029588541 94.393513102781981 0 0 0 0 150.69581367645878 -171.94064189286109 0 -171.94064189286109 -28.580463976103601 0 0 0 0 121.05651181473513 -298.49314231415201 0 -298.49314231415201 -19.017786780425013 0 0 0 0 -21.264352707941725 -198.95178898844324 0 -198.95178898844324 -46.637825394009269 0 0 0 0 -35.730344263865845 -240.10867877083001 0 -240.10867877083001 -19.591290184344871 0 0 0 0 269.81918150905403 -156.08429489690752 0 -156.08429489690752 -100.38538126186572 0 0 0 0 298.05424026897526 -192.02754376515441 0 -192.02754376515441 -54.99411208197489 0 0 0 0 557.10823520153644 -151.65194255934421 0 -151.65194255934421 -60.786317688537565 0 0 0 0 761.54406049037061 -38.040230079258663 0 -38.040230079258663 154.03246365384621 0 0 0 0 208.87253313373367 -266.89292652604468 0 -266.89292652604468 115.71266562744768 0 0 0 0 455.03123905760003 -155.87260287086383 0 -155.87260287086383 38.727755144103867 0 0 0 0 140.86878524514759 -78.789070411692052 0 -78.789070411692052 311.33884034068706 0 0 0 0 565.73838739073835 123.4489436820063 0 123.4489436820063 406.50396063696826 0 0 0 0 511.99295037642878 -291.05697088929219 0 -291.05697088929219 355.61579227231141 0 0 0 0 950.64186383583001 370.30252959754716 0 370.30252959754716 1002.4154024829572 0 0 0 0 960.54008651807089 -340.34669656806727 0 -340.34669656806727 613.19334182151215 0 0 0 0 1362.302043587435 168.80535206710556 0 168.80535206710556 83.235310494250371 0 0 0 0 681.1164982290793 562.33616857596485 0 562.33616857596485 427.40593480240204 0 0 0 0 569.51432284826296 169.02952881777219 0 169.02952881777219 85.972891730701974 0 0 0 0 632.02027030104728 335.66680753179833 0 335.66680753179833 106.73711998730141 0 0 0 0 581.80812877311837 -209.59367687757776 0 -209.59367687757776 63.095435461812485 0 0 0 0 417.73396696915734 15.236927307192673 0 15.236927307192673 -74.568784953606382 0 0 0 0 768.62269739495969 84.182162310516333 0 84.182162310516333 -61.085612561795642 0 0 0 0 498.27417565710493 87.321895744267522 0 87.321895744267522 -113.66773746025319 0 0 0 0 367.28762938646832 217.13831275646703 0 217.13831275646703 18.381855600873678 0 0 0 0 519.16703690524446 -56.010988968255333 0 -56.010988968255333 -135.78892891081705 0 0 0 0 184.00830225783284 158.73700048298042 0 158.73700048298042 3.033878380841827 0 0 0 0 214.20578272840066 205.07775243108335 0 205.07775243108335 59.791262227984589 0 0 0 0 326.06053722611978 161.95393092690301 0 161.95393092690301 -51.753717637157422 0 0 0 0 317.29791897800169 189.95151509942707 0 189.95151509942707 41.949465549161232 0 0 0 0 318.87525654453202 242.27399960470029 0 242.27399960470029 71.707667119677808 0 0 0 0 116.96329091591997 196.93996090440385 0 196.93996090440385 210.15594994926869 0 0 0 0 184.28205675500794 264.76250087304288 0 264.76250087304288 321.59150162939204 0 0 0 0 200.31923599723086 199.47185457923024 0 199.47185457923024 188.92276555387798 0 0 0 0 26.789096858352423 134.89842601991813 0 134.89842601991813 320.54538685435773 0 0 0 0 11.363185643276665 1.4825753316431474 0 1.4825753316431474 0.05696787422033367 0 0 0 0 10.520437910297687 3.188575944583409 0 3.188575944583409 2.2711524385362796 0 0 0 0 81.423591665239655 28.628237413122861 0 28.628237413122861 -95.129958774883562 0 0 0 0 34.891812229150673 -97.157351042865685 0 -97.157351042865685 120.03107108484619 0 0 0 0 1200.2121645611478 -284.02715326697694 0 -284.02715326697694 79.925234122739312 0 0 0 0 6.5766311772937627 3.37191187544461 0 3.37191187544461 1.4122452933366176 0 0 0 0 10.823634624437545 207.82818717699274 0 207.82818717699274 544.09287455394497 0 0 0 0 219.53416327547166 71.057602615188102 0 71.057602615188102 -88.774071279870441 0 0 0 0 1638.3346119576945 582.92789467496891 0 582.92789467496891 63.838963614860404 0 0 0 0 1627.3227894321608 337.61105331676731 0 337.61105331676731 288.05308709115161 0 0 0 0 1208.9385122441454 89.198866796963102 0 89.198866796963102 188.06386966169248 0 0 0 0 926.749325388344 76.899485976420237 0 76.899485976420237 190.25314228282059 0 0 0 0 -0.8600467725630665 0.28627907580432677 0 0.28627907580432677 1.695346991517295 0 0 0 0 943.90057546295429 -142.46612118989708 0 -142.46612118989708 49.257641566271559 0 0 0 0 3.5859160055901071 3.4018219716365934 0 3.4018219716365934 -0.84437772353712193 0 0 0 0 1367.5628085547287 -18.685470477445847 0 -18.685470477445847 -73.978626585266511 0 0 0 0 121.17393188628193 -105.63898187581697 0 -105.63898187581697 68.702034872289033 0 0 0 0 89.033765277708881 -32.212017036818729 0 -32.212017036818729 29.314583702281027 0 0 0 0 45.225346870865906 -30.049598091620169 0 -30.049598091620169 34.512798768595459 0 0 0 0 6.763066915259742 3.0790440409954556 0 3.0790440409954556 0.88753675609256666 0 0 0 0 12.259861333913307 -2.4332567208463871 0 -2.4332567208463871 0.11830946348325577 0 0 0 0 148.49480246460007 -394.34931690379881 0 -394.34931690379881 245.07897607570578 0 0 0 0 1043.7334128395451 -576.48885799589925 0 -576.48885799589925 -662.81187456242003 0 0 0 0 42.777173529320862 -205.34612513336958 0 -205.34612513336958 -61.009940745633003 0 0 0 0 2.329291789297713 -63.069122262193162 0 -63.069122262193162 -77.858242742267748 0 0 0 0 42.569723524560686 -69.137864539940551 0 -69.137864539940551 -229.54216580933121 0 0 0 0 162.39623808348551 68.480998465249286 0 68.480998465249286 -116.64884423572312 0 0 0 0 146.31878270253947 296.34095476460334 0 296.34095476460334 237.95120844500843 0 0 0 0 165.69421622938535 47.504603245849466 0 47.504603245849466 -90.141397572550886 0 0 0 0 147.9149638283925 -19.149805410383351 0 -19.149805410383351 -182.57662634576809 0 0 0 0 192.51469139978872 100.16183532910509 0 100.16183532910509 -87.672383023611474 0 0 0 0 242.29620826881728 79.747158025667432 0 79.747158025667432 -159.06533325747478 0 0 0 0 246.22364506270969 144.68236966257518 0 144.68236966257518 -52.741756150286847 0 0 0 0 187.1561502533732 160.11268484674019 0 160.11268484674019 2.9527813562734764 0 0 0 0 246.81957723257074 137.68644080085596 0 137.68644080085596 -81.645486930956395 0 0 0 0 355.03682031882636 -20.779028463158056 0 -20.779028463158056 -181.59424779733854 0 0 0 0 264.05067884590244 -86.027752198043345 0 -86.027752198043345 -133.56603663653385 0 0 0 0 325.78462369808403 90.968431131431316 0 90.968431131431316 -139.87398837473665 0 0 0 0 287.49991122179199 62.96335311904113 0 62.96335311904113 -107.63192381203442 0 0 0 0 200.49678750519524 42.320694360867492 0 42.320694360867492 -149.25042575969042 0 0 0 0 175.92586330216727 -34.861871649685781 0 -34.861871649685781 -170.85836166519948 0 0 0 0 115.72218638729828 3.9308637083313442 0 3.9308637083313442 -213.15701124012253 0 0 0 0 203.56862616904982 -18.385583860491579 0 -18.385583860491579 -300.60740849750982 0 0 0 0 130.11841191522967 -11.439039528262231 0 -11.439039528262231 -1.0435634319402158 0 0 0 0 82.595169662963599 -121.29114494104874 0 -121.29114494104874 -222.58565301467934 0 0 0 0 251.55617567356967 4.2230667769408683 0 4.2230667769408683 -219.319026346182 0 0 0 0 105.66577169771892 -10.966873694910532 0 -10.966873694910532 -4.6379948770320301 0 0 0 0 145.58318803295697 -134.02390519516666 0 -134.02390519516666 -299.10735312194356 0 0 0 0 132.10684742796002 -36.753192993479388 0 -36.753192993479388 129.9122404065597 0 0 0 0 -277.12937305239029 -143.99808328530526 0 -143.99808328530526 854.05542926280759 0 0 0 0 23.656514233995608 5.3487410049303037 0 5.3487410049303037 -8.9202929981182049 0 0 0 0 49.217123154929141 -93.302154869022161 0 -93.302154869022161 -228.93513816705263 0 0 0 0 149.65936463026446 -127.00130218817549 0 -127.00130218817549 -172.22121101877383 0 0 0 0 226.01953667914495 -78.912381399264632 0 -78.912381399264632 -224.12859628700468 0 0 0 0 35.910446278605377 -182.64539009414784 0 -182.64539009414784 -131.13889257046083 0 0 0 0 162.57514531032939 -137.77435053258591 0 -137.77435053258591 -212.94939462839284 0 0 0 0 172.31701618607622 -206.61917631436063 0 -206.61917631436063 -102.97498159156982 0 0 0 0 140.03986631553562 -171.83381159172859 0 -171.83381159172859 -132.96227240553708 0 0 0 0 292.24426094180671 -107.10400053276226 0 -107.10400053276226 -176.9219540856775 0 0 0 0 -138.17920443805633 -192.43394100088517 0 -192.43394100088517 -30.460715719930704 0 0 0 0 53.991324280403205 -203.13350125627426 0 -203.13350125627426 -150.62436067367253 0 0 0 0 -34.754296367216739 -160.29552342686475 0 -160.29552342686475 -127.68378561203372 0 0 0 0 67.766797047341242 -247.99104138195344 0 -247.99104138195344 -62.567556836696212 0 0 0 0 -55.434240669303108 -85.535113705041113 0 -85.535113705041113 20.696170904067458 0 0 0 0 21.32435179039021 168.73007385493111 0 168.73007385493111 319.01297394300218 0 0 0 0 8.2627260358950139 -9.8995110028587696 0 -9.8995110028587696 1.4146635000981833 0 0 0 0 -12.099439536275895 -190.19456667144971 0 -190.19456667144971 -152.31180065272474 0 0 0 0 47.595649730606169 -16.00410382931102 0 -16.00410382931102 4.9814143491468421 0 0 0 0 229.71908616943983 -172.8732993133126 0 -172.8732993133126 -275.98205813887034 0 0 0 0 65.266066435009975 -20.746411344681832 0 -20.746411344681832 -4.496239878504996 0 0 0 0 18.808638620277634 -305.72111532399958 0 -305.72111532399958 29.514489773197965 0 0 0 0 45.564748745877296 -118.67662225061667 0 -118.67662225061667 -195.36250960786401 0 0 0 0 59.661188856349327 -100.47010974813156 0 -100.47010974813156 -209.79759063560095 0 0 0 0 54.163885484740604 -101.56092712901545 0 -101.56092712901545 -226.96288291041787 0 0 0 0 52.207470533001469 -85.031070972425368 0 -85.031070972425368 -187.47950075414701 0 0 0 0 55.984717636310961 -75.802703326431583 0 -75.802703326431583 -150.52264276659662 0 0 0 0 57.131059793347958 -61.637114678501348 0 -61.637114678501348 -198.14707616429371 0 0 0 0 26.555229781864909 -47.32104411984983 0 -47.32104411984983 -143.90044474305114 0 0 0 0 31.93206501507666 -79.112918318877064 0 -79.112918318877064 -180.24990038541205 0 0 0 0 49.44326568118413 -78.857738359748168 0 -78.857738359748168 -191.23946082804105 0 0 0 0 8.7944286473793909 -45.870071064714352 0 -45.870071064714352 -223.3542227777607 0 0 0 0 34.415662658633664 -64.164761993423781 0 -64.164761993423781 -235.15751672211809 0 0 0 0 54.938143495441182 -80.352777952628685 0 -80.352777952628685 -223.47395404708186 0 0 0 0 17.415974488831125 -60.408692341939968 0 -60.408692341939968 -201.64681292166733 0 0 0 0 163.98954734602739 63.59551570702547 0 63.59551570702547 -102.08933991594768 0 0 0 0 37.586113384983037 -138.598548248106 0 -138.598548248106 -239.70557739670585 0 0 0 0 16.071354402985889 447.33453784326048 0 447.33453784326048 220.43936647486885 0 0 0 0 32.987816778665376 -10.206108778695281 0 -10.206108778695281 2.3574535380030905 0 0 0 0 -52.870468948909547 -115.57365223427018 0 -115.57365223427018 -164.83144851168072 0 0 0 0 -10.23553223349154 -113.83439683492657 0 -113.83439683492657 -170.22811727980979 0 0 0 0 -53.957039563625585 -66.327157112890518 0 -66.327157112890518 -175.4206920477618 0 0 0 0 49.484112818434369 -60.328820368385209 0 -60.328820368385209 -140.9599494788481 0 0 0 0 21.967555310140597 -81.821150574482488 0 -81.821150574482488 -74.263918304258823 0 0 0 0 56.825943453499349 -45.229188166792483 0 -45.229188166792483 -105.83649515810885 0 0 0 0 17.714292001182912 -60.97495020722414 0 -60.97495020722414 -51.981207464190675 0 0 0 0 49.927924629795598 -25.301793466857703 0 -25.301793466857703 -54.153595036713 0 0 0 0 58.299875829281518 -47.039417349023097 0 -47.039417349023097 -145.13373728882334 0 0 0 0 39.424179175737663 -72.707754083917678 0 -72.707754083917678 -116.50212693604226 0 0 0 0 66.429559571493883 -74.706150538254633 0 -74.706150538254633 -42.937567851179779 0 0 0 0 61.591817137785256 -69.241548817496778 0 -69.241548817496778 -98.118660672253327 0 0 0 0 72.459823625104036 -54.604032443030178 0 -54.604032443030178 -131.18145467419208 0 0 0 0 49.986852259316947 -50.334924722309381 0 -50.334924722309381 -16.374402152150651 0 0 0 0 78.672665629565017 -36.872696836816317 0 -36.872696836816317 -61.213081236279095 0 0 0 0 60.873837071034359 -25.490818968421081 0 -25.490818968421081 21.581237532323485 0 0 0 0 85.334524757781764 -89.642391073093677 0 -89.642391073093677 -43.470238334387773 0 0 0 0 78.654954369760276 17.537566377510469 0 17.537566377510469 -222.41728973802333 0 0 0 0 124.66170551126561 -66.103955705404189 0 -66.103955705404189 -205.92255836649178 0 0 0 0 79.325811915769009 -41.219591873187937 0 -41.219591873187937 -154.44323358512611 0 0 0 0 76.850127379759215 -49.969668251880648 0 -49.969668251880648 -169.5238801569194 0 0 0 0 75.349260362887435 -61.233724531277858 0 -61.233724531277858 -167.81951216149446 0 0 0 0 85.728007822472136 -52.249788256751344 0 -52.249788256751344 -170.6988283372765 0 0 0 0 88.555022866770742 -71.649045457819966 0 -71.649045457819966 -151.07213769062673 0 0 0 0 90.556598176932312 -63.383724737842158 0 -63.383724737842158 -168.9028050039642 0 0 0 0 64.545354880450759 -71.166865104391036 0 -71.166865104391036 -127.80970314929397 0 0 0 0 64.717705729417503 -60.157428145512768 0 -60.157428145512768 -167.50856832643967 0 0 0 0 52.047299725876655 -88.050831136167744 0 -88.050831136167744 -174.7467721493083 0 0 0 0 67.43532895995304 -60.970800146721103 0 -60.970800146721103 -159.40245521475208 0 0 0 0 52.190371701028198 -90.493802435374164 0 -90.493802435374164 -171.03889808614713 0 0 0 0 -39.911522531459923 -10.468311191941211 0 -10.468311191941211 212.63025975632627 0 0 0 0 262.07231955538737 636.48507956355206 0 636.48507956355206 -392.07568951521444 0 0 0 0 31.171130031696521 -114.0585738229438 0 -114.0585738229438 -182.04404752156529 0 0 0 0 2.9641055713020705 0.65111777432360896 0 0.65111777432360896 -0.1964998676163221 0 0 0 0 -385.49445257083062 -367.46962772684128 0 -367.46962772684128 412.32567575049507 0 0 0 0 25.958257551304996 -85.290440073955779 0 -85.290440073955779 -152.92372343046418 0 0 0 0 50.73147660039831 -61.734115408894922 0 -61.734115408894922 -130.55335682203122 0 0 0 0 36.628287141065812 -158.7250099991727 0 -158.7250099991727 53.027154969224284 0 0 0 0 53.737575109174941 -164.91537004508064 0 -164.91537004508064 -98.021626487405229 0 0 0 0 -6.5392912469251314 42.116524752810619 0 42.116524752810619 39.40607952526625 0 0 0 0 48.780018312865195 -29.423019130788987 0 -29.423019130788987 -4.3951818738268873 0 0 0 0 60.099059878906701 -79.295389491970127 0 -79.295389491970127 24.074720025267652 0 0 0 0 239.36042655211349 339.68493680098391 0 339.68493680098391 -187.17404898356472 0 0 0 0 -2.6348654352221672 -30.320884433721943 0 -30.320884433721943 4.8068881316017773 0 0 0 0 59.487197716201536 -138.92734466750875 0 -138.92734466750875 121.82570791541184 0 0 0 0 -4.689330646024132 -4.704736392151986 0 -4.704736392151986 5.9894263220123474 0 0 0 0 34.042006587580545 0.41407444484002554 0 0.41407444484002554 -107.74736601341374 0 0 0 0 570.6195993355941 -246.34970049940239 0 -246.34970049940239 -60.257024167989584 0 0 0 0 46.504226702786923 -23.385704414475981 0 -23.385704414475981 5.4016826817745427 0 0 0 0 -8.3061823914322304 52.755987677442135 0 52.755987677442135 -168.33506384423072 0 0 0 0 67.257929940737085 -82.38478672765882 0 -82.38478672765882 34.820438039880173 0 0 0 0 109.15260737924837 -201.94445755608103 0 -201.94445755608103 -64.929744744491018 0 0 0 0 2.6628199283601077 -5.5089480791071423 0 -5.5089480791071423 0.56193172047324147 0 0 0 0 209.0673155633267 -73.516253567991953 0 -73.516253567991953 12.833676394417125 0 0 0 0 102.6847623129288 -95.578104994040132 0 -95.578104994040132 98.65542453782291 0 0 0 0 140.47133008402307 -53.225634933802212 0 -53.225634933802212 42.08107425396247 0 0 0 0 112.67043746108538 -75.322379688469482 0 -75.322379688469482 32.36398728129825 0 0 0 0 160.81785295950249 -83.610364972323623 0 -83.610364972323623 7.6463125501031755 0 0 0 0 131.53777708689449 -106.43860844965639 0 -106.43860844965639 -2.7994387905191616 0 0 0 0 116.3177886614867 -65.18531156791596 0 -65.18531156791596 27.805838194414719 0 0 0 0 213.40861763143039 -56.182636951733002 0 -56.182636951733002 28.19705219179923 0 0 0 0 280.97724167136039 -5.2082539025431061 0 -5.2082539025431061 36.431837672304027 0 0 0 0 112.94889982642781 -114.13370755771848 0 -114.13370755771848 35.042846402761825 0 0 0 0 250.718148580665 -107.62839788721021 0 -107.62839788721021 -2.7490518965009869 0 0 0 0 410.82906913836268 105.07395057710306 0 105.07395057710306 46.281511697347014 0 0 0 0 380.92758224556746 -17.407843585953174 0 -17.407843585953174 -261.26206713064323 0 0 0 0 58.674063706755987 -85.09511008727776 0 -85.09511008727776 22.158900749778013 0 0 0 0 195.81402050302131 203.60763799767366 0 203.60763799767366 42.824271528503573 0 0 0 0 427.69802158443781 89.444313584117452 0 89.444313584117452 21.015405518400144 0 0 0 0 551.92462271558179 254.23338669733133 0 254.23338669733133 102.27285032437328 0 0 0 0 333.12705868434568 -12.139761075723271 0 -12.139761075723271 49.904311365005469 0 0 0 0 209.39560248744965 69.659328534675609 0 69.659328534675609 71.941324358161552 0 0 0 0 703.7059740354307 97.418025133761233 0 97.418025133761233 61.452111980055406 0 0 0 0 310.08844329333806 -115.14015304804593 0 -115.14015304804593 119.5464820028626 0 0 0 0 674.0838268929856 259.23313815958113 0 259.23313815958113 113.4779820049236 0 0 0 0 768.04018208682101 145.19167348455764 0 145.19167348455764 248.86352435969133 0 0 0 0 1375.4353081626759 87.31472276637929 0 87.31472276637929 0.73401145490747299 0 0 0 0 641.58630758067011 366.76346960422387 0 366.76346960422387 53.363402622479256 0 0 0 0 2.3522012764937017 -0.13300817134708609 0 -0.13300817134708609 -0.00087829489914312275 0 0 0 0 1.7479673977359198 -72.292454341346598 0 -72.292454341346598 150.99686869191299 0 0 0 0 112.00475150480634 100.98050150134929 0 100.98050150134929 45.809963255420683 0 0 0 0 75.113977049360983 20.996761992833996 0 20.996761992833996 3.7600517087639957 0 0 0 0 67.740585737228685 67.025156296570799 0 67.025156296570799 110.71608791282029 0 0 0 0 3.687824966735775 -0.5964654449230693 0 -0.5964654449230693 -0.084372796981926387 0 0 0 0 154.05847080580861 -64.484639486719274 0 -64.484639486719274 0.17413011269798981 0 0 0 0 55.383720856858417 13.397687576752755 0 13.397687576752755 -39.696761747592156 0 0 0 0 1.7598309092584259 -0.007742624502441231 0 -0.007742624502441231 -0.093081312941518696 0 0 0 0 -17.313672439631773 -36.963221841920564 0 -36.963221841920564 -0.073870826605793874 0 0 0 0 57.018837593663193 78.620092187121926 0 78.620092187121926 81.194418627955827 0 0 0 0 68.530918633681722 68.517298448357963 0 68.517298448357963 73.317793112222489 0 0 0 0 146.89777052259888 93.639742889949929 0 93.639742889949929 68.289657243367174 0 0 0 0 79.577621119053219 38.988546542920091 0 38.988546542920091 71.858671708184829 0 0 0 0 108.71870874392334 54.015210340758131 0 54.015210340758131 77.226861937214835 0 0 0 0 83.152249193386524 64.420362431602342 0 64.420362431602342 137.84149469001306 0 0 0 0 66.198223917919677 40.79015340322826 0 40.79015340322826 106.15493812153312 0 0 0 0 86.349454281524231 -43.563366360653845 0 -43.563366360653845 143.66107966446543 0 0 0 0 86.131466549850302 -15.697612746879201 0 -15.697612746879201 10.027971623983149 0 0 0 0 51.190393944576499 -12.550955340568066 0 -12.550955340568066 85.567509834105863 0 0 0 0 78.356683256075485 -3.2213485480370423 0 -3.2213485480370423 -0.45802842980310743 0 0 0 0 54.508270527992863 -40.810770988770599 0 -40.810770988770599 15.523964184570559 0 0 0 0 72.87000435317168 -35.091300910693121 0 -35.091300910693121 -45.290124451634938 0 0 0 0 71.980429695817293 -59.838399178266286 0 -59.838399178266286 -67.799854001014069 0 0 0 0 43.04880716316984 -49.637354990470385 0 -49.637354990470385 17.558066516868848 0 0 0 0 89.72535313059052 -65.193981285767961 0 -65.193981285767961 21.765895831900764 0 0 0 0 108.06444243391161 -49.798436260689243 0 -49.798436260689243 34.655280270838489 0 0 0 0 98.755918620250668 -6.0563331805910821 0 -6.0563331805910821 37.791832586304963 0 0 0 0 94.683741275221109 -5.9987826907995441 0 -5.9987826907995441 41.634416372287376 0 0 0 0 143.06369055043615 -28.400801577254384 0 -28.400801577254384 18.78198190873934 0 0 0 0 186.09898080944549 7.1229339176525173 0 7.1229339176525173 41.977912572447082 0 0 0 0 402.27981063300831 -22.432209588495883 0 -22.432209588495883 2.8786095331788033 0 0 0 0 227.3892196581146 181.62516872763598 0 181.62516872763598 132.4435737397969 0 0 0 0 204.79129670436669 -133.51394085324293 0 -133.51394085324293 0.56526477215195037 0 0 0 0 183.33379370355397 -66.063205029256096 0 -66.063205029256096 37.488556216916777 0 0 0 0 166.2510031509446 -95.469697868436413 0 -95.469697868436413 46.158546445558841 0 0 0 0 149.20009096733702 -101.99561417153194 0 -101.99561417153194 57.280387668638184 0 0 0 0 170.52737059479114 48.542521527126205 0 48.542521527126205 41.33473680258178 0 0 0 0 96.699315439880593 -100.79798360757813 0 -100.79798360757813 61.891742868053136 0 0 0 0 0.02552771421821376 -0.4860566339886816 0 -0.4860566339886816 -0.68926894286147633 0 0 0 0 96.375394358386984 -150.98717961312227 0 -150.98717961312227 37.755899329161551 0 0 0 0 -7.6959514571644831 10.836550477415404 0 10.836550477415404 -3.7700213078053499 0 0 0 0 -28.150632961274823 18.744323608361988 0 18.744323608361988 7.8528932447624058 0 0 0 0 0.69230385658329396 0.31030573006151485 0 0.31030573006151485 -0.0098941113711921713 0 0 0 0 131.71798689989373 -12.52985522306208 0 -12.52985522306208 -0.11629621712529557 0 0 0 0 -27.78637878948939 -7.1432433458752094 0 -7.1432433458752094 15.958893884629546 0 0 0 0 69.80847712859395 19.866581593069895 0 19.866581593069895 48.666453387776087 0 0 0 0 144.27713570289779 -118.37112057288584 0 -118.37112057288584 42.954543106079029 0 0 0 0 0.37970404903177268 -0.93307778260665941 0 -0.93307778260665941 -3.2873450397388195 0 0 0 0 83.832820466806879 -84.295764395504875 0 -84.295764395504875 26.425418848036884 0 0 0 0 192.36423513751652 -130.63987766110461 0 -130.63987766110461 24.651558283992244 0 0 0 0 116.08516505741136 -113.37459231293778 0 -113.37459231293778 42.043102436104732 0 0 0 0 148.9105166697118 -98.663991957946791 0 -98.663991957946791 0.71283040700552647 0 0 0 0 39.869156419234059 -130.83150910492787 0 -130.83150910492787 7.271781120884043 0 0 0 0 -2.620775530644039 -1.8311895058388927 0 -1.8311895058388927 -5.0163378630129065 0 0 0 0 232.1411040652747 62.582307686650495 0 62.582307686650495 -462.96177162181584 0 0 0 0 278.17863795342419 -139.04773616052279 0 -139.04773616052279 -64.932573306304221 0 0 0 0 54.129690688147093 -8.1422857723591733 0 -8.1422857723591733 -44.379142663215589 0 0 0 0 61.890580068080453 19.806445283068115 0 19.806445283068115 -21.245587046478704 0 0 0 0 18.533619843926715 -5.7429514651888383 0 -5.7429514651888383 -14.825830669760828 0 0 0 0 85.40724714632961 -17.103685309531102 0 -17.103685309531102 -12.31267697641897 0 0 0 0 34.445271613600198 -11.631490081791071 0 -11.631490081791071 -36.508521452346486 0 0 0 0 35.308986730815377 -9.3264132911467641 0 -9.3264132911467641 -30.752727044159656 0 0 0 0 40.574926756264176 -33.656076217730515 0 -33.656076217730515 -68.278325084170774 0 0 0 0 41.692135535617126 -28.618474083052206 0 -28.618474083052206 -112.34028516095464 0 0 0 0 15.291562856233213 -65.603147874824572 0 -65.603147874824572 -98.831911769116459 0 0 0 0 31.151865188556258 -4.5078511253282159 0 -4.5078511253282159 -42.097687764219245 0 0 0 0 18.671982905641926 6.8744034415596218 0 6.8744034415596218 -70.254448466194845 0 0 0 0 46.573873820860172 1.7644003482819244 0 1.7644003482819244 -70.084284397462852 0 0 0 0 28.87827692148494 15.055805525754067 0 15.055805525754067 3.1801649502795044 0 0 0 0 23.333285604938283 2.9110233754636283 0 2.9110233754636283 17.255435686219244 0 0 0 0 71.24120869665785 26.512695042495579 0 26.512695042495579 -0.42367137744258798 0 0 0 0 27.438906915922416 -5.0363596538581987 0 -5.0363596538581987 31.889745971972843 0 0 0 0 22.270596259942977 46.799744055894735 0 46.799744055894735 23.549598875923039 0 0 0 0 -0.81826555587733196 -0.077015189856155075 0 -0.077015189856155075 2.3611189383065181 0 0 0 0 17.898563150976457 1.4957395163462763 0 1.4957395163462763 -1.1257831834629464 0 0 0 0 64.286702939927636 21.236805448260839 0 21.236805448260839 12.860577514828947 0 0 0 0 28.031020245370115 -7.6202998867119618 0 -7.6202998867119618 -2.8922800886348021 0 0 0 0 426.92574380799488 98.556759016176784 0 98.556759016176784 -36.626027568738209 0 0 0 0 21.142861992610023 -9.7917114023746876 0 -9.7917114023746876 -10.429424375623423 0 0 0 0 23.807434063273831 -47.04079638591179 0 -47.04079638591179 17.171173166550034 0 0 0 0 491.09672465320909 153.5039479508805 0 153.5039479508805 -40.223075414339291 0 0 0 0 404.02228802740137 54.532235795946008 0 54.532235795946008 277.87079491389886 0 0 0 0 792.2527390852556 285.7605594918623 0 285.7605594918623 -38.138084839258681 0 0 0 0 599.36128718699911 437.33401619143842 0 437.33401619143842 64.528617542300253 0 0 0 0 505.77149709657533 325.2189073214613 0 325.2189073214613 -14.610762372412864 0 0 0 0 651.86266798827273 366.12240108699552 0 366.12240108699552 -3.3886215014083518 0 0 0 0 414.51994368055603 269.65071477283959 0 269.65071477283959 -25.221975357387805 0 0 0 0 587.71977879513543 343.3230567703464 0 343.3230567703464 -18.899149999102065 0 0 0 0 205.77710097773524 -54.048990230933668 0 -54.048990230933668 32.499907910507318 0 0 0 0 299.05856895980833 -26.036640505374862 0 -26.036640505374862 -19.013684891614503 0 0 0 0 459.44412011592067 324.72159408613652 0 324.72159408613652 146.36137498415917 0 0 0 0 240.09385732312512 132.70761813662102 0 132.70761813662102 48.915323298731437 0 0 0 0 667.26602950654342 169.66840916248884 0 169.66840916248884 -2.3239345110508793 0 0 0 0 452.47001709785764 108.75811711606568 0 108.75811711606568 85.531366851496387 0 0 0 0 485.30796173011186 -13.103064049535078 0 -13.103064049535078 -78.854463986519931 0 0 0 0 693.04696315483307 210.90456886528159 0 210.90456886528159 33.081745504349328 0 0 0 0 834.17539581868914 594.78495064321578 0 594.78495064321578 429.99761760093082 0 0 0 0 813.59007631600252 -12.648791024659829 0 -12.648791024659829 438.42487319768759 0 0 0 0 546.98436098264938 332.16939281760597 0 332.16939281760597 256.57301785019689 0 0 0 0 552.4967645980505 27.714578032424868 0 27.714578032424868 68.510978439437508 0 0 0 0 246.71625775683788 316.76502616087646 0 316.76502616087646 219.57768894655806 0 0 0 0 1079.2028584293002 479.56768473079126 0 479.56768473079126 10.255510043600907 0 0 0 0 591.01398826486547 379.7817325992616 0 379.7817325992616 10.21577322120902 0 0 0 0 224.32207835002919 410.35867231671364 0 410.35867231671364 571.3959369035133 0 0 0 0 8.386718236220986 2.8588689881948852 0 2.8588689881948852 -0.41528771844060963 0 0 0 0 18.567625001223064 -0.31175549854256701 0 -0.31175549854256701 -22.0454874818953 0 0 0 0 107.70502721390221 24.366193812744655 0 24.366193812744655 47.178067124731967 0 0 0 0 26.054627504654491 -16.792822358954364 0 -16.792822358954364 -7.853537666958573 0 0 0 0 17.429394154051693 -6.8490629774534995 0 -6.8490629774534995 -15.260878967374106 0 0 0 0 473.93271303175425 -171.0981400836215 0 -171.0981400836215 32.193908954094852 0 0 0 0 957.62503990891855 -73.876299238679337 0 -73.876299238679337 -20.064211154182885 0 0 0 0 15.028744983671061 -7.6552024650221995 0 -7.6552024650221995 -1.0195833598414015 0 0 0 0 16.954554864540114 -5.7289003267268068 0 -5.7289003267268068 -3.7980148298458261 0 0 0 0 26.15779982895765 -16.054018716492028 0 -16.054018716492028 -3.9495005398597769 0 0 0 0 836.41817885427736 413.27744886894055 0 413.27744886894055 82.761350309670945 0 0 0 0 683.14708830417658 341.65623402898609 0 341.65623402898609 61.31098273592886 0 0 0 0 518.21543304584338 313.43225616942891 0 313.43225616942891 60.78697518238846 0 0 0 0 1176.3316272685552 407.77552445831236 0 407.77552445831236 15.848746026222784 0 0 0 0 845.49915253164363 387.0029657857192 0 387.0029657857192 85.013022596467238 0 0 0 0 777.37633146245207 451.89251304735342 0 451.89251304735342 76.364619141735659 0 0 0 0 704.65533418687119 206.54617054888129 0 206.54617054888129 54.701478953550691 0 0 0 0 897.94724460445286 516.71299195059225 0 516.71299195059225 351.57656723803632 0 0 0 0 1114.1542089839932 168.54923361537391 0 168.54923361537391 103.25676512388 0 0 0 0 9.4220584690253872 -4.9143003299019483 0 -4.9143003299019483 -0.37432714696318281 0 0 0 0 0.31848234770586714 -8.822442525296319 0 -8.822442525296319 -0.0043747384468669961 0 0 0 0 1534.9500578198058 801.36816959901307 0 801.36816959901307 281.53808667956065 0 0 0 0 4.9867582827498609 -1.0518318328209944 0 -1.0518318328209944 -0.68261693293792236 0 0 0 0 18.703225986184407 -11.359113724532506 0 -11.359113724532506 12.836558942207205 0 0 0 0 35.815207609470235 -5.6182567977431628 0 -5.6182567977431628 -1.6341145639373647 0 0 0 0 7.5473098208240117 -12.601836045195007 0 -12.601836045195007 -1.6762075082301529 0 0 0 0 8.3293336965434719 -3.4589770645424971 0 -3.4589770645424971 -1.2713999960566571 0 0 0 0 17.341459526251128 -9.7511074427586255 0 -9.7511074427586255 0.0011464165962799082 0 0 0 0 21.84555037759128 -7.5016863875134341 0 -7.5016863875134341 -1.863006195646232 0 0 0 0 24.555269929522183 -10.901664559168257 0 -10.901664559168257 -0.018378595185422168 0 0 0 0 12.715746498899534 -13.712228778336641 0 -13.712228778336641 1.6525002691441095 0 0 0 0 11.825814903822902 -6.3115190401543018 0 -6.3115190401543018 -5.1024515764344187 0 0 0 0 8.5656011824685265 -18.750841052196463 0 -18.750841052196463 2.7375114318917042 0 0 0 0 33.441118087575887 -20.792214506418059 0 -20.792214506418059 1.6947366180894434 0 0 0 0 28.1285010597785 -22.475007095192886 0 -22.475007095192886 0.19755414577443275 0 0 0 0 9.7205061078711879 -12.74928307046831 0 -12.74928307046831 18.270262727576867 0 0 0 0 36.408138713581138 5.5294342981400604 0 5.5294342981400604 -13.017573534261516 0 0 0 0 15.049605267454808 -6.2443499029412379 0 -6.2443499029412379 -8.2018559344327713 0 0 0 0 3.3134728596136824 0.87642491892034968 0 0.87642491892034968 -3.3460221455549894 0 0 0 0 10.699951792106731 -16.830657571018193 0 -16.830657571018193 13.531107353155084 0 0 0 0 15.202013114910869 -15.914225547848389 0 -15.914225547848389 9.5845742277386634 0 0 0 0 1.6064966885690524 -2.2431114963885221 0 -2.2431114963885221 1.6888931720818803 0 0 0 0 11.817317070555873 -20.650229093440402 0 -20.650229093440402 13.596911270075628 0 0 0 0 27.667953121912433 -37.149951887061434 0 -37.149951887061434 13.366830335273335 0 0 0 0 24.020011515385704 -23.816744997875503 0 -23.816744997875503 -26.226722145883286 0 0 0 0 43.751938232860994 -21.466713834632287 0 -21.466713834632287 -27.067023513945969 0 0 0 0 2.560553746872813 -6.7122768798685613 0 -6.7122768798685613 4.5003374530516194 0 0 0 0 20.084827111335471 -4.2308112079545026 0 -4.2308112079545026 -31.024006979816477 0 0 0 0 27.932719358148461 -15.559269030237829 0 -15.559269030237829 -15.635525339810556 0 0 0 0 -19.480825866417945 -62.002933623251366 0 -62.002933623251366 28.336084807534917 0 0 0 0 -7.8261110726774064 -6.5410518818348535 0 -6.5410518818348535 3.2403609925719654 0 0 0 0 23.516568435480849 -15.485115940206626 0 -15.485115940206626 8.760738983512832 0 0 0 0 10.730611463368405 -21.202387889256897 0 -21.202387889256897 -62.250687595063937 0 0 0 0 7.519546017065295 -11.237258849294943 0 -11.237258849294943 8.1943531688052929 0 0 0 0 16.454862844402669 -17.1112168190121 0 -17.1112168190121 7.3987668251248593 0 0 0 0 -8.7282340543752071 -11.544211562876868 0 -11.544211562876868 12.580143000976285 0 0 0 0 4.3900762448320165 -12.452075922777553 0 -12.452075922777553 9.5683458608567449 0 0 0 0 -8.2846928869184921 -33.97009108441079 0 -33.97009108441079 -9.7949542423029641 0 0 0 0 -2.2332204207414179 -18.299955157462264 0 -18.299955157462264 30.688676548594628 0 0 0 0 -0.32639682215096855 0.10146052632018154 0 0.10146052632018154 -0.084909397873490305 0 0 0 0 8.6474787401530193 -14.902500852671377 0 -14.902500852671377 -31.280045778332102 0 0 0 0 -19.156251580061507 -28.436489834697475 0 -28.436489834697475 -0.0078805648695559755 0 0 0 0 -19.101804691701545 -30.468539724288739 0 -30.468539724288739 -18.953941116864534 0 0 0 0 -18.9391951239013 -38.363829072587102 0 -38.363829072587102 -0.012232962634305178 0 0 0 0 -18.9499102604168 -60.281689715673174 0 -60.281689715673174 -48.694736891592001 0 0 0 0 -13.842759302555351 -46.993704891212786 0 -46.993704891212786 -15.794911102198341 0 0 0 0 -6.4141486697044456 -23.882144602094222 0 -23.882144602094222 -44.789941731508314 0 0 0 0 -6.553595527089783 -34.329853697785083 0 -34.329853697785083 -34.242764648653477 0 0 0 0 -5.6708717921574134 -30.724816716762049 0 -30.724816716762049 -19.880805791420286 0 0 0 0 -8.9154170699039241 -22.452699240363089 0 -22.452699240363089 -18.96411501983016 0 0 0 0 -4.3700600743613904 -90.150349998860918 0 -90.150349998860918 -82.902677678652665 0 0 0 0 -27.296964297071099 -70.548761622498404 0 -70.548761622498404 -0.075404073652348177 0 0 0 0 -19.314740431917016 -33.098209746789138 0 -33.098209746789138 -77.316995764346601 0 0 0 0 64.299280200517387 -16.864085119983685 0 -16.864085119983685 -298.63840040342529 0 0 0 0 202.89370106632123 -175.1673629882772 0 -175.1673629882772 159.33687855266936 0 0 0 0 0.13682448682084214 -37.586615486662566 0 -37.586615486662566 -106.04972177989296 0 0 0 0 -2.5078054002852355 -1.8121897275994385 0 -1.8121897275994385 -0.57486624575734691 0 0 0 0 36.134655452042352 0.28355458465415495 0 0.28355458465415495 63.225225364962398 0 0 0 0 42.258887357034837 8.1008691021997947 0 8.1008691021997947 54.495746763775287 0 0 0 0 7.1518018227798166 -9.3851264532787582 0 -9.3851264532787582 100.90177764382611 0 0 0 0 105.06070490652928 -75.868293689770326 0 -75.868293689770326 106.09422664688894 0 0 0 0 -6.1210738187673996 -2.1939535357057736 0 -2.1939535357057736 -1.2250891799494799 0 0 0 0 -10.840163735141687 -20.116631480053343 0 -20.116631480053343 -21.098434131715848 0 0 0 0 -29.373132786553469 3.4520013063047372 0 3.4520013063047372 88.143636359722677 0 0 0 0 -32.114922199514695 -35.830027867416334 0 -35.830027867416334 77.705517804590215 0 0 0 0 -7.4509925705497153 -1.3146887780518171 0 -1.3146887780518171 17.6165854417643 0 0 0 0 -62.444414008030435 -107.25707230743058 0 -107.25707230743058 -18.725498955047669 0 0 0 0 198.46185593097471 -60.02645089073394 0 -60.02645089073394 -195.98458249803105 0 0 0 0 -4.0438516490867187 -177.91238475864037 0 -177.91238475864037 -196.78239749869408 0 0 0 0 21.891019195770468 -14.149584425367763 0 -14.149584425367763 8.496734445977463 0 0 0 0 -28.504200931598461 -6.2492165878185801 0 -6.2492165878185801 -52.968223365790891 0 0 0 0 3.6380349086248316 -83.185218422406933 0 -83.185218422406933 90.926619670723198 0 0 0 0 252.27657711296342 0.90351835034925898 0 0.90351835034925898 90.039324999059318 0 0 0 0 293.68524974980392 -122.1023250331109 0 -122.1023250331109 74.653243396788639 0 0 0 0 142.29613619489828 12.307643600989877 0 12.307643600989877 6.6982753547654283 0 0 0 0 -27.331078100993182 -102.1694817411917 0 -102.1694817411917 40.792703795557031 0 0 0 0 25.832633810234256 -190.48992074706666 0 -190.48992074706666 -108.26813953304713 0 0 0 0 16.972998358037501 -11.432579753218164 0 -11.432579753218164 6.73057667264389 0 0 0 0 642.85976737928286 -59.608923258239429 0 -59.608923258239429 -135.04348451364194 0 0 0 0 353.75872295490262 30.859392160029302 0 30.859392160029302 -130.18160972130818 0 0 0 0 6.9737945432192987 -4.5688335292022799 0 -4.5688335292022799 2.7241815359558679 0 0 0 0 -78.132446784569765 -362.37853324029629 0 -362.37853324029629 263.60099558293405 0 0 0 0 161.18752885691356 -655.72399497889182 0 -655.72399497889182 239.41927118920307 0 0 0 0 40.431347725781961 3.3599454936700113 0 3.3599454936700113 -195.2867000657252 0 0 0 0 -175.22094958146772 -171.14704814393122 0 -171.14704814393122 63.194917137156153 0 0 0 0 87.710902043050737 99.677805287255069 0 99.677805287255069 -43.905729534254078 0 0 0 0 51.963044801683282 -49.557472111297102 0 -49.557472111297102 -93.176281304298755 0 0 0 0 207.64380550044007 -21.128426919100093 0 -21.128426919100093 -26.159774261757548 0 0 0 0 88.751699063577689 94.4683903488135 0 94.4683903488135 -34.27607338690359 0 0 0 0 46.843320080923149 39.289191067673983 0 39.289191067673983 -32.025769503366746 0 0 0 0 149.60510490056186 73.752742565847257 0 73.752742565847257 -104.93069686286071 0 0 0 0 -90.608183589050896 -21.3947268098932 0 -21.3947268098932 10.431744904224615 0 0 0 0 -63.665218862355687 -229.58671570484694 0 -229.58671570484694 -266.01298615561791 0 0 0 0 441.72540192457382 -192.941745292821 0 -192.941745292821 26.509466642271491 0 0 0 0 254.94169184981729 -425.59122287493028 0 -425.59122287493028 -177.67509820300711 0 0 0 0 377.24458196753403 58.527255823784571 0 58.527255823784571 32.630922307659972 0 0 0 0 2.5225260495282669 0.22954046599663513 0 0.22954046599663513 -1.7378651742749796 0 0 0 0 -152.49397241901897 -55.941640553164007 0 -55.941640553164007 -211.69999844668564 0 0 0 0 3.1333194402395748 8.7220650998228848 0 8.7220650998228848 -25.347235410013127 0 0 0 0 80.382291076137335 77.452174698551516 0 77.452174698551516 35.764901644131896 0 0 0 0 300.02530241056229 -14.076850185419062 0 -14.076850185419062 -64.75787503121137 0 0 0 0 572.06519887549803 -187.05222428231127 0 -187.05222428231127 -10.919840376218417 0 0 0 0 338.36480053514242 -101.84018697176452 0 -101.84018697176452 -36.868345775505077 0 0 0 0 322.66136637146701 -154.48582781702999 0 -154.48582781702999 134.09866665598111 0 0 0 0 246.81021209775645 -115.98962122491059 0 -115.98962122491059 68.196410736244616 0 0 0 0 -0.22857143287122028 -3.6966841103017316 0 -3.6966841103017316 2.4527260771318531 0 0 0 0 608.46681301766512 -266.4137222312529 0 -266.4137222312529 26.588901139226436 0 0 0 0 314.49354384155595 -219.10969034688242 0 -219.10969034688242 856.58567921441136 0 0 0 0 231.88477783736016 -116.03069275922189 0 -116.03069275922189 78.290635384120094 0 0 0 0 404.72070320841158 -173.32409370376354 0 -173.32409370376354 20.943127070785295 0 0 0 0 411.07280396480928 -135.480482652516 0 -135.480482652516 59.290618909899422 0 0 0 0 316.62037825788138 -152.13539950272661 0 -152.13539950272661 -22.308064932478032 0 0 0 0 291.89547926236992 -203.41633785504371 0 -203.41633785504371 88.960420652573703 0 0 0 0 -0.29542773423590063 -3.8263420747798875 0 -3.8263420747798875 1.1970605402709573 0 0 0 0 699.14414626636426 -165.48115367189428 0 -165.48115367189428 -88.244679912591209 0 0 0 0 792.406140220206 -128.16046636033275 0 -128.16046636033275 -22.949543081069464 0 0 0 0 356.52108645966655 -36.028049516838564 0 -36.028049516838564 86.017007973825002 0 0 0 0 -83.822718354320386 -191.12097687852417 0 -191.12097687852417 25.669635319742383 0 0 0 0 239.65927230726811 -158.27664673380673 0 -158.27664673380673 -17.838050550817798 0 0 0 0 0.01710350200795574 -1.892367536439707 0 -1.892367536439707 0.25170346030170165 0 0 0 0 232.13374141226359 -258.90513751354234 0 -258.90513751354234 -15.584641530217596 0 0 0 0 390.36255652566615 -283.55536306978388 0 -283.55536306978388 -43.396841032281827 0 0 0 0 300.46281523165817 -194.56887507999329 0 -194.56887507999329 -131.2918691869927 0 0 0 0 322.12924811576522 -372.1526623844544 0 -372.1526623844544 84.461945500601814 0 0 0 0 1.9412058830956767 0.79611623588586156 0 0.79611623588586156 0.41216550221290937 0 0 0 0 -52.026941702410113 3.9212645042653094 0 3.9212645042653094 -249.78610688356275 0 0 0 0 274.02183834729658 -280.53509631481484 0 -280.53509631481484 48.580592094045187 0 0 0 0 321.3402713163814 -257.89675352633935 0 -257.89675352633935 -61.478042810315742 0 0 0 0 341.98727598662663 -301.69615898886451 0 -301.69615898886451 23.407693251990736 0 0 0 0 264.23968782801239 -226.90885017254936 0 -226.90885017254936 -47.895663907056644 0 0 0 0 239.13283945911826 -299.9884766094649 0 -299.9884766094649 -18.18142105951847 0 0 0 0 285.25070253062586 -230.52111534685039 0 -230.52111534685039 -22.302158853194214 0 0 0 0 277.3276637212839 -185.28493497192653 0 -185.28493497192653 81.163388072685962 0 0 0 0 410.42851435367993 -238.63350448025022 0 -238.63350448025022 68.679180530663871 0 0 0 0 242.08566215491737 -236.77954528660848 0 -236.77954528660848 9.1859484553811512 0 0 0 0 261.74157525438932 -249.74569481127267 0 -249.74569481127267 -30.953568537189881 0 0 0 0 218.36098610223416 -261.71455492840522 0 -261.71455492840522 -6.6539455140214159 0 0 0 0 -0.45366737048220784 -0.4907322490108541 0 -0.4907322490108541 -0.22962663492325053 0 0 0 0 181.56349870620761 -221.61209027308382 0 -221.61209027308382 68.907017607753261 0 0 0 0 145.46519436434028 -147.24978713132646 0 -147.24978713132646 -137.61852710968611 0 0 0 0 156.19973556157493 -102.28076012350081 0 -102.28076012350081 50.299384006983246 0 0 0 0 4.7834153263247572 -117.70922299754027 0 -117.70922299754027 0.056864772238692463 0 0 0 0 379.96647278644377 -267.29824240693966 0 -267.29824240693966 146.3459172045807 0 0 0 0 277.48344898708456 -163.18474870218273 0 -163.18474870218273 -0.10235848448994909 0 0 0 0 369.60797419911614 -7.596740354096954 0 -7.596740354096954 205.13922981124662 0 0 0 0 578.43317070802732 -27.618258515910259 0 -27.618258515910259 0.59537218995166086 0 0 0 0 672.31838110316312 -233.33005792885464 0 -233.33005792885464 404.69182114612795 0 0 0 0 797.67480279607116 346.69997067730441 0 346.69997067730441 549.17939561355217 0 0 0 0 1193.7781877115412 299.14225798443738 0 299.14225798443738 -0.57637491428716414 0 0 0 0 528.40139327126963 -204.53683541498287 0 -204.53683541498287 -209.30902171211434 0 0 0 0 -3.4281018966066767 150.14914719310119 0 150.14914719310119 0.45103597570673748 0 0 0 0 420.02793547554757 665.46840903253542 0 665.46840903253542 960.5208319289228 0 0 0 0 10.651743535357468 2.3490651211967339 0 2.3490651211967339 0.35806661179010602 0 0 0 0 1081.3961907943522 494.18754904339562 0 494.18754904339562 228.96970812936638 0 0 0 0 106.86460028411238 220.40924639829205 0 220.40924639829205 331.98576765779922 0 0 0 0 539.40023681917228 378.0677806962251 0 378.0677806962251 262.61917977163381 0 0 0 0 116.3358683718252 225.91468918421276 0 225.91468918421276 162.15491980879744 0 0 0 0 445.67067184180632 544.77822103805318 0 544.77822103805318 -16.541883131617396 0 0 0 0 402.81828423412662 -169.54403647780282 0 -169.54403647780282 -150.26888848683075 0 0 0 0 371.41314290653827 -204.45389872018714 0 -204.45389872018714 -44.615241833756954 0 0 0 0 251.52027061939589 -201.70695471073776 0 -201.70695471073776 136.38023871998178 0 0 0 0 536.94617772283527 -41.776344638052933 0 -41.776344638052933 133.97827495991214 0 0 0 0 122.9250076853059 -31.492676641578655 0 -31.492676641578655 -0.081865436452027665 0 0 0 0 160.03377546111005 -12.110936572356891 0 -12.110936572356891 -38.366259267393389 0 0 0 0 82.159415009562508 -15.68171355597234 0 -15.68171355597234 3.5813299770958835 0 0 0 0 75.898797955172995 9.4982064677302525 0 9.4982064677302525 -22.768561156395378 0 0 0 0 -0.45422519454120902 -2.7993300907717362 0 -2.7993300907717362 -0.35492960703664456 0 0 0 0 2.8370210703816099 1.1384902728126178 0 1.1384902728126178 -0.45555199255989787 0 0 0 0 12.638521972898161 -23.015780464975197 0 -23.015780464975197 0.032879673309279302 0 0 0 0 -63.994490585086169 84.02171535927414 0 84.02171535927414 -67.770277706688816 0 0 0 0 27.166696931624358 0.97272546563821294 0 0.97272546563821294 -1.8087750406682537 0 0 0 0 236.38527644738497 170.89377795591946 0 170.89377795591946 159.88747772193821 0 0 0 0 238.51738426103839 258.72780647209242 0 258.72780647209242 285.94759292940626 0 0 0 0 286.49476475843403 237.21942043604804 0 237.21942043604804 150.23184436310865 0 0 0 0 96.400358528451761 68.309580841254615 0 68.309580841254615 185.27840903276575 0 0 0 0 20.569790060137194 -14.244650804047637 0 -14.244650804047637 -3.2507575847446111 0 0 0 0 122.59055289782555 66.150067491223226 0 66.150067491223226 -37.177498749942117 0 0 0 0 23.816616111958865 -39.580221025355101 0 -39.580221025355101 17.999536784167294 0 0 0 0 -56.268344506563153 51.413698520145431 0 51.413698520145431 255.83176569499165 0 0 0 0 19.274971301841362 -19.412562181422174 0 -19.412562181422174 1.1256232010740428 0 0 0 0 260.22140342489001 211.86979621407767 0 211.86979621407767 134.38728964355005 0 0 0 0 355.25524663110264 -85.434825645577575 0 -85.434825645577575 -5.1264832841541477 0 0 0 0 2.1474773203664768 1.3608776937078062 0 1.3608776937078062 0.81802331338466527 0 0 0 0 334.11595249440688 -251.45423963793797 0 -251.45423963793797 123.3589657371935 0 0 0 0 167.80797959577467 -100.32272163343589 0 -100.32272163343589 103.70233961532898 0 0 0 0 209.64680755759764 -60.532239143231777 0 -60.532239143231777 1.2481455267596857 0 0 0 0 523.54348020708039 -10.213711384889692 0 -10.213711384889692 20.824814600778154 0 0 0 0 25.660928160191986 -18.431088317376634 0 -18.431088317376634 4.7277203689437695 0 0 0 0 239.67224239030475 -56.295935115956922 0 -56.295935115956922 -150.16174474347349 0 0 0 0 386.7591691884445 286.78087738717113 0 286.78087738717113 126.15902549635825 0 0 0 0 492.88720960317005 398.00691360236806 0 398.00691360236806 223.60084162151497 0 0 0 0 269.21347684453667 257.02755636563222 0 257.02755636563222 99.540403424877695 0 0 0 0 273.95834665339498 325.31257277536724 0 325.31257277536724 231.95725975383806 0 0 0 0 363.71291387175734 360.14245273739016 0 360.14245273739016 210.33849400379188 0 0 0 0 216.6897659857641 197.2778417613963 0 197.2778417613963 170.51662353331949 0 0 0 0 298.73491171087517 103.36359991073618 0 103.36359991073618 -46.308837888337621 0 0 0 0 138.31574604947673 3.3662288254522537 0 3.3662288254522537 -45.537056470882817 0 0 0 0 184.98298072491889 -52.517963699910979 0 -52.517963699910979 -280.76497396758805 0 0 0 0 71.820489858539077 -12.595636421964628 0 -12.595636421964628 -79.849019812172173 0 0 0 0 207.57247193710646 100.01413145641072 0 100.01413145641072 -45.974393145246722 0 0 0 0 169.69502674568503 60.877514527686799 0 60.877514527686799 -223.52902680392799 0 0 0 0 279.92675144757959 66.552493661843982 0 66.552493661843982 -17.543983433767607 0 0 0 0 95.96487056640035 103.897035770814 0 103.897035770814 -20.73014520129982 0 0 0 0 178.50364748787251 88.888074353490538 0 88.888074353490538 -1.1926267766393721 0 0 0 0 183.96411994209484 194.39320688518075 0 194.39320688518075 198.89215702974343 0 0 0 0 266.15666294697439 187.03004842437349 0 187.03004842437349 158.68638705100716 0 0 0 0 310.8302460906998 311.97792985704564 0 311.97792985704564 262.7046654140504 0 0 0 0 411.80908977559011 160.38461841612798 0 160.38461841612798 478.88988789765335 0 0 0 0 596.18208028015215 69.520875328094917 0 69.520875328094917 198.91840984385954 0 0 0 0 266.41711645591931 225.54457240708504 0 225.54457240708504 128.50187168652246 0 0 0 0 244.4257792547578 24.028665948918388 0 24.028665948918388 -185.98742448371377 0 0 0 0 211.18628358765272 179.452900553777 0 179.452900553777 -98.363549964711638 0 0 0 0 402.83736180511187 76.873256134446819 0 76.873256134446819 -43.971504582367743 0 0 0 0 441.20264810613298 269.76177838242484 0 269.76177838242484 100.82212037909267 0 0 0 0 548.01365086890291 249.11769478971519 0 249.11769478971519 95.48125732133758 0 0 0 0 461.95573523215717 104.73908100461631 0 104.73908100461631 -108.20151996926234 0 0 0 0 489.43576648848466 251.24201780035776 0 251.24201780035776 236.06245720605148 0 0 0 0 515.83708215697334 379.76898012242719 0 379.76898012242719 299.8777876265267 0 0 0 0 347.48659487741679 345.83685094149155 0 345.83685094149155 365.6926343795476 0 0 0 0 406.69090132128622 297.58265242769585 0 297.58265242769585 237.68988874010665 0 0 0 0 991.35599847423146 304.9498357225184 0 304.9498357225184 207.55466228950263 0 0 0 0 465.43045475431427 543.93342409603201 0 543.93342409603201 696.83980027548478 0 0 0 0 3.7588884327490177 -5.0346488692706011 0 -5.0346488692706011 5.8242970507687897 0 0 0 0 55.077657649249886 39.770339096810176 0 39.770339096810176 -128.99218448117722 0 0 0 0 0.32064406994322781 56.591815964675902 0 56.591815964675902 -221.61366018535955 0 0 0 0 144.14964590090676 -161.99612763463097 0 -161.99612763463097 -24.216001626245713 0 0 0 0 5.0530002950073936 2.1355547541262752 0 2.1355547541262752 0.49916507378434449 0 0 0 0 250.94770328492814 58.551988278106933 0 58.551988278106933 -343.34923846962693 0 0 0 0 2.3838860700254827 1.935123096752406 0 1.935123096752406 1.0085926946462376 0 0 0 0 394.11225233058212 -145.43965023039141 0 -145.43965023039141 -70.68090719554948 0 0 0 0 583.69731452288397 196.86982373774504 0 196.86982373774504 -38.899506244888926 0 0 0 0 226.64317942531488 22.507643264207672 0 22.507643264207672 -63.100771099801648 0 0 0 0 48.011460732086562 -11.765473376694899 0 -11.765473376694899 7.2520995525392209 0 0 0 0 216.98416925404854 -64.000378017515459 0 -64.000378017515459 -154.83866969536757 0 0 0 0 233.49960494770494 25.647290457462532 0 25.647290457462532 -84.978002385738364 0 0 0 0 170.36070894218574 26.151485643490105 0 26.151485643490105 -141.5419665842237 0 0 0 0 155.38927174649871 -57.504972471799931 0 -57.504972471799931 -149.45453987890596 0 0 0 0 150.05696580880613 -57.281142072934927 0 -57.281142072934927 -134.84382591877829 0 0 0 0 185.02700318431016 -52.057320458642153 0 -52.057320458642153 -202.7237633037351 0 0 0 0 111.61345610929493 8.5754060307064037 0 8.5754060307064037 -83.43552729156454 0 0 0 0 45.110124306505895 -77.672114079909079 0 -77.672114079909079 -139.28561191477917 0 0 0 0 -2.5126198084326461 58.726896659431077 0 58.726896659431077 -120.28971711043505 0 0 0 0 -110.78280287535745 9.07300634972853 0 9.07300634972853 -159.88157889845843 0 0 0 0 3.851135855263351 0.63989367959565868 0 0.63989367959565868 -3.0056781266508228 0 0 0 0 18.244674473229679 -19.303576654405788 0 -19.303576654405788 -223.64901586179985 0 0 0 0 7.3615664909448242 42.259190878467962 0 42.259190878467962 -161.04927971696907 0 0 0 0 2.7450598044670187 -50.105144819692214 0 -50.105144819692214 -216.54001054861601 0 0 0 0 71.965135113394354 109.430828349291 0 109.430828349291 -376.56800052557537 0 0 0 0 373.97132716935812 452.07608657010599 0 452.07608657010599 -354.35293441753447 0 0 0 0 109.11768441778258 33.147974190920422 0 33.147974190920422 -474.50790001417045 0 0 0 0 112.65359815119882 27.906619107937672 0 27.906619107937672 -503.53867268637259 0 0 0 0 303.00114608625881 369.66504841020287 0 369.66504841020287 -292.07508053492461 0 0 0 0 122.31653907818372 9.1184358555739529 0 9.1184358555739529 0.036458058740690191 0 0 0 0 50.843340200226521 -32.559409941231024 0 -32.559409941231024 -562.54360996194282 0 0 0 0 -17.012514461239334 -402.75558229590752 0 -402.75558229590752 -195.89049627261249 0 0 0 0 -4.3749175514676608 -130.55310676132694 0 -130.55310676132694 -458.86710554879755 0 0 0 0 2.3109435102348925 0.7264858985440128 0 0.7264858985440128 -2.4898085714633105 0 0 0 0 38.258915143065678 -157.33976163572834 0 -157.33976163572834 -633.14081535480454 0 0 0 0 220.65551567661169 144.76333613434144 0 144.76333613434144 -63.952186537869693 0 0 0 0 279.61656781865167 97.596268215909731 0 97.596268215909731 -342.73191741511891 0 0 0 0 164.94945672241738 42.847512906700103 0 42.847512906700103 -200.08580054282004 0 0 0 0 193.152604586503 6.3589678024857221 0 6.3589678024857221 -492.23106143796031 0 0 0 0 175.68536914131255 -16.339957316568871 0 -16.339957316568871 -314.46123634816649 0 0 0 0 268.73355444206391 24.181648885484719 0 24.181648885484719 -542.49378078793779 0 0 0 0 112.33916168210345 -15.001791959022412 0 -15.001791959022412 -4.5634143594970089 0 0 0 0 44.83579109760467 -44.763223105786892 0 -44.763223105786892 -149.35630059264895 0 0 0 0 118.90748679217455 21.831791036673664 0 21.831791036673664 -1.3839362362472101 0 0 0 0 240.73557074445125 47.982368034125557 0 47.982368034125557 -676.78551294484987 0 0 0 0 13.318610863696449 -282.14847533766698 0 -282.14847533766698 -339.48958045917152 0 0 0 0 112.11112002949812 -10.037952006826345 0 -10.037952006826345 -618.25430560745951 0 0 0 0 151.97989720007172 98.466583607599205 0 98.466583607599205 -522.91920872989272 0 0 0 0 125.85243993967015 74.383359171027223 0 74.383359171027223 -460.72043478678825 0 0 0 0 9.7747052864433499 42.342593678038611 0 42.342593678038611 -280.01210157366586 0 0 0 0 17.892420114811102 17.97602655066612 0 17.97602655066612 -207.08081740376656 0 0 0 0 47.201675686239469 -45.429532828884248 0 -45.429532828884248 -230.72718484744109 0 0 0 0 43.282122156844707 -27.522070947439715 0 -27.522070947439715 -299.72075337507158 0 0 0 0 82.734037235291908 -87.244193441351854 0 -87.244193441351854 -231.72362930128475 0 0 0 0 52.539211020601215 -59.595235675251388 0 -59.595235675251388 -245.38617687524516 0 0 0 0 95.331491259777977 -73.310900090993528 0 -73.310900090993528 -194.54679478310209 0 0 0 0 68.47339874595491 -34.215636529845142 0 -34.215636529845142 -235.79586347872646 0 0 0 0 50.416728191048605 177.32079036925552 0 177.32079036925552 -211.14073748431463 0 0 0 0 15.305326649588181 0.15287584133042031 0 0.15287584133042031 -0.55178638355650733 0 0 0 0 58.306035024128505 -39.698101061860143 0 -39.698101061860143 -272.16052955967007 0 0 0 0 50.001042039402819 -45.833119330825639 0 -45.833119330825639 -227.51483032647411 0 0 0 0 5.659572228865386 -0.15495767941662919 0 -0.15495767941662919 -0.047872249022779201 0 0 0 0 158.19466458320676 -254.94166759953896 0 -254.94166759953896 97.3833619454158 0 0 0 0 534.84658069934085 -199.40724366924348 0 -199.40724366924348 -351.16605379143402 0 0 0 0 148.42099018970475 -55.066069171354684 0 -55.066069171354684 259.11111365280522 0 0 0 0 466.48550014656348 356.30437558865486 0 356.30437558865486 -75.818925843386751 0 0 0 0 214.33085105140344 79.356998318156002 0 79.356998318156002 -269.44391168356515 0 0 0 0 286.50981927396788 -214.89394068861293 0 -214.89394068861293 -504.8816958978714 0 0 0 0 -88.607195349337417 288.76232273413052 0 288.76232273413052 -330.04760438213998 0 0 0 0 119.86492409498533 5.0851091232940249 0 5.0851091232940249 -2.6959176689451212 0 0 0 0 347.36208367420477 -169.36332831956679 0 -169.36332831956679 -585.41573895778674 0 0 0 0 323.37097611982608 -24.773688883413342 0 -24.773688883413342 -636.41871831131812 0 0 0 0 300.29553457381553 -105.40702929499821 0 -105.40702929499821 -451.76178312267484 0 0 0 0 292.09732634137254 -59.955343214078539 0 -59.955343214078539 -480.96160702772249 0 0 0 0 255.28367490207893 -167.77073859015945 0 -167.77073859015945 -336.2837084616358 0 0 0 0 168.29382641711891 -260.99910672086048 0 -260.99910672086048 -98.412570891279756 0 0 0 0 56.96810242247011 115.47306477517577 0 115.47306477517577 -363.04050566564547 0 0 0 0 -2277.941090841894 245.9200041047734 0 245.9200041047734 885.18838243146365 0 0 0 0 -308.9859368201287 -236.38268477792553 0 -236.38268477792553 -32.724909645910884 0 0 0 0 794.36995049129473 -849.76205792385917 0 -849.76205792385917 194.63813086251048 0 0 0 0 425.26064388077066 -76.243901122851184 0 -76.243901122851184 -19.890830099177037 0 0 0 0 465.01127574720886 -21.920759681452182 0 -21.920759681452182 -51.165545136367655 0 0 0 0 468.76373668809538 94.135940942413981 0 94.135940942413981 -422.47121766851342 0 0 0 0 646.56848488806281 -75.335754601757799 0 -75.335754601757799 -365.65049414708119 0 0 0 0 913.17919941109722 -179.93300334323249 0 -179.93300334323249 -805.76156375084975 0 0 0 0 999.02661732648266 -289.13481594071618 0 -289.13481594071618 -682.45296308451725 0 0 0 0 766.267267823976 17.667345733552793 0 17.667345733552793 -1019.085498815326 0 0 0 0 428.15095997213575 83.826891908364473 0 83.826891908364473 -557.23790869365985 0 0 0 0 437.9984604670899 177.84254157973555 0 177.84254157973555 -672.90503356452427 0 0 0 0 417.91867110005114 14.124613454469909 0 14.124613454469909 -269.78264219984339 0 0 0 0 194.79052825941471 216.95513451900297 0 216.95513451900297 -436.67599081604567 0 0 0 0 207.61257182364534 47.771431448424039 0 47.771431448424039 -403.03632880635996 0 0 0 0 182.39359457284445 244.67752464878868 0 244.67752464878868 -641.17609525049011 0 0 0 0 234.44422078169009 192.81135202498353 0 192.81135202498353 -683.65523706268505 0 0 0 0 335.91383183872676 107.50547002095345 0 107.50547002095345 -671.90607237780569 0 0 0 0 450.9788191926782 308.23091605978698 0 308.23091605978698 -1137.8758405149019 0 0 0 0 -90.428263211331796 412.4111152537389 0 412.4111152537389 -863.4765317930196 0 0 0 0 15.858775837668134 5.3701713620578673 0 5.3701713620578673 -0.072243491708407603 0 0 0 0 458.12499534598464 78.079111352629297 0 78.079111352629297 -674.76940206251129 0 0 0 0 509.77378457091982 6.7745505874736409 0 6.7745505874736409 -631.82993277480091 0 0 0 0 179.97698798077053 -2.6204673252806323 0 -2.6204673252806323 -2.1090367321378523 0 0 0 0 -1197.2502578423591 454.41642117970332 0 454.41642117970332 112.9904127841728 0 0 0 0 1915.2661118435499 -1128.0365032198392 0 -1128.0365032198392 -1095.1712366606134 0 0 0 0 516.19466950383503 267.31909328866095 0 267.31909328866095 -1132.7155540564308 0 0 0 0 160.0571055714793 6.9829169241490057 0 6.9829169241490057 -3.5344921296839047 0 0 0 0 140.93098532500153 -29.602897752626632 0 -29.602897752626632 -896.29431207577818 0 0 0 0 954.4722396766083 -377.46548339472201 0 -377.46548339472201 -626.9552524679666 0 0 0 0 60.321899738988634 -13.749247821612595 0 -13.749247821612595 -3.2368860399761932 0 0 0 0 102.39869323070161 173.4645368509573 0 173.4645368509573 -267.48898993769876 0 0 0 0 74.557839880639222 203.24904131125732 0 203.24904131125732 -219.96330300650516 0 0 0 0 52.706367714330554 185.5074615012436 0 185.5074615012436 -195.35680937335201 0 0 0 0 -333.09254529705504 -32.190911530685071 0 -32.190911530685071 -575.73823140925379 0 0 0 0 -94.97993283678079 175.27057015050195 0 175.27057015050195 -452.22203130906018 0 0 0 0 84.121088120897184 -41.233806148124586 0 -41.233806148124586 -575.63300956766761 0 0 0 0 30.590968974458519 115.11863260160862 0 115.11863260160862 -224.65729974736314 0 0 0 0 121.72552437942795 -60.85485130373786 0 -60.85485130373786 -302.32651260931743 0 0 0 0 8.8448045870900387 54.570459673686855 0 54.570459673686855 -377.02261504298622 0 0 0 0 85.098749356053304 -5.4309426494482977 0 -5.4309426494482977 -292.36094661452648 0 0 0 0 141.95272717639455 -95.994038599596024 0 -95.994038599596024 -546.46463504693565 0 0 0 0 110.04396151777473 -10.70243348321037 0 -10.70243348321037 -495.05732970188956 0 0 0 0 106.20879703006358 104.58742845644338 0 104.58742845644338 -635.43799553909366 0 0 0 0 209.7468116279706 -7.6941646227601268 0 -7.6941646227601268 -252.67281626095428 0 0 0 0 144.5797495644947 144.10443229420412 0 144.10443229420412 -248.91664384197065 0 0 0 0 69.856061383747146 104.06868132967793 0 104.06868132967793 -226.48954731146546 0 0 0 0 3.0486923361349909 39.883449799096752 0 39.883449799096752 -263.30699576770894 0 0 0 0 92.818373877911654 58.760561506254362 0 58.760561506254362 -332.57128851685957 0 0 0 0 999.76773428994056 315.85210494206785 0 315.85210494206785 -546.82104928184458 0 0 0 0 18.523443015396339 -0.69280785294281344 0 -0.69280785294281344 -0.90911987003721251 0 0 0 0 -113.66838679570355 -506.90593974985495 0 -506.90593974985495 387.59410568080875 0 0 0 0 -370.50997363237911 -230.74520990977817 0 -230.74520990977817 774.13283067384509 0 0 0 0 37.125524505740032 135.34301535662871 0 135.34301535662871 -80.905354898910446 0 0 0 0 59.192402228654828 184.56012320989612 0 184.56012320989612 -114.54372252268149 0 0 0 0 15.82538578225649 32.648354038728939 0 32.648354038728939 -236.32203397397461 0 0 0 0 1.3793888053914998 76.220348353588633 0 76.220348353588633 -174.14468105303604 0 0 0 0 56.05763010840019 154.60735859740635 0 154.60735859740635 -192.65193733683554 0 0 0 0 75.523117857970647 166.62308593595981 0 166.62308593595981 -192.76913362808773 0 0 0 0 723.57403942992096 137.19624430020394 0 137.19624430020394 -370.29295183808063 0 0 0 0 555.24366034477134 67.036860345948298 0 67.036860345948298 -359.40330116334553 0 0 0 0 170.62364100164268 265.32608594195335 0 265.32608594195335 -91.118143251689617 0 0 0 0 164.86554034604706 -14.472565130526618 0 -14.472565130526618 -343.30701930623763 0 0 0 0 337.3180647847912 345.64509950850152 0 345.64509950850152 63.627085949101456 0 0 0 0 9.043731050695186 -2.1363874327486556 0 -2.1363874327486556 -0.2369925641137014 0 0 0 0 436.20058068622893 -614.14658255182803 0 -614.14658255182803 303.42474972718674 0 0 0 0 778.25865492140292 -160.75038825131924 0 -160.75038825131924 142.08208346081119 0 0 0 0 260.17703441137928 79.268445487618919 0 79.268445487618919 502.13701973108164 0 0 0 0 744.59310452014347 -314.323829270548 0 -314.323829270548 -150.06732051062136 0 0 0 0 184.54926211049315 -336.34852621664959 0 -336.34852621664959 429.31272486491798 0 0 0 0 241.59590002721234 -67.19992916374531 0 -67.19992916374531 -203.20475767957214 0 0 0 0 187.67699769714272 -193.40993128596347 0 -193.40993128596347 118.91824465444643 0 0 0 0 291.49014146528498 -141.37377982061139 0 -141.37377982061139 -39.534934353079052 0 0 0 0 460.44584444616339 -280.59441640286786 0 -280.59441640286786 144.29112811831601 0 0 0 0 317.4674531565106 -107.0980859512897 0 -107.0980859512897 139.47860466836164 0 0 0 0 335.97200377714398 -383.53076767354878 0 -383.53076767354878 410.71915029268712 0 0 0 0 354.94747384623042 -171.28852559840061 0 -171.28852559840061 66.535905334810877 0 0 0 0 279.01904868027486 -187.82885737579829 0 -187.82885737579829 79.238949274633342 0 0 0 0 401.89207488732063 -155.03394496204228 0 -155.03394496204228 65.567511197314786 0 0 0 0 346.4940767306307 -196.08684354008335 0 -196.08684354008335 236.12713777371209 0 0 0 0 352.44681381371629 -104.01990652120094 0 -104.01990652120094 73.312223253890181 0 0 0 0 70.814276108285412 -169.79230324527589 0 -169.79230324527589 245.90687290259302 0 0 0 0 206.41702076234651 57.238608611807649 0 57.238608611807649 619.73867548608359 0 0 0 0 409.01922137380825 -477.50675908515996 0 -477.50675908515996 310.7075395218526 0 0 0 0 4.4143389692389547 4.8427116543837059 0 4.8427116543837059 6.7973987948610848 0 0 0 0 -348.03228907267476 -222.59019077206904 0 -222.59019077206904 477.51963598475322 0 0 0 0 320.37344564160594 51.321103387202697 0 51.321103387202697 152.61629928610864 0 0 0 0 309.15066875168122 -153.92560007596001 0 -153.92560007596001 30.837843026961355 0 0 0 0 353.56094301161465 -105.3520042041277 0 -105.3520042041277 8.7796132200023749 0 0 0 0 333.99613284489533 -41.136860111643827 0 -41.136860111643827 51.33852553568363 0 0 0 0 295.88090610650761 -117.73577726063832 0 -117.73577726063832 93.109461926479526 0 0 0 0 345.8368501173245 -94.139027383256234 0 -94.139027383256234 186.27987040108201 0 0 0 0 578.15905039777863 -68.860853615813994 0 -68.860853615813994 89.184115581466358 0 0 0 0 448.22688753169859 -285.75328834537765 0 -285.75328834537765 176.74724302255436 0 0 0 0 363.62722402629879 -205.43006699726152 0 -205.43006699726152 103.88797439721475 0 0 0 0 399.7075588872176 -207.03578781513386 0 -207.03578781513386 99.375463119049982 0 0 0 0 434.72226431277522 -172.61731719125743 0 -172.61731719125743 46.251819478606308 0 0 0 0 347.50340940488968 -116.87839440728601 0 -116.87839440728601 56.719547153506767 0 0 0 0 392.12956627980748 -148.781618439845 0 -148.781618439845 102.68253524390963 0 0 0 0 399.72464116172341 -151.93504421620185 0 -151.93504421620185 7.5147548640852619 0 0 0 0 52.105931446087197 -237.39513024572761 0 -237.39513024572761 205.16009722547051 0 0 0 0 1.1152260236664517 0.71646024387057139 0 0.71646024387057139 1.4930084319005958 0 0 0 0 401.7374958779692 -218.89100267945696 0 -218.89100267945696 132.57482481447789 0 0 0 0 512.91243718405894 -176.56859759323015 0 -176.56859759323015 56.902147359265655 0 0 0 0 12.270242830156647 6.7280125881332538 0 6.7280125881332538 -0.28321745352927863 0 0 0 0 378.25735873998201 -126.99464639724806 0 -126.99464639724806 50.016691712608008 0 0 0 0 19.002766525362858 -14.856228221249523 0 -14.856228221249523 -5.2500260437409452 0 0 0 0 21.796043781199842 25.904038003405731 0 25.904038003405731 -62.371435862371072 0 0 0 0 6.8460589357451624 -4.164724216527631 0 -4.164724216527631 -2.3052751805926093 0 0 0 0 43.685437142274168 -13.458525166756772 0 -13.458525166756772 -3.3706684304600572 0 0 0 0 54.014100034022704 -0.83031798374526034 0 -0.83031798374526034 -4.7272164415160205 0 0 0 0 4.8525457469333162 -2.0617070639693793 0 -2.0617070639693793 -5.0698588246149532 0 0 0 0 110.18490787429619 0.19253060237360842 0 0.19253060237360842 22.286690460825866 0 0 0 0 259.15910725995491 0.35138931415349361 0 0.35138931415349361 118.68900631359043 0 0 0 0 283.38737455117189 -26.744421940345319 0 -26.744421940345319 29.311888728781923 0 0 0 0 264.79465163700661 -43.663128561087433 0 -43.663128561087433 17.202721540029415 0 0 0 0 247.24184168811917 -36.966530504497769 0 -36.966530504497769 17.976460244476584 0 0 0 0 412.38045951047661 -129.69370270783247 0 -129.69370270783247 54.001089505089112 0 0 0 0 382.24854243980371 181.18122010614707 0 181.18122010614707 -3.0705099167447543 0 0 0 0 68.138982621669129 -64.844106154891051 0 -64.844106154891051 113.13585621888069 0 0 0 0 48.826826674303447 70.133485561904763 0 70.133485561904763 99.336033508089713 0 0 0 0 43.275475909318629 -30.83556640122265 0 -30.83556640122265 193.10671581750012 0 0 0 0 194.60076670795388 -158.09680765132862 0 -158.09680765132862 223.07219897778305 0 0 0 0 170.87674575240453 -44.609006491143873 0 -44.609006491143873 100.16644919356804 0 0 0 0 147.14953803105527 -79.936805004337202 0 -79.936805004337202 136.53232808418397 0 0 0 0 88.77462081286285 -21.476243433317734 0 -21.476243433317734 86.112263770968866 0 0 0 0 8.7922765102478735 13.589818770274377 0 13.589818770274377 22.904057010946598 0 0 0 0 139.56390498606925 -124.86350733616746 0 -124.86350733616746 164.99294465172306 0 0 0 0 88.958935562153783 -48.510670664367353 0 -48.510670664367353 149.50668298817891 0 0 0 0 13.378949413656301 22.057695608235413 0 22.057695608235413 37.71883921352665 0 0 0 0 167.81109966554504 -110.13013130446052 0 -110.13013130446052 133.03756098828245 0 0 0 0 182.19145889474748 -145.8640254893071 0 -145.8640254893071 71.542029791375626 0 0 0 0 282.38133572610968 -104.04625551925437 0 -104.04625551925437 88.247807681274026 0 0 0 0 321.79957124414068 -59.003093793368862 0 -59.003093793368862 34.876680122896573 0 0 0 0 276.16474023849878 -12.282296239330663 0 -12.282296239330663 12.136797419891082 0 0 0 0 360.60535519748373 -108.73534902834035 0 -108.73534902834035 -56.884988351508582 0 0 0 0 443.80061436145479 -32.99638740149021 0 -32.99638740149021 12.063152284140415 0 0 0 0 300.35465287764964 77.032531105104681 0 77.032531105104681 9.4655390213943065 0 0 0 0 212.38528166503966 106.4435156653376 0 106.4435156653376 101.74222013085273 0 0 0 0 244.56341143625104 73.710633568381127 0 73.710633568381127 64.302994285442765 0 0 0 0 202.48577054017005 69.985875000732904 0 69.985875000732904 91.502686342191737 0 0 0 0 194.51050613714324 56.465316611016533 0 56.465316611016533 71.102650769335924 0 0 0 0 274.58214255831626 -0.10390508218597461 0 -0.10390508218597461 47.333501937426263 0 0 0 0 203.50513389069238 4.1104652909207289 0 4.1104652909207289 48.098530359797223 0 0 0 0 165.3829737191918 -12.164819984540827 0 -12.164819984540827 47.021819830079949 0 0 0 0 113.97478326099372 75.139751277940377 0 75.139751277940377 50.809542067598159 0 0 0 0 142.67223426631972 41.680286566363066 0 41.680286566363066 84.064551502860922 0 0 0 0 138.56988156828447 19.57254796846064 0 19.57254796846064 -49.559027785328908 0 0 0 0 86.806742963817669 47.829095091105955 0 47.829095091105955 11.662764340915601 0 0 0 0 191.17330200627111 -71.898930070472488 0 -71.898930070472488 67.857249981523637 0 0 0 0 191.25851610618702 54.511195512652193 0 54.511195512652193 -100.35568227028125 0 0 0 0 171.16748823298985 104.86398821085049 0 104.86398821085049 43.071958067627065 0 0 0 0 284.50564466197829 146.58946625072213 0 146.58946625072213 14.81968637650607 0 0 0 0 65.97082189352659 104.4495928925362 0 104.4495928925362 -58.141555864835937 0 0 0 0 147.28369118917908 45.398333384137004 0 45.398333384137004 -28.005222719091762 0 0 0 0 104.48653133102198 51.528535099479882 0 51.528535099479882 51.013315458030775 0 0 0 0 113.1545939034695 110.63216435774575 0 110.63216435774575 47.072125092301576 0 0 0 0 151.57861398618115 71.990602810479231 0 71.990602810479231 113.87236590065913 0 0 0 0 155.62738001690013 91.683326738412688 0 91.683326738412688 35.695596844009742 0 0 0 0 182.59294782100915 116.95977384967227 0 116.95977384967227 124.41142633853997 0 0 0 0 193.06415333385667 112.25871028863367 0 112.25871028863367 44.404104818120686 0 0 0 0 232.38168621598743 107.7527059119393 0 107.7527059119393 192.8799647396736 0 0 0 0 248.4723513226636 94.245585859556286 0 94.245585859556286 123.57380416309752 0 0 0 0 227.48502738937532 101.49699106788012 0 101.49699106788012 105.96914682909119 0 0 0 0 259.61731226018674 197.23015157864052 0 197.23015157864052 194.8028065308863 0 0 0 0 271.19413146730949 180.46783569490071 0 180.46783569490071 127.89689540288217 0 0 0 0 87.189102482039814 -29.081817874706147 0 -29.081817874706147 -42.913627351823806 0 0 0 0 173.40906926424941 88.1706462862021 0 88.1706462862021 93.237243776273317 0 0 0 0 186.62664268383378 125.33780792416928 0 125.33780792416928 122.78570189477057 0 0 0 0 197.53993432126299 118.32364986161519 0 118.32364986161519 109.02763544973698 0 0 0 0 199.69119405149104 124.94481725241531 0 124.94481725241531 86.391468802004056 0 0 0 0 79.569966750794862 -30.94079516775323 0 -30.94079516775323 -49.268043592100057 0 0 0 0 65.547363822799525 -115.52652167581618 0 -115.52652167581618 -163.13070119661231 0 0 0 0 13.390213329652397 -44.341669064073812 0 -44.341669064073812 20.902079534300356 0 0 0 0 59.053379374708129 -163.57261348953625 0 -163.57261348953625 -66.425548157490084 0 0 0 0 38.597959865184748 -111.57961246042282 0 -111.57961246042282 -180.14107452402277 0 0 0 0 -107.91679015941372 -223.09882775487313 0 -223.09882775487313 -158.18448464102184 0 0 0 0 232.38168621592922 107.75270591194567 0 107.75270591194567 192.87996473967428 0 0 0 0 474.68378076833505 78.641211391008255 0 78.641211391008255 114.32453675354736 0 0 0 0 337.60582353617428 -81.085895837645694 0 -81.085895837645694 23.111819658295644 0 0 0 0 199.61517532214384 -68.094706671676477 0 -68.094706671676477 -155.55203478266685 0 0 0 0 182.90411941503135 -59.871948670601114 0 -59.871948670601114 52.964486388169462 0 0 0 0 403.06065246193612 -26.53577042753659 0 -26.53577042753659 -178.19970428734985 0 0 0 0 442.66339172897619 -74.829646130165031 0 -74.829646130165031 -235.5846666467969 0 0 0 0 256.7612302467096 -110.80553775759836 0 -110.80553775759836 -158.31393157879029 0 0 0 0 134.56309040267297 -52.783570140145002 0 -52.783570140145002 -139.04018886001086 0 0 0 0 141.73619112363735 -193.40963187113931 0 -193.40963187113931 -324.06362674188767 0 0 0 0 100.04530176542977 -16.196899009301479 0 -16.196899009301479 -32.683513481389056 0 0 0 0 171.59814589907182 42.157555876791321 0 42.157555876791321 50.400507007131637 0 0 0 0 50.621954618972921 10.460653045279258 0 10.460653045279258 -18.344275305019035 0 0 0 0 145.78566880873268 -4.2506658689532557 0 -4.2506658689532557 -12.694814653875538 0 0 0 0 272.94076623536785 -60.989357985396055 0 -60.989357985396055 -262.32000212208504 0 0 0 0 266.44629248983802 -4.3938847188042018 0 -4.3938847188042018 -233.9783465320188 0 0 0 0 36.367225480610358 -10.075406698423059 0 -10.075406698423059 2.4752040748523214 0 0 0 0 308.56923791525332 109.45194353999341 0 109.45194353999341 72.019866669707881 0 0 0 0 72.825203205877756 -10.876650237132679 0 -10.876650237132679 -44.255599712483416 0 0 0 0 295.07010264248675 256.19388138032855 0 256.19388138032855 107.41912200305524 0 0 0 0 232.38168621592922 107.75270591196386 0 107.75270591196386 192.8799647396736 0 0 0 0 128.23300468092202 47.355509664978854 0 47.355509664978854 120.50461785438165 0 0 0 0 -13.62302821016965 -113.62294335336082 0 -113.62294335336082 -102.18251678323441 0 0 0 0 -26.096393259582328 -267.62204697993002 0 -267.62204697993002 -272.37046049229002 0 0 0 0 146.38737228335231 120.42450243989606 0 120.42450243989606 11.138953505596874 0 0 0 0 180.28748829504184 94.733651805442605 0 94.733651805442605 71.66345195941301 0 0 0 0 207.94089302382963 29.895359792215572 0 29.895359792215572 -184.79059379545652 0 0 0 0 214.12116162348863 18.956939694375194 0 18.956939694375194 -0.90863384448039231 0 0 0 0 265.77411455742913 149.18828249634225 0 149.18828249634225 -92.505649480602187 0 0 0 0 937.71377350414696 613.13955982219841 0 613.13955982219841 -560.29972875751025 0 0 0 0 22.018733234725687 3.1226463697342908 0 3.1226463697342908 0.70340688307755161 0 0 0 0 -69.966332254065492 84.697452597598783 0 84.697452597598783 412.32773796599758 0 0 0 0 11.956179572272958 211.50165299015043 0 211.50165299015043 -87.830157585877714 0 0 0 0 168.06893169916293 24.856524964847495 0 24.856524964847495 17.541861946401013 0 0 0 0 171.22867564305488 20.226364272391493 0 20.226364272391493 13.059385338898778 0 0 0 0 127.65805805367873 14.703741135209704 0 14.703741135209704 3.6363604622408179 0 0 0 0 108.34782480881063 -31.439969263136561 0 -31.439969263136561 -0.81258038298824076 0 0 0 0 34.781652749254135 -1342.1720982843608 0 -1342.1720982843608 -26.310236598025767 0 0 0 0 60.60938882978715 -36.387560340253131 0 -36.387560340253131 -10.316889787878591 0 0 0 0 -533.54679441041662 -267.49315299425461 0 -267.49315299425461 24.035674730019309 0 0 0 0 1059.2590701069712 272.53317459334085 0 272.53317459334085 -118.79914105667376 0 0 0 0 -161.48444365967589 651.34034985655308 0 651.34034985655308 705.17325528663673 0 0 0 0 159.59984583317419 142.31203803643712 0 142.31203803643712 -111.04864133167894 0 0 0 0 398.70956700832903 -3.3292274999384972 0 -3.3292274999384972 -96.102620377980202 0 0 0 0 -28.287981316068908 148.28010597689672 0 148.28010597689672 137.12116402039987 0 0 0 0 137.37581884153042 113.36631302382068 0 113.36631302382068 -28.985258279635673 0 0 0 0 154.20432518873713 -507.73715245324365 0 -507.73715245324365 19.612888085014447 0 0 0 0 2.3950039089104393 -320.72909092664986 0 -320.72909092664986 -171.06122151419822 0 0 0 0 -121.55795964717618 58.521065632934437 0 58.521065632934437 -494.93085971298478 0 0 0 0 -42.4367585480868 -207.23755489415373 0 -207.23755489415373 105.68607813116978 0 0 0 0 881.39607056654859 -457.8771254622323 0 -457.8771254622323 -61.747882759970707 0 0 0 0 292.28338970948244 -456.85117321673169 0 -456.85117321673169 288.78248599281716 0 0 0 0 374.58433272500406 -294.35283637023986 0 -294.35283637023986 -65.043412113025624 0 0 0 0 189.48273665333545 -310.32858622008325 0 -310.32858622008325 -62.56041424792511 0 0 0 0 103.40734110563062 -324.81026846196664 0 -324.81026846196664 45.209095657160162 0 0 0 0 87.165880335729526 -463.64193735556148 0 -463.64193735556148 3.5941194307852129 0 0 0 0 22.63151769983233 -298.92840927156203 0 -298.92840927156203 -147.58422131317093 0 0 0 0 211.27157137665199 -482.80412758575949 0 -482.80412758575949 -61.673356449403855 0 0 0 0 894.2532377962998 -165.45536975216532 0 -165.45536975216532 -464.18799102823868 0 0 0 0 1053.4713867972314 -602.20333612260492 0 -602.20333612260492 -466.45586702287073 0 0 0 0 0.41092582693217139 -0.71118175759752944 0 -0.71118175759752944 1.1423855042744897 0 0 0 0 163.42343563759459 -139.70043860470082 0 -139.70043860470082 -398.22227084436054 0 0 0 0 -157.72743150660244 -155.50401784490032 0 -155.50401784490032 -155.8549982124041 0 0 0 0 512.06832085002679 136.93308276536482 0 136.93308276536482 118.71313179915705 0 0 0 0 416.61075310662272 -282.25054304196419 0 -282.25054304196419 239.61123442271128 0 0 0 0 386.66534904125729 -48.307716064119631 0 -48.307716064119631 -676.03721060459156 0 0 0 0 611.51443884032778 -394.41287214640965 0 -394.41287214640965 -550.674782134407 0 0 0 0 247.82778140809387 -432.7063020010728 0 -432.7063020010728 -489.36263277756007 0 0 0 0 11.91750528596458 331.23749649192814 0 331.23749649192814 -644.3449167422491 0 0 0 0 -233.52938178635668 -2.6705232757221893 0 -2.6705232757221893 -363.81227703464538 0 0 0 0 308.01114958303515 -92.162540397399425 0 -92.162540397399425 -369.07030956697213 0 0 0 0 43.349080945685273 97.044637124390647 0 97.044637124390647 -238.08490256343975 0 0 0 0 445.1715002553974 60.166932025771757 0 60.166932025771757 -230.20222714154443 0 0 0 0 204.33411965396954 112.41077415129303 0 112.41077415129303 -536.34584685993832 0 0 0 0 181.51120174792595 109.46729776177654 0 109.46729776177654 -111.24564980197829 0 0 0 0 297.97237622263492 -112.11484141770052 0 -112.11484141770052 -168.89454667085693 0 0 0 0 343.31034440777148 -15.175561091161399 0 -15.175561091161399 -234.21857627275287 0 0 0 0 166.25418177942629 -77.566876300477816 0 -77.566876300477816 37.16713709542455 0 0 0 0 202.71308102554758 33.81131527765956 0 33.81131527765956 -186.05932890243093 0 0 0 0 86.205158538272372 11.589362808519581 0 11.589362808519581 -43.267535375582611 0 0 0 0 121.63475909607951 56.533349597912547 0 56.533349597912547 -346.19877821570117 0 0 0 0 217.97558934363769 51.333766696579005 0 51.333766696579005 -360.7631022946133 0 0 0 0 76.915601902117487 65.251680972169652 0 65.251680972169652 -166.65486370880353 0 0 0 0 119.22826491137675 48.024119800915514 0 48.024119800915514 -229.34627911372991 0 0 0 0 45.932219239482947 126.50700718890994 0 126.50700718890994 -241.45494774020335 0 0 0 0 40.481288582028355 66.430508772929898 0 66.430508772929898 -325.03917630167234 0 0 0 0 115.22729351379621 11.939486747602054 0 11.939486747602054 -0.073221667324821826 0 0 0 0 114.98288551476435 99.252782855855003 0 99.252782855855003 -541.9446769566448 0 0 0 0 85.487716364004882 101.09782354493427 0 101.09782354493427 -452.36002417220334 0 0 0 0 -53.852304416461266 40.790062391563424 0 40.790062391563424 -486.75879026484654 0 0 0 0 24.684713074442698 138.65116005848267 0 138.65116005848267 -454.17780613016163 0 0 0 0 245.80497825655038 159.94503830269605 0 159.94503830269605 -866.50010923072205 0 0 0 0 97.303285044424399 10.081911573378218 0 10.081911573378218 -0.44840962275761453 0 0 0 0 121.24490399414208 115.2906823223384 0 115.2906823223384 -358.53215308005815 0 0 0 0 167.04373805891373 121.59033266949973 0 121.59033266949973 -601.51425566790203 0 0 0 0 31.536022253043484 80.927729782591996 0 80.927729782591996 -345.62699889560713 0 0 0 0 91.234844319202239 114.25450602264391 0 114.25450602264391 -477.37670724790041 0 0 0 0 109.38482699451561 -41.202994869858685 0 -41.202994869858685 -703.89428472170766 0 0 0 0 157.916365023455 134.56222406081588 0 134.56222406081588 -393.40277202640209 0 0 0 0 346.96408700316169 418.99339948180045 0 418.99339948180045 -379.57617761978508 0 0 0 0 269.81519156896684 236.19968248479745 0 236.19968248479745 -646.90600050440753 0 0 0 0 173.02080104016932 58.959283775897347 0 58.959283775897347 -548.13799083460253 0 0 0 0 137.85725110817933 7.6488146519082534 0 7.6488146519082534 -1.6987512994339697 0 0 0 0 -38.227855905337492 -401.34221255499597 0 -401.34221255499597 -28.558085681988814 0 0 0 0 22.398390871530864 6.8647223872831091 0 6.8647223872831091 -334.39633660006984 0 0 0 0 129.6426708495128 37.673231307099741 0 37.673231307099741 -135.70470107796609 0 0 0 0 22.581872641851078 147.59137658426516 0 147.59137658426516 -136.41527742816834 0 0 0 0 204.93399628018597 269.05630541615062 0 269.05630541615062 -379.6609971779144 0 0 0 0 88.153798990388168 94.455305744571888 0 94.455305744571888 9.1446493049247692 0 0 0 0 26.446964988892432 142.5037213728333 0 142.5037213728333 -111.99152779038013 0 0 0 0 109.64443526674586 63.027473601947349 0 63.027473601947349 -206.30666002263933 0 0 0 0 4.5141857546695974 153.75515800863923 0 153.75515800863923 -258.4320570781756 0 0 0 0 164.52799013219919 38.096021143915095 0 38.096021143915095 -343.15031872553755 0 0 0 0 130.10529697241145 36.603058677854278 0 36.603058677854278 -141.2764580695748 0 0 0 0 113.11304227430992 129.39939154810887 0 129.39939154810887 -222.15023598711559 0 0 0 0 106.90163154448965 35.688409085710191 0 35.688409085710191 -219.45875717818376 0 0 0 0 171.85544321603811 90.530453473572379 0 90.530453473572379 -204.94121323080981 0 0 0 0 137.42938472578317 123.30735553584918 0 123.30735553584918 -153.21556228697955 0 0 0 0 230.09924992321612 102.07630755195851 0 102.07630755195851 -274.67338058645328 0 0 0 0 109.88461874992936 81.469501897609007 0 81.469501897609007 -169.38326521145018 0 0 0 0 186.15693422169767 22.167664989860853 0 22.167664989860853 1.8773786532499406 0 0 0 0 64.613484663741644 6.9091063682448315 0 6.9091063682448315 -0.19290840562069655 0 0 0 0 193.45300866418984 274.01811414343683 0 274.01811414343683 -179.72182799090945 0 0 0 0 -32.897253001836361 -205.90338367917229 0 -205.90338367917229 45.580640327709261 0 0 0 0 159.22386445648939 14.766234078648608 0 14.766234078648608 0.20683827508139441 0 0 0 0 666.32337465941237 247.39761586498344 0 247.39761586498344 319.92377130834655 0 0 0 0 591.01672077181865 -2042.7845166967331 0 -2042.7845166967331 1042.9455593695484 0 0 0 0 4489.1868146312845 -1066.0476903725441 0 -1066.0476903725441 -437.58488211337345 0 0 0 0 11.679576609279877 1.7149837097907152 0 1.7149837097907152 1.7231880095234124 0 0 0 0 1515.5623149850289 -396.20217840171483 0 -396.20217840171483 712.27115664248413 0 0 0 0 64.059711155816331 -15.14902115953987 0 -15.14902115953987 431.43914781940464 0 0 0 0 121.824066661502 -81.704517774111295 0 -81.704517774111295 64.033194100149217 0 0 0 0 120.35851849641767 -26.97628058453833 0 -26.97628058453833 85.301317905915994 0 0 0 0 51.426869317423552 136.23306557356358 0 136.23306557356358 326.90972024788994 0 0 0 0 49.196574306406546 155.21398998129177 0 155.21398998129177 501.89732031887672 0 0 0 0 386.24378372180217 283.8407785056653 0 283.8407785056653 156.57930197635596 0 0 0 0 82.915034062698396 -21.659777118016336 0 -21.659777118016336 209.01695736516149 0 0 0 0 203.56583092271467 -126.18746733482851 0 -126.18746733482851 -285.82146688490207 0 0 0 0 483.09736184033682 658.65499547520278 0 658.65499547520278 -596.00561491103599 0 0 0 0 93.608112217901066 6.4143340683969114 0 6.4143340683969114 -0.55797981852588618 0 0 0 0 43.376503912033513 222.78409187684247 0 222.78409187684247 -801.89167599674738 0 0 0 0 217.00616814554087 20.253116528018154 0 20.253116528018154 -480.75520015317034 0 0 0 0 21.710156193262605 4.9361437169673934 0 4.9361437169673934 -10.31324610967593 0 0 0 0 375.90326851810096 839.31463280610205 0 839.31463280610205 1684.9497889713289 0 0 0 0 32.862176738186065 -10.836768081872236 0 -10.836768081872236 8.1467967011109206 0 0 0 0 115.88675358431647 -913.68401386621838 0 -913.68401386621838 792.34053621790179 0 0 0 0 144.350222180321 85.152369911051849 0 85.152369911051849 -88.253522410921661 0 0 0 0 420.50413175375115 -158.92013325227629 0 -158.92013325227629 -298.58754135388313 0 0 0 0 -7.4990941748510522 -369.23636133636126 0 -369.23636133636126 -333.89708181977994 0 0 0 0 11.976574130421113 -7.8480604650076771 0 -7.8480604650076771 4.7925687730586395 0 0 0 0 4496.3313253683882 1087.7002652543392 0 1087.7002652543392 -454.52910918809721 0 0 0 0 1727.7537611096923 903.87899461364827 0 903.87899461364827 -460.38784159829879 0 0 0 0 4491.0163677904256 -33.393974437129451 0 -33.393974437129451 -503.43633821458684 0 0 0 0 24.332401774941218 2.7222180212344256 0 2.7222180212344256 3.78606478797247 0 0 0 0 1555.1312525294488 -838.92807509138868 0 -838.92807509138868 534.29588988982664 0 0 0 0 4473.9774965847755 1577.9704374500702 0 1577.9704374500702 -72.441405594237239 0 0 0 0 1028.9067289367813 96.810345270181642 0 96.810345270181642 1.0364739928482374 0 0 0 0 -387.90104308172886 625.22961178504499 0 625.22961178504499 1174.0935184155285 0 0 0 0 -91.032447908270115 1107.9165654821061 0 1107.9165654821061 903.18387387004191 0 0 0 0 1198.0181696349464 -278.81204214696862 0 -278.81204214696862 -1057.4482756550246 0 0 0 0 10.490472787988438 4.1023708729724602 0 4.1023708729724602 -1.0504817953503769 0 0 0 0 4482.2638721752664 2311.1202637829751 0 2311.1202637829751 -54.012044962557752 0 0 0 0 1586.2632688558951 109.50701808938331 0 109.50701808938331 -103.74540156329032 0 0 0 0 1125.2649647707003 404.22515243177094 0 404.22515243177094 -268.7440749549254 0 0 0 0 1010.7364252953157 -183.0358186081283 0 -183.0358186081283 227.63301328842411 0 0 0 0 848.92617509637057 500.69481686223065 0 500.69481686223065 735.37412617130576 0 0 0 0 -61.238904032274149 1094.182735652545 0 1094.182735652545 840.93835473135175 0 0 0 0 10.382403961764112 3.4286333129962201 0 3.4286333129962201 0.15632369876563088 0 0 0 0 -99.140196031265077 283.36875770252385 0 283.36875770252385 -44.273428320232597 0 0 0 0 -130.17730738794489 -123.87518242546193 0 -123.87518242546193 -179.89981451413507 0 0 0 0 873.21670251796604 1082.4087255745662 0 1082.4087255745662 341.1174502904064 0 0 0 0 622.63412640578463 197.20043852813649 0 197.20043852813649 -128.49165040384662 0 0 0 0 120.88702511139854 -186.19673852280246 0 -186.19673852280246 270.86519225440429 0 0 0 0 423.48197852992598 -342.18089363768593 0 -342.18089363768593 -118.62389303983787 0 0 0 0 -40.762250401632627 -57.367525687700322 0 -57.367525687700322 -191.48537921908735 0 0 0 0 519.7180111022717 -111.45799953580035 0 -111.45799953580035 -200.45304480397579 0 0 0 0 470.29773419940466 -183.40288151202992 0 -183.40288151202992 -4.2122388185566706 0 0 0 0 562.85503083659569 110.57081242191238 0 110.57081242191238 367.98099705735603 0 0 0 0 402.48755037194496 97.352843522860582 0 97.352843522860582 429.54023307541604 0 0 0 0 424.58060290297726 -7.9998626179577172 0 -7.9998626179577172 286.34483398795805 0 0 0 0 401.6529407043854 78.460737350484877 0 78.460737350484877 285.59653791804669 0 0 0 0 264.87777284598997 257.38721322015505 0 257.38721322015505 60.685139053198299 0 0 0 0 1.9026046278422655 0.10132465239385624 0 0.10132465239385624 0.075530731561934433 0 0 0 0 -19.142104429251049 114.51364831346285 0 114.51364831346285 46.273844009984614 0 0 0 0 107.5805440311633 -35.856654434307757 0 -35.856654434307757 -72.273735869116507 0 0 0 0 5.3618336240836015 -0.71797876199875077 0 -0.71797876199875077 0.070419559284734368 0 0 0 0 -91.128698214231918 -117.09467632076513 0 -117.09467632076513 60.699563160143271 0 0 0 0 14.220966675828095 -123.487752779451 0 -123.487752779451 28.169618033945767 0 0 0 0 58.084978406113805 -138.42870752425 0 -138.42870752425 -22.70241029996123 0 0 0 0 4.0835718281456934 -2.9910839843221444 0 -2.9910839843221444 0.056783815702137759 0 0 0 0 1.9040452660863707 -1.2784174842477922 0 -1.2784174842477922 0.25026840564191544 0 0 0 0 9.9432993511727545 -240.66009167088433 0 -240.66009167088433 498.84631248388047 0 0 0 0 63.885995782431564 -91.287487989827866 0 -91.287487989827866 24.322247628403034 0 0 0 0 15.084937547246227 -177.86538889816572 0 -177.86538889816572 52.22874055686033 0 0 0 0 44.178203077579383 -137.89159219820135 0 -137.89159219820135 -21.024318385912522 0 0 0 0 48.806670960737392 -193.72034913122172 0 -193.72034913122172 -103.79120762508512 0 0 0 0 64.929094670485938 -82.644303319924802 0 -82.644303319924802 -169.01352373039714 0 0 0 0 64.858177534566494 -98.631311480798814 0 -98.631311480798814 -60.408736753319999 0 0 0 0 55.677776059686039 44.821163408726626 0 44.821163408726626 -42.737756778053381 0 0 0 0 83.41012387900264 139.75273825861257 0 139.75273825861257 -217.96013679970866 0 0 0 0 161.98727452826279 -295.37359698972853 0 -295.37359698972853 -294.39969863992098 0 0 0 0 102.66373249027595 4.4322197131780001 0 4.4322197131780001 -1.0835369030764885 0 0 0 0 200.07707082884008 -100.75628888493131 0 -100.75628888493131 -546.21366429299906 0 0 0 0 279.89114723159582 127.88185170903768 0 127.88185170903768 -369.21428633364604 0 0 0 0 500.87211204899359 19.7191919617363 0 19.7191919617363 -1045.8753134255981 0 0 0 0 104.94872779057215 6.845507107698829 0 6.845507107698829 -1.2567920218227622 0 0 0 0 35.822053180898365 193.48237946400189 0 193.48237946400189 162.52612780716868 0 0 0 0 20.753562729318219 -58.020326565281493 0 -58.020326565281493 293.21522367329158 0 0 0 0 257.05961715204467 -55.167772281814393 0 -55.167772281814393 64.091298867520607 0 0 0 0 195.87545218097512 116.01035981721856 0 116.01035981721856 310.49178887087231 0 0 0 0 2.7269083588456624 1.7025854074590683 0 1.7025854074590683 1.7043915519893593 0 0 0 0 27.000225378928008 -20.560694983910025 0 -20.560694983910025 97.253680018386945 0 0 0 0 26.306031453554169 -12.27767292336091 0 -12.27767292336091 52.251985831681395 0 0 0 0 52.547317538615971 31.990671684679143 0 31.990671684679143 49.656075600680879 0 0 0 0 -11.740056282782461 28.440405435564799 0 28.440405435564799 63.174620749698306 0 0 0 0 68.672105354060477 13.301197659702268 0 13.301197659702268 23.214016627305227 0 0 0 0 71.327565519160999 3.481876375829188 0 3.481876375829188 23.442022098222083 0 0 0 0 53.354923846301972 14.21062153413186 0 14.21062153413186 25.760907059432782 0 0 0 0 78.75789455879567 -9.8023963194768271 0 -9.8023963194768271 40.29235902280243 0 0 0 0 39.306075404506402 -33.118144265416092 0 -33.118144265416092 2.6095381617147115 0 0 0 0 89.386913971145987 16.39132870569324 0 16.39132870569324 21.359546490455273 0 0 0 0 -147.44394325236135 -822.65267665827673 0 -822.65267665827673 -613.62570102374957 0 0 0 0 314.68561153410701 212.00583483390847 0 212.00583483390847 -142.86330039562932 0 0 0 0 198.0477087090585 75.608438565515939 0 75.608438565515939 -258.73150534044873 0 0 0 0 125.61962190098711 -48.50405971293776 0 -48.50405971293776 -195.0164476816235 0 0 0 0 54.640853255318859 -12.721385532169336 0 -12.721385532169336 -14.46472861184264 0 0 0 0 86.55205061343537 -0.80827146092804014 0 -0.80827146092804014 -0.91396638681445486 0 0 0 0 95.789006547529425 22.026976038835187 0 22.026976038835187 -27.834234278832014 0 0 0 0 50.960898782745062 -17.493506469856094 0 -17.493506469856094 87.470571144862689 0 0 0 0 169.35597961425083 18.713264576665097 0 18.713264576665097 -6.9252765481833194 0 0 0 0 112.69358659981754 21.405662752994029 0 21.405662752994029 0.13537575244210576 0 0 0 0 145.77646581275621 18.855442274323877 0 18.855442274323877 -57.284456528432202 0 0 0 0 31.996569563346952 6.2268017421972672 0 6.2268017421972672 3.3874256898321682 0 0 0 0 0.056739476529344302 0.095252269202404705 0 0.095252269202404705 3.3760068835109953 0 0 0 0 150.83590950883809 60.183913881817823 0 60.183913881817823 73.711924612403621 0 0 0 0 14.063320379296783 7.2286945610532882 0 7.2286945610532882 68.531776795188264 0 0 0 0 67.471057767950697 -38.25297687600721 0 -38.25297687600721 -21.328577797248499 0 0 0 0 39.010925133130513 6.9635073187940861 0 6.9635073187940861 64.668843791265857 0 0 0 0 103.43210674799047 -61.005038211708637 0 -61.005038211708637 -54.52886803332251 0 0 0 0 94.149267465857179 4.0015454513257858 0 4.0015454513257858 -0.49881560688245796 0 0 0 0 64.752030044153798 -93.859463411042412 0 -93.859463411042412 -66.677539262794554 0 0 0 0 45.620558551687282 -123.85198705600681 0 -123.85198705600681 -82.930330508563827 0 0 0 0 7.5049067323780037 -23.403805478270797 0 -23.403805478270797 -0.22954166397871531 0 0 0 0 28.922488840555161 -83.201226849623566 0 -83.201226849623566 -35.518449407734238 0 0 0 0 46.113953144042171 -140.52885459630352 0 -140.52885459630352 -65.68793715638958 0 0 0 0 18.639111920143478 -122.28637476638215 0 -122.28637476638215 -83.71220177324993 0 0 0 0 3.843806852147452 -2.7797100179418561 0 -2.7797100179418561 -0.17399297335083794 0 0 0 0 53.518174520388129 -87.170889230890793 0 -87.170889230890793 -280.57691971959611 0 0 0 0 -12.759809401642997 -25.760938120330366 0 -25.760938120330366 -127.41921323085091 0 0 0 0 -0.59297632708330639 -85.42518426725087 0 -85.42518426725087 -20.99551439842628 0 0 0 0 48.729216009553056 -9.0155325009810383 0 -9.0155325009810383 -121.74268658245747 0 0 0 0 11.975027842869167 -4.9184657601208146 0 -4.9184657601208146 -20.870308763370712 0 0 0 0 -8.4647516008553794 -41.348846712749889 0 -41.348846712749889 -24.737103649311678 0 0 0 0 -18.179627637509839 -45.403758974806735 0 -45.403758974806735 -11.111884384047187 0 0 0 0 8.9166941000867155 -1.2559448245688571 0 -1.2559448245688571 0.075214807234159214 0 0 0 0 12.126281126780668 -13.822825108237641 0 -13.822825108237641 12.538300206382088 0 0 0 0 15.698328297337866 -9.7557158856091437 0 -9.7557158856091437 -14.767728685144668 0 0 0 0 12.417350920568765 -1.3895348585261686 0 -1.3895348585261686 -0.012468352915029748 0 0 0 0 76.154240580974147 -38.8147115803052 0 -38.8147115803052 -145.0845327186986 0 0 0 0 -86.279298865047167 -47.772944535580571 0 -47.772944535580571 126.37347634500441 0 0 0 0 1.6658141840363783 -1.0349931327847033 0 -1.0349931327847033 -0.21524536342448161 0 0 0 0 -7.6838647644035518 71.154737842509405 0 71.154737842509405 -177.35028697175215 0 0 0 0 289.01435159827815 -41.170104124336461 0 -41.170104124336461 -440.98120534372731 0 0 0 0 -74.241174148512073 -127.9119148172756 0 -127.9119148172756 -104.00255097056731 0 0 0 0 -3.5087805329148978 -20.79916369116749 0 -20.79916369116749 -25.181412139385486 0 0 0 0 175.2285553070833 -159.57419031993601 0 -159.57419031993601 30.462330075859938 0 0 0 0 113.91824145276041 106.09835159955935 0 106.09835159955935 134.51577672500775 0 0 0 0 387.47693638569763 94.314964371375538 0 94.314964371375538 -152.539881854285 0 0 0 0 66.783495711890282 5.1879695492360725 0 5.1879695492360725 213.68124157341299 0 0 0 0 61.791256153097493 65.605308057935247 0 65.605308057935247 -59.963462180847671 0 0 0 0 54.593939568927453 124.16220135379709 0 124.16220135379709 -232.03710019162145 0 0 0 0 -75.859637774425209 40.202462126376503 0 40.202462126376503 -38.53272869525955 0 0 0 0 71.384448923985474 -27.791003577462597 0 -27.791003577462597 -167.47797994046348 0 0 0 0 92.524894652800867 18.362529471875696 0 18.362529471875696 -71.615903200742622 0 0 0 0 277.59335586131783 -77.48005879261062 0 -77.48005879261062 -272.53212924248857 0 0 0 0 14.46415381432189 -0.37450758186451694 0 -0.37450758186451694 -0.38830363940119772 0 0 0 0 14.70417909976095 1.7697450200499247 0 1.7697450200499247 7.6754651095212552 0 0 0 0 122.14505752566038 -81.202773658481135 0 -81.202773658481135 -255.02604110931054 0 0 0 0 48.500104474078398 -13.93478526362896 0 -13.93478526362896 0.11039068353043222 0 0 0 0 2.2744895027640837 -0.63392062619362832 0 -0.63392062619362832 -1.5047136760045225 0 0 0 0 -135.86954979193979 91.285968412006326 0 91.285968412006326 -137.91842599458715 0 0 0 0 105.32875390772824 158.36768289300559 0 158.36768289300559 -149.02263222092847 0 0 0 0 10.317169907056041 4.5911928885652742 0 4.5911928885652742 0.65005046773112574 0 0 0 0 88.237367347959662 -39.557980007311166 0 -39.557980007311166 22.578447706804553 0 0 0 0 -61.992570651003916 241.79910337956372 0 241.79910337956372 -189.92598429564919 0 0 0 0 75.362625369481975 -41.993434085960253 0 -41.993434085960253 37.327729027882576 0 0 0 0 10.333677382208407 -0.39772173498951702 0 -0.39772173498951702 25.409434008457342 0 0 0 0 0.5378898714332081 3.4900448416842487 0 3.4900448416842487 -0.051549445268077615 0 0 0 0 87.110131014342187 -36.054499895824641 0 -36.054499895824641 12.760897069896227 0 0 0 0 136.01748806168325 -35.951746789762041 0 -35.951746789762041 -10.607418135023316 0 0 0 0 102.64628258932498 -48.056247365306788 0 -48.056247365306788 22.026005386190192 0 0 0 0 106.95671161666905 -57.750339439757809 0 -57.750339439757809 24.646164403310394 0 0 0 0 93.535744195658481 -52.053371506822565 0 -52.053371506822565 30.510827907010736 0 0 0 0 163.47530333867962 -65.273090990840359 0 -65.273090990840359 14.298192724131752 0 0 0 0 147.91061495344911 -61.088147349266649 0 -61.088147349266649 33.855018751186861 0 0 0 0 147.11224954559293 -94.769728666266559 0 -94.769728666266559 62.482952535294366 0 0 0 0 6.7226168863483622 3.6925331969977435 0 3.6925331969977435 0.9129177696235935 0 0 0 0 -93.573633969847833 208.27398933212797 0 208.27398933212797 -218.03230582264749 0 0 0 0 -49.024933808570495 22.572718289979434 0 22.572718289979434 -70.169503785474035 0 0 0 0 -135.00915289664408 250.28795011714811 0 250.28795011714811 -119.00007049099429 0 0 0 0 143.04116054116821 91.99294080150375 0 91.99294080150375 -56.452288087556326 0 0 0 0 57.247880515302484 15.635781769491022 0 15.635781769491022 5.6503335189100667 0 0 0 0 -11.994409438993898 42.35518962430001 0 42.35518962430001 110.33901950826771 0 0 0 0 91.840641056216555 -12.505690675955975 0 -12.505690675955975 26.4407919193211 0 0 0 0 -33.70765293482691 71.264843619472913 0 71.264843619472913 3.6895510066501629 0 0 0 0 18.358822163998411 -43.016017867270534 0 -43.016017867270534 69.036649598213444 0 0 0 0 136.37090814457042 -38.283393929155864 0 -38.283393929155864 46.093306176094075 0 0 0 0 384.20245450198126 1.1717488098460649 0 1.1717488098460649 18.640868908949756 0 0 0 0 118.19601313116436 11.613445551785276 0 11.613445551785276 21.231180125260664 0 0 0 0 48.111562157799199 -35.886384810986158 0 -35.886384810986158 81.688691151545981 0 0 0 0 83.868950571956759 22.075611190343018 0 22.075611190343018 4.0659529283421598 0 0 0 0 85.59404852805892 54.798293372951662 0 54.798293372951662 -20.214181219093689 0 0 0 0 52.467366254379158 46.90303782154524 0 46.90303782154524 22.24241925886281 0 0 0 0 96.460285707871662 65.746350070572134 0 65.746350070572134 -100.24256373527896 0 0 0 0 102.55056917147886 151.40540007866184 0 151.40540007866184 -72.135304054186236 0 0 0 0 180.73185493112032 124.01797178259184 0 124.01797178259184 -62.548051923729417 0 0 0 0 -49.461345893680118 103.35877992675341 0 103.35877992675341 31.654804049655695 0 0 0 0 67.678820552697289 178.35466988881763 0 178.35466988881763 -4.1669139789291876 0 0 0 0 3.3997352465812583 15.212189080151802 0 15.212189080151802 176.62340937343561 0 0 0 0 41.054557404553634 2.6567897509175964 0 2.6567897509175964 27.52889508606529 0 0 0 0 3.9345636448612424 -3.637834784943891 0 -3.637834784943891 2.2857491386731326 0 0 0 0 772.03762051857484 719.70555218085065 0 719.70555218085065 291.98337811145939 0 0 0 0 529.88290690360009 251.09440164177749 0 251.09440164177749 211.35292553297313 0 0 0 0 41.324833491336904 19.126707611724669 0 19.126707611724669 24.736380983174627 0 0 0 0 12.936313581730445 -5.2701257809354729 0 -5.2701257809354729 13.495804153281796 0 0 0 0 52.335768519693943 25.02554113423945 0 25.02554113423945 24.434520352687287 0 0 0 0 117.04940688592615 -90.00225853349184 0 -90.00225853349184 63.744900448219937 0 0 0 0 124.16888404289764 5.3079232268377012 0 5.3079232268377012 -0.42835536748048808 0 0 0 0 160.19447864803806 835.08412096193797 0 835.08412096193797 -1602.1489640260061 0 0 0 0 226.88101376031409 -143.62114655554615 0 -143.62114655554615 -337.79556450278528 0 0 0 0 165.63935451593102 4.6436615255239886 0 4.6436615255239886 -1.844638496589786 0 0 0 0 108.17928000800202 -47.294520587886723 0 -47.294520587886723 -45.258446528190689 0 0 0 0 218.84684355456557 -329.97321723192363 0 -329.97321723192363 -216.59011013403051 0 0 0 0 436.90451104240492 112.79369441701419 0 112.79369441701419 -1198.270414950669 0 0 0 0 37.628724386566319 -31.87245142932079 0 -31.87245142932079 177.77777219335189 0 0 0 0 160.26678861140681 565.68172774512595 0 565.68172774512595 490.33919801368938 0 0 0 0 15.317463693985701 521.85430432446924 0 521.85430432446924 117.011599087582 0 0 0 0 26.660489490372129 174.8819605218705 0 174.8819605218705 -3.540622563573038 0 0 0 0 118.18014579091687 262.774842608158 0 262.774842608158 -593.61679539904617 0 0 0 0 92.016464880573039 222.89476312262423 0 222.89476312262423 6.1153350728018268 0 0 0 0 76.50975179154463 4.2372112182013737 0 4.2372112182013737 0.59728368297075995 0 0 0 0 112.51863460805544 -97.595211483758931 0 -97.595211483758931 250.28511195201827 0 0 0 0 101.57503263557737 -89.319286889733121 0 -89.319286889733121 72.926558372797444 0 0 0 0 98.522329177118081 -70.179784439729701 0 -70.179784439729701 197.75699915467885 0 0 0 0 143.46259751138132 -155.13115595347156 0 -155.13115595347156 233.9973579116413 0 0 0 0 142.55402794537804 -143.06998241143356 0 -143.06998241143356 118.70994989751853 0 0 0 0 99.650603515845432 -112.06293766698309 0 -112.06293766698309 97.666681491752115 0 0 0 0 98.431451555494277 -110.83153398546347 0 -110.83153398546347 174.66310888695261 0 0 0 0 65.960588364956493 -143.43876261342848 0 -143.43876261342848 144.86209499756023 0 0 0 0 128.3495705949681 -235.76789531456416 0 -235.76789531456416 46.676044022387487 0 0 0 0 148.10672155024076 -159.84499302833592 0 -159.84499302833592 -27.31197881593971 0 0 0 0 75.746397960523609 -71.244676090122084 0 -71.244676090122084 196.38573471105019 0 0 0 0 65.81239575948166 -139.41550038146897 0 -139.41550038146897 235.18867955996939 0 0 0 0 112.98422669118281 75.379538124960391 0 75.379538124960391 142.8854263772655 0 0 0 0 108.62517961199774 -124.74663362073738 0 -124.74663362073738 243.31926092430467 0 0 0 0 88.406454887892323 -77.012233935614404 0 -77.012233935614404 107.51496106260402 0 0 0 0 115.51688247815036 -42.140491304068746 0 -42.140491304068746 126.2210540404842 0 0 0 0 2.4602235888226573 0.15195690909546045 0 0.15195690909546045 -2.8639531772126849 0 0 0 0 139.81445519449335 -23.425513503138518 0 -23.425513503138518 3.9671006714299892 0 0 0 0 120.34861483189161 -44.048966649020201 0 -44.048966649020201 1.113137862589042 0 0 0 0 57.360954642439538 -12.800798370322759 0 -12.800798370322759 -8.1303958034354764 0 0 0 0 138.7613380181665 -11.667317460095305 0 -11.667317460095305 -30.352473934584395 0 0 0 0 135.48893268901156 -5.5045116919807242 0 -5.5045116919807242 -30.002825806585307 0 0 0 0 126.410481072322 -2.3663127879525518 0 -2.3663127879525518 -6.9144133319173307 0 0 0 0 111.39352813985897 -20.65874336881825 0 -20.65874336881825 -9.6089002256432536 0 0 0 0 58.117181029250787 12.473391550401175 0 12.473391550401175 -1.4985408340926369 0 0 0 0 138.51498415568494 -0.89006370698166393 0 -0.89006370698166393 -36.646131610612429 0 0 0 0 140.03527242223208 -29.234506983563165 0 -29.234506983563165 12.899742954916292 0 0 0 0 153.66892093764181 -17.251144214823853 0 -17.251144214823853 -60.167777469922612 0 0 0 0 127.02004831727754 41.382217209705502 0 41.382217209705502 -110.9483699030733 0 0 0 0 114.55043060405296 5.5291629192119558 0 5.5291629192119558 -34.000439144073539 0 0 0 0 129.00149802060332 -14.719661279499519 0 -14.719661279499519 -24.668594302319434 0 0 0 0 127.14947199121525 -53.394810256591313 0 -53.394810256591313 3.5945528681736505 0 0 0 0 145.95869869095623 -101.12562611820044 0 -101.12562611820044 100.07396748184658 0 0 0 0 187.17302963014663 -70.275586686044448 0 -70.275586686044448 -33.31940059999215 0 0 0 0 163.67756304281647 -56.968829681095485 0 -56.968829681095485 -0.27147982875334264 0 0 0 0 224.85294411396717 -44.380233778279148 0 -44.380233778279148 -88.208321839708788 0 0 0 0 176.51792917432613 58.852866391568568 0 58.852866391568568 -65.49386784568469 0 0 0 0 175.66690542442302 62.38967048416464 0 62.38967048416464 -69.272252919628045 0 0 0 0 118.78104391806119 3.7366980633955791 0 3.7366980633955791 -124.50319925336589 0 0 0 0 142.82092501411171 100.53390507994862 0 100.53390507994862 -214.2748951801841 0 0 0 0 90.650921865300916 37.384733085188628 0 37.384733085188628 -88.085137361003632 0 0 0 0 145.00127433110174 -15.637899667234951 0 -15.637899667234951 -86.081804698131037 0 0 0 0 134.3071004264566 -74.511823365079181 0 -74.511823365079181 177.05630810373168 0 0 0 0 104.28503499991854 17.808373759562812 0 17.808373759562812 -20.085765728031081 0 0 0 0 121.24228296949696 -57.767373353586436 0 -57.767373353586436 167.96102906946817 0 0 0 0 107.78644326187097 17.390803663560433 0 17.390803663560433 -20.45233623578741 0 0 0 0 168.96211859204777 -129.33329197145895 0 -129.33329197145895 182.86193331474487 0 0 0 0 74.954875429379172 -23.295671083763409 0 -23.295671083763409 167.01993106739428 0 0 0 0 89.548909375851508 -24.272859693362534 0 -24.272859693362534 166.71969614281852 0 0 0 0 125.89699977973214 -30.772219308419153 0 -30.772219308419153 106.91698625049685 0 0 0 0 116.85191332673276 -41.147186997124209 0 -41.147186997124209 138.91331194539816 0 0 0 0 124.79169522814482 -38.139073537335207 0 -38.139073537335207 121.76862175502356 0 0 0 0 113.75040090101538 -26.428924083194943 0 -26.428924083194943 130.37837525381019 0 0 0 0 100.99883803377452 -2.8572621399662239 0 -2.8572621399662239 93.991301102205398 0 0 0 0 121.88121570807562 -32.867165391066919 0 -32.867165391066919 107.2924909104529 0 0 0 0 127.77618434951546 -25.611502709266006 0 -25.611502709266006 96.936821808196328 0 0 0 0 105.29716331128242 12.076241881816287 0 12.076241881816287 -17.060777160649238 0 0 0 0 34.519405010931223 202.9522224196084 0 202.9522224196084 20.947651036014577 0 0 0 0 104.34450031426968 81.369803872122247 0 81.369803872122247 -222.41183962996183 0 0 0 0 1.7958563984786906 9.0855253858777196 0 9.0855253858777196 -3.5995546702362624 0 0 0 0 199.54770892659144 196.88369489869547 0 196.88369489869547 -116.90017948119112 0 0 0 0 -0.80009211582364514 39.761721361493983 0 39.761721361493983 -53.211788681304824 0 0 0 0 -1.0431815848962742 47.417323192644808 0 47.417323192644808 9.8302534485737851 0 0 0 0 -35.109469800721854 92.310153700952014 0 92.310153700952014 103.20347640261025 0 0 0 0 2.4528654513560468 124.87524400772327 0 124.87524400772327 -14.521331821117201 0 0 0 0 -288.22943921771366 65.06774921059332 0 65.06774921059332 104.19064341649027 0 0 0 0 -100.89687474767561 -10.752966909784845 0 -10.752966909784845 26.674655024271487 0 0 0 0 -92.70365305217274 296.38485490415678 0 296.38485490415678 221.14925597271395 0 0 0 0 -880.28206735455024 224.70044542617688 0 224.70044542617688 216.01711176653271 0 0 0 0 51.254606557209627 801.62998233513554 0 801.62998233513554 -17.726951325514165 0 0 0 0 724.09240601028432 177.0673248719504 0 177.0673248719504 -120.00087667697699 0 0 0 0 132.90435592227004 184.47627995580456 0 184.47627995580456 -17.872664817227815 0 0 0 0 14.397304404854367 143.27511180584543 0 143.27511180584543 -32.193554031964595 0 0 0 0 224.65611229147908 262.14519504385908 0 262.14519504385908 -63.64540071232841 0 0 0 0 274.66708121373449 -87.143720916799566 0 -87.143720916799566 15.827180134012451 0 0 0 0 448.84040669315436 16.527040857555221 0 16.527040857555221 -106.93646742764395 0 0 0 0 321.06990949296596 -143.83947509194604 0 -143.83947509194604 18.332110101393823 0 0 0 0 144.98699836582091 -104.10579984071046 0 -104.10579984071046 202.43948439166434 0 0 0 0 801.00056575173221 -281.30180700814162 0 -281.30180700814162 55.24910777494938 0 0 0 0 546.40809412353701 78.036969593568756 0 78.036969593568756 -15.47440815740265 0 0 0 0 1944.534421428325 -317.10077324759914 0 -317.10077324759914 5.8727885382642171 0 0 0 0 26.106372290461707 2.0973235956836191 0 2.0973235956836191 1.2605558824966923 0 0 0 0 665.70148033568694 -714.05037383560739 0 -714.05037383560739 968.02380225843535 0 0 0 0 140.13452041655546 -237.01036078726065 0 -237.01036078726065 548.14844502649794 0 0 0 0 199.27310821742867 200.44068251697172 0 200.44068251697172 -51.745065528722989 0 0 0 0 193.45822834276623 137.96920955127916 0 137.96920955127916 -91.78167783361323 0 0 0 0 615.95025743098813 722.94153385471327 0 722.94153385471327 644.36907731410429 0 0 0 0 1348.3811743317929 -384.14002811633964 0 -384.14002811633964 -765.54670533748549 0 0 0 0 -1132.9328138644196 -776.02413949172205 0 -776.02413949172205 1588.1325580128232 0 0 0 0 -1129.2225054836454 -913.06129150265861 0 -913.06129150265861 415.34269510476224 0 0 0 0 63.731629113899544 -1.7346502762384262 0 -1.7346502762384262 38.715958265728432 0 0 0 0 40.583778831414207 -36.227345957850773 0 -36.227345957850773 17.610529174499487 0 0 0 0 -233.05977811805496 -372.45092193744176 0 -372.45092193744176 -87.331439700705232 0 0 0 0 11.959642949821671 -13.670037684575718 0 -13.670037684575718 3.8483687318529398 0 0 0 0 -1402.4286942286562 629.54745457186982 0 629.54745457186982 -296.09359323466742 0 0 0 0 -452.82504243729636 -200.49788220235314 0 -200.49788220235314 -191.1385931428847 0 0 0 0 799.69003342427459 1047.6920918023152 0 1047.6920918023152 989.76220299913439 0 0 0 0 66.486860641249223 -33.360300672168876 0 -33.360300672168876 40.571156061962995 0 0 0 0 42.668920786556555 -24.999427685548767 0 -24.999427685548767 42.558677119646532 0 0 0 0 28.676949893517303 -30.873719731761184 0 -30.873719731761184 46.428094040650905 0 0 0 0 41.27692433015909 -29.822250075008753 0 -29.822250075008753 45.458017121442936 0 0 0 0 18.511889773648534 2.1064138912600185 0 2.1064138912600185 12.078370366803952 0 0 0 0 60.197648757526622 -19.104898581410055 0 -19.104898581410055 53.50985696746875 0 0 0 0 6.1094584606499893 6.2070303834642857 0 6.2070303834642857 4.3467135202349159 0 0 0 0 64.793607534178591 -44.57188976778977 0 -44.57188976778977 57.165659767200509 0 0 0 0 65.816548716742545 -41.335882721342671 0 -41.335882721342671 56.259385743972359 0 0 0 0 75.230256611273944 -61.883909668919785 0 -61.883909668919785 87.75250468366653 0 0 0 0 151.07992161021684 -81.579295193211806 0 -81.579295193211806 36.676978692220985 0 0 0 0 98.685403054987546 -44.914637005842394 0 -44.914637005842394 21.633740147346415 0 0 0 0 154.53077417751047 -18.50879759323778 0 -18.50879759323778 -36.41725666855973 0 0 0 0 122.67899714961823 -44.597001463284855 0 -44.597001463284855 15.995694732808943 0 0 0 0 96.860969156754436 -40.139805975856575 0 -40.139805975856575 24.894198798317859 0 0 0 0 97.124614045518683 -28.416390799190449 0 -28.416390799190449 5.7584664277983499 0 0 0 0 91.676194175786804 -34.379340833121603 0 -34.379340833121603 26.0987103367831 0 0 0 0 74.272404592644307 -23.307923014471172 0 -23.307923014471172 22.631628721326479 0 0 0 0 64.823709433677493 8.7994894095170793 0 8.7994894095170793 -12.793559542834194 0 0 0 0 87.036242450762074 -14.741026458850683 0 -14.741026458850683 12.342601611315672 0 0 0 0 83.542375699766126 -23.136470745807564 0 -23.136470745807564 21.994740801181848 0 0 0 0 42.757175184036896 7.5968208853531678 0 7.5968208853531678 7.8505022990925681 0 0 0 0 94.429655238644045 8.56108356628663 0 8.56108356628663 -26.035078000988221 0 0 0 0 24.41339575650548 -4.7485702625652664 0 -4.7485702625652664 0.56137490898794784 0 0 0 0 116.91882352341781 -18.747839297704388 0 -18.747839297704388 10.481051910989976 0 0 0 0 18.412655261344113 -2.1095588584500433 0 -2.1095588584500433 17.186729161668143 0 0 0 0 31.471654613942519 5.4319645779922894 0 5.4319645779922894 34.879500301107328 0 0 0 0 37.158951330442505 -2.6551204038360083 0 -2.6551204038360083 14.408883412388832 0 0 0 0 80.154851286919438 -19.867264145639638 0 -19.867264145639638 35.427068815803068 0 0 0 0 79.507865469786339 -8.6201531310484825 0 -8.6201531310484825 21.289273438312193 0 0 0 0 93.842225211522418 -19.974983055414725 0 -19.974983055414725 30.278847812214735 0 0 0 0 66.013941876823083 -19.505388455103912 0 -19.505388455103912 29.658549224115646 0 0 0 0 63.681300243831743 9.4491498420344726 0 9.4491498420344726 -13.253038138945975 0 0 0 0 40.631491355816252 -13.568915854079492 0 -13.568915854079492 29.325226471703957 0 0 0 0 64.027648971852614 -25.635725771334165 0 -25.635725771334165 26.651012169858944 0 0 0 0 23.309005818061991 -26.197702995099604 0 -26.197702995099604 32.991880568324973 0 0 0 0 -75.805500150367152 -83.512979839869331 0 -83.512979839869331 37.245132542150145 0 0 0 0 14.2315605115582 -20.343442659687753 0 -20.343442659687753 26.897901109935901 0 0 0 0 25.83175838183621 -21.457173537322006 0 -21.457173537322006 25.857090635738395 0 0 0 0 22.715874624365824 4.9635442708740811 0 4.9635442708740811 12.699643940512033 0 0 0 0 -43.954150659177685 48.682951948484515 0 48.682951948484515 14.728425234705355 0 0 0 0 65.502575069258455 -12.569082636187886 0 -12.569082636187886 -20.15226066002333 0 0 0 0 76.170269059257691 -9.5795960625221106 0 -9.5795960625221106 -3.2780164069176836 0 0 0 0 41.985873431555945 2.0279237655849585 0 2.0279237655849585 4.527437988135965 0 0 0 0 39.593954088010577 -0.3410209771702597 0 -0.3410209771702597 -1.3609318448681318 0 0 0 0 90.436081267398549 -8.7098253052990913 0 -8.7098253052990913 -25.030133406650748 0 0 0 0 74.954474633363134 4.1121165026299309 0 4.1121165026299309 -4.2558792392483156 0 0 0 0 69.041837061158731 -36.034771966762037 0 -36.034771966762037 17.973315430901039 0 0 0 0 73.467498817466549 -1.7622340347543286 0 -1.7622340347543286 19.05489866316384 0 0 0 0 58.4812927677267 5.1752423171806186 0 5.1752423171806186 96.764319230751425 0 0 0 0 105.52668198203901 8.683263998232178 0 8.683263998232178 44.462543531574511 0 0 0 0 73.077076911067707 19.402961909785972 0 19.402961909785972 149.2144346188943 0 0 0 0 96.373771669488633 79.948391160359733 0 79.948391160359733 172.64580706734523 0 0 0 0 74.554261926648906 30.135762362340756 0 30.135762362340756 87.467228900595273 0 0 0 0 20.309298719788785 52.20093484832546 0 52.20093484832546 183.60879882686879 0 0 0 0 -11.226272857631557 8.5550789083545169 0 8.5550789083545169 194.65971230056402 0 0 0 0 63.195632805058267 -6.0499476552263332 0 -6.0499476552263332 172.03799919376434 0 0 0 0 116.63989463000325 -65.898356726601378 0 -65.898356726601378 234.90742948296884 0 0 0 0 -0.69232846077801824 3.8689557652969881 0 3.8689557652969881 2.9236450150273612 0 0 0 0 59.032061266851088 140.59647245740916 0 140.59647245740916 385.05667146172027 0 0 0 0 234.93666786322137 156.8872326122123 0 156.8872326122123 136.80167862548842 0 0 0 0 131.55461958857632 20.796189061629548 0 20.796189061629548 3.2827265257164981 0 0 0 0 58.880813539668452 -15.880059637419436 0 -15.880059637419436 49.034073872818226 0 0 0 0 169.10497440112522 6.1529105579793395 0 6.1529105579793395 -20.861659035818775 0 0 0 0 84.945725158868299 -27.383919342226818 0 -27.383919342226818 -32.15612206507285 0 0 0 0 73.137438738420315 -7.3329585967508137 0 -7.3329585967508137 5.9499707713384851 0 0 0 0 49.515182858725893 -20.638488647974704 0 -20.638488647974704 10.709805973772884 0 0 0 0 97.996625562584086 -15.825321872401219 0 -15.825321872401219 -23.516284240115056 0 0 0 0 12.787501268962183 -0.16373119170299333 0 -0.16373119170299333 9.1686186943011911 0 0 0 0 59.512612879116205 -20.186674079767272 0 -20.186674079767272 25.596788762646611 0 0 0 0 54.48896441032926 -4.6895557187247192 0 -4.6895557187247192 7.2658955474114117 0 0 0 0 82.062672981992364 -29.530308203349705 0 -29.530308203349705 -23.701757345872466 0 0 0 0 89.251908615442517 -15.828641102019219 0 -15.828641102019219 21.214748984770267 0 0 0 0 60.481666343482033 -19.551832412703508 0 -19.551832412703508 5.4912828604299246 0 0 0 0 4.7972591701241356 10.833268459872635 0 10.833268459872635 -5.6759715439507614 0 0 0 0 78.564507673232583 -15.627014062267335 0 -15.627014062267335 14.474194216481919 0 0 0 0 86.331357313305489 -17.567867813903831 0 -17.567867813903831 -11.384028228162606 0 0 0 0 87.03488049506268 -21.707910233524672 0 -21.707910233524672 12.837064935593389 0 0 0 0 87.599793766650691 1.9020765475984263 0 1.9020765475984263 2.212026148714358 0 0 0 0 43.525259713566811 -23.540276048329574 0 -23.540276048329574 38.323225362865742 0 0 0 0 46.21356879468658 -29.895837007855221 0 -29.895837007855221 26.502884909020622 0 0 0 0 13.03167702105447 -3.6016320530765853 0 -3.6016320530765853 17.533516026761419 0 0 0 0 45.416029049782082 -2.8553810790813259 0 -2.8553810790813259 70.028002242719026 0 0 0 0 63.995793400652474 -44.871980293880142 0 -44.871980293880142 46.569267585266743 0 0 0 0 41.851382228211151 -18.296917475080932 0 -18.296917475080932 22.775745421886768 0 0 0 0 78.451875414364622 -72.581138770160123 0 -72.581138770160123 115.25049557756756 0 0 0 0 1.0066830213755509 0.90704732459205673 0 0.90704732459205673 1.2156479116426633 0 0 0 0 75.302049499267014 -14.943214896333558 0 -14.943214896333558 9.6095295035174786 0 0 0 0 33.122867098516281 -10.10299095286776 0 -10.10299095286776 6.4826346522904714 0 0 0 0 -231.74172228130919 -110.47580098080024 0 -110.47580098080024 210.86461988142707 0 0 0 0 12.671733847274737 -4.2320040415458919 0 -4.2320040415458919 5.1052236162825944 0 0 0 0 48.471225074579706 -14.675812852323475 0 -14.675812852323475 13.046597327404697 0 0 0 0 43.161597759288099 -18.55021342356671 0 -18.55021342356671 8.6454351423280684 0 0 0 0 49.395441295411729 -35.194799000412786 0 -35.194799000412786 14.79881793846539 0 0 0 0 65.290741502882156 -25.692337854341986 0 -25.692337854341986 2.7764744248172519 0 0 0 0 51.181967367156176 -23.79069950102803 0 -23.79069950102803 -5.9804587553444435 0 0 0 0 -12.493666457143263 -55.287385482584341 0 -55.287385482584341 15.522218448908461 0 0 0 0 8.0542286598635684 -0.27143896149375735 0 -0.27143896149375735 16.4545294482012 0 0 0 0 390.53134564952779 -335.46874737311509 0 -335.46874737311509 -51.655812705582321 0 0 0 0 88.442761562011583 -13.876822239934455 0 -13.876822239934455 634.75441904936679 0 0 0 0 869.28074201245909 -505.73148164633585 0 -505.73148164633585 -123.78931648261857 0 0 0 0 674.12620424065608 -572.83426859246208 0 -572.83426859246208 754.45060284774695 0 0 0 0 -54.440678669176123 127.64612469588531 0 127.64612469588531 267.70735981475889 0 0 0 0 0.31833169306825937 1.6922211465221011 0 1.6922211465221011 6.2864853941285457 0 0 0 0 1005.8635141658306 -856.66211074175317 0 -856.66211074175317 771.81559809909959 0 0 0 0 123.86094064629651 -96.1350209830822 0 -96.1350209830822 -51.890837724758967 0 0 0 0 2646.6570283991314 -779.2238997363354 0 -779.2238997363354 110.77878049207547 0 0 0 0 2193.1681086142125 -125.76819842905718 0 -125.76819842905718 643.03340338607632 0 0 0 0 890.2288565708659 -1087.9914717074641 0 -1087.9914717074641 1134.1139821872791 0 0 0 0 395.93295441313239 -62.688829213350118 0 -62.688829213350118 607.7570661077807 0 0 0 0 1749.3278775990693 -2203.3129260336759 0 -2203.3129260336759 1882.2698721209088 0 0 0 0 4657.9031854095083 -783.63049863044739 0 -783.63049863044739 62.901912519387594 0 0 0 0 4500.4880968933721 -980.6867259449325 0 -980.6867259449325 1706.3039324641134 0 0 0 0 4750.3503770283132 -1432.4346630134291 0 -1432.4346630134291 202.60609679886059 0 0 0 0 4196.2436029928213 -498.2508945623423 0 -498.2508945623423 -297.77501113811928 0 0 0 0 -67.376386796095176 -8.2965647182778355 0 -8.2965647182778355 955.62476482262582 0 0 0 0 2417.5614258195492 924.7872153097502 0 924.7872153097502 -190.41427601477449 0 0 0 0 -32.49122437708138 -189.20375119134189 0 -189.20375119134189 -76.277155999954502 0 0 0 0 14.974673882577321 -4.5977292979625553 0 -4.5977292979625553 1.8957720812347203 0 0 0 0 149.09010898883571 347.47042524526444 0 347.47042524526444 59.797874094768588 0 0 0 0 235.71278418527072 218.97666436526089 0 218.97666436526089 66.1448150471806 0 0 0 0 669.51103825760947 500.40486263004203 0 500.40486263004203 130.66026570913459 0 0 0 0 4502.5549302671498 -1093.3674081643001 0 -1093.3674081643001 825.80168668653243 0 0 0 0 -395.85490236760234 -360.99763576431292 0 -360.99763576431292 191.93328718544808 0 0 0 0 8.4127884687843988 -7.1137507965769657 0 -7.1137507965769657 3.5036082024007755 0 0 0 0 1331.7607939770642 -922.90186673049823 0 -922.90186673049823 254.75898816828777 0 0 0 0 5761.2104997486385 993.88976866402425 0 993.88976866402425 414.53774262005237 0 0 0 0 4210.7344497794838 1309.108299449877 0 1309.108299449877 439.51374361243859 0 0 0 0 16.699581692107216 -20.793308607022581 0 -20.793308607022581 8.0740486642017775 0 0 0 0 4018.2547814779973 961.27485705753975 0 961.27485705753975 220.81166473395365 0 0 0 0 4266.0218256901135 932.85442932517685 0 932.85442932517685 24.14017232378945 0 0 0 0 4499.2296532436812 1112.6071541052677 0 1112.6071541052677 90.139211750292418 0 0 0 0 -42.297551194031257 -166.35675426966634 0 -166.35675426966634 -63.317149124130538 0 0 0 0 91.473073384237068 -16.169281259221179 0 -16.169281259221179 -25.040232062728137 0 0 0 0 168.70260629074619 -43.465377744260934 0 -43.465377744260934 33.619089424775211 0 0 0 0 219.63914383455995 -80.775343045212367 0 -80.775343045212367 -257.49476702985567 0 0 0 0 219.51282111089677 143.69701178715491 0 143.69701178715491 -105.94290953129894 0 0 0 0 173.28650384603679 194.67978983367641 0 194.67978983367641 121.83262071444324 0 0 0 0 162.1169614141545 122.71163453760801 0 122.71163453760801 107.21746508259321 0 0 0 0 271.33115326386178 30.352754536388261 0 30.352754536388261 -76.373010288416026 0 0 0 0 62.888112461776473 38.562244643322629 0 38.562244643322629 216.94353069895874 0 0 0 0 39.105306745375856 -11.87822328682222 0 -11.87822328682222 58.084974762532056 0 0 0 0 52.6143201045561 -6.4873902842360849 0 -6.4873902842360849 70.503904033664185 0 0 0 0 53.341584531124681 32.07999150195792 0 32.07999150195792 96.986726385228167 0 0 0 0 52.881557886692462 25.262466289633721 0 25.262466289633721 25.895618131701212 0 0 0 0 64.461947557749227 30.909978595140501 0 30.909978595140501 2.9897027381167618 0 0 0 0 64.807376788654665 15.299962754479992 0 15.299962754479992 -3.9048031595942776 0 0 0 0 74.812364268691454 49.789268526072192 0 49.789268526072192 -10.633839758185786 0 0 0 0 126.8085088620719 63.850337946958007 0 63.850337946958007 13.086320819139019 0 0 0 0 125.4552465722445 -3.3577959394199297 0 -3.3577959394199297 -28.742288334722161 0 0 0 0 102.09040330530843 -26.744014092950465 0 -26.744014092950465 -33.974170922107419 0 0 0 0 65.384383531816127 14.164262171605316 0 14.164262171605316 -5.0229207332292667 0 0 0 0 97.760229651095869 -9.2424728615224012 0 -9.2424728615224012 -25.144539771307223 0 0 0 0 156.96333916892854 11.613108645719128 0 11.613108645719128 68.417918041837652 0 0 0 0 77.478293619045871 -52.352634890724232 0 -52.352634890724232 21.626380328455582 0 0 0 0 105.78620337332359 96.381412826444503 0 96.381412826444503 -19.192680908110162 0 0 0 0 1004.5913078244776 367.98472614079947 0 367.98472614079947 154.51875375595409 0 0 0 0 2495.2383676691243 412.78879275009712 0 412.78879275009712 -454.60745997410481 0 0 0 0 5.9147653866716041 -4.2108732234824089 0 -4.2108732234824089 -2.8304005281359021 0 0 0 0 3223.4564003657433 295.44227223766973 0 295.44227223766973 -585.69075322444564 0 0 0 0 1974.8784362156293 318.48580543561246 0 318.48580543561246 534.99228269466482 0 0 0 0 2801.0224534098234 -260.12206297219541 0 -260.12206297219541 -585.6942978956929 0 0 0 0 3671.8323135978717 -273.70539081001959 0 -273.70539081001959 -610.56548546597924 0 0 0 0 3341.6683155640349 506.50742574576981 0 506.50742574576981 -214.01238271164698 0 0 0 0 3113.2430320260491 318.91957677383033 0 318.91957677383033 -57.933564305532286 0 0 0 0 4501.6030268892209 310.3216024015062 0 310.3216024015062 -639.37814190974279 0 0 0 0 3583.4044434814641 711.98521401074856 0 711.98521401074856 11.44737627321042 0 0 0 0 3121.2372614640626 426.45082753172136 0 426.45082753172136 -61.636215274594861 0 0 0 0 89.389793155147345 -21.050717423519473 0 -21.050717423519473 -23.048204412692712 0 0 0 0 26.339882112642499 -29.990521539436273 0 -29.990521539436273 11.585666554780914 0 0 0 0 123.13317815568735 271.38641128939798 0 271.38641128939798 -469.11991750218021 0 0 0 0 153.93015432124957 -105.23579474155667 0 -105.23579474155667 -145.61214597971548 0 0 0 0 29.236285432040745 24.116131317890222 0 24.116131317890222 9.3833989700375113 0 0 0 0 1548.6751391125144 -851.11033762398415 0 -851.11033762398415 524.24953421822613 0 0 0 0 -0.32022510795334824 16.414245513146884 0 16.414245513146884 -0.11152779276339314 0 0 0 0 4498.871602138006 -2188.8843964872563 0 -2188.8843964872563 717.12711810853659 0 0 0 0 2413.4425390930555 -811.09973377714505 0 -811.09973377714505 -67.63270007628455 0 0 0 0 2286.2429865646045 -427.60040460101555 0 -427.60040460101555 -121.44347579776922 0 0 0 0 4488.9125916110897 -168.78656350141497 0 -168.78656350141497 -835.93557926505355 0 0 0 0 2778.5830702434178 656.95950844956144 0 656.95950844956144 -39.667534746628391 0 0 0 0 828.20748341104263 53.440024700644351 0 53.440024700644351 447.78640963985731 0 0 0 0 2786.3622993405952 -552.64325150572336 0 -552.64325150572336 -154.24487169744049 0 0 0 0 2874.3633161667531 -948.79119673767968 0 -948.79119673767968 -85.581220559704775 0 0 0 0 666.22740007204629 -656.67089466385494 0 -656.67089466385494 309.18055574707876 0 0 0 0 584.37305405225197 -204.76054841430587 0 -204.76054841430587 151.5335994953403 0 0 0 0 10.698562199046137 45.687025619260112 0 45.687025619260112 -27.79272538183227 0 0 0 0 34.434138452050803 10.791644727555614 0 10.791644727555614 -12.864312680549308 0 0 0 0 10.792459836469789 6.3432678122862853 0 6.3432678122862853 -20.844452807944435 0 0 0 0 24.587943810673096 24.473699622664583 0 24.473699622664583 1.6476489310575744 0 0 0 0 -1067.8695177054033 581.14854568566261 0 581.14854568566261 -323.97860719666642 0 0 0 0 -1706.9201707566535 99.500417244668824 0 99.500417244668824 173.80245513845148 0 0 0 0 -465.1864152647322 725.38387427486668 0 725.38387427486668 -488.80282637328219 0 0 0 0 99.895645952841733 -9.8584278155481115 0 -9.8584278155481115 -94.897550635985681 0 0 0 0 4.2090384618167889 -1.2380431069055788 0 -1.2380431069055788 -2.9285135304741043 0 0 0 0 60.7650600636116 -28.752775630489396 0 -28.752775630489396 -102.58680985212141 0 0 0 0 10.512681987675975 -6.8901858826389457 0 -6.8901858826389457 -31.688056258799346 0 0 0 0 37.963285087392819 14.083660154977624 0 14.083660154977624 -8.2202712655954873 0 0 0 0 53.828755762340734 35.374057192438158 0 35.374057192438158 -17.787956345285238 0 0 0 0 16.598130516990381 22.24704917043551 0 22.24704917043551 2.6028988894428609 0 0 0 0 114.21091597892519 -28.081130848125667 0 -28.081130848125667 -257.93735797289315 0 0 0 0 -37.604678723044344 -21.831369090507451 0 -21.831369090507451 -52.127368025817304 0 0 0 0 -36.555743273353073 -23.897979154053587 0 -23.897979154053587 -90.565736034346628 0 0 0 0 56.973152812788612 -69.769379724306873 0 -69.769379724306873 -71.35732917379039 0 0 0 0 -102.26686280242575 -179.74363492134614 0 -179.74363492134614 -136.59312248534684 0 0 0 0 180.91962280885127 -82.006970052041538 0 -82.006970052041538 -203.38326690330462 0 0 0 0 147.76129805659002 42.740698273277303 0 42.740698273277303 -248.42045275747543 0 0 0 0 -2.9805119856970776 -3.3286429618071196 0 -3.3286429618071196 -9.121644278257925 0 0 0 0 -615.3209917381173 1738.3205936883032 0 1738.3205936883032 -1320.465342112946 0 0 0 0 -137.85099226534658 -216.27501871950403 0 -216.27501871950403 -161.54204240341551 0 0 0 0 -1.3689498698804528 728.00751271268336 0 728.00751271268336 -787.79122306555655 0 0 0 0 -100.39480675576129 -23.508040440852973 0 -23.508040440852973 42.811064215908118 0 0 0 0 202.70171857070818 501.69981866114858 0 501.69981866114858 -809.75620317520406 0 0 0 0 464.67970372700074 667.42707322893853 0 667.42707322893853 -1223.0268569914419 0 0 0 0 -1184.0958383595498 1236.1195870088322 0 1236.1195870088322 -926.51000411706104 0 0 0 0 251.16440330870955 682.61692005512282 0 682.61692005512282 -121.41624917168406 0 0 0 0 259.58814294192416 699.51009676135823 0 699.51009676135823 -1182.5572288787912 0 0 0 0 63.914781006627891 -276.23765029117362 0 -276.23765029117362 -865.54738513644497 0 0 0 0 1627.7273790996696 1166.7933892470778 0 1166.7933892470778 -183.12448761098142 0 0 0 0 1296.0397584003367 358.90329401585495 0 358.90329401585495 -697.30038721121832 0 0 0 0 1405.8549875645112 668.8604968402185 0 668.8604968402185 -349.58884511603515 0 0 0 0 387.84168071500062 478.19872462844381 0 478.19872462844381 815.40409617689534 0 0 0 0 478.2348045006438 84.690639046980095 0 84.690639046980095 -197.64666758530893 0 0 0 0 44.862728197625984 -41.859593579236559 0 -41.859593579236559 -2.9906131220577663 0 0 0 0 12.836768448472753 6.6540876991103275 0 6.6540876991103275 7.4843442392125326 0 0 0 0 369.15376202297921 -77.713871967249815 0 -77.713871967249815 -162.96147667020489 0 0 0 0 -235.70044148388115 1151.9542824191776 0 1151.9542824191776 1782.4983854648658 0 0 0 0 2056.0639523972495 2473.2362882818061 0 2473.2362882818061 1165.3663449174912 0 0 0 0 4492.169893660267 1754.0190123592538 0 1754.0190123592538 -774.61444499165123 0 0 0 0 2365.7214156180999 592.93822487376747 0 592.93822487376747 -1174.0085381301349 0 0 0 0 4501.5009387364189 408.54564167001507 0 408.54564167001507 -1354.2337536853015 0 0 0 0 1051.0874690247538 835.0642183364921 0 835.0642183364921 -853.56446918410711 0 0 0 0 1336.6237251884959 -494.67157104683463 0 -494.67157104683463 -617.22068998582836 0 0 0 0 4491.3350295661221 -1487.5721075305792 0 -1487.5721075305792 -309.78576582096252 0 0 0 0 1606.6311254947286 1338.2427386538548 0 1338.2427386538548 -142.19743548621136 0 0 0 0 16.616272002689726 4.3395114089100773 0 4.3395114089100773 0.093623680218039212 0 0 0 0 346.99045051729991 -371.61885112088709 0 -371.61885112088709 612.87701754764771 0 0 0 0 4490.86223399952 124.45870766652514 0 124.45870766652514 -424.21292560695679 0 0 0 0 609.94415593949816 -760.05492752863165 0 -760.05492752863165 1168.8268960873384 0 0 0 0 629.50309793570341 -669.58448740661015 0 -669.58448740661015 799.68559938811654 0 0 0 0 650.98910350697224 -862.63059917730084 0 -862.63059917730084 342.81195235718974 0 0 0 0 1127.3716118633965 -591.58537037082783 0 -591.58537037082783 312.30992130632899 0 0 0 0 993.171670547752 -510.70519634963586 0 -510.70519634963586 321.38981137666349 0 0 0 0 987.40152154912357 -648.96827417539509 0 -648.96827417539509 687.25244677830005 0 0 0 0 688.33191685930069 -664.40547986210504 0 -664.40547986210504 345.91827778198774 0 0 0 0 620.2879333082019 -94.898613445574028 0 -94.898613445574028 -205.32540718738082 0 0 0 0 25.917615809201351 9.8270590193260787 0 9.8270590193260787 -0.1622780394595853 0 0 0 0 12.385363346031227 329.49696210670038 0 329.49696210670038 -410.83224879049203 0 0 0 0 -689.35119008457696 878.60677275112039 0 878.60677275112039 -304.32492997162331 0 0 0 0 -829.55226021067847 415.33804251526874 0 415.33804251526874 -513.44825773124853 0 0 0 0 1137.7294116697667 -813.23041948592834 0 -813.23041948592834 389.43424774173616 0 0 0 0 11.297743776497526 4.0312466670632858 0 4.0312466670632858 0.079116020927411768 0 0 0 0 1257.8500664393505 -539.08866771887733 0 -539.08866771887733 177.22939446949158 0 0 0 0 923.29452245174616 -459.68975074461548 0 -459.68975074461548 510.36585965595782 0 0 0 0 798.02499525251915 -659.72652185785455 0 -659.72652185785455 235.32029073942283 0 0 0 0 825.76359115237574 -313.40704034681585 0 -313.40704034681585 109.92845068095923 0 0 0 0 12.657414758883533 39.724260945748483 0 39.724260945748483 -43.488958246534594 0 0 0 0 5.4141628645113826 0.29728244021708861 0 0.29728244021708861 -7.5637032681249368 0 0 0 0 905.7366942061708 -588.87574038982473 0 -588.87574038982473 267.53209876776884 0 0 0 0 962.91026840165432 -536.61920256206554 0 -536.61920256206554 345.65367010973841 0 0 0 0 1004.5682649203786 -621.17032764518649 0 -621.17032764518649 274.92601757724839 0 0 0 0 -16.534122491516172 142.74931353308327 0 142.74931353308327 212.21844115088834 0 0 0 0 3.8760052491043524 0.54226755664238624 0 0.54226755664238624 -3.3725340752815867 0 0 0 0 65.988226917870634 -29.271655808912783 0 -29.271655808912783 -68.701432477443177 0 0 0 0 -15.718942551146029 -107.40459970782024 0 -107.40459970782024 136.80525825466134 0 0 0 0 20.457933084508113 -61.045936030068788 0 -61.045936030068788 355.92603698747871 0 0 0 0 220.19891957336222 -32.147384016867363 0 -32.147384016867363 157.40833781021672 0 0 0 0 183.76643292162044 133.41671023374261 0 133.41671023374261 425.97607666554654 0 0 0 0 65.279489063970686 -141.09654678703021 0 -141.09654678703021 858.25721171926261 0 0 0 0 245.4312007849544 234.33228797977267 0 234.33228797977267 243.23038872007555 0 0 0 0 12.620982776741585 48.714146167881381 0 48.714146167881381 219.90642623282019 0 0 0 0 2.0266206703017815 -28.265323480730444 0 -28.265323480730444 188.47915449277497 0 0 0 0 27.063151480091619 -6.9668003513143191 0 -6.9668003513143191 128.92105964699397 0 0 0 0 47.188892233680235 -74.95240392217886 0 -74.95240392217886 79.983644485984485 0 0 0 0 6.9386012429749826 11.114685067831829 0 11.114685067831829 78.460365112828981 0 0 0 0 3.8928350176774984 -11.293899553774963 0 -11.293899553774963 -2.0530448040514386 0 0 0 0 0.9030788701165875 -16.005133276845299 0 -16.005133276845299 -12.227827749727112 0 0 0 0 30.375437198883446 -42.23990079353598 0 -42.23990079353598 -0.32913602969392741 0 0 0 0 44.598756350993426 -10.858370550602444 0 -10.858370550602444 -12.370211513173899 0 0 0 0 28.855077753658406 -20.269240747475237 0 -20.269240747475237 -17.612383240876312 0 0 0 0 21.04081005914486 -13.028911875933773 0 -13.028911875933773 -19.197903864451632 0 0 0 0 6.2134209812113568 -3.9236922321102128 0 -3.9236922321102128 -11.812319276218108 0 0 0 0 427.39798759249607 91.919320349468933 0 91.919320349468933 4.2622633303267321 0 0 0 0 20.22981537562373 -13.218651900730038 0 -13.218651900730038 -9.7212874482875122 0 0 0 0 13.730694006055273 -19.872626016007644 0 -19.872626016007644 -12.764398999094738 0 0 0 0 10.591138845033129 -15.744570668338611 0 -15.744570668338611 -4.7325338081036534 0 0 0 0 29.98287957505363 -14.239852638047182 0 -14.239852638047182 -8.0805321095849649 0 0 0 0 41.470963486470282 -6.1282985895122692 0 -6.1282985895122692 -12.459383110424824 0 0 0 0 14.062111390911014 -8.6408167180684359 0 -8.6408167180684359 2.3885648731757101 0 0 0 0 13.947100880164726 -18.183780880186077 0 -18.183780880186077 -5.5080136063961618 0 0 0 0 5.0852054396407027 -3.1130171439488308 0 -3.1130171439488308 -10.268680760871607 0 0 0 0 23.046728145391171 5.7835500066132681 0 5.7835500066132681 -18.248190089208947 0 0 0 0 12.638958979327754 -6.5611885690712697 0 -6.5611885690712697 -5.3934468311493404 0 0 0 0 0.04446800556826247 -0.014435170562496324 0 -0.014435170562496324 -1.6760812725691792 0 0 0 0 56.508507399412338 -9.1133097145066131 0 -9.1133097145066131 -20.40584766759639 0 0 0 0 344.13872680043278 -141.13631273642113 0 -141.13631273642113 -12.035327205549279 0 0 0 0 432.05422893197101 -321.25098190642387 0 -321.25098190642387 -7.7255903461714599 0 0 0 0 24.469204879345853 5.9479041161864643 0 5.9479041161864643 30.135008950364863 0 0 0 0 802.09931048416911 -286.70858613472546 0 -286.70858613472546 -247.08014154799184 0 0 0 0 5.9239502660336996 -2.206088796708606 0 -2.206088796708606 -4.0209366618017182 0 0 0 0 625.44492872807314 -804.3114828864409 0 -804.3114828864409 838.99756218707353 0 0 0 0 460.72483731737884 -469.75657870881389 0 -469.75657870881389 359.88173515602216 0 0 0 0 1035.0212459819595 -674.30822253020824 0 -674.30822253020824 169.91267248393342 0 0 0 0 892.63003559420031 -155.05404746713111 0 -155.05404746713111 -193.61672676990156 0 0 0 0 614.94026967382524 -390.99331678999715 0 -390.99331678999715 501.32629062336684 0 0 0 0 1193.9089738089278 -298.54568893634826 0 -298.54568893634826 -724.02989205759013 0 0 0 0 203.63462358075776 508.35804238260016 0 508.35804238260016 -788.75090306381321 0 0 0 0 633.82499884151184 274.24714692298494 0 274.24714692298494 -758.9088243791366 0 0 0 0 -161.79426000191597 346.51479939979799 0 346.51479939979799 -493.46907529234886 0 0 0 0 468.69677427314309 -332.6407951715637 0 -332.6407951715637 -222.00315387238061 0 0 0 0 514.20820640533748 -140.34551954182803 0 -140.34551954182803 -156.82442717602135 0 0 0 0 635.49619707632519 6.6589494752661267 0 6.6589494752661267 -562.22452269928726 0 0 0 0 392.15103398908286 -339.46390834280896 0 -339.46390834280896 -659.94401376171663 0 0 0 0 46.343717057039612 101.6358592198485 0 101.6358592198485 -416.29374998690309 0 0 0 0 4.500244148135323 1.7335921331025173 0 1.7335921331025173 -5.0874155264470833 0 0 0 0 288.70133185760642 299.97088162696309 0 299.97088162696309 -669.64161868952579 0 0 0 0 -197.63557107966335 163.10912723582214 0 163.10912723582214 -594.81327313797192 0 0 0 0 43.169800648067337 12.680564841232989 0 12.680564841232989 -47.430091387625474 0 0 0 0 199.56953754882852 -75.323193217937387 0 -75.323193217937387 29.168312013167764 0 0 0 0 10.469260266607577 0.95181755121022604 0 0.95181755121022604 -2.0237598102486452 0 0 0 0 21.102740165132914 11.836348575801964 0 11.836348575801964 -23.321562329789042 0 0 0 0 -24.976070148986764 6.5859705282482537 0 6.5859705282482537 -24.243003639157209 0 0 0 0 226.12780341631151 -73.357464629872084 0 -73.357464629872084 -49.846425152674783 0 0 0 0 38.214711959972192 3.0100366746557938 0 3.0100366746557938 -32.819927970889694 0 0 0 0 -12.944827368231927 -36.7650009798258 0 -36.7650009798258 103.18165478157789 0 0 0 0 371.96590506715074 298.32699534626227 0 298.32699534626227 114.1268418354357 0 0 0 0 894.68944424497022 64.245913629802089 0 64.245913629802089 -71.344845876499676 0 0 0 0 0.51163909398962915 -2.2133056994571305 0 -2.2133056994571305 2.3017475639962832 0 0 0 0 919.173461542523 297.09483733352681 0 297.09483733352681 1.3995952800987652 0 0 0 0 282.43315497136064 87.097214252450158 0 87.097214252450158 -27.539903206614326 0 0 0 0 700.81948904853198 -143.7618131319332 0 -143.7618131319332 -558.85367374045882 0 0 0 0 730.01672300852078 16.287247067991302 0 16.287247067991302 -86.517274966879086 0 0 0 0 2.6038551671561265 -2.5025725768694649 0 -2.5025725768694649 -0.12111236079857157 0 0 0 0 18.428921523851386 3.7997801886315301 0 3.7997801886315301 0.99551620794954943 0 0 0 0 10.229820616404666 -7.2837124231101456 0 -7.2837124231101456 2.3745590087635762 0 0 0 0 -137.87011778195301 -378.49187221961984 0 -378.49187221961984 -528.69017629900577 0 0 0 0 -343.4303000935306 -361.98186596674577 0 -361.98186596674577 -354.72508247057431 0 0 0 0 6.3373765100072035 -1.3435556212296547 0 -1.3435556212296547 -10.206785973462896 0 0 0 0 216.89556153983722 -45.055563207767364 0 -45.055563207767364 -23.739751775874538 0 0 0 0 2.9335397315735463 -35.465596173155063 0 -35.465596173155063 -22.541199027451512 0 0 0 0 252.61800062334078 45.284566008096476 0 45.284566008096476 33.724175767009001 0 0 0 0 29.112393459152372 -9.9820142117873729 0 -9.9820142117873729 -14.867901899124263 0 0 0 0 -55.09975514603866 -295.19314434851367 0 -295.19314434851367 -849.77594188515468 0 0 0 0 -43.171466305713693 -186.70218217583079 0 -186.70218217583079 -487.8157422374552 0 0 0 0 5.4936104622442343 -0.52707180573180779 0 -0.52707180573180779 -3.4557358427834615 0 0 0 0 5.0406235325249895 -3.1357074427683287 0 -3.1357074427683287 0.71943901027772483 0 0 0 0 -79.032871436298592 -305.36735756600501 0 -305.36735756600501 -559.61552353321349 0 0 0 0 -402.68353906890843 -301.83645454106954 0 -301.83645454106954 -363.46984363856245 0 0 0 0 -208.05690726458852 -289.90825892673274 0 -289.90825892673274 -376.79989935638423 0 0 0 0 -145.9365506353206 -99.937043291560258 0 -99.937043291560258 -403.52798144362896 0 0 0 0 -160.82289919972754 -186.46187959448025 0 -186.46187959448025 -148.75587910916693 0 0 0 0 -281.95137416435682 -109.16229787570501 0 -109.16229787570501 -381.00444356916341 0 0 0 0 7.9408712096137606 -226.02644119621846 0 -226.02644119621846 -72.115426604723325 0 0 0 0 -25.903832784177212 -115.56070459201601 0 -115.56070459201601 -324.57362009827921 0 0 0 0 12.897233506111661 -192.05167351592172 0 -192.05167351592172 143.91875762291056 0 0 0 0 570.33154732809999 -260.69302960739515 0 -260.69302960739515 -299.22655591671582 0 0 0 0 12.491204750982433 -202.02293613347683 0 -202.02293613347683 -300.07471469031407 0 0 0 0 -190.46262196634052 -308.79470502197455 0 -308.79470502197455 -229.66806225181199 0 0 0 0 59.842128072346895 -268.89873114841976 0 -268.89873114841976 -521.84154274181674 0 0 0 0 13.397716921426763 -12.130098431851366 0 -12.130098431851366 -23.66300295441215 0 0 0 0 -1.5765762276132591 -2.0062259224650916 0 -2.0062259224650916 -26.500770234660195 0 0 0 0 9.8984821555245475 -4.8627928876358197 0 -4.8627928876358197 1.5617792270124493 0 0 0 0 10.145793548021175 -7.2405063166565924 0 -7.2405063166565924 -30.990407740855517 0 0 0 0 11.138998752896441 -3.1579280183213996 0 -3.1579280183213996 -23.74320876172041 0 0 0 0 5.6159727786653093 1.0933173377743515 0 1.0933173377743515 -26.946594568198634 0 0 0 0 -40.966172731015831 13.203270423275171 0 13.203270423275171 -32.170297444866833 0 0 0 0 -27.111805810454825 -35.501200240354819 0 -35.501200240354819 43.088688466897111 0 0 0 0 51.322048891204759 -7.3950541084482211 0 -7.3950541084482211 -45.350995453902215 0 0 0 0 29.973274564094027 6.6393603296883157 0 6.6393603296883157 20.371777098274833 0 0 0 0 1.3267404446321791 -2.4612119759515498 0 -2.4612119759515498 -1.0081310009950295 0 0 0 0 1.573412348938291 0.18460761310416274 0 0.18460761310416274 -26.841830857164268 0 0 0 0 6.0689727972472269 -7.5114172668263963 0 -7.5114172668263963 -0.15190103885726886 0 0 0 0 5.1164244682877325 3.4468412325413738 0 3.4468412325413738 -23.839120438198734 0 0 0 0 3.528547185647767 -7.9626735918227496 0 -7.9626735918227496 -8.1255628937756228 0 0 0 0 -6.163215185431909 -20.84675000729078 0 -20.84675000729078 33.140668887639549 0 0 0 0 3.2804685009128036 -3.5134206842093034 0 -3.5134206842093034 0.17617363549141674 0 0 0 0 16.033673380370601 12.474920300733174 0 12.474920300733174 -35.408475259786471 0 0 0 0 7.3736964374799072 -6.8569616593470837 0 -6.8569616593470837 -0.58944392742098439 0 0 0 0 8.4089989781205077 -2.7168955723082036 0 -2.7168955723082036 -16.504248461882526 0 0 0 0 13.229050144422217 -7.0906357751600808 0 -7.0906357751600808 -16.448221469679993 0 0 0 0 9.2122439534578007 -7.199008429260175 0 -7.199008429260175 1.2811748567847019 0 0 0 0 11.244701513060136 -8.0783427284459322 0 -8.0783427284459322 -16.788552561337042 0 0 0 0 14.174247407936491 -11.068916814336262 0 -11.068916814336262 -14.709465717645799 0 0 0 0 4.5146402683458291 -16.842036198002461 0 -16.842036198002461 -16.21182579399283 0 0 0 0 20.912120480577869 -11.39023025113147 0 -11.39023025113147 -16.999646432290319 0 0 0 0 10.248909551384713 -14.702020971492402 0 -14.702020971492402 -9.8203442111789627 0 0 0 0 1.6856840694472766 1.6710357438156791 0 1.6710357438156791 0.061417685293900348 0 0 0 0 -10.832199794349435 -23.728343966579587 0 -23.728343966579587 -10.260905862347727 0 0 0 0 8.9265156271430897 -21.182777041183726 0 -21.182777041183726 -19.044991618834501 0 0 0 0 -0.42776122641953407 -11.612439481222282 0 -11.612439481222282 -11.13102058874847 0 0 0 0 -4.5378623951655754 -13.543130008488106 0 -13.543130008488106 -9.5908544411454386 0 0 0 0 22.481842391112878 -1.9760749799072528 0 -1.9760749799072528 1.2301315954382517 0 0 0 0 11.415818313213265 -7.544260428675658 0 -7.544260428675658 -1.5302624140579071 0 0 0 0 -4.0575258820390445 -18.723461671726454 0 -18.723461671726454 -2.427170462709455 0 0 0 0 2.8463851117985719 1.2785432948981708 0 1.2785432948981708 1.0076868804098318 0 0 0 0 -0.87622946604096796 4.2931390592138996 0 4.2931390592138996 -9.7584734053657485 0 0 0 0 -1.6567844390447135 19.82883798341777 0 19.82883798341777 20.416913196437235 0 0 0 0 12.74312017545526 24.615138128326521 0 24.615138128326521 -9.6162763309082493 0 0 0 0 1.8504063902728376 -19.279535694230049 0 -19.279535694230049 36.703516046488176 0 0 0 0 -0.73547386416050209 3.0529169109797465 0 3.0529169109797465 1.9623046894999874 0 0 0 0 -59.773924938570417 -31.778350442282566 0 -31.778350442282566 30.238082517492728 0 0 0 0 51.024937544763816 -61.927763001637516 0 -61.927763001637516 126.31190849298582 0 0 0 0 82.520851364861301 -19.742108538504453 0 -19.742108538504453 -3.6654708656985804 0 0 0 0 77.660866930957127 -73.449895024387502 0 -73.449895024387502 166.20135033963379 0 0 0 0 76.253866108342208 -40.706792482530638 0 -40.706792482530638 229.1080955498519 0 0 0 0 -0.43497301403873401 2.5579347242111936 0 2.5579347242111936 1.2572121257464302 0 0 0 0 -79.212716278183507 38.940378059904106 0 38.940378059904106 190.41067991267482 0 0 0 0 97.024748437470407 -110.27971827887063 0 -110.27971827887063 113.68306860587018 0 0 0 0 31.86582038657798 -41.538885805298833 0 -41.538885805298833 221.814943611339 0 0 0 0 129.20037440224405 -87.434712428643934 0 -87.434712428643934 167.21457691616348 0 0 0 0 98.384548260859447 -56.250404109061037 0 -56.250404109061037 126.53551870897877 0 0 0 0 116.89211169723785 -106.54794676721994 0 -106.54794676721994 140.41859236433038 0 0 0 0 77.432373998908588 -86.591550361464428 0 -86.591550361464428 87.608342429443326 0 0 0 0 123.31306470858544 -119.33059829267614 0 -119.33059829267614 111.35628427627239 0 0 0 0 66.399305594080943 -77.722108082232779 0 -77.722108082232779 133.06845483502102 0 0 0 0 47.571754240546852 -92.53948225788173 0 -92.53948225788173 120.44516424858011 0 0 0 0 88.500335818731401 -80.030967736890432 0 -80.030967736890432 70.481940181804305 0 0 0 0 55.44916209972871 -28.420238124135039 0 -28.420238124135039 33.262778831328433 0 0 0 0 20.519277774783404 -33.133719840742984 0 -33.133719840742984 34.3177162133602 0 0 0 0 25.886756279855035 11.669891224154526 0 11.669891224154526 -49.891578240992594 0 0 0 0 3.3645686081972599 -65.201530523866552 0 -65.201530523866552 82.615151689883987 0 0 0 0 -32.994153018044017 -93.653812957055379 0 -93.653812957055379 190.19583840914902 0 0 0 0 67.335549130348227 -16.25569867334525 0 -16.25569867334525 -37.550313069757067 0 0 0 0 220.01878623171069 -142.28368988650129 0 -142.28368988650129 124.10647058073607 0 0 0 0 207.07546711664918 -231.63676254187854 0 -231.63676254187854 132.84950822773317 0 0 0 0 64.096473639470787 -131.02102599310066 0 -131.02102599310066 180.84060741482301 0 0 0 0 197.63469572686154 -181.0183999106107 0 -181.0183999106107 131.65693009883307 0 0 0 0 110.26935968029284 -130.3235511062835 0 -130.3235511062835 125.05193316707118 0 0 0 0 225.09110165313359 -149.08669662833245 0 -149.08669662833245 108.86930417658937 0 0 0 0 219.87421975624966 -154.60402556111211 0 -154.60402556111211 105.45864384894003 0 0 0 0 109.74036462485387 18.240096604823364 0 18.240096604823364 -20.37802843437521 0 0 0 0 197.77313015184154 -144.40939280508093 0 -144.40939280508093 102.34613663598111 0 0 0 0 204.23868455104639 -128.89270533188358 0 -128.89270533188358 122.36430551617286 0 0 0 0 122.48591304072033 -21.191921020082646 0 -21.191921020082646 8.028854732840955 0 0 0 0 33.7908556208465 -2.9000027522281044 0 -2.9000027522281044 -6.7292769856395882 0 0 0 0 128.6410312590815 0.83909473117182642 0 0.83909473117182642 -6.6671253925978817 0 0 0 0 112.92743230423254 18.248482761012475 0 18.248482761012475 -20.761335742113673 0 0 0 0 248.95669814883627 21.254812988365487 0 21.254812988365487 -19.331948679693824 0 0 0 0 490.17265345349733 -62.969049281594494 0 -62.969049281594494 4.4867258081710588 0 0 0 0 167.84821545707291 137.09519228716837 0 137.09519228716837 115.67228478883339 0 0 0 0 25.97729828523461 3.7426988196322668 0 3.7426988196322668 -2.6033329643266452 0 0 0 0 182.66946638793888 -127.92085298994971 0 -127.92085298994971 233.32474484981435 0 0 0 0 167.76987225610355 34.922607704465463 0 34.922607704465463 -277.64096979006308 0 0 0 0 283.09548874380562 -216.93606045945751 0 -216.93606045945751 181.62920091366459 0 0 0 0 540.22739334320795 -45.081680765325927 0 -45.081680765325927 185.20254398022226 0 0 0 0 678.04555126471678 -139.81763773508283 0 -139.81763773508283 -27.102407470626076 0 0 0 0 638.93484778066158 -214.82486649387977 0 -214.82486649387977 -35.761378878816686 0 0 0 0 587.57566957842209 -339.12749935011925 0 -339.12749935011925 158.95481282898481 0 0 0 0 224.82125465681384 -160.04560785930698 0 -160.04560785930698 13.720316157860452 0 0 0 0 85.794490430098449 -407.71416975569508 0 -407.71416975569508 -147.61454053923217 0 0 0 0 8.1378930997248062 -119.15225166671758 0 -119.15225166671758 -2.312053944836407 0 0 0 0 70.383411365372012 -290.77523752867432 0 -290.77523752867432 249.2622556548522 0 0 0 0 185.56459411197284 -84.883408304461227 0 -84.883408304461227 -217.08457773236 0 0 0 0 227.13033698075742 -162.00276026896108 0 -162.00276026896108 -199.09519907645517 0 0 0 0 471.44488145445223 -0.76368395250839427 0 -0.76368395250839427 -335.4422932948346 0 0 0 0 476.8896642323416 -389.31713647361175 0 -389.31713647361175 -18.27496267335755 0 0 0 0 143.83294474534341 -233.88830108669663 0 -233.88830108669663 404.7154553762366 0 0 0 0 124.29407841878128 14.40253312015102 0 14.40253312015102 -121.71673327265501 0 0 0 0 6.4580809886278558 -4.1112499482339313 0 -4.1112499482339313 -1.1395571847379957 0 0 0 0 -1.5134675306294696 -0.36411223152605032 0 -0.36411223152605032 0.4487463451065814 0 0 0 0 3.5120286797940707 -8.4793595939948592 0 -8.4793595939948592 -0.77300763665928818 0 0 0 0 8.6247921606997124 -1.8895961753178199 0 -1.8895961753178199 -1.6544685228506246 0 0 0 0 35.300001276700641 -49.362247874950299 0 -49.362247874950299 -0.30856266842693003 0 0 0 0 215.92286518157198 -77.768707929859374 0 -77.768707929859374 -474.43421304991534 0 0 0 0 -41.292151966634265 31.89298936470459 0 31.89298936470459 -375.2088197388166 0 0 0 0 -93.909493864459364 -87.476406306152057 0 -87.476406306152057 -152.33993451616789 0 0 0 0 243.50809260901588 -130.44840899701967 0 -130.44840899701967 -386.32786821600712 0 0 0 0 19.22688234593079 202.53877855950122 0 202.53877855950122 -363.00483820897978 0 0 0 0 -0.17394522076759955 0.4521137406876079 0 0.4521137406876079 -3.7831877519089829 0 0 0 0 14.698790723574348 13.955336328008343 0 13.955336328008343 -195.95090552848524 0 0 0 0 438.65482679726847 392.32310115969722 0 392.32310115969722 35.349445811381884 0 0 0 0 45.592045633413363 45.857923261617543 0 45.857923261617543 -187.91577849929263 0 0 0 0 11.608447652400841 -2.9832447977794629 0 -2.9832447977794629 -10.709401135177906 0 0 0 0 -235.93712120230339 256.1068492057816 0 256.1068492057816 364.16555603943925 0 0 0 0 106.59403902847043 30.462953692947849 0 30.462953692947849 -57.952376528781315 0 0 0 0 156.41349334704137 5.0029099887015036 0 5.0029099887015036 -123.96567068214563 0 0 0 0 169.75275005583899 -21.049143266011015 0 -21.049143266011015 -90.196059580583096 0 0 0 0 146.7915611052922 -38.649456119143906 0 -38.649456119143906 -98.959586515764386 0 0 0 0 162.68349467002554 -17.356332480793753 0 -17.356332480793753 -47.696334453117743 0 0 0 0 168.47653679987343 -38.342599560619419 0 -38.342599560619419 -57.906352177582448 0 0 0 0 186.53617681983815 -25.643879718367089 0 -25.643879718367089 -136.07001317782124 0 0 0 0 197.47941795865881 -2.9387978673512407 0 -2.9387978673512407 -126.19919545914308 0 0 0 0 158.94190601104856 -13.511508315008541 0 -13.511508315008541 -3.6879164502843196 0 0 0 0 36.952243918642182 23.750027398167777 0 23.750027398167777 -6.1198899693142224 0 0 0 0 72.700223092694216 -8.4302072161934234 0 -8.4302072161934234 -6.0134566626629464 0 0 0 0 7.897255288043965 4.7872814744657788 0 4.7872814744657788 2.2589629264227895 0 0 0 0 57.060941701133743 94.095103571393793 0 94.095103571393793 86.39296015085165 0 0 0 0 65.493597580119967 8.499600148636091 0 8.499600148636091 -2.8010325168197596 0 0 0 0 93.407313068640704 12.467259305474425 0 12.467259305474425 2.7903002739185183 0 0 0 0 16.590701687151267 0.8078642220134391 0 0.8078642220134391 -2.5942604445035826 0 0 0 0 76.239549320387596 -58.305724410022776 0 -58.305724410022776 120.14420387718565 0 0 0 0 23.593552896891197 22.109479197876681 0 22.109479197876681 40.031222591627738 0 0 0 0 162.40195389856126 -51.438527981868901 0 -51.438527981868901 -65.382539120335423 0 0 0 0 133.9553131698267 -18.876709603120617 0 -18.876709603120617 -47.068161773521751 0 0 0 0 147.07518111302852 -52.420990563758096 0 -52.420990563758096 19.711117766222742 0 0 0 0 129.5714686104111 -15.194225374263624 0 -15.194225374263624 2.951630508818198 0 0 0 0 155.66703426456661 -7.8961794037768414 0 -7.8961794037768414 4.953868534983485 0 0 0 0 153.91000524653919 -18.249808342107826 0 -18.249808342107826 1.3505207921625697 0 0 0 0 136.3164985705007 -24.722261247167808 0 -24.722261247167808 -1.0282670085071004 0 0 0 0 41.746569444212454 -25.401697557905464 0 -25.401697557905464 -12.406991574081694 0 0 0 0 -48.473250656279561 -220.57473886280832 0 -220.57473886280832 -150.87774912582381 0 0 0 0 -44.272850329234643 -274.93254520670234 0 -274.93254520670234 550.18784689365066 0 0 0 0 507.79949090151058 -38.469184551519902 0 -38.469184551519902 -294.17825272088794 0 0 0 0 681.25724928401087 277.50236065688182 0 277.50236065688182 -118.64908399211163 0 0 0 0 87.000426442575645 10.92674763647392 0 10.92674763647392 5.6594880716857006 0 0 0 0 252.13261438340578 175.88514925523077 0 175.88514925523077 -101.05386677629576 0 0 0 0 82.141645035999318 -12.530976381820437 0 -12.530976381820437 -1.659384810148822 0 0 0 0 27.600498288993549 -220.83433254569627 0 -220.83433254569627 -113.58981588158713 0 0 0 0 63.205897422983327 -22.514928748787295 0 -22.514928748787295 -5.9836555689809714 0 0 0 0 68.149180884237254 -12.967792576661743 0 -12.967792576661743 -3.2745053286787904 0 0 0 0 89.68392938172974 3.6396431134432987 0 3.6396431134432987 0.39696843855381303 0 0 0 0 81.265677560630138 202.69126028602113 0 202.69126028602113 -69.972299285855115 0 0 0 0 70.287609237973811 -267.31583745012904 0 -267.31583745012904 -341.71278660152529 0 0 0 0 9.9872831334446559 5.3999975199159218 0 5.3999975199159218 -0.84279029756922696 0 0 0 0 164.77357988202493 -223.17796660953536 0 -223.17796660953536 -347.52484474252196 0 0 0 0 86.044848959158116 -228.27174546870083 0 -228.27174546870083 -321.20529680009713 0 0 0 0 -47.60758304798037 -168.92787320218122 0 -168.92787320218122 -241.3256833253763 0 0 0 0 206.73733297827857 -72.523849516990595 0 -72.523849516990595 -256.52092687245295 0 0 0 0 92.463728128790535 -168.85594812967065 0 -168.85594812967065 -334.40246978196228 0 0 0 0 175.90567116534112 -9.7437380733008467 0 -9.7437380733008467 -384.13286471493848 0 0 0 0 149.47249105698575 56.774769938194368 0 56.774769938194368 -357.33292095107754 0 0 0 0 289.88381083756758 107.45914551471287 0 107.45914551471287 -346.94177865551046 0 0 0 0 132.00726775090334 65.244112995504111 0 65.244112995504111 -289.50430280343426 0 0 0 0 94.332250981551624 -42.071497858145449 0 -42.071497858145449 -304.51407658052631 0 0 0 0 267.94399106226047 -26.046053071744609 0 -26.046053071744609 -462.38124487364985 0 0 0 0 76.72459188475905 -8.0634027204367467 0 -8.0634027204367467 -7.5973910803666413 0 0 0 0 114.352631268197 -1.0457866907672724 0 -1.0457866907672724 5.2107899708607874 0 0 0 0 10.752175119935565 4.7448003875076399 0 4.7448003875076399 -1.7982222594280302 0 0 0 0 74.582687660113152 -138.04199304370741 0 -138.04199304370741 -376.72268329105827 0 0 0 0 130.27302795327887 -16.41786715309172 0 -16.41786715309172 -299.82083338961093 0 0 0 0 -50.501745882611431 -62.135475445222255 0 -62.135475445222255 -174.45165312640165 0 0 0 0 -77.133199458228773 109.91734552654816 0 109.91734552654816 78.212614060757915 0 0 0 0 67.452849756278738 10.410438714832708 0 10.410438714832708 -3.3978363649694074 0 0 0 0 11.098145208049459 2.2840469998433761 0 2.2840469998433761 -3.0010672011528428 0 0 0 0 70.689713669887169 15.776429413737105 0 15.776429413737105 5.3887982248746482 0 0 0 0 99.704003060728155 52.978519863311703 0 52.978519863311703 45.850575276082964 0 0 0 0 79.292863021531048 56.973510295038977 0 56.973510295038977 -85.088252235585969 0 0 0 0 24.74692347081875 4.4731863077713037 0 4.4731863077713037 1.716806296266256 0 0 0 0 63.828130429380927 -11.245424055396546 0 -11.245424055396546 -9.377334658211133 0 0 0 0 112.26328425537213 3.0959244284385932 0 3.0959244284385932 2.8788568538293475 0 0 0 0 128.35151426537777 -9.9729038115219737 0 -9.9729038115219737 -196.74207614925399 0 0 0 0 127.09385040926463 132.34182781002255 0 132.34182781002255 -257.3052615393608 0 0 0 0 119.00683993578423 64.363930841551337 0 64.363930841551337 -187.70815616139953 0 0 0 0 -153.42783065347703 477.11138986880906 0 477.11138986880906 -321.77641194103671 0 0 0 0 173.56810560214581 150.16029531675213 0 150.16029531675213 -354.01722928571326 0 0 0 0 441.15871988770414 154.16661506884066 0 154.16661506884066 -377.1241298441264 0 0 0 0 619.04522965256365 -6.0781679677265856 0 -6.0781679677265856 -273.65190564901604 0 0 0 0 603.5455430649854 129.4088823947568 0 129.4088823947568 -75.922191794102218 0 0 0 0 199.07682380158349 365.38220053607074 0 365.38220053607074 38.985412958822053 0 0 0 0 94.619092181036649 144.96015041891724 0 144.96015041891724 -333.66774610076754 0 0 0 0 426.74896352074029 421.98567198163892 0 421.98567198163892 632.64091921422914 0 0 0 0 955.09349621710498 585.56933003142876 0 585.56933003142876 94.399182205175748 0 0 0 0 1769.9465986460982 403.75835905081385 0 403.75835905081385 151.58921222914978 0 0 0 0 852.29883739648312 6.4801592123513956 0 6.4801592123513956 -16.067377589391981 0 0 0 0 831.21660836298906 869.97253415159412 0 869.97253415159412 1073.5863194935609 0 0 0 0 693.40502490175277 91.150217111256097 0 91.150217111256097 1328.563429193722 0 0 0 0 64.374406896047731 45.48707097488932 0 45.48707097488932 132.51869725497636 0 0 0 0 59.290524813666707 79.690247412988356 0 79.690247412988356 274.88666640978317 0 0 0 0 2.2952569307308295 -104.63468964125059 0 -104.63468964125059 477.75355744993249 0 0 0 0 1040.3740235269397 -574.85353839675099 0 -574.85353839675099 374.6549790330846 0 0 0 0 189.43299748194659 -224.10813077626426 0 -224.10813077626426 804.13685695093409 0 0 0 0 361.06590901060918 -152.05516266870563 0 -152.05516266870563 166.73076652739655 0 0 0 0 238.96108815316529 -327.3580041379505 0 -327.3580041379505 198.18885663017863 0 0 0 0 45.251500384212704 -183.7945419339394 0 -183.7945419339394 93.875213354504922 0 0 0 0 221.46804060870272 -166.06452898855878 0 -166.06452898855878 -112.36686963000466 0 0 0 0 107.43695782991927 -329.87091619977809 0 -329.87091619977809 -45.563833074644208 0 0 0 0 359.33327584106883 -338.38003896814735 0 -338.38003896814735 102.65464991809813 0 0 0 0 746.80197568373842 -202.19752662857718 0 -202.19752662857718 -201.42099645118287 0 0 0 0 325.47994738845227 -130.13301049806432 0 -130.13301049806432 -212.34106315816985 0 0 0 0 468.67568385111213 -145.52926663492781 0 -145.52926663492781 -356.25342838485267 0 0 0 0 234.9312819093102 -97.171574180463722 0 -97.171574180463722 -362.70405855585886 0 0 0 0 284.25784631396527 -140.21427042773939 0 -140.21427042773939 -334.87509616140778 0 0 0 0 337.76661445590071 -61.497767331144132 0 -61.497767331144132 -370.01806624830442 0 0 0 0 79.133780631265836 -191.37338381931295 0 -191.37338381931295 -281.52753516661141 0 0 0 0 299.79379091952796 -301.60786492544503 0 -301.60786492544503 -240.9019603034285 0 0 0 0 175.58224586115466 -252.61797665863742 0 -252.61797665863742 -329.71221811920623 0 0 0 0 -315.08387410733849 -260.32030186062548 0 -260.32030186062548 -145.37427339381065 0 0 0 0 -333.54814336698655 -568.81309146693548 0 -568.81309146693548 -219.6038985545747 0 0 0 0 74.690184873790258 -162.52614815370453 0 -162.52614815370453 -377.38337765332108 0 0 0 0 585.72734193093493 273.78934422710518 0 273.78934422710518 31.64197926851557 0 0 0 0 1.6340139512794849 -226.31824374968892 0 -226.31824374968892 90.329128180444968 0 0 0 0 33.824945164886103 -3.3280103227942055 0 -3.3280103227942055 5.9833319969044112 0 0 0 0 0.930130483952464 -2.9369275047944408 0 -2.9369275047944408 0.8250981783716469 0 0 0 0 95.405676413574838 105.81295840859093 0 105.81295840859093 165.16251842501151 0 0 0 0 655.50958063952248 -310.18308546699632 0 -310.18308546699632 -295.81416258448371 0 0 0 0 -371.48972935396523 65.317375704186816 0 65.317375704186816 62.529692212843656 0 0 0 0 213.68038889922718 -174.17905123056516 0 -174.17905123056516 -105.7262661727691 0 0 0 0 -2.2890130039195355 -392.74343773284818 0 -392.74343773284818 -223.47918603797899 0 0 0 0 52.227197314339719 -244.98926751590443 0 -244.98926751590443 -173.59076831483799 0 0 0 0 -139.05867288807167 -311.66384069722972 0 -311.66384069722972 -4.4187879742421501 0 0 0 0 -37.751293235880439 -183.36240940623338 0 -183.36240940623338 140.38407974769325 0 0 0 0 17.207124714406291 -282.16967546193405 0 -282.16967546193405 -31.609295745791314 0 0 0 0 -170.3531373014448 -191.87030501920981 0 -191.87030501920981 -18.682839766930556 0 0 0 0 -37.136955155352553 -189.04097283605643 0 -189.04097283605643 -127.22967945286109 0 0 0 0 -238.9063986587862 -252.50949429421962 0 -252.50949429421962 -103.89357573303641 0 0 0 0 -178.8299826455841 -181.07746236275489 0 -181.07746236275489 -89.261094135002168 0 0 0 0 -204.41448618049617 -123.91898328012758 0 -123.91898328012758 -153.19831284400425 0 0 0 0 -75.207964114925744 -41.844957112461543 0 -41.844957112461543 -10.899862432732334 0 0 0 0 -232.71904100973916 -93.240772005121471 0 -93.240772005121471 56.039018101303441 0 0 0 0 11.769559971389754 -131.75144440754298 0 -131.75144440754298 77.619811222539283 0 0 0 0 -60.945191470727877 -75.66635306880562 0 -75.66635306880562 67.496612238171565 0 0 0 0 -12.966856533803366 9.2874098050451721 0 9.2874098050451721 209.05733165987476 0 0 0 0 1070.9362879704095 -462.94875564108679 0 -462.94875564108679 -471.14408334346444 0 0 0 0 3.4740518826778342 -4.0740010655511671 0 -4.0740010655511671 2.7627527396317078 0 0 0 0 465.30974896314137 54.942832323009725 0 54.942832323009725 10.96084719125065 0 0 0 0 468.09329141748458 -4.8807748932031245 0 -4.8807748932031245 11.060997095904895 0 0 0 0 1116.5030693521912 155.25048183782746 0 155.25048183782746 -261.73630940214207 0 0 0 0 -578.11768460516487 -331.61507917780591 0 -331.61507917780591 83.87917104375083 0 0 0 0 -323.61215947888195 -118.2544719647467 0 -118.2544719647467 62.249251326824378 0 0 0 0 -226.22487406338769 -175.39701199112642 0 -175.39701199112642 -15.768643588044142 0 0 0 0 -465.25228997592785 -34.652356679894183 0 -34.652356679894183 -65.920732981523543 0 0 0 0 285.75755708719407 23.613040271589853 0 23.613040271589853 216.42408824204176 0 0 0 0 -206.13248806680349 -138.07602797066284 0 -138.07602797066284 -268.39646708283726 0 0 0 0 -235.3016504341067 -246.73068057598539 0 -246.73068057598539 -209.90213847430641 0 0 0 0 438.55147732987461 195.3949343127897 0 195.3949343127897 150.45834324198586 0 0 0 0 727.66770602390125 8.0531151161603702 0 8.0531151161603702 52.298624757204379 0 0 0 0 698.71097704917338 141.84882388572078 0 141.84882388572078 85.097580053734418 0 0 0 0 121.19925731171588 -107.9686504424094 0 -107.9686504424094 5.9218620469946472 0 0 0 0 694.70962050849892 42.92992172626299 0 42.92992172626299 -137.39118006173521 0 0 0 0 258.76960776789565 261.9078025757799 0 261.9078025757799 87.59091066412293 0 0 0 0 5.3375860506786097 -2.8913180205556444 0 -2.8913180205556444 2.7251575696901398 0 0 0 0 734.04809302963986 -53.700000314122008 0 -53.700000314122008 105.77095609798562 0 0 0 0 0.41219696569378605 -5.0564714554564532 0 -5.0564714554564532 9.2897045487458954 0 0 0 0 653.49819504976767 23.844513671067034 0 23.844513671067034 95.977508048408026 0 0 0 0 898.05939865324763 -0.33214811509787978 0 -0.33214811509787978 -113.42605500400896 0 0 0 0 29.311509045388448 -98.463815243221688 0 -98.463815243221688 74.858459063718328 0 0 0 0 570.03327322393125 -76.766409642834333 0 -76.766409642834333 -33.964696717892366 0 0 0 0 611.27664954540523 84.417379567650642 0 84.417379567650642 62.441652408186428 0 0 0 0 807.46489770463086 39.806452111541148 0 39.806452111541148 -38.755995068131597 0 0 0 0 -524.55066353125585 -224.62971329323045 0 -224.62971329323045 48.86897124432835 0 0 0 0 277.28887921295552 -120.5450452106104 0 -120.5450452106104 108.07108808160046 0 0 0 0 2.5822338393848412 -10.327584957436724 0 -10.327584957436724 7.1553543671783331 0 0 0 0 436.65981822423782 -31.858167923110159 0 -31.858167923110159 -92.23930606543945 0 0 0 0 432.83697605031921 -71.521863109630431 0 -71.521863109630431 40.123754120948433 0 0 0 0 16.702386103283516 132.94431223631591 0 132.94431223631591 -45.940905001427382 0 0 0 0 -55.335038712048117 91.901182819850874 0 91.901182819850874 182.22499362960662 0 0 0 0 93.010232936510874 -402.18267376876065 0 -402.18267376876065 275.66502530872822 0 0 0 0 -7.9376784453393157 92.514530929757711 0 92.514530929757711 14.888755913409113 0 0 0 0 -326.71580945704386 -140.19919177688234 0 -140.19919177688234 22.356284271299955 0 0 0 0 876.81824878451152 -228.29934255196895 0 -228.29934255196895 -83.037156279884584 0 0 0 0 555.36824339692248 -151.69086989074276 0 -151.69086989074276 -45.51592238311423 0 0 0 0 -299.54032805668612 286.15353975919061 0 286.15353975919061 55.327608365529159 0 0 0 0 -729.52041090641796 240.7852794357641 0 240.7852794357641 194.64966355572324 0 0 0 0 -12.979858173152365 -25.292945166966142 0 -25.292945166966142 14.32810976885029 0 0 0 0 130.58842594054295 -91.156437928948435 0 -91.156437928948435 -193.99241841721232 0 0 0 0 81.170031285031541 -99.587188393552026 0 -99.587188393552026 17.917363810636743 0 0 0 0 114.83366543032479 -17.220361894293585 0 -17.220361894293585 0.62962302345715315 0 0 0 0 104.4668068431929 -28.418358768820326 0 -28.418358768820326 -81.466271033190424 0 0 0 0 60.275239737293305 -97.869942974779406 0 -97.869942974779406 22.331082360198707 0 0 0 0 48.77504265998293 -25.954594610053782 0 -25.954594610053782 25.783454277663871 0 0 0 0 1464.3767014671648 -289.751313934672 0 -289.751313934672 -510.71043326258223 0 0 0 0 -37.822922666848172 -84.628837561096589 0 -84.628837561096589 16.941391092634149 0 0 0 0 34.075778768350574 -74.610385902124108 0 -74.610385902124108 11.536348934059788 0 0 0 0 12.828816593369993 -37.30763702618242 0 -37.30763702618242 -5.8008173506059393 0 0 0 0 128.49122806655998 -2.4976512990025057 0 -2.4976512990025057 -6.7790703397013488 0 0 0 0 167.61465465216315 -14.656680030488587 0 -14.656680030488587 24.209486358773574 0 0 0 0 184.29294796411705 0.22551961251883768 0 0.22551961251883768 -20.294114612876001 0 0 0 0 134.59776817412057 53.080934949315633 0 53.080934949315633 62.390296893321647 0 0 0 0 102.92690783031321 131.80004529376129 0 131.80004529376129 63.394611479641753 0 0 0 0 43.853784127057835 6.5535261451659679 0 6.5535261451659679 -1.7656608285062063 0 0 0 0 108.28879303938447 -27.632480455302357 0 -27.632480455302357 45.016405641188612 0 0 0 0 -17.449569677104364 -439.10810115253594 0 -439.10810115253594 -40.502156220110919 0 0 0 0 140.68032581396065 -8.4762013461377101 0 -8.4762013461377101 -7.2869372342942142 0 0 0 0 198.74573191352101 2.523682770155574 0 2.523682770155574 -118.00400569528028 0 0 0 0 33.861501874842276 2.5610096336184469 0 2.5610096336184469 1.4387418129520455 0 0 0 0 225.36749528396103 81.421323731621669 0 81.421323731621669 -129.16084106776543 0 0 0 0 224.80469414047911 19.421981055433207 0 19.421981055433207 -44.590974319027737 0 0 0 0 79.028772013390608 -255.07904848385965 0 -255.07904848385965 -389.60672001889179 0 0 0 0 312.33159423347752 24.985904100514745 0 24.985904100514745 -18.429773816176748 0 0 0 0 307.1863713591174 81.841071224227562 0 81.841071224227562 -102.84934162972422 0 0 0 0 19.402980350280899 -18.158639631088136 0 -18.158639631088136 15.099383128003083 0 0 0 0 184.58363787125927 196.27814162158984 0 196.27814162158984 192.03103677130002 0 0 0 0 259.57875300350861 175.77292428342753 0 175.77292428342753 14.305160211394082 0 0 0 0 -20.703745702558081 26.61027184975319 0 26.61027184975319 24.50591021454602 0 0 0 0 -75.387633428181289 -0.2729024402469804 0 -0.2729024402469804 34.663201368133741 0 0 0 0 215.15259694225642 161.20456125269811 0 161.20456125269811 322.87351725993358 0 0 0 0 534.39827896693077 524.97460726731742 0 524.97460726731742 256.26325990441728 0 0 0 0 37.327101291477447 17.702750221274073 0 17.702750221274073 115.32462137335642 0 0 0 0 6.9952216952957826 -4.86486945570784 0 -4.86486945570784 4.9076852543995031 0 0 0 0 -67.237737568422745 -83.944459771955735 0 -83.944459771955735 -50.384113064308622 0 0 0 0 44.05697024309211 12.087464759130398 0 12.087464759130398 -65.771525290932914 0 0 0 0 -83.799401287731598 -25.282885535707464 0 -25.282885535707464 -133.76077297112897 0 0 0 0 -193.30243536745911 -88.623535266986437 0 -88.623535266986437 -59.849705711971183 0 0 0 0 -151.5902821165655 -137.16382583188533 0 -137.16382583188533 -218.94271909422787 0 0 0 0 -172.99614269957056 -186.48877092692464 0 -186.48877092692464 -170.00507528203525 0 0 0 0 -137.12658384807946 -211.40688128727879 0 -211.40688128727879 -156.77989197526404 0 0 0 0 -99.396222507508355 -169.29374315969471 0 -169.29374315969471 -201.96268948129 0 0 0 0 -107.47303578689753 -133.65803169109131 0 -133.65803169109131 -28.481054991294513 0 0 0 0 -3.2811043724796036 -139.61980828483047 0 -139.61980828483047 -120.71551074337731 0 0 0 0 17.615986300625735 -180.21366316843051 0 -180.21366316843051 -46.260111640294781 0 0 0 0 17.051597263991937 -81.217575436940564 0 -81.217575436940564 -8.2883632272278192 0 0 0 0 -109.19103133308818 -66.434768520821308 0 -66.434768520821308 6.6171750850771787 0 0 0 0 -70.183091206978133 -80.374237134603391 0 -80.374237134603391 -80.166756379019716 0 0 0 0 343.04488398993635 -41.756171984116008 0 -41.756171984116008 -76.675530663254904 0 0 0 0 328.03428113057089 -91.471247677638985 0 -91.471247677638985 -214.00787509658039 0 0 0 0 85.668968477599265 -312.20864141054153 0 -312.20864141054153 -189.87144322000677 0 0 0 0 356.96823255866911 -145.71858965367664 0 -145.71858965367664 -125.39175555758993 0 0 0 0 -26.217557260919421 -148.26592026724029 0 -148.26592026724029 -57.754036835652641 0 0 0 0 473.16629399037629 -258.82950930424431 0 -258.82950930424431 -309.71331925209688 0 0 0 0 -123.30353487238517 -475.2524238396951 0 -475.2524238396951 -386.25604882701555 0 0 0 0 319.82365895808471 75.988416955926368 0 75.988416955926368 30.575791962067342 0 0 0 0 608.04537967282522 46.624299011803032 0 46.624299011803032 -164.01019812811865 0 0 0 0 116.91680512192397 80.873862634958641 0 80.873862634958641 -39.441575247925357 0 0 0 0 15.542846984471808 10.786261224192792 0 10.786261224192792 -27.755383315694075 0 0 0 0 326.00231640334459 98.164020588910148 0 98.164020588910148 -59.41002131134519 0 0 0 0 210.10653221033499 -87.187950043607771 0 -87.187950043607771 114.60437951342283 0 0 0 0 -1.1860991754947463 15.299993091802662 0 15.299993091802662 -2.4518504569959987 0 0 0 0 0.42301559663354737 1.608691796639377 0 1.608691796639377 -1.4289096638735153 0 0 0 0 -17.840630059043178 43.87750240905666 0 43.87750240905666 -51.487489413334515 0 0 0 0 216.90237249375787 -114.8070441806085 0 -114.8070441806085 15.463325771426753 0 0 0 0 14.578182161286968 9.3207640360080646 0 9.3207640360080646 -34.659364764837463 0 0 0 0 310.84650831724866 -92.495225934389964 0 -92.495225934389964 -98.171336691069882 0 0 0 0 181.04592346084428 14.130007397220538 0 14.130007397220538 -88.041630635607362 0 0 0 0 30.238189321134996 -45.482257006744476 0 -45.482257006744476 -13.64087641084916 0 0 0 0 27.233441348756486 2.3862040546777195 0 2.3862040546777195 -22.250698098210641 0 0 0 0 31.572214974042254 29.055844037389701 0 29.055844037389701 -70.716392650569105 0 0 0 0 210.01609320198986 -113.3755208036749 0 -113.3755208036749 -34.967520627756016 0 0 0 0 59.985062155661581 39.760194427459396 0 39.760194427459396 28.804826240856528 0 0 0 0 178.75381750803353 11.226246591790186 0 11.226246591790186 -23.298905219806045 0 0 0 0 23.033723275260186 2.2808755417916515 0 2.2808755417916515 -31.493332145467562 0 0 0 0 55.949717573643284 -2.3647150412316478 0 -2.3647150412316478 -14.638620711239241 0 0 0 0 22.992816478864583 -2.0176452050709344 0 -2.0176452050709344 -33.672859312144944 0 0 0 0 163.99203322939138 -189.66407628422712 0 -189.66407628422712 8.5298960588640966 0 0 0 0 267.36190429753697 -84.717789126079879 0 -84.717789126079879 -1.8317916304149549 0 0 0 0 246.09929614059001 -126.11764407897226 0 -126.11764407897226 -53.017019633040036 0 0 0 0 135.48493516033341 -113.73087047778608 0 -113.73087047778608 40.459901602546097 0 0 0 0 143.29038227692945 -124.98542925751099 0 -124.98542925751099 -30.229063821287127 0 0 0 0 160.80299796402687 -181.6140886552439 0 -181.6140886552439 -87.908364585773597 0 0 0 0 108.08231667535074 -152.87071591574841 0 -152.87071591574841 -11.262847680474806 0 0 0 0 296.63810879577068 -180.89754741173965 0 -180.89754741173965 -29.378243234401452 0 0 0 0 24.418287159613694 -4.6341865842640004 0 -4.6341865842640004 0.85668048604472347 0 0 0 0 81.755143293922174 -91.328970810064561 0 -91.328970810064561 15.213271147091291 0 0 0 0 372.09350299317884 -108.96683939294417 0 -108.96683939294417 -45.858063223007775 0 0 0 0 191.1113499821804 -177.61042441957761 0 -177.61042441957761 45.887342415264357 0 0 0 0 254.46319495078933 -96.147289760652711 0 -96.147289760652711 -55.538325998670189 0 0 0 0 223.13822427255218 -127.32971137137065 0 -127.32971137137065 7.4494276853110932 0 0 0 0 105.66182174714049 -35.109031303189113 0 -35.109031303189113 -45.016417219550931 0 0 0 0 123.4655513187754 -87.022281085053692 0 -87.022281085053692 -34.246819903128198 0 0 0 0 309.97068167108227 -107.22889263481193 0 -107.22889263481193 -98.797952954606444 0 0 0 0 194.73257905371429 -149.8947861161505 0 -149.8947861161505 95.614309528420563 0 0 0 0 49.017572535027284 -50.438964869521442 0 -50.438964869521442 -21.712370147804904 0 0 0 0 129.32208446609081 -69.901757216992095 0 -69.901757216992095 25.194952614224292 0 0 0 0 190.39348115448956 -156.43141279104748 0 -156.43141279104748 54.733711910972488 0 0 0 0 -711.93373312444351 -362.35888343209297 0 -362.35888343209297 -43.782631320405926 0 0 0 0 42.042478544119902 -0.49104397858693005 0 -0.49104397858693005 -19.262338898789793 0 0 0 0 290.2130997997665 -180.45608505839027 0 -180.45608505839027 9.8993697989353677 0 0 0 0 267.69461568570114 20.829963682612288 0 20.829963682612288 26.729476853157394 0 0 0 0 49.068555723268787 -43.006392788913757 0 -43.006392788913757 5.6509136773777371 0 0 0 0 30.544563749906956 -17.790963238941913 0 -17.790963238941913 -10.803340764265158 0 0 0 0 -6.8185925246630177 -164.01350788995001 0 -164.01350788995001 0.89432175691035809 0 0 0 0 85.612029641199371 -39.10034733160753 0 -39.10034733160753 -2.1609468824462255 0 0 0 0 146.81585814737096 -83.199581585787399 0 -83.199581585787399 -0.017600911354058724 0 0 0 0 -106.61963057997127 -219.59143800871243 0 -219.59143800871243 -126.22219589590532 0 0 0 0 -8.510387199356046 -58.768590587897052 0 -58.768590587897052 39.601022898339579 0 0 0 0 -43.187198971761973 -200.32937548809059 0 -200.32937548809059 58.031766782321938 0 0 0 0 -3.2697776062595949 -131.93594643638426 0 -131.93594643638426 -52.469748316096229 0 0 0 0 97.018026403637123 -59.025880639968818 0 -59.025880639968818 39.130912773558521 0 0 0 0 77.610834547071136 -21.965405173752515 0 -21.965405173752515 -18.295638862793567 0 0 0 0 133.79235406257794 -14.574511683403443 0 -14.574511683403443 -77.906779406349415 0 0 0 0 57.974320489952589 5.9255204387637832 0 5.9255204387637832 -46.006431163906541 0 0 0 0 40.805331180677349 -20.868028785298144 0 -20.868028785298144 -36.634681238471813 0 0 0 0 118.59358323450579 5.7986733926082934 0 5.7986733926082934 -101.3110065508663 0 0 0 0 38.53912436032806 -10.642276034654515 0 -10.642276034654515 -17.700070094490911 0 0 0 0 86.861001336459594 16.979753439888782 0 16.979753439888782 -53.299642384233493 0 0 0 0 31.820854150527587 -17.169900121770127 0 -17.169900121770127 -8.7063202845447236 0 0 0 0 62.326464926984727 -25.487683182107276 0 -25.487683182107276 -6.3389289427086624 0 0 0 0 54.274956546137219 8.220859574939368 0 8.220859574939368 -3.1210414971715181 0 0 0 0 34.0282601505766 -3.074255627829789 0 -3.074255627829789 -14.632102076612284 0 0 0 0 45.499935301654908 3.7096402065076752 0 3.7096402065076752 -10.384890347033183 0 0 0 0 66.568052346116019 -0.52103008894346203 0 -0.52103008894346203 -23.895159810956102 0 0 0 0 39.253302015422378 -1.9408922935208466 0 -1.9408922935208466 -57.780176197378751 0 0 0 0 20.03225304937223 -14.705074557543412 0 -14.705074557543412 -25.909748398546071 0 0 0 0 27.853721796568223 -23.540405038199879 0 -23.540405038199879 -30.614467101433323 0 0 0 0 92.429442750184876 -17.350175263784326 0 -17.350175263784326 -21.241125296186571 0 0 0 0 48.885464109276654 -4.2664206916088006 0 -4.2664206916088006 -46.776429601493874 0 0 0 0 36.702914207334906 -2.8352907204472899 0 -2.8352907204472899 -23.193537152305531 0 0 0 0 49.73838154382247 -13.567416501566186 0 -13.567416501566186 -24.374740887865755 0 0 0 0 -53.363226351459161 -129.95668129946353 0 -129.95668129946353 175.99089775865286 0 0 0 0 -0.66960682946246664 -22.415372667736278 0 -22.415372667736278 -1.3278059853948501 0 0 0 0 36.498272269182962 -86.960634362710152 0 -86.960634362710152 -7.0648827645345591 0 0 0 0 15.915595711372589 -95.276667319427361 0 -95.276667319427361 -38.759584807165083 0 0 0 0 61.655628620683274 -11.26754940432329 0 -11.26754940432329 -4.939248381593643 0 0 0 0 63.713475267330068 -45.824522478163999 0 -45.824522478163999 -2.9662144913449993 0 0 0 0 43.632405610914937 -69.299119934324153 0 -69.299119934324153 -10.730168107742955 0 0 0 0 56.954556746131857 -41.501393994316459 0 -41.501393994316459 -30.281440329155885 0 0 0 0 51.345641976603567 -45.681358227390817 0 -45.681358227390817 -41.768524972240648 0 0 0 0 69.094435357369861 -11.254638751263968 0 -11.254638751263968 -45.460876919455202 0 0 0 0 80.938050136406673 -16.013136891822796 0 -16.013136891822796 -45.848769216696383 0 0 0 0 93.197118100550142 -29.719894342677435 0 -29.719894342677435 -49.181974061953952 0 0 0 0 78.780837763042655 -29.523177779468824 0 -29.523177779468824 -47.05836062349772 0 0 0 0 77.251284714566395 -25.446616402456232 0 -25.446616402456232 -25.060701958114379 0 0 0 0 70.092012951368815 -24.557403409602557 0 -24.557403409602557 -33.276655698726245 0 0 0 0 34.217929421339093 -22.817477524753716 0 -22.817477524753716 -34.630585782028575 0 0 0 0 16.414481032257967 -11.50698652015458 0 -11.50698652015458 -13.421559624490939 0 0 0 0 19.491135711752577 -18.080385700246552 0 -18.080385700246552 -32.226862662691474 0 0 0 0 93.3589574145482 -21.148536591902655 0 -21.148536591902655 -17.41598598625415 0 0 0 0 29.625607806081749 -19.55439075462229 0 -19.55439075462229 -4.633964440367464 0 0 0 0 41.511900303224763 2.6482308368983301 0 2.6482308368983301 -9.2089054643578763 0 0 0 0 7.8213185868432369 -24.708759078198099 0 -24.708759078198099 -10.458610829552221 0 0 0 0 55.536542913123412 -30.283955704335312 0 -30.283955704335312 -2.9196139418854727 0 0 0 0 19.34592323672954 -5.1413881784652329 0 -5.1413881784652329 -10.79636659914916 0 0 0 0 85.391076008645541 -18.368771795405337 0 -18.368771795405337 -7.2839322543877643 0 0 0 0 9.3651673174984875 -21.203690222594091 0 -21.203690222594091 0.24105283823971746 0 0 0 0 51.770702527370304 -33.584789503276625 0 -33.584789503276625 -3.7267682275560219 0 0 0 0 7.4282574680192903 -11.320278562446642 0 -11.320278562446642 -6.8531245703424304 0 0 0 0 34.225194916845339 -2.4917119137680857 0 -2.4917119137680857 -9.7032873542730158 0 0 0 0 86.947307408884512 -26.050762151440495 0 -26.050762151440495 -19.39633204137499 0 0 0 0 36.712619172066297 -5.8919661665540843 0 -5.8919661665540843 -14.111380629773407 0 0 0 0 9.1746274369535712 -3.6134707601401956 0 -3.6134707601401956 -3.4114943181413864 0 0 0 0 51.946289899166004 -17.473019588819625 0 -17.473019588819625 -2.215318975635455 0 0 0 0 88.159867353649815 -20.990397546188888 0 -20.990397546188888 -19.261862881376146 0 0 0 0 8.4725247865932047 -19.282176305206612 0 -19.282176305206612 -2.6000574604964086 0 0 0 0 65.598143288864776 -18.678242834808771 0 -18.678242834808771 -6.1064971744017384 0 0 0 0 11.285717373235952 -6.7855472461562023 0 -6.7855472461562023 -11.676093210508633 0 0 0 0 31.918411111904021 -11.688133081845955 0 -11.688133081845955 -0.8735039920511789 0 0 0 0 37.983288097110744 -2.5268700900969634 0 -2.5268700900969634 2.2221191637993343 0 0 0 0 53.875858567135992 -36.145629267996867 0 -36.145629267996867 -6.7909954880130954 0 0 0 0 43.124158105219976 -4.9062227606116835 0 -4.9062227606116835 -21.044939721043193 0 0 0 0 25.620742768478863 -26.147813941019308 0 -26.147813941019308 -20.438092200859501 0 0 0 0 24.718071674453938 -9.9155693356292876 0 -9.9155693356292876 -19.771650526128738 0 0 0 0 47.78996021774492 8.081380247720773 0 8.081380247720773 -9.4896138982078497 0 0 0 0 30.038255387585558 4.0097649273247722 0 4.0097649273247722 -10.701237153482149 0 0 0 0 35.942087647304476 -6.4408342126477134 0 -6.4408342126477134 -14.104548540175717 0 0 0 0 24.885148510884392 -7.5608037391884864 0 -7.5608037391884864 5.2378342200854604 0 0 0 0 55.564464041235624 -1.5930914106631917 0 -1.5930914106631917 -9.8246590343810567 0 0 0 0 44.022902821222942 2.1129558150432217 0 2.1129558150432217 -0.28920525314214274 0 0 0 0 33.061822238469972 -1.716205571521388 0 -1.716205571521388 1.7586969070727112 0 0 0 0 23.761481330845619 -6.6809170201623651 0 -6.6809170201623651 -5.305408982250265 0 0 0 0 44.631557382820802 -8.3993911369230023 0 -8.3993911369230023 -7.4514370497349773 0 0 0 0 45.051352354420032 9.5133506574279387 0 9.5133506574279387 -8.4914701332113509 0 0 0 0 33.645613024598305 -2.0725436068565131 0 -2.0725436068565131 -1.8392518716553596 0 0 0 0 32.778017342719977 -5.0126685060235019 0 -5.0126685060235019 -9.7380124734117821 0 0 0 0 53.676329498643099 6.2476707970945426 0 6.2476707970945426 -14.085490702324932 0 0 0 0 92.541239075599151 -8.0304589725831761 0 -8.0304589725831761 -77.099410767746122 0 0 0 0 45.724516172169388 -80.851149662456919 0 -80.851149662456919 -20.90819559853685 0 0 0 0 58.581302614387823 44.440267993336874 0 44.440267993336874 -69.378946570754351 0 0 0 0 11.926432615641332 4.2898154994464193 0 4.2898154994464193 -1.1737525773174085 0 0 0 0 -8.1467111536912853 -110.10803545386568 0 -110.10803545386568 -128.14074149278576 0 0 0 0 83.817569178074336 -101.86611478505432 0 -101.86611478505432 -59.012012738676276 0 0 0 0 84.960259459257941 -51.61763627010987 0 -51.61763627010987 -198.92423391568479 0 0 0 0 218.58014432982054 139.28689176710742 0 139.28689176710742 -158.98086454787517 0 0 0 0 3.4609595100935451 1.234382734594238 0 1.234382734594238 0.53547303268501878 0 0 0 0 0.632733433827525 43.878095520692568 0 43.878095520692568 71.290610613519561 0 0 0 0 27.681795148972014 28.123155903141424 0 28.123155903141424 -90.805869980432476 0 0 0 0 50.003402546069992 180.90938597927277 0 180.90938597927277 90.389334636156491 0 0 0 0 56.556794653915858 -17.488112016496729 0 -17.488112016496729 -73.358845471613904 0 0 0 0 5.1453853355658268 1.6881103262490385 0 1.6881103262490385 -1.5434013015609032 0 0 0 0 66.870043275732314 -2.7936464124910572 0 -2.7936464124910572 -1.052896578731529 0 0 0 0 67.654719116109419 -0.31532894248267196 0 -0.31532894248267196 -4.4272037060992204 0 0 0 0 84.152450777852209 4.0040975447363962 0 4.0040975447363962 -0.8402262278229955 0 0 0 0 36.002738441964304 10.804457734670429 0 10.804457734670429 -5.2968651543203409 0 0 0 0 94.600243164478343 -12.544268681536934 0 -12.544268681536934 4.6640756599622364 0 0 0 0 29.336213249686441 4.666257897672784 0 4.666257897672784 -3.4859153414020199 0 0 0 0 166.60566661958728 55.792184837589048 0 55.792184837589048 -240.14842272216356 0 0 0 0 38.123246522023848 5.3259209984206155 0 5.3259209984206155 -0.65948693540750158 0 0 0 0 -80.502485265897121 139.27302205512751 0 139.27302205512751 -19.039134429798651 0 0 0 0 13.681935030677408 -1.4394561558845922 0 -1.4394561558845922 -7.051324872141862 0 0 0 0 58.542158519070654 2.171413061340445 0 2.171413061340445 -4.0806564686382671 0 0 0 0 59.74490237152304 6.1686723487098547 0 6.1686723487098547 -0.45515100750913007 0 0 0 0 45.420498972154746 -7.6404005255160001 0 -7.6404005255160001 -3.9192636178846376 0 0 0 0 67.268324799169932 1.8068894439436178 0 1.8068894439436178 -4.3130672795931417 0 0 0 0 77.833601149837705 4.5152296807411147 0 4.5152296807411147 -5.3322695287267123 0 0 0 0 17.005179007925534 -1.5154741148303081 0 -1.5154741148303081 -1.6815271918954602 0 0 0 0 67.720264350025673 5.167557184777551 0 5.167557184777551 2.5840245777370114 0 0 0 0 82.403393093517479 -5.6372487475188109 0 -5.6372487475188109 -1.0408277073082672 0 0 0 0 47.121250964766055 12.156906884203334 0 12.156906884203334 -2.7216374106128138 0 0 0 0 13.33706344824239 0.49106856030209567 0 0.49106856030209567 -0.0034302235172651574 0 0 0 0 13.099511590693261 -0.96424728775597668 0 -0.96424728775597668 5.4089906841724149 0 0 0 0 65.85167727019325 -1.8248837979366925 0 -1.8248837979366925 8.0867016251069579 0 0 0 0 67.75091976638214 7.0752911509584635 0 7.0752911509584635 2.6771807283100895 0 0 0 0 38.237616683947067 -6.2492179916716921 0 -6.2492179916716921 1.2478729721636022 0 0 0 0 33.751736105690767 5.3526332809864599 0 5.3526332809864599 0.16650721275456182 0 0 0 0 22.059185851521761 -3.179781601320542 0 -3.179781601320542 1.0191235490947292 0 0 0 0 25.163700012872134 4.5844837440837889 0 4.5844837440837889 4.3197425552991868 0 0 0 0 68.336339666680942 2.8426043687560707 0 2.8426043687560707 0.99153586500978719 0 0 0 0 34.502568144584757 3.4950079311948912 0 3.4950079311948912 0.9044149234860015 0 0 0 0 30.670395506355174 -11.0904392184537 0 -11.0904392184537 -0.73317726983103348 0 0 0 0 53.316993497719523 5.6743952283202574 0 5.6743952283202574 2.8381040276121041 0 0 0 0 1934.3496321100597 -784.54531386726023 0 -784.54531386726023 74.170145270108549 0 0 0 0 33.361319249603525 10.450194054679585 0 10.450194054679585 -9.1235527083619274 0 0 0 0 1935.7974448305044 -758.36979846083455 0 -758.36979846083455 258.96046316003464 0 0 0 0 971.27957707390851 -351.96926314836975 0 -351.96926314836975 338.08535524075785 0 0 0 0 1354.6590900361689 -564.27301351310234 0 -564.27301351310234 198.83211099104074 0 0 0 0 29.134655400663107 7.0222957605486265 0 7.0222957605486265 -1.3131914359695842 0 0 0 0 -61.78529371248078 -81.16219967180902 0 -81.16219967180902 -76.245132617117406 0 0 0 0 -32.271216666251348 7.711970381263388 0 7.711970381263388 92.891654553141592 0 0 0 0 14.926821681072127 6.4777490186606528 0 6.4777490186606528 0.60420646350633422 0 0 0 0 534.81847528164508 309.50466197848311 0 309.50466197848311 -246.27619063051534 0 0 0 0 14.991403721999744 0.49916550421410921 0 0.49916550421410921 -0.84740622844900015 0 0 0 0 -65.26660401097979 0.82878930464887901 0 0.82878930464887901 177.45295988028329 0 0 0 0 4493.2870218622475 -2476.2360047192142 0 -2476.2360047192142 1017.4694665942295 0 0 0 0 248.53384743410425 -1097.045961398597 0 -1097.045961398597 412.57451912416224 0 0 0 0 4464.4184279554793 178.73216391600727 0 178.73216391600727 -283.04778381430361 0 0 0 0 21.764028123636205 7.1088091094794192 0 7.1088091094794192 -1.0991812927047173 0 0 0 0 516.2757633582064 458.53594100929018 0 458.53594100929018 289.27760052872122 0 0 0 0 5.5643290070964042 10.587393578560608 0 10.587393578560608 0.32602660792380578 0 0 0 0 1537.1918817038168 3108.4813145022736 0 3108.4813145022736 2010.5999647553101 0 0 0 0 8.793895702370861 1.4692932882364209 0 1.4692932882364209 2.9759951786446344 0 0 0 0 18.624824959071702 10.151603010162489 0 10.151603010162489 -6.0392607750334264 0 0 0 0 65.668764975827798 2.114438435544578 0 2.114438435544578 -0.051142928532954102 0 0 0 0 131.67800368678763 25.595881873726682 0 25.595881873726682 -197.01880126260156 0 0 0 0 38.587172569325944 -0.47425037710005569 0 -0.47425037710005569 -2.5442425045345347 0 0 0 0 29.029828429644112 10.687516350026954 0 10.687516350026954 -3.9367489746359752 0 0 0 0 36.638017969820794 8.4030119534878196 0 8.4030119534878196 -6.7731790436324673 0 0 0 0 29.483961481402865 7.6391743214114047 0 7.6391743214114047 0.3740230791787918 0 0 0 0 74.029729397174378 17.028324360651979 0 17.028324360651979 -77.834610825135769 0 0 0 0 22.022530748181008 25.060964811072203 0 25.060964811072203 -1.3655562947108177 0 0 0 0 55.994955367379589 25.092808584775753 0 25.092808584775753 39.59342464016612 0 0 0 0 43.053836142632917 4.4338727756712757 0 4.4338727756712757 -7.1422666289140961 0 0 0 0 1769.3059234818884 665.65041790005159 0 665.65041790005159 343.13888526642893 0 0 0 0 4494.1798630266348 1328.1980982298437 0 1328.1980982298437 -399.56055083441038 0 0 0 0 1994.7088055103741 231.37159941757167 0 231.37159941757167 -126.26531631539807 0 0 0 0 2588.5052390878918 -281.55909459996167 0 -281.55909459996167 -406.71998389962806 0 0 0 0 4499.4135553782344 -565.47090717437845 0 -565.47090717437845 -409.91807406962789 0 0 0 0 15.410377467994699 20.346287526132691 0 20.346287526132691 -0.14832697708663936 0 0 0 0 3755.8446800570637 -929.32797263469172 0 -929.32797263469172 211.24612968262682 0 0 0 0 -35.713771016839019 234.78500561194926 0 234.78500561194926 -192.34050162519893 0 0 0 0 117.32075507395712 128.88198831216258 0 128.88198831216258 -153.05299178155363 0 0 0 0 92.827405422871379 -10.296545432748928 0 -10.296545432748928 -134.22959001217532 0 0 0 0 -62.434000880959502 78.901720084755851 0 78.901720084755851 -90.167804983796941 0 0 0 0 180.57226349491248 -8.543148404173678 0 -8.543148404173678 -149.41958076865734 0 0 0 0 92.443660852517496 72.679730194625222 0 72.679730194625222 -175.95463763202611 0 0 0 0 143.75863196055798 -1.7532354597716733 0 -1.7532354597716733 -19.272318343910335 0 0 0 0 50.630881569803023 -80.512473823435542 0 -80.512473823435542 -84.014272452285823 0 0 0 0 241.15851429817485 -211.07890127526318 0 -211.07890127526318 43.158634451187552 0 0 0 0 29.4245292230991 6.7017965103302828 0 6.7017965103302828 -17.384433798937515 0 0 0 0 9.0083495609078454 43.461729470342448 0 43.461729470342448 -44.537121558762919 0 0 0 0 185.20247343819483 -134.43399912944989 0 -134.43399912944989 164.10137748632951 0 0 0 0 -510.84752052082331 840.65165028493311 0 840.65165028493311 -37.024552140991894 0 0 0 0 4499.8328355676649 -1246.6448113926947 0 -1246.6448113926947 335.1760436451849 0 0 0 0 8.5861960049335551 7.164754874844121 0 7.164754874844121 0.15711827108957871 0 0 0 0 405.0692786133186 -41.661360013040998 0 -41.661360013040998 -243.71732840594103 0 0 0 0 177.59689241577144 -637.2983201324987 0 -637.2983201324987 1580.4619263760396 0 0 0 0 7.79570375179145 -2.2009140857129168 0 -2.2009140857129168 10.065219121761057 0 0 0 0 425.36131265750009 -628.12419607021184 0 -628.12419607021184 1227.3252579685868 0 0 0 0 -595.94962396265691 446.90489354101828 0 446.90489354101828 838.03620473973842 0 0 0 0 -69.983696409496588 1344.8145933531805 0 1344.8145933531805 -319.13324403600018 0 0 0 0 560.65674101252682 473.15046375215945 0 473.15046375215945 -325.80915800528419 0 0 0 0 316.51339430299413 -75.678991934619717 0 -75.678991934619717 -40.785692659012057 0 0 0 0 1.3902298326682825 -3.2099754284512878 0 -3.2099754284512878 -6.6370133623586121 0 0 0 0 1270.1885743039529 -770.63126644052954 0 -770.63126644052954 -335.98694571673877 0 0 0 0 269.54811149546003 359.87620693783737 0 359.87620693783737 -766.9258402495492 0 0 0 0 -10.136322132627576 -13.896970930671756 0 -13.896970930671756 -16.519815092430747 0 0 0 0 309.87637669425021 -621.80362813395686 0 -621.80362813395686 79.440086106592389 0 0 0 0 483.36403318799421 -413.72403013111307 0 -413.72403013111307 319.63409961143361 0 0 0 0 483.40721513866447 -571.97772292489776 0 -571.97772292489776 260.47357427198222 0 0 0 0 15.114578762320463 12.586080316209843 0 12.586080316209843 16.159963801589353 0 0 0 0 29.830064954054251 -23.262068770611222 0 -23.262068770611222 -29.602138865051529 0 0 0 0 7.0116813310458497 3.7219940854302536 0 3.7219940854302536 -3.5113096880023136 0 0 0 0 5.680667467036983 -67.032375808976212 0 -67.032375808976212 127.26199698404525 0 0 0 0 155.61867801938388 -109.86826512020571 0 -109.86826512020571 68.138237306236988 0 0 0 0 190.47849570921971 -642.51894361606719 0 -642.51894361606719 577.96759111374377 0 0 0 0 18.055672228769367 1.6818821058009927 0 1.6818821058009927 7.7071986782431452 0 0 0 0 105.7627750404572 143.72342569179455 0 143.72342569179455 -78.184024457463238 0 0 0 0 132.9410813026962 -126.83536718600635 0 -126.83536718600635 -132.05904597236076 0 0 0 0 272.39413767066071 134.08243471182323 0 134.08243471182323 85.144775248370934 0 0 0 0 482.73898159846431 -157.80410752903845 0 -157.80410752903845 66.764187231055985 0 0 0 0 56.516796489976969 -15.868685864865753 0 -15.868685864865753 11.258912705082032 0 0 0 0 93.995694762399125 -88.778855157464022 0 -88.778855157464022 33.206902704372624 0 0 0 0 141.19802715385958 -28.368698174850579 0 -28.368698174850579 -15.372742198818742 0 0 0 0 142.38379978548619 -24.646393574523245 0 -24.646393574523245 -24.958968482425917 0 0 0 0 -311.29665337741608 91.227089200765477 0 91.227089200765477 93.765022270748887 0 0 0 0 79.209877998321844 -16.193707208818246 0 -16.193707208818246 0.73312057603114766 0 0 0 0 5.5740746803524743 -0.89242766599760159 0 -0.89242766599760159 1.4089052136702094 0 0 0 0 -22.535750989960434 34.710080720124097 0 34.710080720124097 407.97348134912318 0 0 0 0 75.810594949538427 274.33120413886263 0 274.33120413886263 808.54974261610914 0 0 0 0 179.88118051835954 331.58616088506642 0 331.58616088506642 726.19755276286924 0 0 0 0 630.08526055780385 993.51478123127345 0 993.51478123127345 1256.2537143413745 0 0 0 0 -159.14983068406491 209.89937086995269 0 209.89937086995269 1306.7833017575904 0 0 0 0 143.69527158734854 -115.70617376535483 0 -115.70617376535483 58.039333961747616 0 0 0 0 8.4850801877090731 5.5085635314494468 0 5.5085635314494468 5.571277892831219 0 0 0 0 1203.436976884851 -939.99040500005049 0 -939.99040500005049 565.28116100353873 0 0 0 0 1106.167314377406 67.281294574930143 0 67.281294574930143 31.31446822478938 0 0 0 0 28.306533827503813 11.217951996269713 0 11.217951996269713 12.453464399703265 0 0 0 0 108.92128455694069 212.00595518627199 0 212.00595518627199 -106.7007459980814 0 0 0 0 1968.2671097529419 -848.00573459415864 0 -848.00573459415864 302.15870146973612 0 0 0 0 1336.038795683904 688.9668369765036 0 688.9668369765036 1000.6090600890784 0 0 0 0 422.5291641096992 -0.86510533929686062 0 -0.86510533929686062 1758.5215760362516 0 0 0 0 1902.492220833723 431.88514848134628 0 431.88514848134628 590.63529282487798 0 0 0 0 1245.5140018203056 -483.97293161935886 0 -483.97293161935886 1134.6017317640108 0 0 0 0 414.06069901543378 -275.74312818428734 0 -275.74312818428734 864.43901205239229 0 0 0 0 358.33632754335122 234.41272831308561 0 234.41272831308561 911.70127910886288 0 0 0 0 92.654728519173659 194.21523716666161 0 194.21523716666161 661.12774291546339 0 0 0 0 50.14636317595432 22.202023523281241 0 22.202023523281241 753.7207069572014 0 0 0 0 226.89894956239914 348.97238210244086 0 348.97238210244086 593.69774575315842 0 0 0 0 76.792202181377434 140.99338662312675 0 140.99338662312675 543.00502496466106 0 0 0 0 118.67273761542174 103.7114177742942 0 103.7114177742942 911.87181921200681 0 0 0 0 295.6737022643465 -26.412824645514775 0 -26.412824645514775 521.98666786482045 0 0 0 0 146.36609186960959 572.35036186942943 0 572.35036186942943 740.94826870828979 0 0 0 0 133.24656994769066 -5.0063597004655094 0 -5.0063597004655094 317.1862611084473 0 0 0 0 99.689605842262608 -44.079478244573693 0 -44.079478244573693 342.4747275599384 0 0 0 0 97.119113236307385 116.75406767148252 0 116.75406767148252 568.23624615949302 0 0 0 0 62.816412825711268 45.223206890657366 0 45.223206890657366 426.56904386494716 0 0 0 0 44.687986626955535 -35.697311057114348 0 -35.697311057114348 410.35991425084831 0 0 0 0 233.93777468327426 177.44882038059586 0 177.44882038059586 449.50633727766535 0 0 0 0 203.84356318902701 105.80829535708699 0 105.80829535708699 316.91334880560862 0 0 0 0 289.21851635464373 26.272608302601839 0 26.272608302601839 349.78753398849585 0 0 0 0 415.60151734560668 125.26940989979175 0 125.26940989979175 303.4304738605606 0 0 0 0 342.61231954960022 202.65022809437642 0 202.65022809437642 314.97001385509611 0 0 0 0 196.50594119983271 248.59609437727613 0 248.59609437727613 315.71923788605454 0 0 0 0 333.67511955123791 181.90674406894868 0 181.90674406894868 270.35492304143918 0 0 0 0 455.83238786490074 93.808780601813851 0 93.808780601813851 264.07017819684677 0 0 0 0 331.57510232707136 249.69299913235773 0 249.69299913235773 145.4387802717215 0 0 0 0 232.90784996165712 433.36128114557869 0 433.36128114557869 189.46378200774052 0 0 0 0 323.61845285120398 249.46046125445355 0 249.46046125445355 207.542100626295 0 0 0 0 422.47721381365045 196.45300501686279 0 196.45300501686279 95.882458853553544 0 0 0 0 256.48259329152097 36.289354349425594 0 36.289354349425594 -10.858760385086043 0 0 0 0 342.27271606297472 143.6182514867387 0 143.6182514867387 148.59871674763372 0 0 0 0 314.68065217884032 167.32915803467063 0 167.32915803467063 131.20860312120567 0 0 0 0 289.58349087328315 43.259379644493492 0 43.259379644493492 51.402825442279209 0 0 0 0 182.77372281440194 73.822845182884976 0 73.822845182884976 88.218867998601127 0 0 0 0 145.60072009667101 -33.504894729145462 0 -33.504894729145462 10.565292915889586 0 0 0 0 141.42526951019863 53.173892159045408 0 53.173892159045408 71.483980353574225 0 0 0 0 593.34660129960673 111.83519449307298 0 111.83519449307298 151.01501251197806 0 0 0 0 359.49007016752512 184.77326835318581 0 184.77326835318581 188.9882859391073 0 0 0 0 340.96561271915198 154.59075921631711 0 154.59075921631711 138.40131411924176 0 0 0 0 461.58265872824995 94.702860205055003 0 94.702860205055003 133.35155731899067 0 0 0 0 472.25126068712416 139.53487265038984 0 139.53487265038984 177.41749944720596 0 0 0 0 660.4310768822852 99.223046773748592 0 99.223046773748592 93.928558107415483 0 0 0 0 434.025252270485 172.02743569703807 0 172.02743569703807 157.32283245641338 0 0 0 0 255.17045081816286 99.121232071629493 0 99.121232071629493 89.278512632625279 0 0 0 0 377.10212376736581 36.202459296817892 0 36.202459296817892 88.555309734681941 0 0 0 0 319.12590726149938 116.20837855845775 0 116.20837855845775 106.53728105470714 0 0 0 0 207.18616402352291 -45.06497649703465 0 -45.06497649703465 83.386096373742475 0 0 0 0 481.321943313171 46.25940267402558 0 46.25940267402558 76.167594993358762 0 0 0 0 38.221472953846387 -1.4640407016672725 0 -1.4640407016672725 39.463505279916717 0 0 0 0 224.48675596632893 -15.327751307791914 0 -15.327751307791914 20.027609852718342 0 0 0 0 212.95346555276046 -25.612155674562928 0 -25.612155674562928 -46.292543105048026 0 0 0 0 79.269732772589123 -6.0020064006407665 0 -6.0020064006407665 71.816063595566447 0 0 0 0 -63.289343559119516 -85.70515435786001 0 -85.70515435786001 -32.335182000414534 0 0 0 0 89.27389590551536 -95.132957432275106 0 -95.132957432275106 -82.012476372810852 0 0 0 0 -89.760995678305335 -214.21115702583256 0 -214.21115702583256 -176.45428262205769 0 0 0 0 76.388772247327324 -27.064438484897693 0 -27.064438484897693 -51.516922987504486 0 0 0 0 -109.21218185899397 -188.3994357921481 0 -188.3994357921481 -119.14893885724086 0 0 0 0 -70.022782015537814 -58.81180526375465 0 -58.81180526375465 -54.615455574081352 0 0 0 0 -82.274302658654051 -79.933822176107242 0 -79.933822176107242 -30.361207812062275 0 0 0 0 13.770366808650579 -106.07934119703759 0 -106.07934119703759 -59.955078350363692 0 0 0 0 -11.076241497332376 -13.260069382297843 0 -13.260069382297843 40.539865939330411 0 0 0 0 -33.566018063354477 -82.496689875441689 0 -82.496689875441689 -39.519366106738744 0 0 0 0 -1.3470798869179816 13.93678648993307 0 13.93678648993307 -6.8952874286896986 0 0 0 0 -32.585337574415462 -31.73724977216807 0 -31.73724977216807 19.009410454258614 0 0 0 0 91.695214455241967 -64.680914040561674 0 -64.680914040561674 27.720293440142996 0 0 0 0 -2.7984872934157465 17.364093789058643 0 17.364093789058643 78.606106675462797 0 0 0 0 53.678939124132739 -582.45955891219273 0 -582.45955891219273 576.51928184372809 0 0 0 0 770.68136330525795 -489.85890280195304 0 -489.85890280195304 -5.4347679240754587 0 0 0 0 -21.190717853978292 -38.309423188040306 0 -38.309423188040306 -35.695086890038482 0 0 0 0 349.22010358700209 -143.50067334207188 0 -143.50067334207188 -200.24537042536485 0 0 0 0 -52.663367141010895 -86.124378223385747 0 -86.124378223385747 -63.92235256236745 0 0 0 0 68.750023004516208 -24.178244459846503 0 -24.178244459846503 -56.437110355234154 0 0 0 0 -81.732102762707655 -115.5138519242937 0 -115.5138519242937 -56.421249026720034 0 0 0 0 190.56018245407176 250.43698784558524 0 250.43698784558524 284.38655273161203 0 0 0 0 1572.7894396576157 -455.25010723289347 0 -455.25010723289347 -8.5860628402815564 0 0 0 0 0.12210765434116411 -4.2905804633743472 0 -4.2905804633743472 -2.5838962440204174 0 0 0 0 -8.3186193769852252 -122.93001450718543 0 -122.93001450718543 96.326356714083886 0 0 0 0 314.85487783779712 215.0042770789112 0 215.0042770789112 143.39418650991138 0 0 0 0 181.71743439593411 193.73151761669669 0 193.73151761669669 69.956261397451613 0 0 0 0 61.067908654833445 49.570049910594207 0 49.570049910594207 99.23826559570989 0 0 0 0 194.08618420416315 100.39513123181405 0 100.39513123181405 65.650974336452236 0 0 0 0 429.7637471207272 124.58497046241064 0 124.58497046241064 -7.4267114417457378 0 0 0 0 315.00649474362581 119.78234312991663 0 119.78234312991663 85.798428811698614 0 0 0 0 224.31322927427391 200.63872029060121 0 200.63872029060121 96.049162871142471 0 0 0 0 703.99996818952786 278.95667352016881 0 278.95667352016881 25.030304987712952 0 0 0 0 678.1338499021731 -153.21278952899047 0 -153.21278952899047 -262.21271857778447 0 0 0 0 1710.0299437052599 71.18193274658006 0 71.18193274658006 -224.78135695271249 0 0 0 0 872.55704491920915 558.79952592444079 0 558.79952592444079 240.55439148584264 0 0 0 0 851.38297415417401 -1552.5330116779483 0 -1552.5330116779483 163.61218381828076 0 0 0 0 174.54722639646207 -92.198494229067364 0 -92.198494229067364 163.28573618049177 0 0 0 0 -500.17996264628528 -151.98690871239046 0 -151.98690871239046 215.3301187840234 0 0 0 0 18.95936820148637 30.76043160574887 0 30.76043160574887 50.374452823297005 0 0 0 0 360.61970926115907 -226.07908199634755 0 -226.07908199634755 93.949275543109252 0 0 0 0 137.77813587562559 -116.21064837024369 0 -116.21064837024369 167.74624183530113 0 0 0 0 131.14842419666547 -153.99135121991503 0 -153.99135121991503 69.414441770823032 0 0 0 0 122.88270178482617 -108.76281723644263 0 -108.76281723644263 112.98370062339745 0 0 0 0 110.01249054825894 -64.977075717190928 0 -64.977075717190928 55.66162700060363 0 0 0 0 174.91118163604551 -141.55189986058826 0 -141.55189986058826 107.63020471584605 0 0 0 0 174.74210825665796 -141.47990385899811 0 -141.47990385899811 131.21170149475802 0 0 0 0 174.78117166902666 -95.854745225712577 0 -95.854745225712577 82.448806417048218 0 0 0 0 206.2709262437711 -72.100555545790485 0 -72.100555545790485 48.526428221704919 0 0 0 0 147.9386127366306 -95.280494732702209 0 -95.280494732702209 93.055615302262595 0 0 0 0 163.5682695635187 -45.940908671267607 0 -45.940908671267607 12.591413043373905 0 0 0 0 147.57115694302775 -66.230438724247506 0 -66.230438724247506 63.096619086558348 0 0 0 0 189.32288403477287 -77.902351241171345 0 -77.902351241171345 56.164485827288445 0 0 0 0 148.3956155784399 -103.32839897115537 0 -103.32839897115537 36.154772710284306 0 0 0 0 84.474775118542311 5.5690436903196314 0 5.5690436903196314 31.281470682277359 0 0 0 0 76.799897949123988 38.533337942209982 0 38.533337942209982 -10.204395119350011 0 0 0 0 35.166089475075466 -3.9795245142027227 0 -3.9795245142027227 -2.5430730880621084 0 0 0 0 115.98917355170306 -28.677281492931343 0 -28.677281492931343 -28.000721721131413 0 0 0 0 110.19274722832779 -36.393659187487629 0 -36.393659187487629 42.657838198072568 0 0 0 0 141.94192276169633 -35.138971795326142 0 -35.138971795326142 71.285543351208617 0 0 0 0 125.04966241554939 -1.0477595921311149 0 -1.0477595921311149 1.8370963171328185 0 0 0 0 139.36911912063078 -38.70214985451139 0 -38.70214985451139 66.432338585567777 0 0 0 0 113.59602699700918 18.180890590010677 0 18.180890590010677 36.397313446648695 0 0 0 0 153.57050792883092 -4.8379559477652947 0 -4.8379559477652947 96.342087345239634 0 0 0 0 192.26085049309768 -36.951949272771344 0 -36.951949272771344 96.512804879534087 0 0 0 0 209.25474325442337 -90.811590258572323 0 -90.811590258572323 78.868072130080691 0 0 0 0 167.49411291537399 -75.898010175562376 0 -75.898010175562376 128.3417810182109 0 0 0 0 234.08140395663941 -179.49432898944087 0 -179.49432898944087 258.22609443883266 0 0 0 0 204.44472498422692 -102.3809377408179 0 -102.3809377408179 86.395868740386504 0 0 0 0 203.58102572272765 9.4869263256987324 0 9.4869263256987324 238.30647337321761 0 0 0 0 22.129226500284261 26.33364173684835 0 26.33364173684835 30.677358509119404 0 0 0 0 662.58167997068358 96.031495852326174 0 96.031495852326174 129.73437472630803 0 0 0 0 -5.5894308899296448 97.086747574039691 0 97.086747574039691 171.40765954167728 0 0 0 0 3.0769239085434492 0.38755208411417286 0 0.38755208411417286 1.9540477891918471 0 0 0 0 392.15670858244266 -221.96405584386412 0 -221.96405584386412 -24.771129326578375 0 0 0 0 762.24794188122178 -1129.1737751152491 0 -1129.1737751152491 393.5248365371292 0 0 0 0 29.526855690321824 8.4911054248852977 0 8.4911054248852977 -5.8070506981878616 0 0 0 0 1226.6277371820761 1487.5382439565642 0 1487.5382439565642 272.03504448791648 0 0 0 0 22.986593879327359 34.153734008658432 0 34.153734008658432 49.877981231210427 0 0 0 0 249.45371906550281 -64.567386629249995 0 -64.567386629249995 26.194454692540603 0 0 0 0 248.60483571892837 -56.809891231508118 0 -56.809891231508118 82.409665053559365 0 0 0 0 199.1588683502614 -90.847125498508376 0 -90.847125498508376 59.132624068293808 0 0 0 0 226.86026512624812 -89.000441660657089 0 -89.000441660657089 56.778973910089917 0 0 0 0 186.50962852265002 -81.702739398563608 0 -81.702739398563608 78.1340179115723 0 0 0 0 314.83463352038234 -91.999947184607663 0 -91.999947184607663 -20.313927239381997 0 0 0 0 243.7597402324318 -119.20600122071482 0 -119.20600122071482 75.181714512735198 0 0 0 0 103.17285363848332 11.121540778499966 0 11.121540778499966 -22.085808734579562 0 0 0 0 -1.3897479665465653 40.010452358774273 0 40.010452358774273 -45.226598977416955 0 0 0 0 -26.211111438591615 151.39372646167794 0 151.39372646167794 -54.762320682521363 0 0 0 0 -79.086459114390891 75.053340257949458 0 75.053340257949458 33.702080580814254 0 0 0 0 -11.925421555450157 2.1393374407339252 0 2.1393374407339252 78.262680071622526 0 0 0 0 27.991426655426039 -53.90546272186748 0 -53.90546272186748 24.105238589750115 0 0 0 0 37.150668799804407 16.699011439349306 0 16.699011439349306 53.660230785225849 0 0 0 0 77.719093049745425 -35.735796625768671 0 -35.735796625768671 -54.359887708138558 0 0 0 0 78.045128224959626 -36.72937166891802 0 -36.72937166891802 123.28743925590243 0 0 0 0 65.299818650470115 104.35154318111472 0 104.35154318111472 139.67418726364042 0 0 0 0 58.033547744518728 72.479171150640468 0 72.479171150640468 6.809171615642299 0 0 0 0 294.12066607276938 -50.165092643870594 0 -50.165092643870594 25.098587858325118 0 0 0 0 833.74623039238577 -286.39666868190352 0 -286.39666868190352 -10.161922989269442 0 0 0 0 4.1130880538635353 1.9965938921104396 0 1.9965938921104396 -3.154386847071315 0 0 0 0 593.75178708435124 212.98080303612824 0 212.98080303612824 20.161943330942449 0 0 0 0 360.69400457907614 645.71484510161054 0 645.71484510161054 -237.61838541597626 0 0 0 0 168.05730853129717 192.88115499026094 0 192.88115499026094 238.44822295017002 0 0 0 0 5.0958924970005341 2.1787994536904876 0 2.1787994536904876 -0.22223116520297381 0 0 0 0 83.543484493377036 166.76452011958145 0 166.76452011958145 83.951917338821659 0 0 0 0 -37.086651989993697 25.278615583987175 0 25.278615583987175 144.0253796662073 0 0 0 0 884.82790949304763 -390.57246314433633 0 -390.57246314433633 165.03913036056895 0 0 0 0 311.25400529678882 27.029908219618392 0 27.029908219618392 256.96721742216505 0 0 0 0 251.4775244384582 116.03981342807401 0 116.03981342807401 310.64615689697712 0 0 0 0 851.70690310387863 107.31833203359963 0 107.31833203359963 161.34951585429371 0 0 0 0 142.15026514563215 -156.79303793007148 0 -156.79303793007148 192.40920410509011 0 0 0 0 -18.089943863720691 -86.790236403521703 0 -86.790236403521703 158.14471160349603 0 0 0 0 130.04941355626943 -186.887772481703 0 -186.887772481703 -35.531403487639182 0 0 0 0 3.5352910935360171 4.2471153077557702 0 4.2471153077557702 -4.7004725004668444 0 0 0 0 155.97448420936416 -65.098376559552435 0 -65.098376559552435 -122.12693133218272 0 0 0 0 1.3398447333020158 32.439357240404206 0 32.439357240404206 -27.164037106868818 0 0 0 0 461.30315254084508 -273.88812683133574 0 -273.88812683133574 -55.600715413369471 0 0 0 0 333.95251255875701 -52.73414797076839 0 -52.73414797076839 -111.1859308531748 0 0 0 0 -13.515620443286025 -70.935184462143297 0 -70.935184462143297 218.81890465419747 0 0 0 0 229.00541622020864 355.03746044698164 0 355.03746044698164 -461.72952146894374 0 0 0 0 119.08525048820697 23.234614080537348 0 23.234614080537348 -18.810673550080494 0 0 0 0 223.10890612582443 183.20660309547156 0 183.20660309547156 -242.60145717125488 0 0 0 0 159.20282112617861 -123.7849792508523 0 -123.7849792508523 152.78054437679248 0 0 0 0 403.71109861590139 -41.237300849720668 0 -41.237300849720668 -208.25859381842383 0 0 0 0 499.70250083924839 -50.870149698022615 0 -50.870149698022615 -205.22387796268515 0 0 0 0 99.89325094990636 228.49941494177892 0 228.49941494177892 2.1845452601705233 0 0 0 0 157.86381236518355 215.73063500432954 0 215.73063500432954 -288.82978921951144 0 0 0 0 111.42860744889998 19.330206920185439 0 19.330206920185439 -20.820773288096046 0 0 0 0 37.256152088970794 -119.70974142872001 0 -119.70974142872001 -108.18795427056921 0 0 0 0 559.78987402369967 76.778103171194289 0 76.778103171194289 -88.506453877080276 0 0 0 0 -602.04318329860325 -31.44327374645809 0 -31.44327374645809 139.30519223481224 0 0 0 0 1.2372932162442787 -0.61362002751033984 0 -0.61362002751033984 -6.6354728910839036 0 0 0 0 813.97322531528698 -282.37537027719736 0 -282.37537027719736 -242.42231216276514 0 0 0 0 -392.91107623077551 66.67043630181378 0 66.67043630181378 166.35720460435351 0 0 0 0 296.93637171286537 -269.37453571568403 0 -269.37453571568403 -143.54610399431942 0 0 0 0 75.136856855856422 -114.38844799148598 0 -114.38844799148598 211.88886957968441 0 0 0 0 -19.412827342162927 -143.45726008387737 0 -143.45726008387737 -25.00552439337298 0 0 0 0 100.03365812080119 -249.79186049081397 0 -249.79186049081397 65.356637769439658 0 0 0 0 431.79824266171272 -295.76443825291062 0 -295.76443825291062 124.86761979508447 0 0 0 0 -3.4023642386319572 -7.0404583044048241 0 -7.0404583044048241 -11.475925095310316 0 0 0 0 -56.888712732745262 -41.752064737024739 0 -41.752064737024739 -0.55847497106333321 0 0 0 0 1002.0735121628422 -347.8390119292435 0 -347.8390119292435 -67.513147824925909 0 0 0 0 563.23339023561675 -235.15211731501131 0 -235.15211731501131 198.24715389678025 0 0 0 0 481.2412081835846 -119.17737805926117 0 -119.17737805926117 52.992611090932769 0 0 0 0 251.85618430542672 -47.35103350243844 0 -47.35103350243844 3.6596618145995308 0 0 0 0 684.6855217602465 -69.589326170636468 0 -69.589326170636468 -123.80467986970689 0 0 0 0 449.09374608927266 127.50472781524002 0 127.50472781524002 -255.81551663704158 0 0 0 0 209.54985613092686 -38.349641889323721 0 -38.349641889323721 -350.63485402795868 0 0 0 0 14.289321435838247 411.84566742346829 0 411.84566742346829 -430.996045843518 0 0 0 0 -125.72484573729389 241.03173050562691 0 241.03173050562691 -138.25814453219209 0 0 0 0 116.0254278839442 25.493138921869946 0 25.493138921869946 -17.561398227734404 0 0 0 0 166.87531389230207 76.027184940336156 0 76.027184940336156 -61.847102775658641 0 0 0 0 344.94038029870171 193.49344577636111 0 193.49344577636111 -275.6000510131089 0 0 0 0 501.2965481244737 154.33852438039139 0 154.33852438039139 -157.84971456411949 0 0 0 0 122.70962189929935 338.77147148996085 0 338.77147148996085 -227.3690778372038 0 0 0 0 349.76957933943049 17.900161595940517 0 17.900161595940517 15.2799238226944 0 0 0 0 402.94877214390749 184.52020012137518 0 184.52020012137518 -189.74038227819256 0 0 0 0 707.88755084451304 72.410193536857832 0 72.410193536857832 -47.024796327063086 0 0 0 0 529.81362278253505 126.46759068564646 0 126.46759068564646 -78.658125538240711 0 0 0 0 523.67286077242443 -117.42082836237387 0 -117.42082836237387 102.98319119980897 0 0 0 0 1053.7900850555379 -356.56011200128705 0 -356.56011200128705 72.315508352981851 0 0 0 0 1044.9015365108389 -210.25607082615534 0 -210.25607082615534 -6.3349892063124571 0 0 0 0 693.35653878085031 -17.816313916257059 0 -17.816313916257059 123.34340392345621 0 0 0 0 945.90989081895532 -257.81520686682416 0 -257.81520686682416 399.12024831313011 0 0 0 0 11.986324534319238 83.052233640077247 0 83.052233640077247 -51.814246090390952 0 0 0 0 1485.2828165303454 -543.5235327598275 0 -543.5235327598275 49.631819195281423 0 0 0 0 1311.4000055962797 -620.85603243100286 0 -620.85603243100286 328.19247615668064 0 0 0 0 15.483544752757044 15.581849364000767 0 15.581849364000767 17.730580503755014 0 0 0 0 1727.7160691865938 -371.25523947495822 0 -371.25523947495822 169.21881354068319 0 0 0 0 1.2546557666134248 0.43627219133509954 0 0.43627219133509954 0.82069918533873931 0 0 0 0 1005.9708936825846 -579.52414291064997 0 -579.52414291064997 331.33146846863383 0 0 0 0 1224.6363853851963 -477.26113875194096 0 -477.26113875194096 38.383459682449029 0 0 0 0 997.86517085331798 -137.78632071835818 0 -137.78632071835818 230.29042396937803 0 0 0 0 1042.2583740095288 -130.48623365350431 0 -130.48623365350431 35.832083528188377 0 0 0 0 994.78159548470103 -295.74142476517227 0 -295.74142476517227 134.67017042657972 0 0 0 0 871.89482987302108 -92.37404386372873 0 -92.37404386372873 -49.328370751565672 0 0 0 0 669.07039667719732 -180.47055014778766 0 -180.47055014778766 85.468617900467507 0 0 0 0 837.53745449432972 -484.41184807590616 0 -484.41184807590616 190.949641436165 0 0 0 0 46.99546945288148 -28.154662980959074 0 -28.154662980959074 -27.015957214342052 0 0 0 0 48.33642174097622 -31.030007032531103 0 -31.030007032531103 -29.759585548454197 0 0 0 0 2.1752400590165877 -10.426980737804964 0 -10.426980737804964 -15.377539710056183 0 0 0 0 17.360217693272716 -38.499340139771448 0 -38.499340139771448 -29.618057465818055 0 0 0 0 48.423108773819983 -11.774297094957443 0 -11.774297094957443 -18.470037254914075 0 0 0 0 -16.214170019233279 8.2100168929373467 0 8.2100168929373467 -23.265214221144561 0 0 0 0 78.597463039837749 -20.546675116671395 0 -20.546675116671395 -31.077471038586737 0 0 0 0 199.90928486311896 10.684116812293723 0 10.684116812293723 -81.719469512672731 0 0 0 0 76.09819045405311 -0.66972572274062259 0 -0.66972572274062259 -71.91113771298933 0 0 0 0 148.83229363479495 -30.676975740302623 0 -30.676975740302623 -68.865311443736573 0 0 0 0 69.739364298355213 -51.460619276322177 0 -51.460619276322177 -4.6687399086113146 0 0 0 0 69.842356714983907 -54.321272111844337 0 -54.321272111844337 -75.377108071897055 0 0 0 0 182.86799905091516 -111.87511769107755 0 -111.87511769107755 -47.180870511452667 0 0 0 0 181.57200513520365 1.752902170541347 0 1.752902170541347 -45.031796898412722 0 0 0 0 112.37679426616523 62.129577335890644 0 62.129577335890644 -47.026959874228737 0 0 0 0 224.6582779464328 237.0310520522944 0 237.0310520522944 -190.97586696496728 0 0 0 0 111.12995711743388 23.405849555212466 0 23.405849555212466 -15.311302354284805 0 0 0 0 203.6387493795628 -51.683217820784193 0 -51.683217820784193 -6.5185389202542865 0 0 0 0 148.89413137659722 -35.716635065346054 0 -35.716635065346054 5.38051097225798 0 0 0 0 133.36387123007626 -57.432463828283971 0 -57.432463828283971 76.834432438656222 0 0 0 0 289.87288880293204 12.158468073977929 0 12.158468073977929 86.161078714147152 0 0 0 0 288.46754272666294 -139.07770234293639 0 -139.07770234293639 95.16212612599702 0 0 0 0 260.82791167027608 -27.038199752094442 0 -27.038199752094442 33.295500889886171 0 0 0 0 162.95971788165298 25.780705187121839 0 25.780705187121839 -0.27937514717268641 0 0 0 0 197.79054666608863 -30.213550125612528 0 -30.213550125612528 36.850674805933522 0 0 0 0 164.10443547428804 30.879289856123251 0 30.879289856123251 10.615686467372143 0 0 0 0 148.91063058517466 -10.826224776345043 0 -10.826224776345043 44.709569221202401 0 0 0 0 190.50196240873629 25.563579702644347 0 25.563579702644347 73.831983085194224 0 0 0 0 114.46512224649285 26.01496724518713 0 26.01496724518713 -15.102395371572001 0 0 0 0 145.4526627573141 -22.174442830986663 0 -22.174442830986663 60.070523581533052 0 0 0 0 77.87462342827348 82.670106072291674 0 82.670106072291674 -29.338827805548817 0 0 0 0 100.43171072090627 29.145257923039026 0 29.145257923039026 46.528252798375433 0 0 0 0 120.63290723532918 39.789260364621441 0 39.789260364621441 -33.548958608276735 0 0 0 0 109.08217534880896 2.4966836799030716 0 2.4966836799030716 1.6300755517258949 0 0 0 0 88.180629393289564 1.4131341897737002 0 1.4131341897737002 -0.36997323039577168 0 0 0 0 -183.75385857123274 189.40359372139119 0 189.40359372139119 -211.32715951377031 0 0 0 0 37.74519703911362 -6.5869723053505229 0 -6.5869723053505229 -3.5234939974563986 0 0 0 0 -312.89490481770065 463.41564556903177 0 463.41564556903177 -255.04585848214265 0 0 0 0 -229.57310824669185 212.03479558649633 0 212.03479558649633 -299.03063020866011 0 0 0 0 -115.21071388889959 347.69491601105619 0 347.69491601105619 -139.42225947690167 0 0 0 0 70.33529799684402 159.97102738159083 0 159.97102738159083 -113.82320716983486 0 0 0 0 347.22464764581218 -52.434365638750023 0 -52.434365638750023 -138.42713271482353 0 0 0 0 -30.329177663286828 -109.42634144436124 0 -109.42634144436124 246.03759760690991 0 0 0 0 578.70262218718653 -273.75966694921954 0 -273.75966694921954 -41.913113292484923 0 0 0 0 0.28651527741116389 1.8855589497282015 0 1.8855589497282015 -1.6665575806088242 0 0 0 0 -716.89749936859516 490.32813151910523 0 490.32813151910523 6.948318174596352 0 0 0 0 -559.707960323924 175.22638908850877 0 175.22638908850877 -80.870453989002272 0 0 0 0 -384.91696892170148 436.82914792732117 0 436.82914792732117 -102.48564914839335 0 0 0 0 70.032983484999932 288.15973199668952 0 288.15973199668952 -37.080540988605208 0 0 0 0 -52.084087760746115 171.04257530912218 0 171.04257530912218 -118.50922384027172 0 0 0 0 -270.01415581872698 357.83959009668797 0 357.83959009668797 -37.046176290485164 0 0 0 0 -261.754306384757 183.28578979965641 0 183.28578979965641 34.636462542042864 0 0 0 0 -205.10896127655633 284.80971892805792 0 284.80971892805792 67.780979576065874 0 0 0 0 599.04579778620246 10.867294215904622 0 10.867294215904622 -242.37166997584882 0 0 0 0 54.824908250682711 351.46508437415832 0 351.46508437415832 18.366992610193847 0 0 0 0 -136.31311421695318 132.05661970095662 0 132.05661970095662 244.57045212063895 0 0 0 0 -6.7277875653144985 1.4227271007810245 0 1.4227271007810245 -0.69391997440588327 0 0 0 0 -203.64203921762874 272.33610862016212 0 272.33610862016212 -24.518075652550579 0 0 0 0 -13.631443899169426 245.32750825366566 0 245.32750825366566 37.621793839621205 0 0 0 0 140.36388733468448 -114.81158031216 0 -114.81158031216 -531.12560031845715 0 0 0 0 489.24236094024593 137.74896702292313 0 137.74896702292313 -64.532361026638682 0 0 0 0 100.69102978630235 61.012064709811966 0 61.012064709811966 31.800130068637372 0 0 0 0 174.15565961641914 -51.921959478146164 0 -51.921959478146164 -155.37151737273962 0 0 0 0 137.94919031171594 0.23463893046391604 0 0.23463893046391604 -20.720279419771032 0 0 0 0 95.649898224182408 118.72304137791713 0 118.72304137791713 3.9370075166261813 0 0 0 0 108.43324544570646 15.452355967342875 0 15.452355967342875 -15.709355738299017 0 0 0 0 -43.77582086924167 167.68191816000035 0 167.68191816000035 11.991400854720268 0 0 0 0 -9.3282521186554419 16.402220639576374 0 16.402220639576374 -6.9971066740753045 0 0 0 0 111.49525759001335 -1.5430070779166272 0 -1.5430070779166272 -145.35151462563772 0 0 0 0 49.076373575525054 180.7613892788811 0 180.7613892788811 92.427942333486499 0 0 0 0 111.34808107014123 288.81903000781676 0 288.81903000781676 532.1017891373358 0 0 0 0 110.21103079679051 531.36590174890807 0 531.36590174890807 293.85639874267326 0 0 0 0 405.79132986225466 -147.54445951934667 0 -147.54445951934667 324.9190327807446 0 0 0 0 -302.37232496892921 420.27561982644693 0 420.27561982644693 -82.0274397156345 0 0 0 0 -269.96922678652209 -222.76191753223247 0 -222.76191753223247 479.04149650171894 0 0 0 0 376.19438361504734 -137.76922187847373 0 -137.76922187847373 442.15545767283766 0 0 0 0 -297.59281391078275 -100.42928961260532 0 -100.42928961260532 704.33303502414674 0 0 0 0 -264.25896653323844 -180.33300253536254 0 -180.33300253536254 487.99636553611981 0 0 0 0 5.5905840432450038 -2.9948406412516704 0 -2.9948406412516704 1.3860668254466688 0 0 0 0 468.86433181522079 182.53013858274107 0 182.53013858274107 88.976067036708628 0 0 0 0 603.74345626537706 264.77952577799215 0 264.77952577799215 120.00973743382565 0 0 0 0 377.55450295282367 122.98169731028065 0 122.98169731028065 -98.257085426870617 0 0 0 0 11.834939317686477 -6.3833337284808493 0 -6.3833337284808493 1.8218275690091019 0 0 0 0 241.88089030012429 141.95322358142948 0 141.95322358142948 251.76909401828107 0 0 0 0 240.63456158600991 116.82267930141143 0 116.82267930141143 269.6477145161607 0 0 0 0 174.33991740592455 141.28035509022448 0 141.28035509022448 107.33369529624906 0 0 0 0 253.69780816134335 290.85257677413711 0 290.85257677413711 110.00247853941437 0 0 0 0 375.93916980415861 106.2336892226881 0 106.2336892226881 388.78585821458728 0 0 0 0 10.414071895380403 -11.475179021998883 0 -11.475179021998883 97.096588709347998 0 0 0 0 151.28091638843944 -6.8998953700011043 0 -6.8998953700011043 -44.034267542731868 0 0 0 0 73.638537195512072 -98.079540622777131 0 -98.079540622777131 -0.42318718356000318 0 0 0 0 345.51877810320002 -74.183188202150632 0 -74.183188202150632 120.93936312803999 0 0 0 0 69.743004828684832 -24.519432840378428 0 -24.519432840378428 -6.3687978472428384 0 0 0 0 126.56822445434591 29.701918739401663 0 29.701918739401663 117.40948496889541 0 0 0 0 164.97986736976918 8.3191047321233782 0 8.3191047321233782 42.199247568245482 0 0 0 0 317.85194854172732 -174.28615005514439 0 -174.28615005514439 30.425795050939996 0 0 0 0 445.72316790836703 127.75558330668309 0 127.75558330668309 -182.38273588498851 0 0 0 0 28.580082957843842 119.94210762223884 0 119.94210762223884 -82.279206789287855 0 0 0 0 90.138566492217251 62.15961166931811 0 62.15961166931811 0.046585549949668348 0 0 0 0 85.980101919274517 -9.5450300059746951 0 -9.5450300059746951 -61.53765547281364 0 0 0 0 146.87112661193692 -5.7986196025958634 0 -5.7986196025958634 -68.142529397162434 0 0 0 0 95.788741777626342 25.724872418610175 0 25.724872418610175 24.610291267395951 0 0 0 0 204.79211903936272 50.288522703705894 0 50.288522703705894 20.727166144621151 0 0 0 0 178.03478062879628 155.06597953830897 0 155.06597953830897 82.741242048497952 0 0 0 0 125.10847597544648 -8.1159281059863133 0 -8.1159281059863133 109.02650193160662 0 0 0 0 151.35025504208716 120.75365530709496 0 120.75365530709496 168.45698144400558 0 0 0 0 447.68451506784072 555.05728842817189 0 555.05728842817189 474.95180775354925 0 0 0 0 -9.4143770900425352 160.26564021356762 0 160.26564021356762 425.99976770056855 0 0 0 0 -116.53803191204815 -20.651995386825547 0 -20.651995386825547 223.98960615421856 0 0 0 0 2.8937777451367861 3.3039307247642826 0 3.3039307247642826 8.0961500185225148 0 0 0 0 173.45947691623019 59.205922118157105 0 59.205922118157105 -62.351927564155631 0 0 0 0 1448.8149568063573 -286.17820041333107 0 -286.17820041333107 18.682870796328643 0 0 0 0 1959.1710539127289 -654.29081160092028 0 -654.29081160092028 234.73360486268393 0 0 0 0 538.63522979855406 13.396417723993181 0 13.396417723993181 394.52502003933478 0 0 0 0 1679.2013485834168 206.46034071363738 0 206.46034071363738 101.91342751156299 0 0 0 0 375.94718933344876 323.40997107172853 0 323.40997107172853 937.59160379153036 0 0 0 0 733.54281083392289 -394.94310615761242 0 -394.94310615761242 645.91663248688519 0 0 0 0 402.12942139277339 319.28040749191405 0 319.28040749191405 -21.717869182590221 0 0 0 0 237.39959255072927 -379.87467857563297 0 -379.87467857563297 -182.94359021416358 0 0 0 0 577.3369819720657 339.65861489541976 0 339.65861489541976 -52.741844409552868 0 0 0 0 525.86026957759839 267.50453404471864 0 267.50453404471864 -25.881870327813886 0 0 0 0 1209.5921145334451 453.7703460475359 0 453.7703460475359 21.514725354441907 0 0 0 0 373.49769634523432 41.148605025089182 0 41.148605025089182 -32.89984492896474 0 0 0 0 499.77695066570027 336.20231054691249 0 336.20231054691249 147.11334163910942 0 0 0 0 278.65976202127422 2.7527244831617281 0 2.7527244831617281 -14.513945565156973 0 0 0 0 489.32237725416644 86.510389093654339 0 86.510389093654339 12.50736269911522 0 0 0 0 136.31125412052734 5.4918761849185103 0 5.4918761849185103 40.043954965927696 0 0 0 0 260.9682564642203 112.11652298266563 0 112.11652298266563 61.09535345905897 0 0 0 0 1.9752407024777492 2.8566305774548031 0 2.8566305774548031 3.6359607108968888 0 0 0 0 -962.35263944115241 864.13429190899615 0 864.13429190899615 534.3484050916868 0 0 0 0 1977.2990081237431 302.85492552871347 0 302.85492552871347 101.61921959473511 0 0 0 0 2.7733644764425485 8.1141630923822063 0 8.1141630923822063 4.6940674819673731 0 0 0 0 925.6510222773461 -150.896630575995 0 -150.896630575995 -68.680321239820842 0 0 0 0 862.3011761059654 616.2521775166399 0 616.2521775166399 289.04155759154673 0 0 0 0 10.103943958163054 -1.7731543186899152 0 -1.7731543186899152 -1.4775604590802764 0 0 0 0 264.74522109038753 397.47152583798925 0 397.47152583798925 424.02194580564901 0 0 0 0 1539.3344822314211 638.21886768170953 0 638.21886768170953 252.11246708113731 0 0 0 0 1141.0217983234725 1308.2307736592302 0 1308.2307736592302 943.43100136340945 0 0 0 0 297.56418442066797 384.49790738480613 0 384.49790738480613 334.08235108021472 0 0 0 0 273.8745206663134 249.34229282665365 0 249.34229282665365 241.25273989254492 0 0 0 0 12.560186300222604 -4.7875477787250009 0 -4.7875477787250009 -0.26333295201425244 0 0 0 0 532.78399397789929 271.04143539191728 0 271.04143539191728 -106.82963420997839 0 0 0 0 534.53030950837115 258.45758659779767 0 258.45758659779767 -16.948310787664241 0 0 0 0 169.52310862493061 279.22109011871453 0 279.22109011871453 344.65223660333049 0 0 0 0 133.08237936585078 260.65513435144294 0 260.65513435144294 172.55482047993974 0 0 0 0 113.94023755372871 207.72768417236693 0 207.72768417236693 324.28070813027989 0 0 0 0 60.0919396442292 94.348758791989894 0 94.348758791989894 80.493790693166375 0 0 0 0 139.88710525285842 179.59469285820705 0 179.59469285820705 127.82115880661149 0 0 0 0 26.78531229750115 86.824066619799851 0 86.824066619799851 129.88228093800498 0 0 0 0 57.505934753051122 89.012050788325723 0 89.012050788325723 -2.583623101698322 0 0 0 0 0.0028388113748292199 -21.409219278199998 0 -21.409219278199998 -39.000764187714594 0 0 0 0 -28.418794512363547 -10.701832013195599 0 -10.701832013195599 -40.736882346291168 0 0 0 0 -5.021429659041587 -27.237425325985896 0 -27.237425325985896 -59.483541429193792 0 0 0 0 -28.739228108822317 -72.522229782782233 0 -72.522229782782233 -78.407798665917653 0 0 0 0 14.195564178427503 29.509598520121244 0 29.509598520121244 55.10863783205059 0 0 0 0 -6.0910275365813504 -42.913418108055339 0 -42.913418108055339 -31.592901160856854 0 0 0 0 48.23512235157159 48.251187978958114 0 48.251187978958114 11.498519081447739 0 0 0 0 99.231676380711178 110.18194368576042 0 110.18194368576042 80.896896882240981 0 0 0 0 17.894639499013465 44.73744208377866 0 44.73744208377866 89.587353790953784 0 0 0 0 73.221455934891765 151.06585704663939 0 151.06585704663939 203.00401330991372 0 0 0 0 109.52500914172197 108.83813043911323 0 108.83813043911323 125.67665580110224 0 0 0 0 43.417357721984445 79.660100729299302 0 79.660100729299302 145.91628959730315 0 0 0 0 36.357798308380552 51.811104921021069 0 51.811104921021069 58.407243665526039 0 0 0 0 68.621855602627875 46.793989487279759 0 46.793989487279759 37.015352543778135 0 0 0 0 91.45653039890567 109.75740118912654 0 109.75740118912654 119.50999683438567 0 0 0 0 12.000353624995114 -35.911154072762656 0 -35.911154072762656 -17.643105375576852 0 0 0 0 123.85070847755014 113.55119628394368 0 113.55119628394368 129.92422416190675 0 0 0 0 51.307477523654597 87.834684448751432 0 87.834684448751432 172.72795058294491 0 0 0 0 62.647754295709092 27.776149007977438 0 27.776149007977438 78.771506468566258 0 0 0 0 135.10020514309326 140.03816032612212 0 140.03816032612212 164.04475508915129 0 0 0 0 129.68216048651539 152.72709029597172 0 152.72709029597172 252.76709566276622 0 0 0 0 75.191958946834347 94.723355723999703 0 94.723355723999703 173.09373455005698 0 0 0 0 135.04680759510302 177.69014482295643 0 177.69014482295643 199.06484343902139 0 0 0 0 174.80452602951169 261.04131098703806 0 261.04131098703806 284.04493400435786 0 0 0 0 164.3776206241937 160.2947350149243 0 160.2947350149243 181.3422957801431 0 0 0 0 88.192395753575056 198.04892320932549 0 198.04892320932549 275.80626653699983 0 0 0 0 229.64897113830739 237.7496468334848 0 237.7496468334848 285.55273857138172 0 0 0 0 274.08783269049309 259.92443558202649 0 259.92443558202649 447.76460886502673 0 0 0 0 457.64156798017029 361.26003958004276 0 361.26003958004276 315.31147844521183 0 0 0 0 366.36706745062384 240.61216829051409 0 240.61216829051409 377.06026587366068 0 0 0 0 241.22264189095222 226.84073359498507 0 226.84073359498507 317.60098996131887 0 0 0 0 316.71611515280892 300.56303300366653 0 300.56303300366653 312.87506143040446 0 0 0 0 227.23533414741541 302.50797675634931 0 302.50797675634931 410.99217595728987 0 0 0 0 218.33085801941161 193.50348941504308 0 193.50348941504308 224.79179292581102 0 0 0 0 201.02483789357757 246.67684009447476 0 246.67684009447476 314.78081396261041 0 0 0 0 115.40337560271291 137.98870338106462 0 137.98870338106462 239.91730655060792 0 0 0 0 206.61584555574518 175.53431055339934 0 175.53431055339934 201.03296062811205 0 0 0 0 88.398887957489933 123.6723335828483 0 123.6723335828483 216.71051313763564 0 0 0 0 191.82228453997595 174.32033993192363 0 174.32033993192363 201.37089169151477 0 0 0 0 205.64218264739247 158.95116492298894 0 158.95116492298894 218.04694636908607 0 0 0 0 258.30862097307499 349.17279686351662 0 349.17279686351662 398.3980395324761 0 0 0 0 160.25496217506225 181.35097460638281 0 181.35097460638281 301.85734095978478 0 0 0 0 296.44607927062862 242.81597013877217 0 242.81597013877217 278.63572907545313 0 0 0 0 262.44353600867362 259.41573829698791 0 259.41573829698791 278.56554222602426 0 0 0 0 172.12974597347966 266.76272042436267 0 266.76272042436267 390.43869345755047 0 0 0 0 294.54717416495987 280.79367858896057 0 280.79367858896057 320.59510765924733 0 0 0 0 226.71967661190502 328.16066570447128 0 328.16066570447128 557.19977260164615 0 0 0 0 359.35450419333938 475.46781278581329 0 475.46781278581329 460.43130559160636 0 0 0 0 502.96285808957293 1072.9152799560175 0 1072.9152799560175 563.39282439051385 0 0 0 0 477.89578336117847 888.82126058133144 0 888.82126058133144 966.91245759499725 0 0 0 0 5.9083067891071224 0.21350903039833913 0 0.21350903039833913 -1.9053851557629109 0 0 0 0 1019.0460915834924 -51.023440970111551 0 -51.023440970111551 88.912162006659855 0 0 0 0 745.83527931270601 -749.48283079236171 0 -749.48283079236171 293.38514721633419 0 0 0 0 5.6739460691612091 2.4499553076415062 0 2.4499553076415062 1.4665551352502497 0 0 0 0 13.622113025715237 353.0968171582889 0 353.0968171582889 -70.641398426547312 0 0 0 0 98.087390663823726 1.9869478742274396 0 1.9869478742274396 -255.95418827360299 0 0 0 0 525.97771338903112 321.71528355210876 0 321.71528355210876 -116.50738626472958 0 0 0 0 648.05766101829158 98.714572096328084 0 98.714572096328084 128.17570501389037 0 0 0 0 436.52568029172852 -38.288599817321483 0 -38.288599817321483 377.18482561050951 0 0 0 0 113.83708644312958 179.07119581284769 0 179.07119581284769 339.69681579571807 0 0 0 0 21.678383739793645 119.28590447325951 0 119.28590447325951 242.31879868804117 0 0 0 0 212.2076134177405 190.05808863457287 0 190.05808863457287 268.51911451921751 0 0 0 0 132.6407342134969 146.58737958882102 0 146.58737958882102 471.99781935579358 0 0 0 0 72.437264144211767 316.23788899670149 0 316.23788899670149 0.78224775771559507 0 0 0 0 174.37101121802641 137.02294622218051 0 137.02294622218051 -203.8531652656111 0 0 0 0 -119.40160483436011 -124.44638475046168 0 -124.44638475046168 92.342422959491159 0 0 0 0 -31.93428570688161 -58.823478552851157 0 -58.823478552851157 -124.86987093528205 0 0 0 0 12.416529730979619 91.871114727320673 0 91.871114727320673 92.258219111186008 0 0 0 0 61.169234148625833 35.229746509601682 0 35.229746509601682 -114.31366366313159 0 0 0 0 -69.173461246876059 -27.355792079621096 0 -27.355792079621096 -67.278627782327021 0 0 0 0 -51.523306582690225 -62.844335011006251 0 -62.844335011006251 -261.37646424526429 0 0 0 0 -93.276839162834221 -183.71951477193397 0 -183.71951477193397 -301.12987071096586 0 0 0 0 -63.315339749146915 -92.458383935790152 0 -92.458383935790152 -169.24709947055271 0 0 0 0 -37.345756156474408 -102.46136335736264 0 -102.46136335736264 -175.49639963896334 0 0 0 0 -1.1395143495202262 -38.500957750040925 0 -38.500957750040925 -110.92673283748445 0 0 0 0 -159.85974167959785 -370.05457654645579 0 -370.05457654645579 -644.86994981288899 0 0 0 0 -90.489947734271482 -21.164566728389673 0 -21.164566728389673 -126.04511429829472 0 0 0 0 78.620754654693656 70.0877350672381 0 70.0877350672381 -9.4946935515217774 0 0 0 0 -0.45436083129445892 1.2830533756693736 0 1.2830533756693736 -3.8583432702648857 0 0 0 0 6.9493243714641579 -1.9289490656684585 0 -1.9289490656684585 0.71920506911553517 0 0 0 0 30.760996566804124 -69.050929053489199 0 -69.050929053489199 -23.823429586407656 0 0 0 0 656.65050249676824 -564.22055374870115 0 -564.22055374870115 -247.60289737852509 0 0 0 0 894.46389171708483 -366.93850924486196 0 -366.93850924486196 -355.5487965103589 0 0 0 0 519.81200520477569 -348.49386740238333 0 -348.49386740238333 98.295494253346078 0 0 0 0 280.62314156296407 64.437947350049399 0 64.437947350049399 -33.985591812530402 0 0 0 0 340.06428113636503 -38.430400172854206 0 -38.430400172854206 -33.439618950938893 0 0 0 0 875.96510695406744 199.74509312835164 0 199.74509312835164 30.531125302193686 0 0 0 0 496.00467710296948 -251.11890805573239 0 -251.11890805573239 368.36526803584366 0 0 0 0 338.76817380485909 51.052764778612072 0 51.052764778612072 -31.912797236162078 0 0 0 0 -5.8236171170239004 189.19017190453678 0 189.19017190453678 -50.45150171372552 0 0 0 0 -54.331949954018455 103.8059897039202 0 103.8059897039202 196.92932019709588 0 0 0 0 -95.42404915937459 -20.191707162131934 0 -20.191707162131934 184.9844023583521 0 0 0 0 -99.908430262985348 -0.66737631681371568 0 -0.66737631681371568 121.39941650273977 0 0 0 0 -238.4980728668088 -66.639502701111269 0 -66.639502701111269 160.72312543316639 0 0 0 0 -9.5998068353082999 -36.269894118371667 0 -36.269894118371667 -18.544734038710885 0 0 0 0 -11.668067109502033 -28.395231762879575 0 -28.395231762879575 -25.721661006464728 0 0 0 0 -4.359772213986723 -3.0534053437161752 0 -3.0534053437161752 -1.1766154827313784 0 0 0 0 4.2752744201590041 -6.6883856619192379 0 -6.6883856619192379 3.1140314705163235 0 0 0 0 -193.97037972917678 -107.91090982386777 0 -107.91090982386777 39.673414634864457 0 0 0 0 -46.6246141656585 23.44595602966092 0 23.44595602966092 51.026901456883934 0 0 0 0 -143.27850423847667 -46.324385548768078 0 -46.324385548768078 -42.850161315152945 0 0 0 0 -167.32705161880313 -54.574130404120297 0 -54.574130404120297 83.529281597402587 0 0 0 0 -108.42246524268376 51.05927741285268 0 51.05927741285268 47.793547953539019 0 0 0 0 -74.082388552638804 53.183649520209656 0 53.183649520209656 -52.208322668517212 0 0 0 0 -128.04367863476909 3.1989933447280237 0 3.1989933447280237 -66.906352512984085 0 0 0 0 20.542608947268185 -1.5568238201090594 0 -1.5568238201090594 -0.99561673078345869 0 0 0 0 17.176461651547925 -10.004130505762078 0 -10.004130505762078 -7.2482190400705804 0 0 0 0 8.1559849556003705 -2.9411531732662688 0 -2.9411531732662688 -0.72026094381940808 0 0 0 0 6.718140542099718 24.324120289376879 0 24.324120289376879 -25.989217022077355 0 0 0 0 297.61101621461262 55.923810746735398 0 55.923810746735398 -112.96369906842301 0 0 0 0 15.627392943252389 6.0416009926052645 0 6.0416009926052645 1.688987002132361 0 0 0 0 2.3525604539086604 2.9056808509862115 0 2.9056808509862115 -1.4727076850104268 0 0 0 0 378.36147523360967 98.222653794174221 0 98.222653794174221 -39.128115925719612 0 0 0 0 29.727179604547018 -50.047751496200362 0 -50.047751496200362 -88.465005715770531 0 0 0 0 -98.097495868343685 31.306865603843107 0 31.306865603843107 84.073309434519615 0 0 0 0 2.1294645081111412 201.39749382646187 0 201.39749382646187 -242.4528562654159 0 0 0 0 -197.48786774940436 142.70312958444629 0 142.70312958444629 65.109370859437149 0 0 0 0 105.93080145172826 -60.959138601073391 0 -60.959138601073391 41.22873266212639 0 0 0 0 -35.35654969180905 -68.090671529239671 0 -68.090671529239671 -54.214971429584693 0 0 0 0 52.750503200553794 55.660212562569086 0 55.660212562569086 -13.335701806016004 0 0 0 0 60.989835953801958 22.062500153988367 0 22.062500153988367 54.979214612445503 0 0 0 0 -60.565443810301076 -35.528515641017293 0 -35.528515641017293 56.416606570812178 0 0 0 0 38.986144838680048 -33.753632762287452 0 -33.753632762287452 42.123890025512083 0 0 0 0 -4.1031854090512034 -0.72918341055646252 0 -0.72918341055646252 0.38618583192608114 0 0 0 0 -55.761009086272679 -21.593182397980854 0 -21.593182397980854 55.413076076667494 0 0 0 0 -31.878475860254181 -18.129603513200053 0 -18.129603513200053 2.0188315237683412 0 0 0 0 -26.216827011232454 -5.9859470095611869 0 -5.9859470095611869 -36.250672366877552 0 0 0 0 -21.817593736466506 -43.637835482597438 0 -43.637835482597438 -3.2674188469018191 0 0 0 0 -13.756508394380688 9.2562226272176531 0 9.2562226272176531 20.263265188743389 0 0 0 0 -11.671724586938918 -21.423862143622038 0 -21.423862143622038 -2.1688949323684064 0 0 0 0 -38.218026056837516 -16.97748143458125 0 -16.97748143458125 1.4621301493971259 0 0 0 0 -17.230923816031464 -48.591879317234998 0 -48.591879317234998 -22.944548078581647 0 0 0 0 15.307944684656832 -7.6664650402626648 0 -7.6664650402626648 -3.7134776959501323 0 0 0 0 18.926557271472753 -11.880296002244345 0 -11.880296002244345 -2.6613948219827535 0 0 0 0 -132.69667565470081 -147.60973016852677 0 -147.60973016852677 -16.031911282672354 0 0 0 0 7.6718135714639359 -13.881538903169345 0 -13.881538903169345 5.8805150217415871 0 0 0 0 -202.52505862387352 247.03163985095352 0 247.03163985095352 246.52999435166566 0 0 0 0 -261.03173147989946 -33.415571263088168 0 -33.415571263088168 118.13341723838312 0 0 0 0 29.963786554059425 -95.861127436820652 0 -95.861127436820652 -157.31216602353379 0 0 0 0 -7.6161930512116669 -139.93079291510549 0 -139.93079291510549 -13.391500543004668 0 0 0 0 -57.444845651154537 -163.92620202519402 0 -163.92620202519402 -201.56078930176227 0 0 0 0 31.304462784120773 -7.1015920694792722 0 -7.1015920694792722 -2.2321851429981976 0 0 0 0 24.662341363845385 -11.600825559678803 0 -11.600825559678803 2.2253965515698759 0 0 0 0 19.305267394562179 -19.144529087880983 0 -19.144529087880983 -17.827544095518533 0 0 0 0 34.842276675679386 -129.5796597974404 0 -129.5796597974404 -312.15478256092501 0 0 0 0 30.977923924201605 -126.33807815757154 0 -126.33807815757154 -307.16830622202724 0 0 0 0 214.0057970415819 21.807746153718654 0 21.807746153718654 -251.39308485528409 0 0 0 0 146.22649459501281 -130.65107475376954 0 -130.65107475376954 -552.02825699374444 0 0 0 0 -37.587723786771676 -114.87133526554135 0 -114.87133526554135 -206.66664692430641 0 0 0 0 6.2640784226368851 -247.19666285331732 0 -247.19666285331732 -276.57807118334222 0 0 0 0 25.017684502381599 -311.96644009283227 0 -311.96644009283227 -53.309804718828673 0 0 0 0 -47.932536577212886 -298.743867619909 0 -298.743867619909 259.69921238793904 0 0 0 0 66.155223331748857 -87.544729783170624 0 -87.544729783170624 -170.16753671444712 0 0 0 0 3.7742745653995371 22.504453187859326 0 22.504453187859326 -246.53400118661011 0 0 0 0 72.698737963239182 95.387057576593179 0 95.387057576593179 -319.2939178774086 0 0 0 0 123.07223050631728 1.5214491067599738 0 1.5214491067599738 -244.44336155009523 0 0 0 0 89.145688447160865 -16.403180574969156 0 -16.403180574969156 -243.99843074643104 0 0 0 0 54.362503707592623 -51.478858019932886 0 -51.478858019932886 -273.7978932488295 0 0 0 0 191.79653885787047 48.848873354464558 0 48.848873354464558 -206.39804892178745 0 0 0 0 68.082422548436625 -20.972431021515149 0 -20.972431021515149 -165.53264575486537 0 0 0 0 63.738476729648028 35.935103417786195 0 35.935103417786195 -113.90965979141765 0 0 0 0 207.19873599895345 191.05788905374266 0 191.05788905374266 -63.127519596900584 0 0 0 0 178.94494721699175 352.54412203394531 0 352.54412203394531 328.52808282973456 0 0 0 0 196.4017932378938 276.86918712320585 0 276.86918712320585 27.737364693939526 0 0 0 0 301.26969078424008 298.19152736251817 0 298.19152736251817 -87.052456180414083 0 0 0 0 147.21587318683396 52.565715089029254 0 52.565715089029254 -139.64588894929693 0 0 0 0 43.672337712287117 99.646524935751586 0 99.646524935751586 -309.93630396156186 0 0 0 0 -68.039875137089439 -308.82286800965176 0 -308.82286800965176 -818.19262789210916 0 0 0 0 46.043325944541721 63.181452641139913 0 63.181452641139913 -410.90764440788553 0 0 0 0 247.45726757348439 -44.045968216205893 0 -44.045968216205893 -357.16848959901472 0 0 0 0 129.84464856159457 147.13920582072933 0 147.13920582072933 -96.674202538302779 0 0 0 0 309.63999290789616 133.45641642540249 0 133.45641642540249 -367.79566253160374 0 0 0 0 213.08364741396781 264.53949294934409 0 264.53949294934409 1.3466870377396845 0 0 0 0 444.24374063469986 338.45631257622972 0 338.45631257622972 -55.907965273241643 0 0 0 0 337.15018131486977 221.61313744272502 0 221.61313744272502 136.23751803003688 0 0 0 0 519.27106108816224 384.77798139636434 0 384.77798139636434 248.88288775479668 0 0 0 0 251.99643374498191 98.012632143415431 0 98.012632143415431 77.7415640870895 0 0 0 0 489.89370810692344 217.76184603975889 0 217.76184603975889 -91.990948671930823 0 0 0 0 668.20794551768813 60.510038149674983 0 60.510038149674983 80.307901333078917 0 0 0 0 418.39416960690505 24.469535595819252 0 24.469535595819252 332.56377278750278 0 0 0 0 745.2904300415953 459.01782943340845 0 459.01782943340845 590.18985731268549 0 0 0 0 975.1727692138661 -147.17935770782174 0 -147.17935770782174 383.50282880621307 0 0 0 0 582.64941778887987 250.68244587990375 0 250.68244587990375 337.65701929555689 0 0 0 0 375.60501604439196 547.16014912905848 0 547.16014912905848 828.35370488395711 0 0 0 0 294.06624579119853 336.93105369755722 0 336.93105369755722 362.2929274890048 0 0 0 0 238.00855279903863 446.94476827677136 0 446.94476827677136 313.72076912428656 0 0 0 0 108.96886451110731 401.8787285549206 0 401.8787285549206 416.83742949681675 0 0 0 0 111.27482722525545 398.59639942613035 0 398.59639942613035 301.77402995135708 0 0 0 0 268.36502945612938 435.91327170427303 0 435.91327170427303 306.34127648868343 0 0 0 0 -11.066487539144873 -154.70100484107934 0 -154.70100484107934 135.17491498070922 0 0 0 0 108.97804770542871 -196.90594923724416 0 -196.90594923724416 -95.648547029049951 0 0 0 0 56.076209159878999 -179.93037865286169 0 -179.93037865286169 -87.35832173034305 0 0 0 0 -37.719117228470168 -193.97773214189419 0 -193.97773214189419 107.83173824286496 0 0 0 0 69.463359483577733 -129.8886665645382 0 -129.8886665645382 161.79779688773306 0 0 0 0 -43.146604731577099 -111.20438778524567 0 -111.20438778524567 163.16998301732383 0 0 0 0 -7.0353592444898823 -102.30999630971019 0 -102.30999630971019 346.4346649793606 0 0 0 0 40.469820438700481 -49.484563851607163 0 -49.484563851607163 252.19590804781183 0 0 0 0 7.643625695080118 -64.601743811082997 0 -64.601743811082997 432.37646282559945 0 0 0 0 101.07435048714979 -142.31529223929829 0 -142.31529223929829 126.69537569657678 0 0 0 0 56.948815979643769 -170.45139914904757 0 -170.45139914904757 282.05455578343754 0 0 0 0 163.28442833759436 -155.05424652246802 0 -155.05424652246802 449.95476814124959 0 0 0 0 82.078122902898485 -67.164466577629355 0 -67.164466577629355 362.44778771837446 0 0 0 0 201.40448357618243 -15.310795748247074 0 -15.310795748247074 552.34857731175725 0 0 0 0 536.1263714354991 12.571061864919102 0 12.571061864919102 787.38934819929273 0 0 0 0 260.18323377383058 -257.28223192318728 0 -257.28223192318728 405.03606863461027 0 0 0 0 512.87635500866691 -76.544758161983736 0 -76.544758161983736 115.89455382403685 0 0 0 0 278.65292896507162 -157.41392485971028 0 -157.41392485971028 -133.89156785719388 0 0 0 0 180.45787689658391 -112.78597616842671 0 -112.78597616842671 113.29699997348962 0 0 0 0 379.98130689987374 -20.49446507090488 0 -20.49446507090488 -110.57730144138986 0 0 0 0 140.27391102026013 -232.72687584902269 0 -232.72687584902269 187.39525119130485 0 0 0 0 202.56870487908418 -108.58723635471506 0 -108.58723635471506 118.52943950572808 0 0 0 0 102.44095846902201 -163.46426283392975 0 -163.46426283392975 113.64719187257401 0 0 0 0 90.732576528543177 -131.1322328194683 0 -131.1322328194683 107.47358457986047 0 0 0 0 135.39104772924111 -249.32596393519088 0 -249.32596393519088 -92.510244018201774 0 0 0 0 90.480163542160881 -152.18575959547343 0 -152.18575959547343 -154.77271131039925 0 0 0 0 169.967196387478 -152.73984838623619 0 -152.73984838623619 -412.1516734085526 0 0 0 0 115.85044902174104 -267.8033939727552 0 -267.8033939727552 -300.49808077172202 0 0 0 0 70.955232669432007 -172.07928175614688 0 -172.07928175614688 -358.70645436325867 0 0 0 0 92.10455033919061 -37.254719810189272 0 -37.254719810189272 -108.27406965835348 0 0 0 0 60.569560199550324 -196.34201270774793 0 -196.34201270774793 -133.50169953764532 0 0 0 0 212.34087419049683 -87.271113854475516 0 -87.271113854475516 -341.71508515210007 0 0 0 0 151.26723907519954 -211.79843111765695 0 -211.79843111765695 -723.94929621541087 0 0 0 0 -103.03541948341808 -4.073573791567469 0 -4.073573791567469 -703.74355449713107 0 0 0 0 240.77642985519378 40.459021129767279 0 40.459021129767279 -1450.7005259808629 0 0 0 0 -62.800151851653936 -204.46682908050025 0 -204.46682908050025 -373.56911570175953 0 0 0 0 -15.887045859983118 -156.09264847125814 0 -156.09264847125814 -577.51954583871725 0 0 0 0 134.9318095130966 -222.35626567006693 0 -222.35626567006693 -586.1007922731842 0 0 0 0 60.182556255665986 -252.79318703060198 0 -252.79318703060198 -480.62516590025552 0 0 0 0 36.388117705428158 -131.98598608442808 0 -131.98598608442808 -412.28791350848792 0 0 0 0 83.433219475749866 -209.66022855234769 0 -209.66022855234769 -596.19220882323589 0 0 0 0 62.962585888810281 -239.73243390718653 0 -239.73243390718653 -382.62847878526009 0 0 0 0 51.894645589080028 -178.61898113869756 0 -178.61898113869756 -549.68588804244791 0 0 0 0 115.08986162313522 -178.55984931521743 0 -178.55984931521743 -506.18484542558872 0 0 0 0 63.520823490676776 -149.49430522325019 0 -149.49430522325019 -331.44095141187063 0 0 0 0 51.395838474672928 -250.19304810006906 0 -250.19304810006906 -99.724670637270151 0 0 0 0 10.637173682438515 -223.16619263474786 0 -223.16619263474786 -279.7211049477628 0 0 0 0 25.517016511314068 -252.14697798809175 0 -252.14697798809175 -265.06211044183874 0 0 0 0 -19.835676777147455 -145.39810103098171 0 -145.39810103098171 -98.742543476414539 0 0 0 0 -34.953766028665996 -174.31560311780413 0 -174.31560311780413 -338.36893474046519 0 0 0 0 17.464423941688437 -268.98875749691433 0 -268.98875749691433 -442.93987958846992 0 0 0 0 -17.000618161358943 -198.78904922291986 0 -198.78904922291986 -291.95653771692014 0 0 0 0 -139.55927590264764 -282.10993048126511 0 -282.10993048126511 -419.32798653685677 0 0 0 0 11.027400560309616 -138.8433708772518 0 -138.8433708772518 -578.78874009781975 0 0 0 0 -109.05142208699908 -155.58427883691365 0 -155.58427883691365 -490.12589587667389 0 0 0 0 -2.4236285162114655 -249.19667106379711 0 -249.19667106379711 -409.30672060446523 0 0 0 0 -23.094721330306356 -28.916955568849971 0 -28.916955568849971 8.1895993883863412 0 0 0 0 -141.74305254388219 90.353872203894753 0 90.353872203894753 180.81078476806488 0 0 0 0 13.126807405139623 -6.4283585599925122 0 -6.4283585599925122 2.8020869527743351 0 0 0 0 -1.7729615637483604 -1.3555721502807963 0 -1.3555721502807963 2.4364721024368228 0 0 0 0 32.616155330924812 77.318810266504443 0 77.318810266504443 -27.395409595218553 0 0 0 0 51.371632008791885 -17.938675771170779 0 -17.938675771170779 4.1001129329794992 0 0 0 0 7.9269056633023638 -112.20492574744662 0 -112.20492574744662 -29.026245101706081 0 0 0 0 16.357610581896136 -12.735869562656417 0 -12.735869562656417 1.8724226007115341 0 0 0 0 32.003634995777702 -62.39816036899856 0 -62.39816036899856 -152.4650561008657 0 0 0 0 28.305007343718898 28.271768269452878 0 28.271768269452878 -115.92678035764266 0 0 0 0 8.1132053412462 -3.829727428819929 0 -3.829727428819929 -0.4550444447694062 0 0 0 0 -217.08005279581994 -41.893821606559868 0 -41.893821606559868 18.63451960514476 0 0 0 0 -18.113238922423079 -15.569665263574734 0 -15.569665263574734 -59.760835178978596 0 0 0 0 78.466007045613878 21.196730521153768 0 21.196730521153768 -74.012283332947163 0 0 0 0 31.856567324284697 7.1184496238292922 0 7.1184496238292922 -131.02143689894319 0 0 0 0 -2.6706908125629454 0.64039368182896794 0 0.64039368182896794 -0.25397274164371453 0 0 0 0 -169.82646537547043 -198.81247852225533 0 -198.81247852225533 468.13177270665983 0 0 0 0 109.41017284644113 -171.18855862818646 0 -171.18855862818646 -307.4120734245771 0 0 0 0 70.079267365345004 -27.042781015594301 0 -27.042781015594301 -190.22989268263882 0 0 0 0 -3.3402534543820366 90.470104759522656 0 90.470104759522656 161.14769481310213 0 0 0 0 98.645822039436098 -69.484200545653039 0 -69.484200545653039 -750.40961280535703 0 0 0 0 139.65822002487039 -139.83346578281635 0 -139.83346578281635 -290.0027781129902 0 0 0 0 39.08827467458309 -196.1197373909734 0 -196.1197373909734 -17.519612746931671 0 0 0 0 72.986517212515309 -18.360006207390782 0 -18.360006207390782 0.035827305074036531 0 0 0 0 -0.17342344516013952 -15.940207767057657 0 -15.940207767057657 -0.41127190651127066 0 0 0 0 4.5203251539151417 -1.1471416764410352 0 -1.1471416764410352 -0.026925761922855784 0 0 0 0 1327.5470710796435 257.87186994337026 0 257.87186994337026 -247.16955205252452 0 0 0 0 528.62453502604512 -15.29497347877259 0 -15.29497347877259 -78.455781477387063 0 0 0 0 -211.23798275887481 70.941262158888321 0 70.941262158888321 221.63497147698945 0 0 0 0 -371.93838429964671 37.911811988406043 0 37.911811988406043 294.29561268221732 0 0 0 0 78.42529930692217 -202.99388242040459 0 -202.99388242040459 -307.26174094512317 0 0 0 0 67.847165916861059 -17.843246927971023 0 -17.843246927971023 0.74241403010812057 0 0 0 0 6.5838480864526723 -2.869776656597657 0 -2.869776656597657 2.2239054518051447 0 0 0 0 509.31705245333069 5.2498942046877346 0 5.2498942046877346 -99.20547834255558 0 0 0 0 506.51464097017197 -95.969872459336102 0 -95.969872459336102 -100.7454228707611 0 0 0 0 438.92353884926706 295.26901646597162 0 295.26901646597162 -17.600926876566518 0 0 0 0 171.17559885737137 52.880366689494622 0 52.880366689494622 -18.952438383218578 0 0 0 0 13.584861064278812 394.25722160189434 0 394.25722160189434 189.41257287126427 0 0 0 0 290.10782180861133 -182.88188682716554 0 -182.88188682716554 -63.354106358321587 0 0 0 0 156.31496310829607 -179.8028430831755 0 -179.8028430831755 -11.794391317707777 0 0 0 0 77.624420595209813 -188.04299694841939 0 -188.04299694841939 -63.152001083566574 0 0 0 0 -109.47299939991353 -64.654297170912287 0 -64.654297170912287 9.7830711863061879 0 0 0 0 101.62497481538776 -65.437607503821255 0 -65.437607503821255 4.4381535724496644 0 0 0 0 74.313720162889695 -86.86424091086019 0 -86.86424091086019 12.043354442112104 0 0 0 0 136.72849785806284 -89.873837055520198 0 -89.873837055520198 12.101212514797794 0 0 0 0 137.43061181019584 -53.361076381477687 0 -53.361076381477687 -4.1762359166414171 0 0 0 0 252.26517987220723 -65.331683457505278 0 -65.331683457505278 -69.315739294044761 0 0 0 0 177.0398222157728 -42.936981924003703 0 -42.936981924003703 -25.015074104784617 0 0 0 0 157.74049876939171 7.0082555785329532 0 7.0082555785329532 -10.534375035045741 0 0 0 0 22.333734670567537 46.832942675206141 0 46.832942675206141 38.243460356787182 0 0 0 0 131.39143674895058 95.071296776469353 0 95.071296776469353 18.504260632500291 0 0 0 0 123.30306444516282 32.232898177862353 0 32.232898177862353 -3.8161312167473227 0 0 0 0 15.887568333911986 -4.4693499053469168 0 -4.4693499053469168 -1.744782379388198 0 0 0 0 46.384714557842017 -43.512400868024542 0 -43.512400868024542 32.851175051226164 0 0 0 0 125.44001236664553 -11.423459183830346 0 -11.423459183830346 45.191053810642188 0 0 0 0 82.177888835594786 76.476117849581669 0 76.476117849581669 75.096400897520653 0 0 0 0 161.87428246948548 89.249036332335436 0 89.249036332335436 45.98695156824715 0 0 0 0 269.50338456706504 149.12582716723546 0 149.12582716723546 76.719283150325282 0 0 0 0 212.71116613684262 77.494912394539142 0 77.494912394539142 45.122690868512109 0 0 0 0 267.69938671464206 -9.2864241843474247 0 -9.2864241843474247 18.315863275891388 0 0 0 0 468.62045448028766 133.9594424342572 0 133.9594424342572 45.594619467017552 0 0 0 0 356.16771184983736 -53.793369551969136 0 -53.793369551969136 39.820920436847928 0 0 0 0 116.62205811060858 -29.774212122706558 0 -29.774212122706558 -6.3713383373815304 0 0 0 0 143.59875586736507 -73.907912127782765 0 -73.907912127782765 41.251873109382359 0 0 0 0 114.38189105652782 -29.733847658616924 0 -29.733847658616924 26.204372218410299 0 0 0 0 151.23227468006371 -69.92352524650596 0 -69.92352524650596 54.706092502174215 0 0 0 0 112.00082714213295 6.1312845784630099 0 6.1312845784630099 19.613038776647954 0 0 0 0 24.40266433416199 15.479514394243296 0 15.479514394243296 8.7522491290016387 0 0 0 0 93.269404712932101 -54.744111945114241 0 -54.744111945114241 109.47266038465204 0 0 0 0 -147.50145646825331 6.0248041839618054 0 6.0248041839618054 965.8579911597858 0 0 0 0 8.5361652954300737 5.5475824011549619 0 5.5475824011549619 4.0286317146666946 0 0 0 0 -71.886021842195987 61.940745255174534 0 61.940745255174534 427.80826459508808 0 0 0 0 56.840903073836671 192.58366118641334 0 192.58366118641334 85.781589768098456 0 0 0 0 337.08803744273973 229.84648120347242 0 229.84648120347242 118.87528292321258 0 0 0 0 525.91150649540214 250.62065374939993 0 250.62065374939993 117.74399662370251 0 0 0 0 773.94748434415487 -80.834541589389119 0 -80.834541589389119 30.194150456817624 0 0 0 0 670.83180504899838 471.74851031497315 0 471.74851031497315 411.12166106883251 0 0 0 0 372.88514365197625 182.43490527376753 0 182.43490527376753 764.5248756015294 0 0 0 0 668.77428405078717 -168.04418222228333 0 -168.04418222228333 538.70250893535763 0 0 0 0 491.23681435174058 107.02564650116869 0 107.02564650116869 253.31704990505841 0 0 0 0 742.20055608493999 -189.28011655296442 0 -189.28011655296442 -308.74446758630029 0 0 0 0 766.40409415496629 434.73925313091161 0 434.73925313091161 -133.41218906039103 0 0 0 0 6.9958267267418748 3.0285074976266442 0 3.0285074976266442 -1.4279646400620232 0 0 0 0 192.45887668623618 389.21863488291694 0 389.21863488291694 643.5209378366651 0 0 0 0 971.98785558973668 -255.79072706495265 0 -255.79072706495265 -446.06314655181177 0 0 0 0 10.476340964387418 466.43482326361686 0 466.43482326361686 670.04410624381649 0 0 0 0 40.888170907164749 377.95741356923645 0 377.95741356923645 56.031594067503192 0 0 0 0 -167.61989738625198 286.83590804807773 0 286.83590804807773 495.79989830074578 0 0 0 0 -46.826951421506237 280.60765984671343 0 280.60765984671343 285.43170057739462 0 0 0 0 -191.45479104641709 109.14659313339826 0 109.14659313339826 343.60802338779831 0 0 0 0 14.733588012741379 4.4717213118229289 0 4.4717213118229289 -2.7014000532588152 0 0 0 0 29.80705248711547 67.16867243444176 0 67.16867243444176 -250.31745432121534 0 0 0 0 16.070094669157697 196.38759034360919 0 196.38759034360919 24.196528414609134 0 0 0 0 153.77238739541281 169.28010464419276 0 169.28010464419276 -81.741958476580976 0 0 0 0 83.649139703420587 181.61011968480341 0 181.61011968480341 -77.593145134567294 0 0 0 0 92.464384262782914 181.05677818339913 0 181.05677818339913 -225.18224865134215 0 0 0 0 226.51173483920684 242.63752274273418 0 242.63752274273418 -178.34565907255512 0 0 0 0 -321.13571524510917 342.67244722052226 0 342.67244722052226 -170.2138316601488 0 0 0 0 7.6300285510151298 140.21617331052869 0 140.21617331052869 -505.18873611169147 0 0 0 0 -44.728662150475429 103.14852164402336 0 103.14852164402336 -48.994537225043246 0 0 0 0 -49.266526601844816 234.94680078796227 0 234.94680078796227 -194.58898612192434 0 0 0 0 -43.116394201493677 96.175040236893437 0 96.175040236893437 -78.512532406844002 0 0 0 0 -146.92915225736942 132.12332401614901 0 132.12332401614901 -88.962521784018918 0 0 0 0 85.338873044133834 135.6360727412183 0 135.6360727412183 -259.41722241695561 0 0 0 0 117.99358273026519 57.263993768454384 0 57.263993768454384 -164.69504149128943 0 0 0 0 66.597174118513067 173.46583088621492 0 173.46583088621492 -170.82439799746089 0 0 0 0 86.445260842814605 -50.770058148545559 0 -50.770058148545559 -349.6824131470795 0 0 0 0 82.712861199108829 -2.5027513075060099 0 -2.5027513075060099 -9.8729318606303202 0 0 0 0 225.6541654495868 -60.873331413494498 0 -60.873331413494498 -630.82753230480989 0 0 0 0 39.624845711310627 72.33423910318561 0 72.33423910318561 118.05354534038452 0 0 0 0 64.20470928471866 2.9809673425549335 0 2.9809673425549335 20.924978371313159 0 0 0 0 -288.34844403505372 -370.66409503143126 0 -370.66409503143126 -472.60662118881385 0 0 0 0 -295.34746230129258 -246.08450271841269 0 -246.08450271841269 -467.96226086132992 0 0 0 0 -59.747811146695767 -395.00693390424914 0 -395.00693390424914 -559.91280126614629 0 0 0 0 -73.186000726243947 -126.17009422442794 0 -126.17009422442794 -403.33457330291617 0 0 0 0 -30.066563842301548 17.346699791278297 0 17.346699791278297 -460.41818283164719 0 0 0 0 350.21508772341258 111.49303400045915 0 111.49303400045915 -481.01214095428838 0 0 0 0 109.84823756331753 -270.681653873708 0 -270.681653873708 -395.93926724410721 0 0 0 0 286.61789785570727 -193.14484614235107 0 -193.14484614235107 -479.93068161838414 0 0 0 0 214.22967718940708 -93.293108605174439 0 -93.293108605174439 -304.92350626927669 0 0 0 0 219.2386786884399 99.375165180058502 0 99.375165180058502 -201.16121232933028 0 0 0 0 347.9267336003104 101.20965179628695 0 101.20965179628695 -407.44216960737901 0 0 0 0 529.02151596331169 -74.246864572968462 0 -74.246864572968462 109.50846480289727 0 0 0 0 213.97866153472205 357.64053253064901 0 357.64053253064901 217.0028109074176 0 0 0 0 597.40377239534791 274.23288365648546 0 274.23288365648546 -41.941513664425656 0 0 0 0 250.99127711795882 99.072185625827387 0 99.072185625827387 -89.454646722234202 0 0 0 0 471.73954830732509 -51.836493422077808 0 -51.836493422077808 -303.69455892164206 0 0 0 0 173.06095596773957 -74.542175154468623 0 -74.542175154468623 -69.795899466022433 0 0 0 0 164.63547557152197 -29.809814731829647 0 -29.809814731829647 -52.555409233152204 0 0 0 0 195.97157856734339 -44.129177878600444 0 -44.129177878600444 -166.02276846037876 0 0 0 0 79.743166093110631 -73.701500075520471 0 -73.701500075520471 174.31585333731164 0 0 0 0 -21.061863482176705 111.08905300560264 0 111.08905300560264 266.6248988624302 0 0 0 0 781.448102842769 -327.66517133696652 0 -327.66517133696652 -116.66012959143495 0 0 0 0 186.77540133578077 -62.346784040292277 0 -62.346784040292277 -61.727761062226818 0 0 0 0 -2.6537797218214454 -3.7595637159773929 0 -3.7595637159773929 -1.7951340926334804 0 0 0 0 132.67439558605111 61.920345498796451 0 61.920345498796451 350.26748432745626 0 0 0 0 196.75500265001028 -50.928022434174181 0 -50.928022434174181 -342.04791566771632 0 0 0 0 -1.6293051710050008 -1.5917973143133466 0 -1.5917973143133466 1.9240048265805072 0 0 0 0 717.89069829871369 14.917510781298688 0 14.917510781298688 -688.84893622456366 0 0 0 0 138.3825035707705 239.71147783118658 0 239.71147783118658 -313.62196057772053 0 0 0 0 8.5971186026512214 4.2049958127227338 0 4.2049958127227338 -2.0119997561677905 0 0 0 0 329.44723135072854 573.37859354681405 0 573.37859354681405 612.82758966433482 0 0 0 0 219.37351490058427 -222.19954329299946 0 -222.19954329299946 -416.95007365707932 0 0 0 0 -106.43278451030346 1.1117077628778134 0 1.1117077628778134 -172.58358885338953 0 0 0 0 -175.87067174097319 79.124935118437634 0 79.124935118437634 367.85591002131969 0 0 0 0 914.65365056133305 321.83588295701702 0 321.83588295701702 371.83087678563129 0 0 0 0 28.891457941193948 445.08169394082142 0 445.08169394082142 535.86337545585775 0 0 0 0 204.62863150117482 -123.81409135993772 0 -123.81409135993772 522.65449217702917 0 0 0 0 15.959736154358396 4.7950562809037809 0 4.7950562809037809 -3.0945685099978433 0 0 0 0 392.64747353841813 -107.4626781385964 0 -107.4626781385964 -43.289794801900143 0 0 0 0 -34.693504188704537 212.13653602309114 0 212.13653602309114 182.72940903238941 0 0 0 0 519.75514773563555 402.80739167218053 0 402.80739167218053 235.95701701836515 0 0 0 0 -74.031519300599939 303.08083382686914 0 303.08083382686914 632.86155682224853 0 0 0 0 447.94372741125699 -182.04554968687808 0 -182.04554968687808 83.41734403758619 0 0 0 0 150.02733484798591 598.55684283106257 0 598.55684283106257 659.77040489695992 0 0 0 0 -0.40909772370991959 7.1266422131968845 0 7.1266422131968845 6.5591817792311602 0 0 0 0 91.230975691767526 -66.973404416709855 0 -66.973404416709855 1.0769676800882735 0 0 0 0 193.89415232658212 33.633655358205942 0 33.633655358205942 -287.84730766519351 0 0 0 0 25.245145579310957 -9.2432968979416756 0 -9.2432968979416756 -1.7823275330421495 0 0 0 0 384.95879989771493 -204.51167339499852 0 -204.51167339499852 -150.92583280559347 0 0 0 0 748.11766070641715 319.08277625015921 0 319.08277625015921 -21.703236359745461 0 0 0 0 457.14133549822873 551.94430565558605 0 551.94430565558605 558.34684080823263 0 0 0 0 64.302195840420609 -203.58890883593267 0 -203.58890883593267 186.46372141141001 0 0 0 0 3.284221936955845 -6.2028323574622526 0 -6.2028323574622526 2.2687101074662417 0 0 0 0 607.54207566620607 224.91929956291779 0 224.91929956291779 135.68611694123365 0 0 0 0 22.411010313664264 0.67591361393809279 0 0.67591361393809279 -7.2146417809745476 0 0 0 0 -188.95526668894308 6.756312102358379 0 6.756312102358379 208.81212256224018 0 0 0 0 80.492512471153987 -84.418786896458869 0 -84.418786896458869 4.4674877608176757 0 0 0 0 71.792544606314223 -44.019944012924356 0 -44.019944012924356 -8.8789253607235494 0 0 0 0 24.182934387747082 -72.043754432383139 0 -72.043754432383139 58.287091527929988 0 0 0 0 58.40797861430832 -91.80826818685091 0 -91.80826818685091 -101.26658895922537 0 0 0 0 110.45646709686275 -45.019920012131365 0 -45.019920012131365 -243.55618360332483 0 0 0 0 108.9908341598175 -163.52952221743135 0 -163.52952221743135 46.689743921947411 0 0 0 0 19.591572286474086 -10.013320565213554 0 -10.013320565213554 -3.8632765589196145 0 0 0 0 -6.2134507058290183 -84.562024975993609 0 -84.562024975993609 28.552383167832886 0 0 0 0 51.490394964407095 -44.282046789909998 0 -44.282046789909998 -14.994546966915712 0 0 0 0 101.0371795982428 -52.502550790180976 0 -52.502550790180976 -55.356178427904524 0 0 0 0 -153.27301712251369 -108.63065760805875 0 -108.63065760805875 -29.459525997466699 0 0 0 0 49.128150369914465 -38.879371867498421 0 -38.879371867498421 -19.241807146516432 0 0 0 0 53.777773080069892 -59.757772090031722 0 -59.757772090031722 -54.090174987507908 0 0 0 0 -104.76989204831091 -209.83038243183637 0 -209.83038243183637 -20.505465099164212 0 0 0 0 34.304304634320943 -109.68324691087491 0 -109.68324691087491 -99.048148365091947 0 0 0 0 176.1346881585913 -97.8718536329568 0 -97.8718536329568 -57.657440672870507 0 0 0 0 219.78923285734754 -144.43741016800686 0 -144.43741016800686 -168.52435134822645 0 0 0 0 72.843164235981007 -155.82754508495077 0 -155.82754508495077 -48.599124696449508 0 0 0 0 -1.1296333106110978 125.08922217885447 0 125.08922217885447 127.91209820899394 0 0 0 0 277.48302741019688 -17.208985691218004 0 -17.208985691218004 -130.64332403621665 0 0 0 0 79.099009060140816 -22.086103822140103 0 -22.086103822140103 65.903387682928951 0 0 0 0 134.56943403313198 -110.07408371577367 0 -110.07408371577367 42.158051312707812 0 0 0 0 29.298204141321548 2.9216751206245135 0 2.9216751206245135 11.959125007247167 0 0 0 0 142.03499956746236 46.205390624284519 0 46.205390624284519 -156.45977620635495 0 0 0 0 45.070737158795183 15.568780846066598 0 15.568780846066598 6.4625843571290709 0 0 0 0 32.674459180323538 14.42605761168852 0 14.42605761168852 48.333098649851308 0 0 0 0 29.912209521564364 -5.7028082190045097 0 -5.7028082190045097 5.5638282400996104 0 0 0 0 35.20309131227441 -21.385662934997526 0 -21.385662934997526 48.755657355331451 0 0 0 0 32.487628149717565 -16.550360344711425 0 -16.550360344711425 -0.019336154105808134 0 0 0 0 -91.327181630659879 -112.25381426668173 0 -112.25381426668173 -9.2408227570995223 0 0 0 0 17.298799576552483 -9.643750212067971 0 -9.643750212067971 18.257745176792696 0 0 0 0 13.643652247484102 -21.29498665257055 0 -21.29498665257055 -0.21030810061058958 0 0 0 0 -77.366399422347968 -51.957871313386931 0 -51.957871313386931 16.800550842986922 0 0 0 0 -98.493073840361376 -93.705055742179866 0 -93.705055742179866 -29.519145044905599 0 0 0 0 -78.730759108600978 -19.951131676419209 0 -19.951131676419209 27.974216025817441 0 0 0 0 -63.349098121126417 -19.046940673858444 0 -19.046940673858444 6.1364239046069997 0 0 0 0 2.1780633366733611 -1.7460273036903615 0 -1.7460273036903615 -0.52900371020975889 0 0 0 0 3.2717195190107304 -16.05379822241639 0 -16.05379822241639 7.8949153405283141 0 0 0 0 31.977381649183371 8.0841880389671132 0 8.0841880389671132 -17.297580108371221 0 0 0 0 459.31007454754035 -307.40404536651386 0 -307.40404536651386 77.367618953544934 0 0 0 0 -5.2219593388349494 -37.042184155716313 0 -37.042184155716313 81.024502677173587 0 0 0 0 63.432668833487583 -96.666691454952343 0 -96.666691454952343 128.2377692599639 0 0 0 0 35.53791536325059 -111.67514927549723 0 -111.67514927549723 330.69486773339486 0 0 0 0 7.8274661445577749 -158.11422553966986 0 -158.11422553966986 -136.2471959707982 0 0 0 0 23.414620633519917 -215.55892759427297 0 -215.55892759427297 71.752128146508767 0 0 0 0 -135.7516945660459 -211.47596071347198 0 -211.47596071347198 -171.22236766737933 0 0 0 0 -193.1587840090358 -57.701502759386358 0 -57.701502759386358 47.345419326838964 0 0 0 0 19.397907907538432 -19.753875802631455 0 -19.753875802631455 -14.349975318088322 0 0 0 0 -72.733057320124317 -65.54179568498148 0 -65.54179568498148 33.429270682555398 0 0 0 0 -78.274704426715971 -67.625951139871177 0 -67.625951139871177 124.63861124393043 0 0 0 0 -9.8570185780411066 10.177430525374803 0 10.177430525374803 65.342097431919683 0 0 0 0 -30.124702676416746 -18.799755535010263 0 -18.799755535010263 87.479060386656784 0 0 0 0 -72.620561578602832 -17.372050150924679 0 -17.372050150924679 108.92966868455915 0 0 0 0 -112.30343619981159 -44.460330753080598 0 -44.460330753080598 81.187048146826783 0 0 0 0 -71.864135793521427 -32.030616181942946 0 -32.030616181942946 45.134335267692222 0 0 0 0 -65.664980324168937 12.410533926808057 0 12.410533926808057 54.959308753819187 0 0 0 0 -52.697302312728084 0.8866439696521411 0 0.8866439696521411 63.901421591166581 0 0 0 0 22.377745632339725 98.220240977844696 0 98.220240977844696 43.712697675560776 0 0 0 0 3.3871593876898634 -1.9489515258152945 0 -1.9489515258152945 1.4622495196664751 0 0 0 0 34.946657831286984 41.799902259595456 0 41.799902259595456 250.28542823664429 0 0 0 0 702.29380731467938 -196.98971038544187 0 -196.98971038544187 -16.286231710623042 0 0 0 0 16.938440070156048 60.040476145288721 0 60.040476145288721 155.56345952651645 0 0 0 0 -27.641563114523819 -39.00286969149829 0 -39.00286969149829 201.26676774516636 0 0 0 0 1077.8641199893248 -152.79807225153809 0 -152.79807225153809 -77.649587468321442 0 0 0 0 665.17298475022812 -99.643305102925524 0 -99.643305102925524 35.46012689084273 0 0 0 0 526.82564900471561 220.92814995751678 0 220.92814995751678 -65.692867460203161 0 0 0 0 436.0476548415279 139.24918603608421 0 139.24918603608421 168.50907967417425 0 0 0 0 436.30413862927202 138.65726880000582 0 138.65726880000582 -46.868092282420548 0 0 0 0 252.20295990689465 181.48607771941806 0 181.48607771941806 74.142828645591635 0 0 0 0 48.175935319067321 42.205503616386068 0 42.205503616386068 132.07460568166698 0 0 0 0 624.61757582490748 339.51907357289065 0 339.51907357289065 118.99223171875383 0 0 0 0 17.038812303958977 -7.0590065426032638 0 -7.0590065426032638 0.081865377590656152 0 0 0 0 110.73340463230033 -43.842528616525669 0 -43.842528616525669 -59.471397338140378 0 0 0 0 61.592996827157094 -18.845532830553566 0 -18.845532830553566 -72.039554876400871 0 0 0 0 3.1469802320591693 5.1355989394623016 0 5.1355989394623016 -12.043131780893177 0 0 0 0 43.499368631988546 33.076040435237701 0 33.076040435237701 -42.67225033629893 0 0 0 0 121.48936659794526 -59.765705967998656 0 -59.765705967998656 -37.184245585514873 0 0 0 0 -45.840621647171702 -124.44297234004262 0 -124.44297234004262 -199.12536557955173 0 0 0 0 -73.740360051204902 -129.87645035019887 0 -129.87645035019887 -158.1882309514549 0 0 0 0 -32.191873552998416 -110.97849500269922 0 -110.97849500269922 -187.68138109794018 0 0 0 0 -74.677742778302303 -121.25533046493274 0 -121.25533046493274 -202.75271531223916 0 0 0 0 -193.32008590087003 -233.14229666533447 0 -233.14229666533447 -220.11220597047304 0 0 0 0 -168.24918682135973 -136.3267984866211 0 -136.3267984866211 -170.20182917202692 0 0 0 0 -111.40240758465382 -172.47185251587689 0 -172.47185251587689 -212.52724076103914 0 0 0 0 12.917837230586883 2.9813164653023705 0 2.9813164653023705 -3.2490745309087288 0 0 0 0 10.637216533193538 1.8154850504303308 0 1.8154850504303308 -11.056781759722437 0 0 0 0 -113.59133837786169 -106.17244613961338 0 -106.17244613961338 -154.18966024469773 0 0 0 0 -39.221823776263136 -164.14792668301016 0 -164.14792668301016 -291.52901692423484 0 0 0 0 -64.048759673845552 -151.78213697554747 0 -151.78213697554747 -215.74563505213519 0 0 0 0 -113.51858059254927 -108.77944914498119 0 -108.77944914498119 -247.14177120193199 0 0 0 0 -74.753811303898601 -135.43982150584452 0 -135.43982150584452 -195.84772758506006 0 0 0 0 2.5471514219816367 0.33820844291571639 0 0.33820844291571639 -4.6370418334262951 0 0 0 0 7.369732943564145 -0.63092733891198804 0 -0.63092733891198804 -6.0028607614376597 0 0 0 0 7.6739534069341024 -0.79144714583146047 0 -0.79144714583146047 -3.612023828234932 0 0 0 0 10.797260597392253 -2.9905259323220155 0 -2.9905259323220155 -5.4616382918324184 0 0 0 0 -78.283256238428748 -72.377810078310631 0 -72.377810078310631 -28.029618731075971 0 0 0 0 76.088975128328457 15.82759401137082 0 15.82759401137082 -33.247998056078245 0 0 0 0 6.3717434549943963 -3.3097384894550528 0 -3.3097384894550528 -7.7086751490931782 0 0 0 0 65.058031341623973 -9.9008412954945015 0 -9.9008412954945015 42.183228893195519 0 0 0 0 194.54893569443857 14.439007080273768 0 14.439007080273768 -19.05353390090113 0 0 0 0 71.182074404835475 42.768449264286573 0 42.768449264286573 33.909829615952731 0 0 0 0 335.05818199692726 -9.5603915973542826 0 -9.5603915973542826 7.2663488331841108 0 0 0 0 151.02910234017602 57.138886393163631 0 57.138886393163631 147.91610298069008 0 0 0 0 26.882565693645574 4.5558820956193813 0 4.5558820956193813 -4.6570518402750167 0 0 0 0 -83.257690094136251 -57.924966882159879 0 -57.924966882159879 36.565102261512038 0 0 0 0 143.66754954819453 5.2857908078522087 0 5.2857908078522087 -42.010467065144439 0 0 0 0 -79.74307237596156 -5.7597155542238738 0 -5.7597155542238738 54.120304022932032 0 0 0 0 0.61646864362851694 3.8679517082927042 0 3.8679517082927042 -0.78964051722854212 0 0 0 0 3.186089589522652 0.81745851629058386 0 0.81745851629058386 -8.2857237274711331 0 0 0 0 17.56613278299119 6.6599897782261905 0 6.6599897782261905 -10.651777967023008 0 0 0 0 202.18935872639804 45.257345793046625 0 45.257345793046625 -44.699704795607204 0 0 0 0 249.79829263242482 174.04216477741375 0 174.04216477741375 66.188537163126512 0 0 0 0 383.5850871133398 222.82096722038841 0 222.82096722038841 72.583650876892534 0 0 0 0 526.11608785980798 164.88887192830816 0 164.88887192830816 -28.40443549855172 0 0 0 0 423.08690047309892 -320.6497985598271 0 -320.6497985598271 250.53750910956023 0 0 0 0 0.39752002433520062 3.4801005240922027 0 3.4801005240922027 2.4735163667347013 0 0 0 0 98.910944150337286 250.43034211738092 0 250.43034211738092 -186.66303015502126 0 0 0 0 492.71114259747469 115.19483566866256 0 115.19483566866256 -143.59119963895046 0 0 0 0 444.76163245615953 146.80863947666967 0 146.80863947666967 -43.389361519751901 0 0 0 0 192.28807994851377 -180.71354602536303 0 -180.71354602536303 16.85187079377738 0 0 0 0 62.253552571931152 27.532643480977743 0 27.532643480977743 -221.43306574392818 0 0 0 0 74.509682946254543 -243.85512831239805 0 -243.85512831239805 -323.60581388976289 0 0 0 0 391.45472257110305 221.50485632986238 0 221.50485632986238 373.87676688650436 0 0 0 0 46.953824823321298 103.33526513654355 0 103.33526513654355 480.71560209735162 0 0 0 0 272.42032709523028 307.96763343196176 0 307.96763343196176 351.77083052011949 0 0 0 0 196.48407122791514 127.92491413884272 0 127.92491413884272 299.27310274316005 0 0 0 0 48.822320516817385 -84.183780182585735 0 -84.183780182585735 135.13496907202716 0 0 0 0 140.39160588549021 170.8870695897931 0 170.8870695897931 271.14713332620204 0 0 0 0 83.572604685482474 12.83766592027041 0 12.83766592027041 92.928980218055585 0 0 0 0 78.166139951395962 103.30979012367879 0 103.30979012367879 215.25681083129371 0 0 0 0 15.051650158176926 -28.503859891197862 0 -28.503859891197862 112.47378320925736 0 0 0 0 73.737749088318196 -45.509035163662702 0 -45.509035163662702 -105.32055291656616 0 0 0 0 36.651406054021209 -58.441387326339736 0 -58.441387326339736 -103.75523130963575 0 0 0 0 -9.1427812452193393 -153.42566456559939 0 -153.42566456559939 -95.369162352122657 0 0 0 0 67.828073833728922 -108.96520454470601 0 -108.96520454470601 -46.160824920691994 0 0 0 0 68.998773428793356 -20.362965741354401 0 -20.362965741354401 -27.032725094961279 0 0 0 0 3.8734395588896859 -200.23997029829735 0 -200.23997029829735 -202.40865218152612 0 0 0 0 16.607734698136483 -111.52103782091945 0 -111.52103782091945 -32.817297870634093 0 0 0 0 -48.345671827075421 -236.92744280809529 0 -236.92744280809529 -263.54940622131744 0 0 0 0 -25.654685918594623 -104.30623614422279 0 -104.30623614422279 -324.10133959577615 0 0 0 0 13.511273059273663 -228.62802306237381 0 -228.62802306237381 -359.46506978031607 0 0 0 0 1.7588629157828652 0.52442282378933136 0 0.52442282378933136 -2.0319402386492009 0 0 0 0 13.600112159354467 -207.47762983245775 0 -207.47762983245775 -342.19083071223213 0 0 0 0 3.3216225555624987 -169.67915235235068 0 -169.67915235235068 -216.130184084539 0 0 0 0 17.938243717084333 -144.63194491171089 0 -144.63194491171089 -400.09298214099908 0 0 0 0 -33.526307387768611 -83.35498959781853 0 -83.35498959781853 -124.54682052430326 0 0 0 0 16.483572259337961 -115.09079339677237 0 -115.09079339677237 -311.57217496798694 0 0 0 0 -82.218603611629078 -46.560626207185123 0 -46.560626207185123 -399.49316524887217 0 0 0 0 -35.859478722086351 -81.622843335277139 0 -81.622843335277139 -374.52627686707274 0 0 0 0 -20.17403773429487 -127.96402654032636 0 -127.96402654032636 -248.32366547031597 0 0 0 0 -19.490820888648159 -72.874341519089285 0 -72.874341519089285 -254.77582366026718 0 0 0 0 32.060534087706401 -126.51277416312951 0 -126.51277416312951 -240.55162946267455 0 0 0 0 18.918400250699051 -167.39080355997248 0 -167.39080355997248 -225.73572240264366 0 0 0 0 27.138734889345869 -63.318304024018289 0 -63.318304024018289 -147.20511840901418 0 0 0 0 -10.44057860871726 -69.280396640136132 0 -69.280396640136132 -7.1256912186581758 0 0 0 0 35.662907469248239 -7.7318339014923367 0 -7.7318339014923367 109.58524598030453 0 0 0 0 64.267470854800195 23.911283909003032 0 23.911283909003032 -19.439494852226289 0 0 0 0 3.9650294511066022 -51.430231502975857 0 -51.430231502975857 9.4487688586395961 0 0 0 0 4.8402482420651722 -16.313400352536519 0 -16.313400352536519 -59.123945241934052 0 0 0 0 -25.004954553955486 -83.637067505936102 0 -83.637067505936102 -73.0631413509509 0 0 0 0 -50.85629199739742 -83.084292805304358 0 -83.084292805304358 -64.395848698584359 0 0 0 0 -35.157405702556389 -62.434694393169593 0 -62.434694393169593 -143.09398266257267 0 0 0 0 -84.930292596792242 -104.51089986543047 0 -104.51089986543047 -154.49391313544766 0 0 0 0 -85.958216687762615 -89.571984986066127 0 -89.571984986066127 -163.30285303021083 0 0 0 0 -96.691124119579399 -166.9180655265709 0 -166.9180655265709 -182.31652120259423 0 0 0 0 -45.725631237833113 -106.05184652792741 0 -106.05184652792741 -148.84706116555935 0 0 0 0 -31.095638464719741 -64.455802296730326 0 -64.455802296730326 -103.62381804156757 0 0 0 0 -59.218917094339531 -117.56407940866802 0 -117.56407940866802 -134.01986414056228 0 0 0 0 -60.404351154501228 -116.54280061087593 0 -116.54280061087593 -108.61751260881283 0 0 0 0 -5.2198887777412892 -62.763479715282301 0 -62.763479715282301 -97.768098382806784 0 0 0 0 -31.368419007523698 -31.79253273528775 0 -31.79253273528775 -12.052549693977198 0 0 0 0 -19.903772057461424 -62.235651372895973 0 -62.235651372895973 -117.09193575597237 0 0 0 0 -44.753139307346146 -96.097512478285353 0 -96.097512478285353 -87.286290379266575 0 0 0 0 -27.792236225806846 -85.085341853935461 0 -85.085341853935461 -138.58306865584927 0 0 0 0 -53.877694840966342 -127.45363284683481 0 -127.45363284683481 -157.12436823248936 0 0 0 0 -53.432530558358849 -138.58569357261331 0 -138.58569357261331 -197.77199832558472 0 0 0 0 -45.198067299855211 -157.04344023411977 0 -157.04344023411977 -254.07786620363186 0 0 0 0 -63.259380357448208 -149.39611627581326 0 -149.39611627581326 -173.31314925160495 0 0 0 0 -83.265526219280218 -179.85933369296436 0 -179.85933369296436 -209.97599875647802 0 0 0 0 -68.897307870870918 -156.75263813925721 0 -156.75263813925721 -227.79954667625498 0 0 0 0 -61.640458298848898 -190.84846633887719 0 -190.84846633887719 -240.84037781982806 0 0 0 0 12.720919348512325 -5.5679689486544248 0 -5.5679689486544248 -5.4638756232639878 0 0 0 0 9.3927919140995932 -1.0845045657431793 0 -1.0845045657431793 -5.9934378092883698 0 0 0 0 -75.450572909843686 -216.14109782456217 0 -216.14109782456217 -263.07909054378888 0 0 0 0 -138.70397149933706 -212.7624433790661 0 -212.7624433790661 -240.77591656606273 0 0 0 0 -110.50590876382375 -141.93803384597504 0 -141.93803384597504 -248.75455969442919 0 0 0 0 -165.39357805976761 -98.44418149520061 0 -98.44418149520061 -218.94795267434165 0 0 0 0 -63.157590508901194 -126.78761301906206 0 -126.78761301906206 -213.51166992816798 0 0 0 0 -257.23324681398481 -110.81798846842139 0 -110.81798846842139 -252.67850859396003 0 0 0 0 -94.50109552194408 -125.99894563591988 0 -125.99894563591988 -267.43638580111292 0 0 0 0 -207.65979521448025 -41.529687288155401 0 -41.529687288155401 -329.29478718150312 0 0 0 0 -77.892474122580097 -146.92716733864836 0 -146.92716733864836 -448.51332201129117 0 0 0 0 -189.46370558113267 -198.15865769816992 0 -198.15865769816992 -243.55946780703925 0 0 0 0 -0.1757213161991853 -1.9853423202753335 0 -1.9853423202753335 -1.7648501750318859 0 0 0 0 9.0546203014309867 -9.0962652456973956 0 -9.0962652456973956 -4.2694275105768611 0 0 0 0 9.0146737978684541 -8.8516646968813006 0 -8.8516646968813006 -4.8708442351753547 0 0 0 0 18.967628732419143 -0.54290937040988752 0 -0.54290937040988752 -11.006491518794348 0 0 0 0 5.4697750197591333 -7.6724127705257796 0 -7.6724127705257796 -6.092950070098837 0 0 0 0 21.586185822925472 -4.0291679059588432 0 -4.0291679059588432 -6.431364540849188 0 0 0 0 10.290264767980984 -0.96650116441320844 0 -0.96650116441320844 -10.465063876078435 0 0 0 0 14.868714604357763 3.8255775371308118 0 3.8255775371308118 -10.141549264586502 0 0 0 0 14.816257181029869 4.4687552396326282 0 4.4687552396326282 -2.4354359101143928 0 0 0 0 17.514546840184266 6.0523724587579864 0 6.0523724587579864 -13.97120300124152 0 0 0 0 24.754626127339762 5.8616981295460295 0 5.8616981295460295 -10.814135134595173 0 0 0 0 64.338620830269065 25.99770929712156 0 25.99770929712156 -54.868803218652083 0 0 0 0 194.9048343894392 -4.1274208373621946 0 -4.1274208373621946 -57.480952124414074 0 0 0 0 3.4072048863235977 -53.904880556687544 0 -53.904880556687544 21.208006815346835 0 0 0 0 5.8378006711795294 -8.6413769647960201 0 -8.6413769647960201 -3.8707822414319879 0 0 0 0 33.484223246108741 -2.3451471937819406 0 -2.3451471937819406 -6.0343512162153274 0 0 0 0 35.785497893177784 -2.8935143801450565 0 -2.8935143801450565 -16.897569281852476 0 0 0 0 6.7103958072111709 -50.692545193886986 0 -50.692545193886986 19.910893609607285 0 0 0 0 19.42236238258009 -14.505060675066046 0 -14.505060675066046 -6.2054781475049445 0 0 0 0 23.928399749860091 -5.5420557006898434 0 -5.5420557006898434 -8.4214999796831762 0 0 0 0 24.173862167509451 -10.516736664383451 0 -10.516736664383451 -9.5522912906337432 0 0 0 0 21.993639026319464 -9.9822114904344996 0 -9.9822114904344996 -13.448204260805447 0 0 0 0 37.941192413763929 -123.21271042336548 0 -123.21271042336548 2.1351376305872236 0 0 0 0 48.918646677195738 6.3307722141094729 0 6.3307722141094729 -29.210845197589606 0 0 0 0 24.544441179953512 -0.26959336490756414 0 -0.26959336490756414 -4.8208877666200047 0 0 0 0 20.714298912364029 -3.225652922320478 0 -3.225652922320478 -13.770518081444834 0 0 0 0 4.8503146971670503 -6.7135605084199597 0 -6.7135605084199597 -9.1963413181492797 0 0 0 0 16.753492446539894 -0.90193739608821488 0 -0.90193739608821488 -0.9346053043491338 0 0 0 0 1.0328473504503712 -1.8064328802938392 0 -1.8064328802938392 -1.3143001557526306 0 0 0 0 -14.195833165792919 -2.8727907040558875 0 -2.8727907040558875 50.847894014377289 0 0 0 0 14.497638563161672 -37.196207218832967 0 -37.196207218832967 -90.059500077895223 0 0 0 0 14.702378988382407 -2.8841896718317344 0 -2.8841896718317344 -21.641685239937487 0 0 0 0 -34.683982571998058 -97.248293373735123 0 -97.248293373735123 5.5323885711625849 0 0 0 0 -51.232034962355101 -79.799939901048219 0 -79.799939901048219 33.21869524913518 0 0 0 0 -2.4688895266480912 1.7218323105095701 0 1.7218323105095701 1.8529112735042728 0 0 0 0 -66.96870641487476 53.243649914083562 0 53.243649914083562 -15.287913157877483 0 0 0 0 103.93666372441112 27.850074524791239 0 27.850074524791239 -531.94800301248779 0 0 0 0 -71.764171018328852 -326.12075491273174 0 -326.12075491273174 90.242214302428522 0 0 0 0 -32.60009592042843 64.322195357584121 0 64.322195357584121 -171.61205997776898 0 0 0 0 13.598257719993548 3.3949364971472589 0 3.3949364971472589 -0.12023149408831868 0 0 0 0 17.86355280879161 -2.3704454385995177 0 -2.3704454385995177 0.75014475215948551 0 0 0 0 198.72212165764176 -115.04086212873744 0 -115.04086212873744 28.089916293597526 0 0 0 0 121.77975443249375 137.23731121372262 0 137.23731121372262 -107.91045729803977 0 0 0 0 8.8446565210253958 1.2628183276852845 0 1.2628183276852845 0.98106658512228861 0 0 0 0 58.822418539763021 -283.20223376688637 0 -283.20223376688637 366.27573077926252 0 0 0 0 147.09301859494735 -121.11919755733129 0 -121.11919755733129 263.00708835063324 0 0 0 0 99.6767846742041 -166.84648750765155 0 -166.84648750765155 51.923586503409751 0 0 0 0 137.78232190119888 -240.39687145928656 0 -240.39687145928656 63.387632252116418 0 0 0 0 18.815981500608217 4.3348786098218604 0 4.3348786098218604 0.79209125986659923 0 0 0 0 4.2239834751035232 112.03538973055089 0 112.03538973055089 -569.91283142014504 0 0 0 0 4.1405783287520137 -1.6655551423197466 0 -1.6655551423197466 -0.33112961887282344 0 0 0 0 55.232058393198713 1.4559686051508152 0 1.4559686051508152 -235.71893361022376 0 0 0 0 75.08932341070431 186.07906372277739 0 186.07906372277739 -245.3572069437414 0 0 0 0 13.323073010953522 232.3055732017383 0 232.3055732017383 -208.57007158914166 0 0 0 0 7.639032781892638 84.514803121905516 0 84.514803121905516 -62.272533988962095 0 0 0 0 94.912310411762746 31.252798119067052 0 31.252798119067052 92.10191241947723 0 0 0 0 266.56446311443142 97.508960877853497 0 97.508960877853497 -88.138998624170199 0 0 0 0 104.57502835671994 76.527591680695764 0 76.527591680695764 -253.25334616434338 0 0 0 0 -11.249209347879514 25.767599608358069 0 25.767599608358069 -136.69202958344931 0 0 0 0 99.770802942561204 -120.22696805289752 0 -120.22696805289752 -11.043224505423495 0 0 0 0 134.91573805806001 -118.44249868000134 0 -118.44249868000134 -157.29080060050546 0 0 0 0 216.56408605723846 -199.33801749929262 0 -199.33801749929262 -33.647841398616947 0 0 0 0 233.71132779875552 -201.47396241126444 0 -201.47396241126444 30.436137823153331 0 0 0 0 238.83258601574562 -165.69829542903153 0 -165.69829542903153 11.845615218823696 0 0 0 0 140.43019440172884 48.904258572733625 0 48.904258572733625 10.615061004349627 0 0 0 0 2.2968635152575416 0.095168006075368794 0 0.095168006075368794 -0.66608845125695548 0 0 0 0 322.53285576922281 -157.56943136471364 0 -157.56943136471364 -23.955079631075932 0 0 0 0 128.55939591876813 -154.0134668721339 0 -154.0134668721339 175.04275614230937 0 0 0 0 298.20623375399236 -181.32312718177945 0 -181.32312718177945 3.6809114191109984 0 0 0 0 132.80753518046185 -28.860204260170576 0 -28.860204260170576 -73.066405992730324 0 0 0 0 13.404019055782356 -35.072321123331307 0 -35.072321123331307 -4.6737574439216161 0 0 0 0 60.770580486390827 -57.710467047130805 0 -57.710467047130805 -1.1124734209945473 0 0 0 0 44.814265233906553 -111.0602347610602 0 -111.0602347610602 67.721559538930705 0 0 0 0 27.116554571968962 -14.845216241723207 0 -14.845216241723207 -6.4673591260613783 0 0 0 0 26.551135687594069 -16.677632709535828 0 -16.677632709535828 -5.9712739942624466 0 0 0 0 -16.054509535628313 1.6261332168760418 0 1.6261332168760418 -6.7328443646711094 0 0 0 0 15.57629861066777 -23.393511133643972 0 -23.393511133643972 -3.3662110767555973 0 0 0 0 0.33121169904889314 -1.3987390042295331 0 -1.3987390042295331 -1.5204007431372339 0 0 0 0 -22.304572536901105 -32.886774919150412 0 -32.886774919150412 0.75805246211893973 0 0 0 0 -10.501990880944504 -5.3981220232608393 0 -5.3981220232608393 -31.641534368682187 0 0 0 0 16.587024908020531 -4.6325574288174849 0 -4.6325574288174849 -10.437153844689677 0 0 0 0 35.174421587085817 -30.204679210830363 0 -30.204679210830363 14.87666005014762 0 0 0 0 11.706452206546942 -9.4070387889460392 0 -9.4070387889460392 -4.1192163319852959 0 0 0 0 20.838878374202977 -10.457816735744473 0 -10.457816735744473 -8.3222812697406425 0 0 0 0 27.225745867326623 -7.2724073492736352 0 -7.2724073492736352 -5.3399528007212211 0 0 0 0 7.6808979097404517 -9.0328069512543152 0 -9.0328069512543152 -4.5850459761118145 0 0 0 0 -1.2989110043432959 -12.330760138527408 0 -12.330760138527408 -1.465006144934403 0 0 0 0 17.802596057183528 -14.567380189516065 0 -14.567380189516065 0.89443668816423383 0 0 0 0 6.5871272574664097 -5.6191568744102653 0 -5.6191568744102653 -3.3880286530284138 0 0 0 0 6.7229259987881917 -2.3166395549341345 0 -2.3166395549341345 -3.2439112145812992 0 0 0 0 21.086566607380519 -14.340444943700277 0 -14.340444943700277 -0.10532606569907443 0 0 0 0 12.444058062916156 -10.3184356949223 0 -10.3184356949223 -5.8144834206541418 0 0 0 0 17.933652010107217 -13.161174808804509 0 -13.161174808804509 -9.3182615856726283 0 0 0 0 90.380334303046766 4.0576247786598287 0 4.0576247786598287 -30.962031214624403 0 0 0 0 45.07411527943168 -1.838398530990105 0 -1.838398530990105 -12.594803432722983 0 0 0 0 72.451016053517378 -39.990854914358579 0 -39.990854914358579 0.46459963732831966 0 0 0 0 72.532669682217602 -6.7455392072231461 0 -6.7455392072231461 -33.710578113147221 0 0 0 0 28.535070100280095 13.505851450563604 0 13.505851450563604 -23.859778128572628 0 0 0 0 62.524312564182765 18.902499336410756 0 18.902499336410756 -2.0381553197972835 0 0 0 0 51.674426000317283 -10.869432567378416 0 -10.869432567378416 -9.6277937815894141 0 0 0 0 78.346905397829687 -19.864825789162779 0 -19.864825789162779 -15.270888357058141 0 0 0 0 51.752306086063982 -14.27521997264364 0 -14.27521997264364 -16.414062347802428 0 0 0 0 37.365515080595635 -5.4877719452364602 0 -5.4877719452364602 -19.664871982206051 0 0 0 0 39.387264802160473 -34.469293578952005 0 -34.469293578952005 -17.837354626725272 0 0 0 0 17.428417277700206 -4.9850754509840129 0 -4.9850754509840129 -3.3188847278491873 0 0 0 0 149.22920554633311 -79.016008012044949 0 -79.016008012044949 -2.5330394392203743 0 0 0 0 13.963625150320553 -33.876068761723445 0 -33.876068761723445 -6.476875853379914 0 0 0 0 57.349126506753237 -35.155212844309631 0 -35.155212844309631 -14.495836258032568 0 0 0 0 84.557259213743237 -27.495874290845904 0 -27.495874290845904 -36.603680956593962 0 0 0 0 43.40121465001171 -11.972992376024784 0 -11.972992376024784 -16.592363956788152 0 0 0 0 38.367241809255859 -16.879508206633645 0 -16.879508206633645 -0.82589529092001257 0 0 0 0 21.528723205353305 -31.4493095066255 0 -31.4493095066255 -17.1440071660139 0 0 0 0 56.134794238510949 -35.214893499962727 0 -35.214893499962727 -13.484859363492433 0 0 0 0 76.65884648473002 -28.659645453122721 0 -28.659645453122721 -13.581131545297467 0 0 0 0 93.347190794954713 13.633792374754421 0 13.633792374754421 -52.904368293648076 0 0 0 0 152.9097585548061 -71.997123314909913 0 -71.997123314909913 -66.00183431962796 0 0 0 0 124.62243919284629 26.193859493898799 0 26.193859493898799 -139.86316260565582 0 0 0 0 111.93635754479328 -58.360913613945741 0 -58.360913613945741 -111.05301883550419 0 0 0 0 11.254432576520912 13.74461154491371 0 13.74461154491371 28.183371921190883 0 0 0 0 65.001098883723898 -118.7669353614674 0 -118.7669353614674 -49.082534941694576 0 0 0 0 69.483745923658716 9.6414548929287776 0 9.6414548929287776 9.4431394482130599 0 0 0 0 17.985421783303082 -0.12139767270930335 0 -0.12139767270930335 2.2661135960961474 0 0 0 0 46.76793940030872 13.987573951756906 0 13.987573951756906 2.1887411953192206 0 0 0 0 -2.21367378508603 -117.21586841460686 0 -117.21586841460686 54.143323953740037 0 0 0 0 150.26947468963044 -58.546932776306676 0 -58.546932776306676 44.683777003307114 0 0 0 0 170.29872565688856 -85.740796137219149 0 -85.740796137219149 5.7559659432145054 0 0 0 0 7.8690297006405672 116.68453716816458 0 116.68453716816458 106.93462767960227 0 0 0 0 35.306850454563346 16.579735352664422 0 16.579735352664422 4.9160090879017986 0 0 0 0 5.8993249203792573 5.4305419138112114 0 5.4305419138112114 3.012582098942385 0 0 0 0 157.18648682594358 -13.049964461450145 0 -13.049964461450145 66.133667909314681 0 0 0 0 -94.541554757863196 155.34138050319871 0 155.34138050319871 -80.146081354184389 0 0 0 0 159.47488103377691 -5.9675827443873573 0 -5.9675827443873573 -95.948860017246261 0 0 0 0 149.00597483843671 7.551204800297989 0 7.551204800297989 0.78692387212900339 0 0 0 0 134.45933806499943 65.770561078916671 0 65.770561078916671 -40.789786963535335 0 0 0 0 133.89892987192329 -2.3396371845160147 0 -2.3396371845160147 -3.2334954188836682 0 0 0 0 126.38136998248228 48.767121496531956 0 48.767121496531956 -70.370463256052744 0 0 0 0 135.73657316312926 -58.329132600162836 0 -58.329132600162836 50.150854191268991 0 0 0 0 178.51999779202424 -94.785630866655993 0 -94.785630866655993 -222.55170152537818 0 0 0 0 108.31578711831071 -199.27779149671574 0 -199.27779149671574 -5.3345147114569045 0 0 0 0 330.795523653911 68.913469240266465 0 68.913469240266465 -435.38384990824534 0 0 0 0 215.02874737539878 -174.71534306220929 0 -174.71534306220929 41.559538481954291 0 0 0 0 397.2700507672248 109.24651658548055 0 109.24651658548055 -36.718497566707811 0 0 0 0 110.47670105098223 389.29269055992427 0 389.29269055992427 -13.386352028297097 0 0 0 0 184.97754720519606 207.74697618165601 0 207.74697618165601 -324.73765124175588 0 0 0 0 34.977313985542651 28.912020502130986 0 28.912020502130986 -61.405994326166365 0 0 0 0 -25.724677537975367 78.766963815579857 0 78.766963815579857 235.79494659163265 0 0 0 0 159.4672375729287 4.3070342372914174 0 4.3070342372914174 -8.9310243705741019 0 0 0 0 196.14945711691689 -40.886327722930673 0 -40.886327722930673 -104.02954084039678 0 0 0 0 169.58187218491912 -34.782042318323263 0 -34.782042318323263 -45.389446647656314 0 0 0 0 141.72405534345307 -15.415084042386525 0 -15.415084042386525 -66.69263814373744 0 0 0 0 198.07296748957742 29.749952207350134 0 29.749952207350134 -169.40957269908813 0 0 0 0 225.43077077612543 -42.76563443691191 0 -42.76563443691191 -62.452871206501186 0 0 0 0 194.47056539337791 -25.982628971324175 0 -25.982628971324175 -42.028338996764205 0 0 0 0 191.54954594502487 -54.575086709727316 0 -54.575086709727316 -41.241780974252833 0 0 0 0 221.90460178090143 -100.85463368729438 0 -100.85463368729438 -7.504267069106163 0 0 0 0 252.96000579226529 -70.867924340928312 0 -70.867924340928312 -38.909692218722284 0 0 0 0 204.70620827177481 -43.576108025579288 0 -43.576108025579288 -9.3360964235603205 0 0 0 0 166.75839285853363 -106.05304550419987 0 -106.05304550419987 2.8557040892319492 0 0 0 0 294.21628252387745 -45.024776187370662 0 -45.024776187370662 -12.012538801196115 0 0 0 0 242.7352694090514 -8.6474775582523762 0 -8.6474775582523762 -37.202801054847555 0 0 0 0 330.13961960351298 75.278215675722549 0 75.278215675722549 -36.835543030024837 0 0 0 0 200.52095005537012 131.12376459525058 0 131.12376459525058 33.069318266984737 0 0 0 0 175.31722178070049 49.432003857043355 0 49.432003857043355 -40.425368258139088 0 0 0 0 233.27649650452258 42.068209395227228 0 42.068209395227228 -73.811015520351589 0 0 0 0 213.64180805269643 90.199502794935995 0 90.199502794935995 -39.309481617395591 0 0 0 0 47.224242453834449 117.00576003793037 0 117.00576003793037 47.682497355042074 0 0 0 0 231.04700821627921 200.02925797960461 0 200.02925797960461 84.876402143041105 0 0 0 0 189.94796481457888 189.81362385919829 0 189.81362385919829 102.59015065193762 0 0 0 0 289.2449284570248 281.78652778391415 0 281.78652778391415 124.76088554159469 0 0 0 0 -12.212554900688701 162.38842265446965 0 162.38842265446965 181.27066043693094 0 0 0 0 -6.8021362476766285 2.7390865393509074 0 2.7390865393509074 9.2958094612762601 0 0 0 0 527.37437929231965 138.01827781077304 0 138.01827781077304 26.887220782653458 0 0 0 0 448.94281745341868 -79.53388480459023 0 -79.53388480459023 101.87197528869274 0 0 0 0 291.73660267654486 10.900291953785654 0 10.900291953785654 51.372910056373257 0 0 0 0 304.53589676931188 -72.4397529351412 0 -72.4397529351412 -18.706123745108926 0 0 0 0 204.79335096271825 -54.335069086103886 0 -54.335069086103886 -12.374061654603793 0 0 0 0 220.27139087146497 -84.766738859119869 0 -84.766738859119869 43.955173712500255 0 0 0 0 244.59023935928417 10.963973450060621 0 10.963973450060621 59.253055764148485 0 0 0 0 294.61282180751004 -7.0292273309514712 0 -7.0292273309514712 61.742459124246125 0 0 0 0 357.40527754386858 145.42432997959259 0 145.42432997959259 186.36583993193744 0 0 0 0 457.12284942031692 232.89400390296578 0 232.89400390296578 220.92248744943981 0 0 0 0 319.93472600041423 87.490714230133563 0 87.490714230133563 317.79732173341563 0 0 0 0 389.69049535111117 148.10447851187519 0 148.10447851187519 128.82598223758578 0 0 0 0 368.40712968232401 2.5109331067287712 0 2.5109331067287712 41.168013833949772 0 0 0 0 238.20286021459469 84.110076530609149 0 84.110076530609149 -7.0639247296385292 0 0 0 0 368.42519972550508 -68.620208285526132 0 -68.620208285526132 -254.29356506684417 0 0 0 0 175.14099139408791 -71.105390504506431 0 -71.105390504506431 56.183107464962632 0 0 0 0 234.89869483294672 -4.8208695566868442 0 -4.8208695566868442 -23.306145991416749 0 0 0 0 241.30845849281286 -166.36044447311997 0 -166.36044447311997 -101.42292463449485 0 0 0 0 282.57237937414902 9.4694074413771432 0 9.4694074413771432 -55.27253923033345 0 0 0 0 37.987353972446499 -4.496678677403029 0 -4.496678677403029 -3.4648039731394107 0 0 0 0 651.59462276033446 -188.58882090824045 0 -188.58882090824045 77.319612499020877 0 0 0 0 142.69278476354884 -37.00092015103769 0 -37.00092015103769 11.847279540259478 0 0 0 0 171.41189083341123 -117.96407021871937 0 -117.96407021871937 71.824580817768947 0 0 0 0 185.6852853987366 -55.270408837001469 0 -55.270408837001469 48.292742255565827 0 0 0 0 82.564363041761681 -98.06747813963193 0 -98.06747813963193 59.44250401336194 0 0 0 0 76.556465960329433 -23.313537589543216 0 -23.313537589543216 -6.4068192515724149 0 0 0 0 48.11916107556317 -83.774978636025025 0 -83.774978636025025 16.928406208525303 0 0 0 0 -16.136169001532835 -71.181503496447021 0 -71.181503496447021 57.945395644235759 0 0 0 0 37.30754913961573 -25.922177067939629 0 -25.922177067939629 40.320768852040601 0 0 0 0 25.914050662810965 -47.277555507596382 0 -47.277555507596382 -2.7489735696397943 0 0 0 0 181.63549199189583 9.2407379861160734 0 9.2407379861160734 -8.1123223713948391 0 0 0 0 66.005820282509376 -27.905115607776452 0 -27.905115607776452 -0.63034092595245284 0 0 0 0 72.964288942383064 -22.704160993676396 0 -22.704160993676396 -2.3580547746150842 0 0 0 0 62.096342165875029 8.7137275727500665 0 8.7137275727500665 -9.5956696929272152 0 0 0 0 23.167273800572978 -19.722398086863635 0 -19.722398086863635 6.0966672683176633 0 0 0 0 -43.220336383470567 -76.193291057413717 0 -76.193291057413717 62.16628635721645 0 0 0 0 5.5884682507603429 -65.033857858441479 0 -65.033857858441479 -86.729775575069652 0 0 0 0 13.593213811951017 -7.6812562570918246 0 -7.6812562570918246 -6.7323135992517642 0 0 0 0 -69.831984210584778 -64.357083717659407 0 -64.357083717659407 0.072629900704669126 0 0 0 0 180.02394377577002 -92.394399188110128 0 -92.394399188110128 -60.580279114325094 0 0 0 0 218.83534704676276 -89.985673422975992 0 -89.985673422975992 12.114312333926136 0 0 0 0 21.775346642709337 -20.530311631864606 0 -20.530311631864606 -2.0502615483601403 0 0 0 0 24.841596526326612 -102.73654809928757 0 -102.73654809928757 58.858527709089685 0 0 0 0 5.9637418717198756 1.0245956633995945 0 1.0245956633995945 3.8158233318691543 0 0 0 0 271.74780283525433 -32.179531487094664 0 -32.179531487094664 47.846116288688791 0 0 0 0 0.4320117701111883 -0.37536402146796632 0 -0.37536402146796632 5.7948473565760175 0 0 0 0 270.97085275985046 181.56061460903152 0 181.56061460903152 59.304728771454393 0 0 0 0 17.103485803774674 18.544997354418683 0 18.544997354418683 130.87470043002304 0 0 0 0 164.64061897860665 114.19926104330625 0 114.19926104330625 17.390517113224632 0 0 0 0 -5.0968724739935283 -1.4211811945482111 0 -1.4211811945482111 15.112435541742627 0 0 0 0 192.23094391370978 22.104668393373686 0 22.104668393373686 -8.1583316927008127 0 0 0 0 215.69473728509183 49.938611946107812 0 49.938611946107812 -34.082105187043453 0 0 0 0 132.60093523871728 -4.7295711824240243 0 -4.7295711824240243 36.516129076910147 0 0 0 0 239.25379430322937 -5.5881404805991224 0 -5.5881404805991224 -5.1364235604351052 0 0 0 0 236.80925035917608 -105.99805850426583 0 -105.99805850426583 -42.109833056642856 0 0 0 0 76.914898911949422 -85.874935679078362 0 -85.874935679078362 11.308801217741348 0 0 0 0 268.70551251801226 32.25010418074271 0 32.25010418074271 -32.378406817197174 0 0 0 0 15.776858512696862 -50.317536603736336 0 -50.317536603736336 -2.7660248531469023 0 0 0 0 82.815600126359641 -20.09341196684727 0 -20.09341196684727 -7.1995724278303896 0 0 0 0 174.43095173841721 -8.705179166974176 0 -8.705179166974176 -10.704028418587768 0 0 0 0 1.4127627310298791 -1.1615302847946936 0 -1.1615302847946936 -0.52731805458341796 0 0 0 0 298.07069568967199 6.5652405036528307 0 6.5652405036528307 -48.727011942863101 0 0 0 0 67.401782355418618 -58.50598108974873 0 -58.50598108974873 -3.0169199951933479 0 0 0 0 249.17842371983716 -29.598497676959596 0 -29.598497676959596 111.69874745572452 0 0 0 0 151.27719930987951 -17.618792423557352 0 -17.618792423557352 -35.669429482011765 0 0 0 0 31.375131802197323 -46.613873460885571 0 -46.613873460885571 -1.7616551229545152 0 0 0 0 244.3181955335258 -65.411730553538291 0 -65.411730553538291 24.447197825022158 0 0 0 0 265.73514062070171 -27.370197984437254 0 -27.370197984437254 32.437900189994252 0 0 0 0 356.46778253217417 79.887502050824423 0 79.887502050824423 -34.413680281228153 0 0 0 0 36.396821251990275 8.1231755065350342 0 8.1231755065350342 2.7374267233977747 0 0 0 0 -9.2647761224411056 -6.6465500744257753 0 -6.6465500744257753 9.5554150861382823 0 0 0 0 181.7712857072911 103.21471667770311 0 103.21471667770311 91.694011310171845 0 0 0 0 258.44444792980084 77.772471942658058 0 77.772471942658058 9.0643308305297978 0 0 0 0 44.866647040708628 8.5311094939799119 0 8.5311094939799119 27.092547396291621 0 0 0 0 229.47748428121486 -81.140745441452964 0 -81.140745441452964 166.06598684283017 0 0 0 0 384.93216212338302 46.967069040398655 0 46.967069040398655 -62.294441842723245 0 0 0 0 243.26914903891884 84.781109185626519 0 84.781109185626519 28.397047553709854 0 0 0 0 200.8840655479631 -2.185381106261886 0 -2.185381106261886 -28.585186211629544 0 0 0 0 176.66755643431679 -81.791040122866136 0 -81.791040122866136 -91.814550649733519 0 0 0 0 160.22105073279818 -61.901435072476744 0 -61.901435072476744 -80.613669489055695 0 0 0 0 192.76702082666452 -94.874033503359186 0 -94.874033503359186 -47.515134394266397 0 0 0 0 151.63402476932242 -109.77514701456499 0 -109.77514701456499 -13.712029810137892 0 0 0 0 191.58333780491375 -72.597403654425079 0 -72.597403654425079 -39.501966426269519 0 0 0 0 119.82654791441018 -56.729474028061759 0 -56.729474028061759 -44.374899858540516 0 0 0 0 133.14026103718788 -62.262694412513696 0 -62.262694412513696 -42.088369639956227 0 0 0 0 44.154919013572126 5.0735013643040077 0 5.0735013643040077 -4.5981548694264287 0 0 0 0 207.40665600053035 54.725824272107275 0 54.725824272107275 18.807219932360567 0 0 0 0 327.28742928795327 47.381810226928138 0 47.381810226928138 -3.9992807618582447 0 0 0 0 174.85270049704215 -20.489246784169396 0 -20.489246784169396 -16.150082519221581 0 0 0 0 170.87639698097337 71.415134113195563 0 71.415134113195563 0.32981669156288262 0 0 0 0 75.784951083261532 19.049866711972115 0 19.049866711972115 15.300100200803293 0 0 0 0 102.72615508411337 -7.3760635346213519 0 -7.3760635346213519 -4.3399777061420046 0 0 0 0 61.237897202903127 -24.89346173488164 0 -24.89346173488164 -14.567815796895088 0 0 0 0 264.22983200087037 -10.130800295047834 0 -10.130800295047834 -0.16083753891234664 0 0 0 0 33.602723951915692 24.92183529472851 0 24.92183529472851 8.1613513749262161 0 0 0 0 218.88807864792034 15.654239062754414 0 15.654239062754414 -35.00220211409669 0 0 0 0 124.70217406057645 -12.575296869749742 0 -12.575296869749742 -5.9357301687982229 0 0 0 0 105.83481038559327 -24.65562697295347 0 -24.65562697295347 -9.7773314451175075 0 0 0 0 105.09736447518844 -17.618399432362139 0 -17.618399432362139 -8.9976296422209998 0 0 0 0 106.54607793688774 -17.420811947013135 0 -17.420811947013135 -9.0064007946721176 0 0 0 0 306.09327388953534 45.191900830591464 0 45.191900830591464 -93.867847758367503 0 0 0 0 299.72047142112569 66.385635439850262 0 66.385635439850262 -81.900014637426239 0 0 0 0 288.15772416999243 49.940129859455965 0 49.940129859455965 -89.342806781602803 0 0 0 0 257.92933707409247 58.210016520880004 0 58.210016520880004 -15.585642457548147 0 0 0 0 220.58036628522157 -11.923458448201956 0 -11.923458448201956 -27.61157805000321 0 0 0 0 235.3218069136783 0.97481990507981209 0 0.97481990507981209 -95.675342597785971 0 0 0 0 259.7158310878367 -10.649005643656551 0 -10.649005643656551 -133.48093102238158 0 0 0 0 212.90272301362677 -6.0917933844947072 0 -6.0917933844947072 -29.883560577390806 0 0 0 0 279.35241976818361 21.830697181951336 0 21.830697181951336 -133.62234832010654 0 0 0 0 239.95083168585552 -68.720160671963072 0 -68.720160671963072 -161.10553683332617 0 0 0 0 182.58992977349408 -41.677414167391525 0 -41.677414167391525 -93.474680782161215 0 0 0 0 217.62219175425707 -0.14776344655712137 0 -0.14776344655712137 -95.922019959598515 0 0 0 0 260.25686731102178 -13.241178020300595 0 -13.241178020300595 -104.52247010424588 0 0 0 0 252.62885332104634 -49.209663907538925 0 -49.209663907538925 -92.707927428451796 0 0 0 0 304.52199632336851 -43.001809648717654 0 -43.001809648717654 -47.06116662367549 0 0 0 0 251.05620593275671 -118.11287442041265 0 -118.11287442041265 -20.800462510472244 0 0 0 0 280.97751048314967 -78.198000146842048 0 -78.198000146842048 -67.502850142116927 0 0 0 0 326.26605420742635 11.896532814462233 0 11.896532814462233 -82.304002613186469 0 0 0 0 403.9924059692421 109.862145536517 0 109.862145536517 -44.974795476731401 0 0 0 0 422.85235416935757 -12.758226389734659 0 -12.758226389734659 -76.496942909807331 0 0 0 0 332.70427061484497 75.699158465931902 0 75.699158465931902 -81.070817497324327 0 0 0 0 341.52385468853754 2.5810799000670954 0 2.5810799000670954 -105.40669196129915 0 0 0 0 293.06556943370379 53.634613187641349 0 53.634613187641349 -92.035523505345282 0 0 0 0 315.07345183350844 114.03994193290909 0 114.03994193290909 -46.149074164825009 0 0 0 0 322.39829159424698 68.048059663662343 0 68.048059663662343 -65.640654745006941 0 0 0 0 175.86045740809641 106.3024467279253 0 106.3024467279253 11.328842570646469 0 0 0 0 113.80760658816143 55.109229892241274 0 55.109229892241274 -3.9349978405874992 0 0 0 0 182.38032727968312 91.981496884693712 0 91.981496884693712 10.634354914161463 0 0 0 0 151.63622068437689 33.395460242300942 0 33.395460242300942 -49.075291241578157 0 0 0 0 181.56272966449615 84.062358836823591 0 84.062358836823591 -16.379623915119708 0 0 0 0 227.13196409048396 59.331342389615941 0 59.331342389615941 -51.13312274417035 0 0 0 0 244.14510195923503 87.283050972846013 0 87.283050972846013 -56.181154483633293 0 0 0 0 201.66496646718588 56.21911847521028 0 56.21911847521028 -48.969377225886774 0 0 0 0 261.45895223101252 41.097205295432104 0 41.097205295432104 -46.596083002406885 0 0 0 0 153.89460292659351 56.440424251554475 0 56.440424251554475 -36.721125132840427 0 0 0 0 191.6711602081632 38.494861310714441 0 38.494861310714441 -33.570193013151311 0 0 0 0 149.12551822516252 -35.003559355526477 0 -35.003559355526477 65.374782810924643 0 0 0 0 230.54587890737457 40.917573031966299 0 40.917573031966299 -36.585431305810289 0 0 0 0 92.503974908322562 92.349404773539845 0 92.349404773539845 -24.156933891351855 0 0 0 0 182.57244703768811 64.526460493645743 0 64.526460493645743 -41.71147330907479 0 0 0 0 59.246928071574075 131.43808264277732 0 131.43808264277732 78.279887402289205 0 0 0 0 123.97112241361174 34.948614334265244 0 34.948614334265244 -26.729669144941454 0 0 0 0 306.91286902358843 -79.600221591219793 0 -79.600221591219793 -122.3527808076924 0 0 0 0 16.910982255467104 -6.2318462662398701 0 -6.2318462662398701 -1.2864106093458778 0 0 0 0 116.81925315070788 35.333425040519515 0 35.333425040519515 7.2468860529074082 0 0 0 0 36.852265241293935 -57.701210226981857 0 -57.701210226981857 23.220156296304594 0 0 0 0 296.21483486777288 -138.80767499688955 0 -138.80767499688955 23.471355760753795 0 0 0 0 266.35822603681299 36.537330875755856 0 36.537330875755856 -63.321449741956258 0 0 0 0 485.65668709628517 61.614374462707929 0 61.614374462707929 -68.263076973811167 0 0 0 0 293.9302072233113 41.800971180018223 0 41.800971180018223 -65.418390310163659 0 0 0 0 164.8324085207496 10.98239572476507 0 10.98239572476507 -41.722400777778603 0 0 0 0 290.32048537660739 -12.670069801047248 0 -12.670069801047248 -40.162417526412355 0 0 0 0 192.36304328453843 22.770314558775453 0 22.770314558775453 -17.328675073876639 0 0 0 0 40.584212151007051 24.859506100127746 0 24.859506100127746 -3.9223914219157408 0 0 0 0 40.406803261200501 1.8952695612997843 0 1.8952695612997843 -16.903124749694168 0 0 0 0 123.36778221624587 30.039998099331484 0 30.039998099331484 -3.8407957079266026 0 0 0 0 130.58046377421735 21.39131804394755 0 21.39131804394755 -7.9855836744305524 0 0 0 0 168.9415656656638 16.261446564596213 0 16.261446564596213 -11.622345912081755 0 0 0 0 111.12480918401707 155.99209387313874 0 155.99209387313874 -111.93084505584147 0 0 0 0 29.872862902900323 -0.076029819623187223 0 -0.076029819623187223 -36.561572713229943 0 0 0 0 111.44388079810597 25.702803734309953 0 25.702803734309953 -9.9501051277189845 0 0 0 0 200.19942523430655 32.817386602048828 0 32.817386602048828 -124.04820875238147 0 0 0 0 128.78067148191622 33.877058905067088 0 33.877058905067088 -46.350949527067769 0 0 0 0 42.282462198098074 137.31997660733623 0 137.31997660733623 -74.546513597621015 0 0 0 0 170.61211047056713 20.40766380781406 0 20.40766380781406 -6.498815789863329 0 0 0 0 320.82898505420599 -41.709536436021608 0 -41.709536436021608 -78.066125293671575 0 0 0 0 376.0199866447947 184.89419036636821 0 184.89419036636821 -237.47833639267628 0 0 0 0 71.805299762549112 91.192772354758745 0 91.192772354758745 198.78219542152601 0 0 0 0 4.6145933127442618 -5.4974960896960852 0 -5.4974960896960852 -35.229610177682993 0 0 0 0 65.496213857797557 -76.762604741918949 0 -76.762604741918949 0.78740626069657083 0 0 0 0 93.809699862249545 22.528124359106585 0 22.528124359106585 -8.4200517699559896 0 0 0 0 3.7372879171469435 -3.5686169075273568 0 -3.5686169075273568 -7.6409495760100103 0 0 0 0 420.19979109018823 169.50790740869525 0 169.50790740869525 72.058326812092673 0 0 0 0 279.80334536714372 139.60375776276027 0 139.60375776276027 91.622320633106938 0 0 0 0 466.69589803616691 35.296409641161972 0 35.296409641161972 130.42085719416491 0 0 0 0 1.0503126432044496 0.61970723311929987 0 0.61970723311929987 -6.7108587035196834 0 0 0 0 281.27079341953504 172.17251382327504 0 172.17251382327504 172.0739135980732 0 0 0 0 136.56371855561156 209.80553992859313 0 209.80553992859313 163.07986606185113 0 0 0 0 50.03469666649471 -16.596033922811785 0 -16.596033922811785 -90.287694145215028 0 0 0 0 73.297342455596663 27.953102372583999 0 27.953102372583999 -9.0635677760037652 0 0 0 0 26.785177644183193 10.188770500386738 0 10.188770500386738 -12.327412753411195 0 0 0 0 252.24495450171526 140.21140030079505 0 140.21140030079505 -18.593345436285745 0 0 0 0 230.4852362776146 175.99407391737577 0 175.99407391737577 23.818504446502629 0 0 0 0 124.35758059825457 18.2178864483094 0 18.2178864483094 -17.488492834447243 0 0 0 0 183.23175845510559 95.982830253673455 0 95.982830253673455 -1.0350791485825539 0 0 0 0 230.90898337433464 60.486824419598634 0 60.486824419598634 -86.879357560645076 0 0 0 0 134.83137137848098 262.72215282287289 0 262.72215282287289 8.8517374432631186 0 0 0 0 245.3443436956295 126.93933856553986 0 126.93933856553986 -1.4429010493331589 0 0 0 0 245.70259145658929 169.7228012478754 0 169.7228012478754 -156.51473208441075 0 0 0 0 101.06348904623883 47.093881895343657 0 47.093881895343657 -35.735577009994813 0 0 0 0 95.206043716352724 6.4442517931197472 0 6.4442517931197472 -7.08180508184887 0 0 0 0 77.576939251244767 25.999627711755238 0 25.999627711755238 -58.62731215567328 0 0 0 0 80.588379865301249 32.825023296732979 0 32.825023296732979 -44.887592169907293 0 0 0 0 65.798062650836073 26.699518808522043 0 26.699518808522043 -27.997531505385268 0 0 0 0 98.730173037562054 50.42261129317194 0 50.42261129317194 -61.691697433238005 0 0 0 0 28.55031022407708 36.982106191948986 0 36.982106191948986 -17.030981920373748 0 0 0 0 125.86778809425596 22.306249356262924 0 22.306249356262924 -45.720371732109925 0 0 0 0 116.62370232903049 43.438697797363602 0 43.438697797363602 -52.028602385842532 0 0 0 0 69.785196270298911 36.224335111404798 0 36.224335111404798 -25.227686747715779 0 0 0 0 98.894953499766416 33.341912430762022 0 33.341912430762022 -56.947650267286008 0 0 0 0 73.736730187491048 30.570704946805563 0 30.570704946805563 -45.414809097601392 0 0 0 0 82.905444599434077 29.936411575891633 0 29.936411575891633 4.0832317293129137 0 0 0 0 26.152905450544495 133.9921770481551 0 133.9921770481551 -76.17133566451048 0 0 0 0 48.87506454254617 26.278382557718942 0 26.278382557718942 47.97418995127191 0 0 0 0 45.130040997049946 22.476718513560627 0 22.476718513560627 48.667076907520823 0 0 0 0 -118.69058285052233 140.8091364065358 0 140.8091364065358 71.88157434792447 0 0 0 0 -2.9916257881136517 -62.462864847493506 0 -62.462864847493506 130.84040652629483 0 0 0 0 -9.710260541878597 79.573995007003191 0 79.573995007003191 17.970181663484254 0 0 0 0 -186.04889186170476 5.2765488956360969 0 5.2765488956360969 184.18064522201894 0 0 0 0 22.998925336185494 79.163562053484384 0 79.163562053484384 5.6719219685119242 0 0 0 0 45.958263305015265 7.563181462479136 0 7.563181462479136 -13.30118868802427 0 0 0 0 89.681713946425589 5.4656850174415013 0 5.4656850174415013 -56.927543855928889 0 0 0 0 57.610545754403574 26.107029874485306 0 26.107029874485306 -4.4411799891204282 0 0 0 0 98.246303794556297 30.860797278768587 0 30.860797278768587 -22.480265089034219 0 0 0 0 87.966327887793511 34.624794998714108 0 34.624794998714108 -19.533317423152049 0 0 0 0 52.417073250723462 10.012733436781176 0 10.012733436781176 -12.873843738395975 0 0 0 0 158.05254225459066 81.447251607029557 0 81.447251607029557 30.408773904339796 0 0 0 0 167.41482560579607 61.683718138868471 0 61.683718138868471 50.994114588480443 0 0 0 0 90.856480098121608 22.599596853000314 0 22.599596853000314 -7.568918278946402 0 0 0 0 65.64471872084016 43.875149580658139 0 43.875149580658139 3.3074692876524168 0 0 0 0 148.04085832981946 48.26899926464489 0 48.26899926464489 25.206156190083448 0 0 0 0 133.00447661828366 63.932070411714221 0 63.932070411714221 59.825713398359085 0 0 0 0 131.47053390466681 61.260974196773077 0 61.260974196773077 55.491425562930999 0 0 0 0 137.97256594857026 74.651054857407416 0 74.651054857407416 46.393053909499031 0 0 0 0 135.89748259958287 72.611206655550632 0 72.611206655550632 69.000737105793633 0 0 0 0 12.582102217570139 9.0457604076743365 0 9.0457604076743365 6.4845027370896791 0 0 0 0 98.998187798817526 117.25098473105959 0 117.25098473105959 32.783533018121489 0 0 0 0 142.29532965290127 53.250054366167205 0 53.250054366167205 121.81713134593338 0 0 0 0 129.50783287199738 58.737925580341198 0 58.737925580341198 94.4229884529841 0 0 0 0 128.86450812825933 62.593224054372058 0 62.593224054372058 84.900789092524064 0 0 0 0 132.81862233428456 -57.696682233960232 0 -57.696682233960232 -32.941716951352646 0 0 0 0 291.40651974931825 8.998883554109625 0 8.998883554109625 -72.149772493517958 0 0 0 0 34.718348619340638 -0.2924266215120781 0 -0.2924266215120781 -3.3479958274257484 0 0 0 0 210.00713184630149 -15.868292771127017 0 -15.868292771127017 -23.180176418464725 0 0 0 0 150.88812682318331 33.613221470356471 0 33.613221470356471 0.47335175376765193 0 0 0 0 124.88140211541031 63.883510428987393 0 63.883510428987393 -18.373014912358485 0 0 0 0 218.90137734721065 72.184361384885051 0 72.184361384885051 -17.774963631945866 0 0 0 0 183.48278708956786 104.90239232317435 0 104.90239232317435 -33.065602605947788 0 0 0 0 118.31580466039304 38.065683865461779 0 38.065683865461779 9.6174944085009884 0 0 0 0 162.54576544021256 73.339879643550375 0 73.339879643550375 -4.4906566271674819 0 0 0 0 197.3906698267092 107.29227653150701 0 107.29227653150701 -18.420785441434418 0 0 0 0 145.35199847171316 101.35975861247789 0 101.35975861247789 56.796132782972563 0 0 0 0 100.38026326896215 10.399666852444625 0 10.399666852444625 -26.494032338116085 0 0 0 0 108.66961925736305 47.903268749210213 0 47.903268749210213 -4.8912152807082734 0 0 0 0 81.926025110288492 55.071064507635271 0 55.071064507635271 7.2413987028532816 0 0 0 0 18.061183226644062 36.971573542046826 0 36.971573542046826 -21.607792088354472 0 0 0 0 88.943554353485695 61.491420981509414 0 61.491420981509414 0.68642022799613045 0 0 0 0 68.370093062170668 49.636959987126829 0 49.636959987126829 -6.8595348919710091 0 0 0 0 124.46142497059273 44.544849563962423 0 44.544849563962423 9.832304102976293 0 0 0 0 135.64794182681362 21.308048501863595 0 21.308048501863595 17.067674955758775 0 0 0 0 57.486794354271026 49.777509597632758 0 49.777509597632758 18.893339537684426 0 0 0 0 173.92214945919113 61.723177400083387 0 61.723177400083387 29.971000637252018 0 0 0 0 151.2753166622133 52.189080884657869 0 52.189080884657869 10.222857194873541 0 0 0 0 198.22626698946988 31.275089241473552 0 31.275089241473552 0.57003727231904122 0 0 0 0 163.75391938777466 18.552645960398195 0 18.552645960398195 0.056003032494118088 0 0 0 0 118.20613245711138 28.643938141115541 0 28.643938141115541 36.716423832600867 0 0 0 0 158.45334699515661 21.970677087140757 0 21.970677087140757 17.058306291495143 0 0 0 0 23.531003876995882 46.411819916728632 0 46.411819916728632 10.945902178041948 0 0 0 0 121.58730218628989 30.811986661283186 0 30.811986661283186 16.229634296556469 0 0 0 0 122.25244132234366 15.908849396143978 0 15.908849396143978 -1.7139850141879833 0 0 0 0 114.31430618553713 14.404226266784008 0 14.404226266784008 -0.67130170162772629 0 0 0 0 86.392082527265302 52.343241491806907 0 52.343241491806907 14.33875305071615 0 0 0 0 124.08956646136357 21.087984312803655 0 21.087984312803655 -16.446460336022483 0 0 0 0 160.94477622212071 -0.84158097620448302 0 -0.84158097620448302 -7.0506081946357426 0 0 0 0 160.15862060986547 11.942196829285535 0 11.942196829285535 6.4313435247771622 0 0 0 0 40.658001357059518 41.83927155260838 0 41.83927155260838 -0.72507768482716983 0 0 0 0 96.505072958709206 52.593250003481216 0 52.593250003481216 48.022903667114406 0 0 0 0 127.67787076091918 39.850364550506356 0 39.850364550506356 26.62408194235104 0 0 0 0 130.78162886758946 39.410127446801411 0 39.410127446801411 46.021385754501352 0 0 0 0 130.24411730590509 46.82385907060825 0 46.82385907060825 37.904300658224656 0 0 0 0 132.20465260266792 63.171929177840923 0 63.171929177840923 50.981121995966532 0 0 0 0 91.663721626784536 57.641485764108893 0 57.641485764108893 79.502397159053544 0 0 0 0 167.30369017030534 147.58699179011631 0 147.58699179011631 83.156153214276856 0 0 0 0 137.30371378159907 86.407893177026153 0 86.407893177026153 96.340869668565574 0 0 0 0 193.38396899373038 42.749044476776362 0 42.749044476776362 55.980285389745404 0 0 0 0 163.66914170401287 53.534787747195878 0 53.534787747195878 52.078919476336978 0 0 0 0 137.46792302993708 28.487526793363941 0 28.487526793363941 74.834195900773011 0 0 0 0 172.41518996977538 14.961275820860237 0 14.961275820860237 80.069058927538208 0 0 0 0 134.85277484718245 33.166642701455203 0 33.166642701455203 108.54606539851829 0 0 0 0 126.81390362649108 39.653797534281239 0 39.653797534281239 77.720283987507173 0 0 0 0 133.29345639604435 42.634374097906857 0 42.634374097906857 70.576902396824153 0 0 0 0 143.0191754456464 23.890215587757211 0 23.890215587757211 56.12398476499402 0 0 0 0 129.33537894014444 33.64761276169736 0 33.64761276169736 50.416806531475231 0 0 0 0 135.97388867220434 21.677219971275917 0 21.677219971275917 30.271318590326246 0 0 0 0 132.16565091183293 29.646888899717396 0 29.646888899717396 20.971268989746932 0 0 0 0 127.02585477611865 14.16598594361767 0 14.16598594361767 22.053190426903257 0 0 0 0 135.07542133453899 25.533724486223718 0 25.533724486223718 25.188287866606515 0 0 0 0 126.83206173128599 31.625088801589435 0 31.625088801589435 56.564856283639529 0 0 0 0 127.17121613027848 34.743165043174713 0 34.743165043174713 51.989034806630571 0 0 0 0 128.95063612492231 23.783848723688607 0 23.783848723688607 19.589642667643602 0 0 0 0 124.45462201523878 25.858467822843465 0 25.858467822843465 18.660345538935417 0 0 0 0 125.86308964276395 15.95298662484106 0 15.95298662484106 -1.6143951393846692 0 0 0 0 125.45592815431883 9.8500446282719167 0 9.8500446282719167 2.8817397994798739 0 0 0 0 128.59698952106555 9.6419158712299122 0 9.6419158712299122 -27.249424761639602 0 0 0 0 124.23019995705909 10.067516771918804 0 10.067516771918804 -11.811639454125725 0 0 0 0 122.95330376348284 10.006824688280631 0 10.006824688280631 -2.0796257528609203 0 0 0 0 130.8005093808315 16.742528471484889 0 16.742528471484889 -3.0237104835023274 0 0 0 0 123.54054113499296 19.251255942508351 0 19.251255942508351 17.618890670840301 0 0 0 0 113.65050369885284 20.783662414378796 0 20.783662414378796 17.931544114770531 0 0 0 0 128.03285335825785 19.001443458388167 0 19.001443458388167 2.0229468022889705 0 0 0 0 106.04447246878408 13.381243138187983 0 13.381243138187983 2.4166010244743745 0 0 0 0 90.218884376008646 27.891241500318301 0 27.891241500318301 9.9368604032542862 0 0 0 0 108.55166209113668 24.757900913055806 0 24.757900913055806 -1.0847207641036221 0 0 0 0 119.20343661176594 32.570779864549024 0 32.570779864549024 10.159335812197241 0 0 0 0 94.50587937347882 36.981901939505406 0 36.981901939505406 26.674663121129228 0 0 0 0 70.114985953558062 11.864879957602739 0 11.864879957602739 0.38829725554751349 0 0 0 0 81.978405000001658 20.309604029620004 0 20.309604029620004 -1.385245258532251 0 0 0 0 60.884602951959096 33.031767192511836 0 33.031767192511836 2.4922424641117686 0 0 0 0 88.766228844291618 31.218166688907559 0 31.218166688907559 -1.3689207703828288 0 0 0 0 95.030608527347795 -1.7796692122308286 0 -1.7796692122308286 -14.578205414451077 0 0 0 0 98.974144052030169 14.029646925983116 0 14.029646925983116 -4.2933962493602849 0 0 0 0 62.235812547805835 -18.086658193394214 0 -18.086658193394214 -3.8527095869442292 0 0 0 0 70.230569761741208 10.755013422549382 0 10.755013422549382 2.0184306492897122 0 0 0 0 58.578320904420252 -39.029646690763343 0 -39.029646690763343 29.897800598106187 0 0 0 0 81.704861241858453 -91.591841431655212 0 -91.591841431655212 93.414974690630515 0 0 0 0 120.68735864298833 -23.40655537191472 0 -23.40655537191472 -57.58694026766716 0 0 0 0 121.23611697384331 -16.787300116576034 0 -16.787300116576034 -8.3882581695802401 0 0 0 0 145.19034314859891 6.4750658632901832 0 6.4750658632901832 -26.659762684280849 0 0 0 0 139.39477728839847 26.751609646940551 0 26.751609646940551 -91.355728840418124 0 0 0 0 209.15102250103519 -4.1973447337145444 0 -4.1973447337145444 -93.359124392657577 0 0 0 0 107.27301621242077 -143.85865004002653 0 -143.85865004002653 -85.088855435741664 0 0 0 0 118.25818076287396 -256.34439492256797 0 -256.34439492256797 190.91371629694186 0 0 0 0 175.39708286397217 -44.291278739861582 0 -44.291278739861582 -70.053396940531002 0 0 0 0 5.2470106026294729 -1.9602703430793227 0 -1.9602703430793227 0.38752120785811917 0 0 0 0 20.009790999240067 -82.581649737962834 0 -82.581649737962834 221.84384442952842 0 0 0 0 213.66401168968878 -10.973326259012538 0 -10.973326259012538 144.11388047123819 0 0 0 0 -324.46118984096393 305.8364938347213 0 305.8364938347213 187.14686271679636 0 0 0 0 6.9337699890784279 20.689847144386988 0 20.689847144386988 39.739522722946276 0 0 0 0 20.88820006561582 -20.031767145602316 0 -20.031767145602316 73.196196480404979 0 0 0 0 53.192066789873934 18.44210661466127 0 18.44210661466127 -15.978235405817486 0 0 0 0 54.333194523227576 21.55255831929162 0 21.55255831929162 -25.293289497323713 0 0 0 0 21.235303250405309 1.2177554745074346 0 1.2177554745074346 7.0517251915251258 0 0 0 0 40.945942286765785 34.274097748024815 0 34.274097748024815 -17.686298217738113 0 0 0 0 45.371514879363531 21.745944827057883 0 21.745944827057883 5.7433372042864903 0 0 0 0 131.79020810670292 -9.3101356615244875 0 -9.3101356615244875 -17.17622002651725 0 0 0 0 244.99525441940932 4.1055815567242462 0 4.1055815567242462 -45.153737013437421 0 0 0 0 267.39406181872255 -24.628402524265312 0 -24.628402524265312 87.971569589632963 0 0 0 0 114.85150154276926 -79.936370615273518 0 -79.936370615273518 -1.1716314270861403 0 0 0 0 34.717822494501277 -30.978403035685538 0 -30.978403035685538 -33.623152870513209 0 0 0 0 -196.76664237430668 68.231026429960707 0 68.231026429960707 -82.809632908654748 0 0 0 0 -2.8978116037189778 -2.9137242834922255 0 -2.9137242834922255 2.0259542064092351 0 0 0 0 233.29171947168652 41.395595465327915 0 41.395595465327915 -34.69684074765064 0 0 0 0 -0.26003809919347987 291.6002874088349 0 291.6002874088349 45.874261483268356 0 0 0 0 1.4176678846029347 5.8451474053353039 0 5.8451474053353039 -1.5202818745953355 0 0 0 0 136.67302888681297 103.15267886675338 0 103.15267886675338 49.73925264757213 0 0 0 0 181.87015466939192 74.765803867146133 0 74.765803867146133 -85.040480187447429 0 0 0 0 136.87556305027101 36.782285346445406 0 36.782285346445406 -10.804037730879827 0 0 0 0 683.3728453671356 389.62593110784655 0 389.62593110784655 -425.14400033903519 0 0 0 0 205.7304196142577 45.076060949601924 0 45.076060949601924 -306.26326485898971 0 0 0 0 252.2837820383138 -449.0336805895854 0 -449.0336805895854 -229.94336303404725 0 0 0 0 188.60452324239304 7.4603309631356751 0 7.4603309631356751 -510.46503683569335 0 0 0 0 75.298114238392699 -2.6505399345429943 0 -2.6505399345429943 -19.534025104634416 0 0 0 0 543.839805921074 -104.53777883888779 0 -104.53777883888779 147.73299262462615 0 0 0 0 34.152263814074104 68.112216839158918 0 68.112216839158918 -141.09495265527221 0 0 0 0 47.91722161929647 48.227944279041367 0 48.227944279041367 -114.85196764205398 0 0 0 0 10.350033611454581 1.7788783763547258 0 1.7788783763547258 4.3839220410845776 0 0 0 0 539.84330528851751 -79.593154995628311 0 -79.593154995628311 -183.48593145443374 0 0 0 0 295.3590210391194 37.543658170682193 0 37.543658170682193 187.57879365009649 0 0 0 0 153.96168335131006 25.807767065394273 0 25.807767065394273 -128.80400020600553 0 0 0 0 327.896531952023 -60.930293286515507 0 -60.930293286515507 -160.59991863421601 0 0 0 0 401.66524921575183 108.53644547943168 0 108.53644547943168 73.437335828956748 0 0 0 0 179.87094673930187 -3.4642727998302689 0 -3.4642727998302689 14.42093428573753 0 0 0 0 290.96891074672567 22.270043986372912 0 22.270043986372912 2.3879706105253717 0 0 0 0 18.600992047329921 -2.411773200559324 0 -2.411773200559324 -9.2599114244829899 0 0 0 0 193.08055426950523 -19.468198750379088 0 -19.468198750379088 -20.895470604762522 0 0 0 0 21.834064813454894 0.81563614769930126 0 0.81563614769930126 -1.5207849115104821 0 0 0 0 179.86968396386601 -32.864307177628234 0 -32.864307177628234 -29.449928324436769 0 0 0 0 166.00978330644284 -5.8906163107731118 0 -5.8906163107731118 -49.263037125401752 0 0 0 0 110.76578345381131 -31.329051555931073 0 -31.329051555931073 -17.630044107358117 0 0 0 0 113.77951232837222 39.188457423269938 0 39.188457423269938 21.470727538568099 0 0 0 0 180.150518567978 0.1705527270478342 0 0.1705527270478342 -34.850435796332022 0 0 0 0 166.44632411521889 -20.980159620134145 0 -20.980159620134145 -29.51007379890325 0 0 0 0 174.31500077302098 -7.7227721740573543 0 -7.7227721740573543 -16.542750461945616 0 0 0 0 168.26772091436214 -18.070473032878226 0 -18.070473032878226 0.40762919349435833 0 0 0 0 171.12569614846871 -19.472393024973826 0 -19.472393024973826 -13.339702165099652 0 0 0 0 166.15407658692857 -49.694866621736765 0 -49.694866621736765 -45.114078437924945 0 0 0 0 161.76288523703988 -34.071225456461434 0 -34.071225456461434 23.995859946928249 0 0 0 0 186.75637071182064 -19.051163698497021 0 -19.051163698497021 0.45617400351693504 0 0 0 0 205.80676661817415 5.1732912085162752 0 5.1732912085162752 -22.679014697706407 0 0 0 0 301.26587122070487 18.519957984761959 0 18.519957984761959 -38.816172938544696 0 0 0 0 234.24488843076688 -58.86996109903248 0 -58.86996109903248 -65.880431545156171 0 0 0 0 236.32050969108241 119.4283170708278 0 119.4283170708278 2.8447806374706488 0 0 0 0 164.08233792937972 45.67291793062941 0 45.67291793062941 32.944766061073096 0 0 0 0 130.45873920722443 -9.6355660547096704 0 -9.6355660547096704 -49.997338791128641 0 0 0 0 186.90306231410068 10.510866479675769 0 10.510866479675769 -39.468677099370325 0 0 0 0 165.39868190676498 -1.3651373001612228 0 -1.3651373001612228 -21.075856913029384 0 0 0 0 152.73314678342467 22.652774646564239 0 22.652774646564239 -43.649293945740283 0 0 0 0 166.90456249218551 31.094193511753474 0 31.094193511753474 -38.69052461105548 0 0 0 0 160.54982497356832 48.060781635148487 0 48.060781635148487 -75.570683710433514 0 0 0 0 143.95656770885398 42.349606052209765 0 42.349606052209765 -42.245200273538558 0 0 0 0 219.57446531357709 355.15500404248269 0 355.15500404248269 38.61518895010704 0 0 0 0 -9.528269535269601 17.490855526190558 0 17.490855526190558 5.2583608374011295 0 0 0 0 157.17473945870816 26.601628238311662 0 26.601628238311662 -13.675011343143614 0 0 0 0 227.11628943542019 -59.346033150910444 0 -59.346033150910444 209.0537080482045 0 0 0 0 136.10098904789152 13.022263004824417 0 13.022263004824417 -25.873655436723901 0 0 0 0 137.2436592473241 12.494880627739121 0 12.494880627739121 -55.838160031320001 0 0 0 0 132.06760558497626 9.9285567696261126 0 9.9285567696261126 -13.1076852904215 0 0 0 0 122.82689432118059 40.350638253306556 0 40.350638253306556 -5.031875943203886 0 0 0 0 206.95546118932543 44.156345473680062 0 44.156345473680062 -19.351726111303151 0 0 0 0 147.94793101633695 32.370647995196407 0 32.370647995196407 7.7957583297979909 0 0 0 0 190.32476674391364 17.691582676943426 0 17.691582676943426 -2.2608117598956596 0 0 0 0 308.33664568202221 25.317923036870212 0 25.317923036870212 -4.8457187306763245 0 0 0 0 38.222545297931184 25.588219927444001 0 25.588219927444001 -7.0002950486688675 0 0 0 0 308.41758651961572 26.878044593068552 0 26.878044593068552 7.1433997675937917 0 0 0 0 40.545838159185315 -0.45362995148428809 0 -0.45362995148428809 4.786907760747388 0 0 0 0 106.31874471359333 25.632713388250068 0 25.632713388250068 -4.2357002424141683 0 0 0 0 97.794901550064864 45.758984982709144 0 45.758984982709144 6.843830458996278 0 0 0 0 101.12817703367769 -4.6794059498049023 0 -4.6794059498049023 -21.179595065573974 0 0 0 0 114.49891316043085 -2.2438554153028534 0 -2.2438554153028534 -17.026676949962852 0 0 0 0 179.5384113040127 24.826051205722479 0 24.826051205722479 -6.5555341703898193 0 0 0 0 140.82002460569765 -10.811007604731458 0 -10.811007604731458 -37.896492960295291 0 0 0 0 134.49959224929873 -2.7644753926731767 0 -2.7644753926731767 -25.956503789476713 0 0 0 0 166.23264979666419 -20.359218944724489 0 -20.359218944724489 -56.934448010684719 0 0 0 0 2017.545117291018 -333.09459673542148 0 -333.09459673542148 -279.59014942763486 0 0 0 0 30.74541334205135 -23.439231682801243 0 -23.439231682801243 11.873372219581999 0 0 0 0 1516.0242930744207 -314.51344008310161 0 -314.51344008310161 -247.51516915831971 0 0 0 0 2152.756102066538 291.51280441024744 0 291.51280441024744 -331.90520489339906 0 0 0 0 1665.9846711014179 265.38258979563039 0 265.38258979563039 -317.80989169693714 0 0 0 0 14.726628226123694 -9.0222735750953973 0 -9.0222735750953973 5.7267203619470992 0 0 0 0 4496.946382531627 1584.9059570552279 0 1584.9059570552279 26.45989645028062 0 0 0 0 -215.09037420681489 -555.68904362090007 0 -555.68904362090007 -414.99086326875249 0 0 0 0 454.59148067877686 -296.00372727579708 0 -296.00372727579708 -383.39345508835845 0 0 0 0 141.21470717692864 -141.70252051511216 0 -141.70252051511216 -245.86517073520781 0 0 0 0 201.8112044394984 -25.937640717775139 0 -25.937640717775139 -294.478414605338 0 0 0 0 74.549287426569208 -97.27306994704827 0 -97.27306994704827 -325.8564738553689 0 0 0 0 153.25463855551789 -109.45972153656066 0 -109.45972153656066 -321.8008395007455 0 0 0 0 -7.7731132691143188 -13.082478004170749 0 -13.082478004170749 2.6661647255298568 0 0 0 0 33.39096275989781 -27.30681175197018 0 -27.30681175197018 13.636102725908701 0 0 0 0 4.0217843896025443 -170.95894194273706 0 -170.95894194273706 -340.05870506164604 0 0 0 0 -120.31338132685414 -60.902673343060371 0 -60.902673343060371 26.985274519626387 0 0 0 0 26.50627553878455 -4.8991451802216694 0 -4.8991451802216694 -0.58826178372899918 0 0 0 0 93.148519146532635 -64.408430721250511 0 -64.408430721250511 -388.63300448890823 0 0 0 0 225.51618416282872 61.794057833981697 0 61.794057833981697 -92.392606860989417 0 0 0 0 66.206308225875546 -187.86268128567599 0 -187.86268128567599 74.302578026985657 0 0 0 0 2.0581525412279547 -3.7296436719546051 0 -3.7296436719546051 7.0398448718902964 0 0 0 0 -20.103734639753384 155.475350485136 0 155.475350485136 125.56848298158729 0 0 0 0 -31.784763087616739 -54.183100493549858 0 -54.183100493549858 90.617710267457539 0 0 0 0 -49.457694390090182 -331.44075312867926 0 -331.44075312867926 -254.12856701262831 0 0 0 0 88.944930724876031 5.8037582930703593 0 5.8037582930703593 -83.185224646569623 0 0 0 0 1.0869244426657332 -7.3044574531142619 0 -7.3044574531142619 -0.43108055831428915 0 0 0 0 743.77111165029055 18.965624233927485 0 18.965624233927485 499.98476895680528 0 0 0 0 41.940123478693728 -10.415410754686288 0 -10.415410754686288 4.3802977812342112 0 0 0 0 20.648203648470371 -68.836462340246499 0 -68.836462340246499 -26.938486211063037 0 0 0 0 1282.5423829708707 11.891411543812637 0 11.891411543812637 -265.3354251581743 0 0 0 0 -175.95949703913084 -314.83954191008689 0 -314.83954191008689 470.64821178785894 0 0 0 0 776.81137609806319 181.9754421014369 0 181.9754421014369 201.99417001429816 0 0 0 0 4493.4320552207209 -744.98747318437449 0 -744.98747318437449 -684.22172672700856 0 0 0 0 2361.6296088584822 -1802.6610121139681 0 -1802.6610121139681 636.93677801308638 0 0 0 0 8.2395214904893592 -1.4139353726062946 0 -1.4139353726062946 3.548479701550038 0 0 0 0 4456.6503280541292 -15.786512131913634 0 -15.786512131913634 5.1268734481462941 0 0 0 0 6.5288847229876339 -2.6171886726534712 0 -2.6171886726534712 3.8803775835457195 0 0 0 0 -509.8701078241138 -810.57162333020278 0 -810.57162333020278 1822.4535055409417 0 0 0 0 802.48966592135548 1963.2073072303867 0 1963.2073072303867 1855.8483253320583 0 0 0 0 2505.8091397485568 -709.70205808513845 0 -709.70205808513845 -938.27236141736444 0 0 0 0 4482.1850906191421 691.018770270402 0 691.018770270402 -864.03615979035828 0 0 0 0 -491.30159045906294 158.02873908387517 0 158.02873908387517 666.82038807268418 0 0 0 0 22.809496822716834 5.332774251316021 0 5.332774251316021 -0.63057990873826764 0 0 0 0 204.21634470996287 -316.03020790500705 0 -316.03020790500705 -88.866529686736783 0 0 0 0 4490.8776816951149 1218.8275521375219 0 1218.8275521375219 -681.14936744416912 0 0 0 0 13.706344980449671 4.222527497001507 0 4.222527497001507 -0.03500028249580063 0 0 0 0 1351.5342532073455 1928.8954024713926 0 1928.8954024713926 730.03872386180728 0 0 0 0 2120.4728205116735 393.94414756812461 0 393.94414756812461 -714.66913713569079 0 0 0 0 2120.1262378789388 243.19068033822322 0 243.19068033822322 42.374229848513266 0 0 0 0 782.33363631455632 386.27393535733859 0 386.27393535733859 301.77517129519697 0 0 0 0 1002.0051370903266 -242.94735677732587 0 -242.94735677732587 73.843724755588937 0 0 0 0 2501.9260685152094 -299.28378993534955 0 -299.28378993534955 -231.84693719150641 0 0 0 0 1701.5575620172394 -50.628585644900454 0 -50.628585644900454 97.434928022671073 0 0 0 0 1076.3280993391404 -427.62990034482408 0 -427.62990034482408 88.663289019759304 0 0 0 0 1507.8136979702349 -138.36729397051806 0 -138.36729397051806 105.82663246021707 0 0 0 0 1854.0962758487567 -630.52878106933179 0 -630.52878106933179 99.763799522467025 0 0 0 0 4501.6069084191085 -87.900885205689036 0 -87.900885205689036 -738.38961445208815 0 0 0 0 2543.4267049731543 -931.16059622807757 0 -931.16059622807757 6.455843341012482 0 0 0 0 31.469373200709015 -55.242963074101908 0 -55.242963074101908 -102.44664287306978 0 0 0 0 78.661062766486793 -2.9321012875849419 0 -2.9321012875849419 -51.478327140029023 0 0 0 0 55.968610484829696 32.110371612961671 0 32.110371612961671 -162.91668993902999 0 0 0 0 11.404213002333563 -72.21939206445586 0 -72.21939206445586 -46.635439243931728 0 0 0 0 5.4562061366472516 -3.4689840305313924 0 -3.4689840305313924 -3.0779911692005633 0 0 0 0 -24.706163958016987 -34.506709778941286 0 -34.506709778941286 -10.312031601278704 0 0 0 0 44.055210695478308 30.858054423520116 0 30.858054423520116 -5.6176589322203654 0 0 0 0 36.816195021959963 -3.0755936213167208 0 -3.0755936213167208 1.257462521467744 0 0 0 0 4.9744220881739363 1.9731743910942852 0 1.9731743910942852 -1.7472394693659461 0 0 0 0 179.48062296994794 -7.308194012006652 0 -7.308194012006652 -12.571368186554309 0 0 0 0 13.141624997541749 3.9738328613327658 0 3.9738328613327658 -1.5719798043405815 0 0 0 0 89.526552885450883 -40.321591486634645 0 -40.321591486634645 167.49407161971294 0 0 0 0 48.310817777316686 -42.417274299308247 0 -42.417274299308247 -47.516706211534938 0 0 0 0 93.878201357838407 5.1747881438946024 0 5.1747881438946024 3.9609052097980566 0 0 0 0 140.13550248643332 -33.251023908535672 0 -33.251023908535672 15.858299295780512 0 0 0 0 606.00200691787177 -400.76717910448355 0 -400.76717910448355 285.97789344497431 0 0 0 0 1036.4307833884691 -220.54144532728787 0 -220.54144532728787 -64.736042108739412 0 0 0 0 86.471802078543988 -97.294346710342438 0 -97.294346710342438 -14.693050163656494 0 0 0 0 137.08763608622621 -38.658801115165559 0 -38.658801115165559 32.833882904815482 0 0 0 0 0.31389848577640578 0.3424705109672459 0 0.3424705109672459 2.5503235337758681 0 0 0 0 958.5067744973428 -146.38842865754353 0 -146.38842865754353 461.11809049452859 0 0 0 0 175.72690380963195 -404.57066670260178 0 -404.57066670260178 400.21424852515821 0 0 0 0 98.382815874274456 -256.28123147073063 0 -256.28123147073063 397.45687871457312 0 0 0 0 58.972102329888912 -13.439999757507934 0 -13.439999757507934 209.46797955140167 0 0 0 0 77.581376631451349 -113.62274716138288 0 -113.62274716138288 27.064333567389298 0 0 0 0 57.824913071946412 -9.0965321284782839 0 -9.0965321284782839 25.81240414729848 0 0 0 0 74.549337744570039 -150.38168656652286 0 -150.38168656652286 18.344090878423629 0 0 0 0 141.62309705510233 -100.13835561921678 0 -100.13835561921678 43.32675086335405 0 0 0 0 544.90392393790808 -511.9179689958288 0 -511.9179689958288 -270.70134431982865 0 0 0 0 281.64130331296701 -471.77361799602227 0 -471.77361799602227 -245.48958921158828 0 0 0 0 461.35711611655279 -254.74140216711533 0 -254.74140216711533 -3.7794433461741761 0 0 0 0 253.80932740388198 -436.80287058199235 0 -436.80287058199235 221.41085448053178 0 0 0 0 836.62196311968546 -324.62526384491878 0 -324.62526384491878 -209.72755320067267 0 0 0 0 674.74935152987064 66.700939737588897 0 66.700939737588897 -1168.7513932497045 0 0 0 0 538.75750956570846 -286.16517643226865 0 -286.16517643226865 -71.153347385432596 0 0 0 0 -293.38635116562182 -299.72471541033184 0 -299.72471541033184 -48.502213457795023 0 0 0 0 77.583634032131613 -22.898454131460209 0 -22.898454131460209 6.0508339595764369 0 0 0 0 286.38700237297053 330.13847135772318 0 330.13847135772318 -526.16311861919178 0 0 0 0 91.433596567271707 359.41587690794921 0 359.41587690794921 155.52367878437678 0 0 0 0 -824.01706899161582 461.38580096489079 0 461.38580096489079 568.36807462838613 0 0 0 0 9.0092621410594163 2.0697589793828204 0 2.0697589793828204 0.15167221620962076 0 0 0 0 -665.0518035942514 -468.13819831337514 0 -468.13819831337514 958.06081532131429 0 0 0 0 493.80689712696767 739.15487615711186 0 739.15487615711186 -308.3000704355718 0 0 0 0 101.7994067005516 -28.75508646634395 0 -28.75508646634395 7.0910946774667893 0 0 0 0 1460.2171467647086 -692.92167592222563 0 -692.92167592222563 -5.6141364544974977 0 0 0 0 538.896813813677 -228.4426191995567 0 -228.4426191995567 -760.69899897017126 0 0 0 0 -89.877351489376451 -145.2120668200223 0 -145.2120668200223 -54.177188866760986 0 0 0 0 132.93783190936665 1.3871348506590948 0 1.3871348506590948 -2.324858589523501 0 0 0 0 103.94838296782109 109.29219080747873 0 109.29219080747873 -192.47045024969702 0 0 0 0 53.748719831612107 -77.877941839639163 0 -77.877941839639163 -47.227951549239435 0 0 0 0 102.62751642893789 -32.653366041867798 0 -32.653366041867798 4.4976049083400556 0 0 0 0 -106.06440756020766 -152.88481149206802 0 -152.88481149206802 -74.154487825357592 0 0 0 0 337.79792667737456 314.70157153870468 0 314.70157153870468 -152.94145097666302 0 0 0 0 905.33129791051215 23.86855380476873 0 23.86855380476873 -246.21012373940732 0 0 0 0 -323.57144136980651 125.79779549414971 0 125.79779549414971 31.625479326807977 0 0 0 0 106.95809530725637 85.840134811563232 0 85.840134811563232 10.366900916628524 0 0 0 0 145.99813221483237 3.320491028308588 0 3.320491028308588 -7.623916850771792 0 0 0 0 351.27854962762558 52.165946372846292 0 52.165946372846292 -247.4562951855886 0 0 0 0 122.09308566175423 27.174418149246293 0 27.174418149246293 -14.841113560916767 0 0 0 0 32.350578605137684 55.762601935567801 0 55.762601935567801 -18.681801153187621 0 0 0 0 79.193352751124621 15.531439297023709 0 15.531439297023709 2.1326373363121505 0 0 0 0 77.03663224712858 53.628634482164458 0 53.628634482164458 5.029601784651426 0 0 0 0 -63.042955163527949 44.109720659722797 0 44.109720659722797 17.680697923445621 0 0 0 0 41.410800068177195 -46.566331875653276 0 -46.566331875653276 1.9221099257518972 0 0 0 0 18.507906872653393 -36.666422062874148 0 -36.666422062874148 12.398766795157258 0 0 0 0 -76.49378524624035 -80.105389258067262 0 -80.105389258067262 -6.9385399336410245 0 0 0 0 26.042270108520825 21.672724576779217 0 21.672724576779217 -12.901572854090659 0 0 0 0 29.772886160725648 -28.124784361678422 0 -28.124784361678422 19.100529089453858 0 0 0 0 34.548666061938093 0.44161616528390368 0 0.44161616528390368 -31.660365700153989 0 0 0 0 52.300477405647598 -42.072124640476829 0 -42.072124640476829 12.011958060984284 0 0 0 0 8.5667000072665953 -7.2305553041810393 0 -7.2305553041810393 -20.347219138955911 0 0 0 0 9.3050151936652199 -2.8011593725803738 0 -2.8011593725803738 -7.3912884223701454 0 0 0 0 139.0594537677207 -7.9130136353214766 0 -7.9130136353214766 -20.978302787250371 0 0 0 0 75.332004039445565 -67.040052615645948 0 -67.040052615645948 -9.1905497659768116 0 0 0 0 36.164784833745216 -28.818683749137108 0 -28.818683749137108 -9.8194107170033931 0 0 0 0 84.738340703346694 5.2917844045805396 0 5.2917844045805396 -116.69294042971023 0 0 0 0 87.118541641281809 28.732470066002747 0 28.732470066002747 -7.9235965755176494 0 0 0 0 108.76966846727919 7.2858583002872592 0 7.2858583002872592 -10.758059665753763 0 0 0 0 69.514518437987135 -8.2877871198299999 0 -8.2877871198299999 -40.48757264697997 0 0 0 0 16.597349428543815 -20.789003174720253 0 -20.789003174720253 -21.299427932867196 0 0 0 0 59.53410271408211 -16.569033685951581 0 -16.569033685951581 -44.3500924645341 0 0 0 0 39.046556673354644 4.0295797618146025 0 4.0295797618146025 -39.424057082243962 0 0 0 0 41.88966577732208 -16.06543731743659 0 -16.06543731743659 -0.82454589214012231 0 0 0 0 12.9014968150715 1.2633398555492974 0 1.2633398555492974 -0.37156804830691925 0 0 0 0 67.733190162027313 -9.3226187073044002 0 -9.3226187073044002 -24.623257407594338 0 0 0 0 41.681046634762197 -52.443264338836435 0 -52.443264338836435 -16.879857663388719 0 0 0 0 18.412232024266387 -2.1921477635768998 0 -2.1921477635768998 -20.582537318010022 0 0 0 0 91.275463320838753 -42.229335879884331 0 -42.229335879884331 -33.011034515196627 0 0 0 0 39.603464552887147 -15.431027570217406 0 -15.431027570217406 -21.329575003321757 0 0 0 0 52.854903115996422 -27.25856696820847 0 -27.25856696820847 -35.568906437843907 0 0 0 0 72.430885025501993 -7.8920733975073745 0 -7.8920733975073745 -46.216427201034094 0 0 0 0 13.078307575910031 -16.222829173297399 0 -16.222829173297399 -3.7161923014507696 0 0 0 0 36.153071433847799 -13.234069102371905 0 -13.234069102371905 2.7530837207865488 0 0 0 0 45.339493159855373 -21.938614625523343 0 -21.938614625523343 -15.238699301589303 0 0 0 0 44.935815678459477 -13.424828510064177 0 -13.424828510064177 -9.8516214568578455 0 0 0 0 57.129133499980526 -14.743035261030741 0 -14.743035261030741 -18.944336227281383 0 0 0 0 15.431073621675353 7.7428197075475111 0 7.7428197075475111 -15.917140565641683 0 0 0 0 54.452101248738472 -4.7074598507762175 0 -4.7074598507762175 -26.60331156165239 0 0 0 0 27.052179768013801 -6.5814221004040654 0 -6.5814221004040654 -1.916540217891769 0 0 0 0 202.25913306884468 -259.42901644695621 0 -259.42901644695621 -829.15314392169148 0 0 0 0 34.619242583644024 -9.6775016432325103 0 -9.6775016432325103 -1.8803272336798273 0 0 0 0 43.898615958598384 -30.943803240880897 0 -30.943803240880897 -15.555988636319626 0 0 0 0 477.17401859715028 -221.14230060059617 0 -221.14230060059617 -824.82243672242294 0 0 0 0 -175.6733684371502 -277.94702420802832 0 -277.94702420802832 -123.38995379342578 0 0 0 0 111.2790491591586 -47.630132473447702 0 -47.630132473447702 -96.891197602944885 0 0 0 0 640.54467908595666 -343.57405679329099 0 -343.57405679329099 54.055076064193599 0 0 0 0 -103.72746662353893 -85.581531082318747 0 -85.581531082318747 707.4108166694075 0 0 0 0 55.19361824812222 58.043355255452525 0 58.043355255452525 153.17284031047615 0 0 0 0 17.403714240637782 -196.62049380628241 0 -196.62049380628241 -357.59958137455033 0 0 0 0 -245.45406683035253 -212.80328547489808 0 -212.80328547489808 237.92147561665683 0 0 0 0 -38.07438817811817 -506.2455520489392 0 -506.2455520489392 -572.49757131721708 0 0 0 0 -575.99258919875138 -538.24925523100364 0 -538.24925523100364 -256.91639510609093 0 0 0 0 109.0643867138424 -440.67458291902312 0 -440.67458291902312 -196.48263323037872 0 0 0 0 -141.7496045445514 -226.36927877006929 0 -226.36927877006929 -370.94130276934038 0 0 0 0 43.372897231252864 243.36095730523994 0 243.36095730523994 197.83945232674751 0 0 0 0 20.304613600321318 -28.243505400200092 0 -28.243505400200092 98.713955052479378 0 0 0 0 4.7806279808538932 -2.8565981764709676 0 -2.8565981764709676 0.94416415904215878 0 0 0 0 3.0740279674474991 1.6768580520010801 0 1.6768580520010801 -2.214256076216417 0 0 0 0 91.757465793431038 -458.59114661904778 0 -458.59114661904778 -66.035876884356185 0 0 0 0 395.33968664024724 -243.56599793431815 0 -243.56599793431815 107.13588678795236 0 0 0 0 70.644853941464135 -145.82959031127587 0 -145.82959031127587 447.48544293113719 0 0 0 0 503.93400080086576 111.36868940001614 0 111.36868940001614 -62.832144820363453 0 0 0 0 240.84267498968256 178.10111147583007 0 178.10111147583007 205.19728071131647 0 0 0 0 371.30730997179217 -239.10596198171669 0 -239.10596198171669 103.52845523608812 0 0 0 0 -91.628816623691819 -427.52591192501745 0 -427.52591192501745 325.08822487118289 0 0 0 0 19.003245094904372 -0.64566091476851639 0 -0.64566091476851639 -2.2662567184612525 0 0 0 0 -540.50922924134647 -239.50343687194186 0 -239.50343687194186 142.60439182216578 0 0 0 0 62.29978986538481 -425.16816207089312 0 -425.16816207089312 172.38268363283964 0 0 0 0 144.84209647063108 102.39923683569907 0 102.39923683569907 -670.82921761115608 0 0 0 0 -4.0246289231945411 -109.27371948760333 0 -109.27371948760333 -236.40899891363335 0 0 0 0 12.525933279091987 -17.0697789645277 0 -17.0697789645277 -240.57699759431716 0 0 0 0 192.39767396265597 -109.32773427727204 0 -109.32773427727204 -23.008979144187379 0 0 0 0 129.73949912618627 49.870957022510993 0 49.870957022510993 -211.72067699305535 0 0 0 0 190.32082473368791 204.56190443706248 0 204.56190443706248 -10.491860191120509 0 0 0 0 278.98696979610759 154.20224025777759 0 154.20224025777759 -173.75691901714282 0 0 0 0 653.13405154027714 432.1883007316643 0 432.1883007316643 -116.46690083487829 0 0 0 0 738.60573201000807 473.20423016867642 0 473.20423016867642 -223.70687282491178 0 0 0 0 645.98068486624288 446.82031447822516 0 446.82031447822516 -143.18229012649999 0 0 0 0 1541.5944484358915 466.3455150166867 0 466.3455150166867 -289.83482516327717 0 0 0 0 1217.0293997597171 8.5607635018251464 0 8.5607635018251464 577.32307748871085 0 0 0 0 -194.35128020095726 333.0503535130581 0 333.0503535130581 -47.997793496875943 0 0 0 0 7.4481446737318606 -0.32685626062431083 0 -0.32685626062431083 -0.48664378891961646 0 0 0 0 456.1651749507655 650.2801515425615 0 650.2801515425615 -191.33099740998591 0 0 0 0 3.2580657633793635 3.345382961789916 0 3.345382961789916 1.5273548862163118 0 0 0 0 -104.78758780344651 454.04571367606968 0 454.04571367606968 213.83927329598941 0 0 0 0 -236.8996876500205 -369.66097480561211 0 -369.66097480561211 -1131.6440298334892 0 0 0 0 -58.598350073942129 50.455938258884999 0 50.455938258884999 -282.04708241350363 0 0 0 0 1204.985697487331 388.00082248711959 0 388.00082248711959 406.42322528944987 0 0 0 0 1018.2540465999482 -112.41303750980296 0 -112.41303750980296 93.521127045680259 0 0 0 0 -696.35990286333072 466.09642619086401 0 466.09642619086401 1358.3444238973198 0 0 0 0 2.0493788228235275 4.6342642770675866 0 4.6342642770675866 9.9083414121318363 0 0 0 0 898.06931156316568 288.78249421897488 0 288.78249421897488 -94.429475673230854 0 0 0 0 475.02207930231089 110.16238388470185 0 110.16238388470185 21.203457730619562 0 0 0 0 -105.46482724018279 227.11305888851757 0 227.11305888851757 -273.73599214549176 0 0 0 0 3.973969116828318 11.631301223971448 0 11.631301223971448 22.651973479524926 0 0 0 0 23.530363630699867 94.150300139970568 0 94.150300139970568 -333.29457294778604 0 0 0 0 324.97933512294912 324.78157327590725 0 324.78157327590725 -617.55939940568851 0 0 0 0 19.552496953947411 162.55188661797229 0 162.55188661797229 -289.07412917845659 0 0 0 0 9.0125147675935011 4.8462973521011303 0 4.8462973521011303 1.2355404724870951 0 0 0 0 95.511697678230121 76.726182635572059 0 76.726182635572059 -190.5877352967409 0 0 0 0 -132.1790684903699 474.05769427117934 0 474.05769427117934 373.91025048562096 0 0 0 0 -26.648317058996327 469.36275834537673 0 469.36275834537673 373.514124822962 0 0 0 0 269.72989276544831 364.2505903097333 0 364.2505903097333 283.43836837604613 0 0 0 0 539.87512253645036 238.77490173842011 0 238.77490173842011 329.91370001247378 0 0 0 0 168.87039617407572 285.50572690474792 0 285.50572690474792 583.60029654818175 0 0 0 0 232.47024044269347 697.83627677547349 0 697.83627677547349 556.99125719298354 0 0 0 0 -160.96797813853482 649.91840436671509 0 649.91840436671509 532.21858059247188 0 0 0 0 101.11613110409235 683.92801398860229 0 683.92801398860229 472.0977719645407 0 0 0 0 158.56230038315698 489.72849684191374 0 489.72849684191374 -56.801608364620506 0 0 0 0 -579.32381749556953 523.16252257188853 0 523.16252257188853 625.24975050038302 0 0 0 0 13.98906707813876 873.44115881367179 0 873.44115881367179 766.39602045075026 0 0 0 0 1988.4413985850551 790.01811402202452 0 790.01811402202452 306.13412649414386 0 0 0 0 629.37998496866896 442.45206549612902 0 442.45206549612902 1099.8119521352646 0 0 0 0 880.31287255529605 -15.564623975923269 0 -15.564623975923269 -126.63501480299328 0 0 0 0 783.48748136295762 969.79281346323023 0 969.79281346323023 284.69988682568737 0 0 0 0 104.71410154717159 81.940497310758474 0 81.940497310758474 -134.57643807432737 0 0 0 0 -41.018327502959437 -127.22299419809646 0 -127.22299419809646 -157.22308106886157 0 0 0 0 18.260328697419027 -256.00292958908494 0 -256.00292958908494 -620.52732561317634 0 0 0 0 -65.221305743325502 242.41505075617079 0 242.41505075617079 -1109.9401681298577 0 0 0 0 183.7319793549932 542.31670742030292 0 542.31670742030292 -115.8505584094587 0 0 0 0 8.5645413887386894 -4.9824440021501673 0 -4.9824440021501673 -0.67314116724606166 0 0 0 0 101.104076292846 -1.7522533914961826 0 -1.7522533914961826 -417.34227781953092 0 0 0 0 -73.684901017360971 161.29790137359862 0 161.29790137359862 302.10659700354563 0 0 0 0 70.694252402063285 357.88888223420543 0 357.88888223420543 25.517056067449403 0 0 0 0 -27.526257330333465 -20.878652253867131 0 -20.878652253867131 97.734411517577882 0 0 0 0 30.13307031290708 -11.490847838820095 0 -11.490847838820095 2.040760220968945 0 0 0 0 101.31673336450331 -98.700154908829518 0 -98.700154908829518 1.8251206795875987 0 0 0 0 38.1667744805236 -81.828317095227249 0 -81.828317095227249 -35.010366642772738 0 0 0 0 53.990198591247463 -39.096098698857759 0 -39.096098698857759 -24.813718119314217 0 0 0 0 38.826410829118686 -17.782040151964338 0 -17.782040151964338 27.728108349786453 0 0 0 0 -13.368004565309093 -80.194297927917887 0 -80.194297927917887 30.590924987104671 0 0 0 0 59.283513769723086 -23.305383709861715 0 -23.305383709861715 4.8987807348458503 0 0 0 0 81.432984400154055 -35.393620459242811 0 -35.393620459242811 -86.621554765326437 0 0 0 0 139.12068056910357 -8.3703319656906388 0 -8.3703319656906388 -75.927318567415568 0 0 0 0 62.743388868890179 -76.450752465621918 0 -76.450752465621918 -110.95779213782953 0 0 0 0 51.752725232458417 -20.376796593320442 0 -20.376796593320442 8.1887279113798872 0 0 0 0 63.222337541650631 -179.9096278847328 0 -179.9096278847328 -181.26553710118742 0 0 0 0 -6.4379303368884848 6.2596989844977315 0 6.2596989844977315 -77.545563357233732 0 0 0 0 -35.889095668273512 -77.258122791060032 0 -77.258122791060032 89.697000001571723 0 0 0 0 67.698473591607581 -114.07819691217333 0 -114.07819691217333 -20.340031114556041 0 0 0 0 -149.32229195045511 -196.04193512031634 0 -196.04193512031634 76.808403746634212 0 0 0 0 73.090295984032309 -208.22020957293262 0 -208.22020957293262 61.817350159333728 0 0 0 0 -167.96433330014224 -86.273285652152481 0 -86.273285652152481 99.363248629961163 0 0 0 0 -114.73878771719501 -173.77316678746047 0 -173.77316678746047 50.099306795291341 0 0 0 0 73.387779121421772 -407.18454160563488 0 -407.18454160563488 4.8118331993136962 0 0 0 0 -244.35146354444078 -428.76662118176819 0 -428.76662118176819 8.7885314548911992 0 0 0 0 480.39898304546296 -8.6414467838130804 0 -8.6414467838130804 623.10147391112696 0 0 0 0 36.604036662989529 13.102636593856914 0 13.102636593856914 -51.387830850333557 0 0 0 0 0.15219944112799055 -0.14701177300312196 0 -0.14701177300312196 -0.48023510949801818 0 0 0 0 53.628979148445069 -2.0214940637197287 0 -2.0214940637197287 -70.039205580054841 0 0 0 0 418.81799199860689 -327.46338906600522 0 -327.46338906600522 -107.06886705479883 0 0 0 0 80.440679954583175 -181.59566118063231 0 -181.59566118063231 -113.83357438542464 0 0 0 0 28.754349094664576 66.045484442000998 0 66.045484442000998 151.76725245678608 0 0 0 0 42.678674118006747 -14.388244624996931 0 -14.388244624996931 4.4810949770306951 0 0 0 0 250.05400513851419 -468.08090385840842 0 -468.08090385840842 -437.33968986986429 0 0 0 0 -70.754200964023767 -99.930536252497404 0 -99.930536252497404 83.277607468224232 0 0 0 0 45.671868747800545 65.777022215251236 0 65.777022215251236 111.06493370101225 0 0 0 0 14.560818468903562 -76.645771606587914 0 -76.645771606587914 38.041220479513868 0 0 0 0 -68.806910981300462 -21.909844420270019 0 -21.909844420270019 56.295326004426485 0 0 0 0 -239.90649564361229 -151.9957403734777 0 -151.9957403734777 161.25232363289524 0 0 0 0 191.98681333224522 154.8195301407186 0 154.8195301407186 -173.72649335029405 0 0 0 0 149.82385787152361 -34.538583585072672 0 -34.538583585072672 854.80588793631546 0 0 0 0 22.581950465678418 -6.1140649324811527 0 -6.1140649324811527 2.0121734076999562 0 0 0 0 -45.237867478906992 91.5768255190535 0 91.5768255190535 228.88877230061962 0 0 0 0 290.45079718311172 -94.083580280273281 0 -94.083580280273281 -68.060399415158599 0 0 0 0 -53.770608706094208 210.96410092893848 0 210.96410092893848 425.60738560418031 0 0 0 0 77.251815596726374 427.38202444909609 0 427.38202444909609 370.90783762449973 0 0 0 0 489.85547931166366 769.36408159860457 0 769.36408159860457 1006.2264188753338 0 0 0 0 -69.208658674528124 989.93158994273745 0 989.93158994273745 -108.69087526883413 0 0 0 0 731.23553517641994 1138.5892518788203 0 1138.5892518788203 -81.367951979454688 0 0 0 0 12.460050331076786 6.9230746298277133 0 6.9230746298277133 4.2771105639869749 0 0 0 0 1330.4189136465793 549.62307644509383 0 549.62307644509383 708.10425526281028 0 0 0 0 1488.606285920112 843.12949376860286 0 843.12949376860286 33.604206523441803 0 0 0 0 1208.0480428205422 1077.2552379411513 0 1077.2552379411513 363.46536745690793 0 0 0 0 1579.0012274150286 678.34301953010697 0 678.34301953010697 159.81195661142624 0 0 0 0 10.75702319047798 0.16879853326671679 0 0.16879853326671679 -0.62970746729831983 0 0 0 0 -80.560887970241311 91.687994888364983 0 91.687994888364983 689.94422952572222 0 0 0 0 -46.279514877809561 -545.88480706432165 0 -545.88480706432165 385.5320447078343 0 0 0 0 1365.740527473321 534.70112001775442 0 534.70112001775442 92.654233857724876 0 0 0 0 1475.3942751597569 929.36098828010745 0 929.36098828010745 234.14148262497747 0 0 0 0 1369.9318222271595 516.77107873729665 0 516.77107873729665 614.73297632863751 0 0 0 0 1768.2305801558323 865.83964324708086 0 865.83964324708086 89.439358685588559 0 0 0 0 1610.4515572711243 963.28337686059695 0 963.28337686059695 73.74197809350062 0 0 0 0 1328.7485677574859 1075.7222749372427 0 1075.7222749372427 162.99128712814672 0 0 0 0 19.74872520991503 -3.6478833028876148 0 -3.6478833028876148 1.1872230092734029 0 0 0 0 802.25133013353843 -21.07246800936673 0 -21.07246800936673 359.08123405397782 0 0 0 0 387.97707016542932 489.04932710737876 0 489.04932710737876 815.94982285996957 0 0 0 0 777.56933030896653 645.37458399487741 0 645.37458399487741 264.99794567550271 0 0 0 0 1903.1078446153733 212.3960740149887 0 212.3960740149887 388.55904577237834 0 0 0 0 1412.8923745377533 567.71766764165488 0 567.71766764165488 -67.87300236208921 0 0 0 0 206.29671579376372 255.45558366710111 0 255.45558366710111 305.79891644879785 0 0 0 0 -104.99831395860019 -158.71662696346414 0 -158.71662696346414 -58.200817613037088 0 0 0 0 232.88373481839153 -126.54601276160389 0 -126.54601276160389 -667.53593503547506 0 0 0 0 491.93882779145315 788.13156306265137 0 788.13156306265137 -44.783205763376941 0 0 0 0 6.3168458698060661 4.1052564196828811 0 4.1052564196828811 2.2145568448439135 0 0 0 0 1061.0402101846539 -428.68351104993286 0 -428.68351104993286 607.7680687221 0 0 0 0 -32.110477742222429 -116.27171028817702 0 -116.27171028817702 520.26797278148138 0 0 0 0 611.4156787024931 -245.76180705017205 0 -245.76180705017205 94.750989421640952 0 0 0 0 -24.361193412427383 -225.41403751804319 0 -225.41403751804319 137.50140833661339 0 0 0 0 122.15910799858466 -249.48532028835916 0 -249.48532028835916 -332.95186663166714 0 0 0 0 -151.95831548642309 38.402539959980459 0 38.402539959980459 -9.8538715149434211 0 0 0 0 -448.03088055667467 -216.82095899427441 0 -216.82095899427441 -187.09857100509544 0 0 0 0 170.03704677020505 -307.98289617522414 0 -307.98289617522414 191.70545844857133 0 0 0 0 185.71977199755202 -92.043380158436321 0 -92.043380158436321 163.10332095099875 0 0 0 0 105.21436345046823 -111.49933356514293 0 -111.49933356514293 -218.82268571474924 0 0 0 0 97.104460013913922 -155.76490175357048 0 -155.76490175357048 94.120839919494756 0 0 0 0 62.464339013844437 -229.11326684632513 0 -229.11326684632513 28.293484932916726 0 0 0 0 5.0190523167402716 -59.82698206358873 0 -59.82698206358873 -115.89536561329828 0 0 0 0 141.75708505259718 -170.56993639588427 0 -170.56993639588427 -137.16499533343995 0 0 0 0 41.179785764419648 -102.34497795763582 0 -102.34497795763582 -202.79179212579493 0 0 0 0 -26.044995151842159 94.858463103229496 0 94.858463103229496 -391.04469180651722 0 0 0 0 32.620001163624693 83.49449200883646 0 83.49449200883646 -442.53489680259872 0 0 0 0 -103.37376542358106 184.28577856200354 0 184.28577856200354 -359.95079252025607 0 0 0 0 -155.30949278224944 307.5188899787845 0 307.5188899787845 -503.67652185177212 0 0 0 0 57.848796973730714 -54.034992780952507 0 -54.034992780952507 -289.40464512019389 0 0 0 0 -165.5362550250502 135.58492699621092 0 135.58492699621092 -269.14318682584621 0 0 0 0 -27.954919060583052 39.125254897240666 0 39.125254897240666 -246.9455154704483 0 0 0 0 -288.23919035989093 131.38738379765891 0 131.38738379765891 -250.29266555454626 0 0 0 0 -4.513399968171143 -140.19499242222446 0 -140.19499242222446 -84.632345849822741 0 0 0 0 -2.968625036697631 13.924916953959837 0 13.924916953959837 -252.21695510493737 0 0 0 0 -297.93546375976803 351.45594842221089 0 351.45594842221089 -346.3395115116291 0 0 0 0 -364.35397785042005 263.81300910473874 0 263.81300910473874 -250.57113540266801 0 0 0 0 540.9984610300744 -385.98296304757514 0 -385.98296304757514 229.2727310019859 0 0 0 0 3.4960763110655506 1.6028433211923065 0 1.6028433211923065 1.3349416770025879 0 0 0 0 -2.2043964122302242 130.08953517368525 0 130.08953517368525 87.923355759128754 0 0 0 0 562.73706974492234 -331.50095555741518 0 -331.50095555741518 134.35654614011673 0 0 0 0 622.38306532570277 -383.4777439884374 0 -383.4777439884374 161.1359522191924 0 0 0 0 364.61489895453269 -353.05768181700114 0 -353.05768181700114 266.50813365943395 0 0 0 0 607.14421267832222 -314.04423514870086 0 -314.04423514870086 259.45689610802583 0 0 0 0 28.171796116235782 327.40674267793656 0 327.40674267793656 -878.75626067765188 0 0 0 0 250.08691861835541 144.24057549196914 0 144.24057549196914 29.507262455954333 0 0 0 0 30.742015205771708 14.376632022850009 0 14.376632022850009 4.2941294473481513 0 0 0 0 -98.832642095861956 420.42789610779982 0 420.42789610779982 -608.79470648651477 0 0 0 0 107.63858659546531 110.96852438144197 0 110.96852438144197 -827.39943871835112 0 0 0 0 11.617448209693976 161.55700324163672 0 161.55700324163672 -482.63935077865972 0 0 0 0 -7.6342932555417065 -46.3099571765988 0 -46.3099571765988 -319.09057067947651 0 0 0 0 85.965070370395551 -9.8286079970057472 0 -9.8286079970057472 -609.81812945689762 0 0 0 0 40.376890956747957 -78.772035984843569 0 -78.772035984843569 -1137.9516451260497 0 0 0 0 -289.21142885284644 -356.45346538268132 0 -356.45346538268132 -826.44084332233069 0 0 0 0 51.079269845933595 68.834820788683828 0 68.834820788683828 -628.65397599615972 0 0 0 0 -73.397213633139472 -45.180508640698463 0 -45.180508640698463 -420.80958118488343 0 0 0 0 29.846948998019798 -174.01225054701536 0 -174.01225054701536 -711.6676782205036 0 0 0 0 -468.8266435133628 -295.02326305178212 0 -295.02326305178212 -363.27885053187129 0 0 0 0 1221.5064984616765 -985.11452335015747 0 -985.11452335015747 742.11037353503798 0 0 0 0 322.08303459663875 -563.95772221257721 0 -563.95772221257721 547.34666006848965 0 0 0 0 -108.67986829016445 -305.69842541464777 0 -305.69842541464777 880.87521199818366 0 0 0 0 1952.6373556579056 -417.07599039591332 0 -417.07599039591332 196.33461680738583 0 0 0 0 1588.7443989814783 739.29881241800376 0 739.29881241800376 389.27365925142931 0 0 0 0 690.88093847944401 -126.06082880894019 0 -126.06082880894019 130.13958658776096 0 0 0 0 755.12481214697618 -122.1004606750605 0 -122.1004606750605 -37.421244034814663 0 0 0 0 929.25225235808102 -438.62107309982412 0 -438.62107309982412 68.806042075368168 0 0 0 0 596.58080016219174 -254.9333766712798 0 -254.9333766712798 605.21934714517101 0 0 0 0 601.33159334570519 -398.49883028139539 0 -398.49883028139539 247.9302256861065 0 0 0 0 642.54114270580612 -559.84667295296822 0 -559.84667295296822 540.79117179540617 0 0 0 0 651.47519609233859 -327.68465494676138 0 -327.68465494676138 157.59684693077361 0 0 0 0 683.75048922922724 -396.97022814854336 0 -396.97022814854336 83.202855797416305 0 0 0 0 728.00144745693251 -230.91993482174178 0 -230.91993482174178 -102.79075428651049 0 0 0 0 87.815205511375098 220.33501228653768 0 220.33501228653768 -192.81211462856754 0 0 0 0 368.52163057225698 -319.95916091619347 0 -319.95916091619347 -97.236842680694735 0 0 0 0 833.83641048901336 -176.81482202720417 0 -176.81482202720417 -339.32449854311062 0 0 0 0 634.36189196409032 -331.53538713557236 0 -331.53538713557236 -278.08031141368792 0 0 0 0 4.9989479360809383 2.3836796686041737 0 2.3836796686041737 0.6374122271037912 0 0 0 0 445.50144089488458 -64.594045531515803 0 -64.594045531515803 -53.125834990271642 0 0 0 0 707.68792349642899 30.262288537041059 0 30.262288537041059 -34.486894599216612 0 0 0 0 165.04159663786595 -117.84688458622975 0 -117.84688458622975 75.374767070825328 0 0 0 0 210.3433704363415 -32.215429342183597 0 -32.215429342183597 64.433380647655213 0 0 0 0 297.795420590719 -161.57393993773422 0 -161.57393993773422 80.708329553031945 0 0 0 0 414.41726188130269 -170.94429059465983 0 -170.94429059465983 75.654287503472005 0 0 0 0 291.80075388732712 -76.3133256429482 0 -76.3133256429482 65.358767336439996 0 0 0 0 105.02970185215418 -35.265593002889489 0 -35.265593002889489 135.32493126243389 0 0 0 0 120.06755509635468 -219.07990889191547 0 -219.07990889191547 193.21501358643218 0 0 0 0 560.62818562265602 -313.81164220128449 0 -313.81164220128449 64.21030149694343 0 0 0 0 410.68767878350627 -245.4839226552067 0 -245.4839226552067 75.994754088491391 0 0 0 0 657.36167606437448 -165.84743318504161 0 -165.84743318504161 -38.931207466033811 0 0 0 0 685.36954533191602 -242.12848074013891 0 -242.12848074013891 -127.01879650966112 0 0 0 0 677.09550700851833 -354.25651211888407 0 -354.25651211888407 -40.268162099926485 0 0 0 0 515.34155479064066 -147.53500913622611 0 -147.53500913622611 13.789137203562859 0 0 0 0 268.27183596892428 -148.8708537876164 0 -148.8708537876164 -32.682571498927246 0 0 0 0 267.35144462443714 16.038609388595432 0 16.038609388595432 -58.079540088783688 0 0 0 0 285.16841529416342 -113.11367307687851 0 -113.11367307687851 19.730200079487986 0 0 0 0 308.53145651399564 -4.1419600690431935 0 -4.1419600690431935 164.35156193486819 0 0 0 0 194.45271621870052 370.27671567675588 0 370.27671567675588 -69.075788010889482 0 0 0 0 -34.813399632781511 131.42396938206684 0 131.42396938206684 1.8262775033463186 0 0 0 0 259.79970362915719 164.35622340479074 0 164.35622340479074 -43.606159384028615 0 0 0 0 596.51913707795393 207.33481064562102 0 207.33481064562102 -173.38083035678756 0 0 0 0 275.06667069979449 130.78525917941352 0 130.78525917941352 -97.896507870182177 0 0 0 0 300.87659110974346 110.83461311226574 0 110.83461311226574 -87.771115448295859 0 0 0 0 261.93539533762305 55.807891956772664 0 55.807891956772664 -13.698462880280204 0 0 0 0 243.56762281306965 105.18687446788874 0 105.18687446788874 -58.863388142804979 0 0 0 0 308.88444286247386 73.038608031347451 0 73.038608031347451 -58.719533320726441 0 0 0 0 148.23519294949801 53.889701735811286 0 53.889701735811286 -42.417487309091484 0 0 0 0 64.442256775953865 -127.49701966400971 0 -127.49701966400971 -28.193460631220205 0 0 0 0 135.05641028269019 14.523411025149471 0 14.523411025149471 -54.857565724530104 0 0 0 0 64.383023266820601 -41.685537154068697 0 -41.685537154068697 -5.650804345474171 0 0 0 0 1.8803988639548024 -1.7162046138751137 0 -1.7162046138751137 -0.18821365255860201 0 0 0 0 302.31722694819837 172.96471445961424 0 172.96471445961424 15.326827302085803 0 0 0 0 58.393729036495643 27.968616132290208 0 27.968616132290208 106.44750986000872 0 0 0 0 1.2792358602628937 -1.1921277997958839 0 -1.1921277997958839 -0.45188522813111831 0 0 0 0 27.342573393991188 1.9330584088629621 0 1.9330584088629621 -23.575063082158067 0 0 0 0 -20.933136784637099 -55.101140059899535 0 -55.101140059899535 -33.284631152973816 0 0 0 0 113.16844053201021 -32.939651709632017 0 -32.939651709632017 -38.584501241974067 0 0 0 0 -237.03936351999437 -396.06692779564037 0 -396.06692779564037 5.3965634488756677 0 0 0 0 114.14289159192674 -19.855566719030357 0 -19.855566719030357 -9.4861611950973934 0 0 0 0 -287.24365290142214 55.801229283214184 0 55.801229283214184 45.737376361092174 0 0 0 0 105.01925065301475 -51.317229946034786 0 -51.317229946034786 -32.730434610568409 0 0 0 0 116.98073663407303 -15.062812421595908 0 -15.062812421595908 -7.5587266608708052 0 0 0 0 159.39122502406826 -60.92342725425442 0 -60.92342725425442 -122.7903118007298 0 0 0 0 111.97740518576757 20.508297700284857 0 20.508297700284857 11.848018072711056 0 0 0 0 279.3769882387287 528.68434407311781 0 528.68434407311781 521.0789831362963 0 0 0 0 566.77547756690183 -377.46635503448852 0 -377.46635503448852 -709.51699125851337 0 0 0 0 114.05585840369281 -9.9331226994371207 0 -9.9331226994371207 -9.2431502447275236 0 0 0 0 101.02867036155476 -34.033621499643687 0 -34.033621499643687 -102.14424922778562 0 0 0 0 91.003401859139558 -91.848596914416703 0 -91.848596914416703 -68.854449125152314 0 0 0 0 568.23125371191418 -573.62684436338441 0 -573.62684436338441 -165.73144635852077 0 0 0 0 110.22571985624739 -21.055608535123227 0 -21.055608535123227 -11.36367319371745 0 0 0 0 108.48344727099175 -83.967552786460146 0 -83.967552786460146 91.548989166129104 0 0 0 0 78.117873326510562 50.46420142999591 0 50.46420142999591 848.38760006495431 0 0 0 0 220.62946442989778 -204.72165285180381 0 -204.72165285180381 161.07550005543635 0 0 0 0 7.8252809969505677 -2.3184856255231807 0 -2.3184856255231807 0.43285558053452178 0 0 0 0 849.50424619967816 76.574317105063528 0 76.574317105063528 -18.242262216653216 0 0 0 0 204.0379198464434 390.91954663409069 0 390.91954663409069 599.90701673205331 0 0 0 0 220.22294846336445 277.92039927467431 0 277.92039927467431 426.39053957287251 0 0 0 0 352.11329163669507 72.613460111368113 0 72.613460111368113 -52.058389027952444 0 0 0 0 290.97928214875628 58.387195713863775 0 58.387195713863775 -2.1801980928466946 0 0 0 0 333.34806925307748 -25.252869541534437 0 -25.252869541534437 3.8220170789008989 0 0 0 0 55.174829742078146 -2.0819068056475771 0 -2.0819068056475771 68.568471938703624 0 0 0 0 112.79760157127748 6.9846706872167488 0 6.9846706872167488 16.78687528854789 0 0 0 0 113.05333810598677 -39.897107472113021 0 -39.897107472113021 132.37944732726464 0 0 0 0 70.499549631713307 41.498622971173972 0 41.498622971173972 75.577947633757503 0 0 0 0 33.252611598233472 14.175986428413466 0 14.175986428413466 7.524801056105721 0 0 0 0 103.85348535789672 40.790395300339242 0 40.790395300339242 1.8145133022226219 0 0 0 0 93.56344659001843 37.471627248499317 0 37.471627248499317 49.395697835107967 0 0 0 0 28.490290603727615 9.1185088484551642 0 9.1185088484551642 31.151253535402827 0 0 0 0 40.009122273237153 -74.515032990079021 0 -74.515032990079021 8.773891907207144 0 0 0 0 240.95901113982836 117.96734938326699 0 117.96734938326699 -10.152477834802994 0 0 0 0 265.78110840586305 222.90038344464301 0 222.90038344464301 -173.41191899299338 0 0 0 0 225.5559123443818 246.43335457836474 0 246.43335457836474 226.05877115019575 0 0 0 0 298.70541578975099 123.554112089726 0 123.554112089726 -273.09930904194698 0 0 0 0 112.86856800070382 -98.507248209378758 0 -98.507248209378758 -50.188324321984283 0 0 0 0 194.86733108454672 -18.010419805404521 0 -18.010419805404521 5.2437862224612601 0 0 0 0 142.79390842654539 -132.37316533368494 0 -132.37316533368494 -15.970892389383152 0 0 0 0 159.82228818235581 -74.198837655960688 0 -74.198837655960688 -27.781128537298173 0 0 0 0 69.864932818421948 -108.74552164682791 0 -108.74552164682791 43.697123827747873 0 0 0 0 147.13269838693668 -92.750175712905843 0 -92.750175712905843 29.898609694579363 0 0 0 0 -151.91604472287145 -110.16896045112003 0 -110.16896045112003 135.71493447865464 0 0 0 0 0.34697427998357355 12.03270066762822 0 12.03270066762822 33.553041841429994 0 0 0 0 148.95380604915499 -74.845625625381672 0 -74.845625625381672 193.19815292880253 0 0 0 0 -189.03264398182455 43.709588100991553 0 43.709588100991553 246.98363336786542 0 0 0 0 248.91529832586821 -102.40390568035411 0 -102.40390568035411 78.302563045643524 0 0 0 0 418.67164035972382 165.23523703092445 0 165.23523703092445 4.3601044779867379 0 0 0 0 3.9820361089868825 12.813260901685268 0 12.813260901685268 33.053661554949024 0 0 0 0 111.71612297332831 22.183055866930772 0 22.183055866930772 25.500918821977393 0 0 0 0 150.84011927843676 -7.5420819221822057 0 -7.5420819221822057 18.265574186853883 0 0 0 0 65.603716431718567 6.4719617724719001 0 6.4719617724719001 23.402251556926785 0 0 0 0 147.23700947801262 32.176629885227158 0 32.176629885227158 -4.7524947705769591 0 0 0 0 68.782901065642363 97.356134685654069 0 97.356134685654069 -20.658751325843241 0 0 0 0 -31.404141763807274 62.454932002516671 0 62.454932002516671 14.953570213025159 0 0 0 0 51.537901825440713 29.425291196685748 0 29.425291196685748 -167.64299368575939 0 0 0 0 -100.72237009361197 167.07183491925161 0 167.07183491925161 -29.599181443359157 0 0 0 0 543.18300449076196 189.47994436548572 0 189.47994436548572 -121.90732573497678 0 0 0 0 -42.689316482105824 235.81853206932783 0 235.81853206932783 157.58353195189136 0 0 0 0 3.8879283375872475 12.992185221984897 0 12.992185221984897 28.975675311780751 0 0 0 0 76.449529510151478 -4.1311637619037356 0 -4.1311637619037356 -29.656850301688792 0 0 0 0 636.92990495168488 549.58271269452325 0 549.58271269452325 316.08288534709368 0 0 0 0 626.69264426141854 454.95966872989391 0 454.95966872989391 130.01388754740242 0 0 0 0 764.18718979573168 465.17540816936219 0 465.17540816936219 -140.71798975202788 0 0 0 0 800.90074301646746 592.64093329135505 0 592.64093329135505 89.312765800309307 0 0 0 0 143.50279171778675 -446.77550834880367 0 -446.77550834880367 -79.262994618210541 0 0 0 0 -70.01971422756651 -27.680924613389578 0 -27.680924613389578 246.28308358924568 0 0 0 0 1053.578674743103 83.346189579933394 0 83.346189579933394 -120.94634090617433 0 0 0 0 124.39882659978321 13.976025651390628 0 13.976025651390628 104.96913835209338 0 0 0 0 10.635756000766065 -3.7823885692221282 0 -3.7823885692221282 1.2793821903880223 0 0 0 0 1289.5743803351652 974.26660895503699 0 974.26660895503699 782.26698331676494 0 0 0 0 662.93574627615817 614.1416140387945 0 614.1416140387945 488.84055053388749 0 0 0 0 550.53948404573021 399.01688020167421 0 399.01688020167421 475.9102673303945 0 0 0 0 380.31591341609237 0.16962773972090872 0 0.16962773972090872 357.73826866534654 0 0 0 0 1264.9016541201249 155.58962345442586 0 155.58962345442586 185.73938150033325 0 0 0 0 440.99644951675873 58.854284462471867 0 58.854284462471867 495.76067782268245 0 0 0 0 878.07703486795799 305.07744431993831 0 305.07744431993831 214.14752229732744 0 0 0 0 395.9034757641748 24.218341222220658 0 24.218341222220658 66.999526152855196 0 0 0 0 300.39479354958166 61.741516412179635 0 61.741516412179635 186.40754786340085 0 0 0 0 382.82897570178102 39.149224848056861 0 39.149224848056861 18.027676019530645 0 0 0 0 276.10073946104239 -154.97102416801408 0 -154.97102416801408 28.186486981413964 0 0 0 0 138.33537163433357 -76.952791770611384 0 -76.952791770611384 12.315379254551914 0 0 0 0 252.64967840643294 -85.775992015264592 0 -85.775992015264592 -265.47165775177382 0 0 0 0 185.67441502995936 -31.190748670105457 0 -31.190748670105457 1.6857599855982013 0 0 0 0 218.6174177820285 -173.37028389110037 0 -173.37028389110037 -216.16231926301771 0 0 0 0 129.04610181277531 7.9741576270084806 0 7.9741576270084806 81.183590252610429 0 0 0 0 277.93022379613831 1.2448235386736997 0 1.2448235386736997 38.253025842876923 0 0 0 0 259.38476221050905 246.20132976492397 0 246.20132976492397 269.56392695995874 0 0 0 0 363.61699661382045 476.84920083842843 0 476.84920083842843 504.89684307374341 0 0 0 0 499.29341651390132 214.82842052657929 0 214.82842052657929 153.17561925504054 0 0 0 0 564.1875960188554 505.72377629208586 0 505.72377629208586 429.7175844289003 0 0 0 0 37.483574103412565 -14.894497637914561 0 -14.894497637914561 2.3136772391880314 0 0 0 0 516.43925882931035 348.71796059099393 0 348.71796059099393 17.099781610814716 0 0 0 0 1224.9159058904261 995.22917959044332 0 995.22917959044332 191.83788167241073 0 0 0 0 184.37148679338952 503.71294352105838 0 503.71294352105838 1092.7756027440869 0 0 0 0 132.5231991661276 231.43957944910335 0 231.43957944910335 352.21013617610424 0 0 0 0 4.0193835629106616 -137.51475041839331 0 -137.51475041839331 390.72325865427274 0 0 0 0 -1.2877880941626074 0.63917809902341105 0 0.63917809902341105 12.721424216950588 0 0 0 0 202.48881119502767 129.87733637190058 0 129.87733637190058 17.234716025811395 0 0 0 0 172.00648319543689 -48.130788478997601 0 -48.130788478997601 65.219765686471419 0 0 0 0 4591.5974771048641 33.071781204811202 0 33.071781204811202 -318.08774366274463 0 0 0 0 2597.3773126528904 819.1759268064535 0 819.1759268064535 -224.54972234568274 0 0 0 0 1898.4868163535939 454.04410494169741 0 454.04410494169741 -320.80226775073777 0 0 0 0 2133.2135095502454 -19.103453228185202 0 -19.103453228185202 574.10292686965931 0 0 0 0 1203.2837995225273 817.41975694178404 0 817.41975694178404 1372.9895763011832 0 0 0 0 505.37156291553401 -864.16945233541276 0 -864.16945233541276 735.08947505141475 0 0 0 0 1080.8179099321424 486.48462609326384 0 486.48462609326384 506.59344254268439 0 0 0 0 1414.3798940559445 921.98894507002865 0 921.98894507002865 763.21753013790226 0 0 0 0 2567.7566571068164 -741.73589284321667 0 -741.73589284321667 732.7993960702579 0 0 0 0 4502.8034859374275 432.74634134735226 0 432.74634134735226 2140.722425362394 0 0 0 0 5297.6958660921664 1536.5376682335082 0 1536.5376682335082 450.68639965462137 0 0 0 0 4498.7513573480028 1963.1884307721446 0 1963.1884307721446 227.51488085927733 0 0 0 0 20.227622538434701 -6.6794093912102426 0 -6.6794093912102426 2.401745157017146 0 0 0 0 -365.7014405583468 561.6558000937107 0 561.6558000937107 1620.8047012493307 0 0 0 0 1618.7399943844721 18.087325597520248 0 18.087325597520248 -382.93459081104794 0 0 0 0 1848.9712365757005 539.05159835661311 0 539.05159835661311 -467.72911872763393 0 0 0 0 4500.427395362145 640.36054862267508 0 640.36054862267508 -765.87129541348725 0 0 0 0 2385.1640783047769 -511.57068601152622 0 -511.57068601152622 -605.60760178016699 0 0 0 0 273.76895440281442 -205.4009181819215 0 -205.4009181819215 -380.42718608407313 0 0 0 0 1643.2914866665997 509.03816862717667 0 509.03816862717667 -196.06777492824835 0 0 0 0 258.11836561028394 -173.13973947166542 0 -173.13973947166542 247.15163409704246 0 0 0 0 28.293788557923691 -11.439262539138028 0 -11.439262539138028 1.9611042430397501 0 0 0 0 847.87362293717524 28.402140588949635 0 28.402140588949635 10.513945192162154 0 0 0 0 315.3385428812835 122.86752679384378 0 122.86752679384378 -65.770796333138776 0 0 0 0 142.11833175121728 -82.626382009705893 0 -82.626382009705893 254.36706677557811 0 0 0 0 295.5453767967083 -176.08984716619602 0 -176.08984716619602 172.97306983675219 0 0 0 0 446.5425246335617 -2551.8795544258487 0 -2551.8795544258487 1421.1248319044944 0 0 0 0 4490.4360619748732 -1782.7920137041438 0 -1782.7920137041438 -703.29474891311452 0 0 0 0 2617.8675007558413 -599.09738916030074 0 -599.09738916030074 -621.36389648055115 0 0 0 0 1276.4209451368461 -1050.1819959905404 0 -1050.1819959905404 609.77036142276233 0 0 0 0 2948.500305352638 -1603.8700038900056 0 -1603.8700038900056 597.52060225626815 0 0 0 0 3844.4647520297949 -1402.3919256015249 0 -1402.3919256015249 41.717028130838251 0 0 0 0 4500.0951560428875 -1712.182862099407 0 -1712.182862099407 96.669041107123661 0 0 0 0 3386.4985539138434 -1259.7310688601515 0 -1259.7310688601515 39.477001345427325 0 0 0 0 4498.8299945441322 -882.58693052261242 0 -882.58693052261242 -304.9422572196649 0 0 0 0 3265.8806589093583 -971.67672074665097 0 -971.67672074665097 306.54265837350857 0 0 0 0 2376.2622102117457 -1351.4807426688697 0 -1351.4807426688697 530.61727580651484 0 0 0 0 2314.975649746033 -1101.53625457053 0 -1101.53625457053 618.35674800047616 0 0 0 0 1753.1608385827712 -1098.8264598261417 0 -1098.8264598261417 725.26018636964079 0 0 0 0 1808.5044801827098 -1244.18020212324 0 -1244.18020212324 786.97213397523672 0 0 0 0 2864.5336239669414 -1352.2731361069948 0 -1352.2731361069948 504.70591621011772 0 0 0 0 1707.134827799804 -1438.0649074775524 0 -1438.0649074775524 863.68757356435617 0 0 0 0 2124.23740305908 -1658.1229851576468 0 -1658.1229851576468 860.84875003658169 0 0 0 0 1675.466108864166 -1150.6815155005665 0 -1150.6815155005665 754.32976336574802 0 0 0 0 821.39819953899132 -861.5640033004338 0 -861.5640033004338 902.80084990610669 0 0 0 0 1609.8970252803119 -1444.467152971333 0 -1444.467152971333 1155.6786368974408 0 0 0 0 117.50581560681167 -696.5232414208881 0 -696.5232414208881 1213.9722640222503 0 0 0 0 814.7384070304106 -418.77066838910287 0 -418.77066838910287 305.84625696023977 0 0 0 0 3119.8142283959605 -2172.4938080401225 0 -2172.4938080401225 952.07461096522002 0 0 0 0 1180.3250681187783 -1864.3527100954743 0 -1864.3527100954743 1704.4652632551845 0 0 0 0 3250.3045529864248 -1570.1202570318269 0 -1570.1202570318269 761.62922375222547 0 0 0 0 3669.0411840054221 -1897.095830825946 0 -1897.095830825946 652.50746085516244 0 0 0 0 4499.261948221545 -2570.5364560688131 0 -2570.5364560688131 1517.1877254857022 0 0 0 0 3738.0984158965293 -2929.4651302333541 0 -2929.4651302333541 1352.7135409473531 0 0 0 0 4945.4101683073941 -2210.8438407938902 0 -2210.8438407938902 455.44269195344395 0 0 0 0 0.90990533388424311 -5.8177781903158348 0 -5.8177781903158348 13.734826780879562 0 0 0 0 757.5253325659869 -248.05975793541393 0 -248.05975793541393 753.09857256392047 0 0 0 0 4494.4901495903468 -3124.4048018913008 0 -3124.4048018913008 889.45212622967904 0 0 0 0 1471.4298162966734 2359.4773650917336 0 2359.4773650917336 1938.1374744763359 0 0 0 0 1785.4449928940448 -3280.6984489754459 0 -3280.6984489754459 3829.6873039003781 0 0 0 0 23.566874220037619 -5.1224371812108025 0 -5.1224371812108025 5.8845478196663752 0 0 0 0 24.155628392562239 -14.540397216401857 0 -14.540397216401857 27.135032095898481 0 0 0 0 1638.1926235150358 313.27390514490099 0 313.27390514490099 -106.15963435838762 0 0 0 0 694.26677237092372 -441.12736915559594 0 -441.12736915559594 337.71529000490318 0 0 0 0 55.411861385072655 -14.756371943960659 0 -14.756371943960659 14.894725130413537 0 0 0 0 435.94384746072319 116.33491597176635 0 116.33491597176635 563.48792541425848 0 0 0 0 4491.8359614670517 1175.3755340732641 0 1175.3755340732641 -274.57635743854502 0 0 0 0 20.872002396968231 -1.3265567425573721 0 -1.3265567425573721 29.395062297485151 0 0 0 0 113.85346123778436 47.081739124346313 0 47.081739124346313 -55.856927103507587 0 0 0 0 -487.37416873991879 -487.50443921874728 0 -487.50443921874728 -218.36841208308033 0 0 0 0 122.7574327276642 -21.447374531971541 0 -21.447374531971541 7.0860547743532329 0 0 0 0 158.74333776853746 -458.92915140580226 0 -458.92915140580226 -497.10821935905506 0 0 0 0 -47.229453068659495 -171.05334026329751 0 -171.05334026329751 -508.84172283469888 0 0 0 0 320.04375912208729 -119.0244307598951 0 -119.0244307598951 -31.119340693164304 0 0 0 0 312.14161884596979 -689.31614915757109 0 -689.31614915757109 -195.53080793440472 0 0 0 0 -1485.02352043055 -427.64611611096791 0 -427.64611611096791 1047.1615676602432 0 0 0 0 484.70206942585355 -416.65086495114519 0 -416.65086495114519 315.14590210414872 0 0 0 0 737.85854612279218 -293.2691366434633 0 -293.2691366434633 292.82393994648282 0 0 0 0 449.29019447912287 -45.138536589082833 0 -45.138536589082833 137.5868085802781 0 0 0 0 687.000207088975 -24.225646656470417 0 -24.225646656470417 82.382269710148648 0 0 0 0 642.96542135212803 13.248048445063887 0 13.248048445063887 185.29454210114181 0 0 0 0 411.49512797521311 98.6057599383671 0 98.6057599383671 45.578790812349325 0 0 0 0 356.45151156200882 80.613889333479619 0 80.613889333479619 -263.5311424038573 0 0 0 0 543.20136903316597 119.3664508178108 0 119.3664508178108 -61.016934485290562 0 0 0 0 257.98483750557352 62.903086156473364 0 62.903086156473364 -53.163877034441612 0 0 0 0 152.09369042848994 -78.257482553669433 0 -78.257482553669433 -70.047908779144791 0 0 0 0 573.22298491551919 -111.26186096317383 0 -111.26186096317383 -72.418634076931994 0 0 0 0 425.93931213424366 -377.96828030356301 0 -377.96828030356301 -421.65953434837138 0 0 0 0 225.46344763263187 -218.11914181823431 0 -218.11914181823431 -471.1381940807978 0 0 0 0 -110.91476034802326 -137.89547067832837 0 -137.89547067832837 -479.21739826229896 0 0 0 0 153.73318417305299 -25.688017204878093 0 -25.688017204878093 1.0705939320669096 0 0 0 0 277.5201599284519 -4.7936888133172033 0 -4.7936888133172033 -293.59862957981932 0 0 0 0 288.72772414347855 -451.26268920204529 0 -451.26268920204529 -983.79219552035647 0 0 0 0 57.57234728577896 45.733276288165371 0 45.733276288165371 -66.431152913073674 0 0 0 0 408.90896014295868 358.56419396260208 0 358.56419396260208 -237.11788098131365 0 0 0 0 175.66574571336892 -28.302814622705306 0 -28.302814622705306 1.7514560045914322 0 0 0 0 252.66566610689551 -379.5677869236863 0 -379.5677869236863 -669.01028805400165 0 0 0 0 388.41569624084514 -203.3980133127634 0 -203.3980133127634 -1172.1053906467419 0 0 0 0 179.7277802497556 158.82804270559063 0 158.82804270559063 -153.63742211685349 0 0 0 0 442.57767105009407 64.041667531642815 0 64.041667531642815 -143.019434861626 0 0 0 0 371.65863812333555 233.27111903627065 0 233.27111903627065 179.9852710802752 0 0 0 0 1380.3940092296689 841.35511382797267 0 841.35511382797267 114.05768318502305 0 0 0 0 885.54592685108946 334.6502595863758 0 334.6502595863758 -252.94618728372552 0 0 0 0 617.33101511960558 632.25524740400806 0 632.25524740400806 221.73132786870701 0 0 0 0 484.49578119703801 458.90175729505881 0 458.90175729505881 267.23885604642419 0 0 0 0 964.00931970818783 8.2231163009219017 0 8.2231163009219017 303.52902378459476 0 0 0 0 650.76690885674907 480.01532763906107 0 480.01532763906107 123.56424621956467 0 0 0 0 698.9793263475367 353.13603854312805 0 353.13603854312805 -261.68956336314295 0 0 0 0 669.57822864656919 358.70962395155948 0 358.70962395155948 -237.99047667885861 0 0 0 0 616.5039321234508 280.76596272057577 0 280.76596272057577 -199.58189298500884 0 0 0 0 494.68461150696385 53.888819053028783 0 53.888819053028783 -1262.4675419953073 0 0 0 0 467.83579770248616 414.3171320730853 0 414.3171320730853 -822.57065633559614 0 0 0 0 414.04774967470439 370.3907026887955 0 370.3907026887955 -240.67707846489429 0 0 0 0 374.88672992851934 272.78727469647401 0 272.78727469647401 25.818695000230036 0 0 0 0 769.39176550305274 307.81407572355874 0 307.81407572355874 -26.220538236662833 0 0 0 0 541.60287460795371 370.03499208577887 0 370.03499208577887 135.80480519315824 0 0 0 0 521.9890024028864 267.83872210001812 0 267.83872210001812 -66.676016665998759 0 0 0 0 499.99245977250393 260.09446986747844 0 260.09446986747844 -68.684422757098218 0 0 0 0 616.91894608563962 235.92608992348536 0 235.92608992348536 -254.61415649451556 0 0 0 0 617.5150444265164 209.7274044125852 0 209.7274044125852 -51.674281899815469 0 0 0 0 596.94971476995852 154.72111859683127 0 154.72111859683127 -24.970070598941675 0 0 0 0 556.45844172631041 87.765784338929734 0 87.765784338929734 87.613803269017808 0 0 0 0 653.86715367421857 130.96661818255416 0 130.96661818255416 -90.125453401377854 0 0 0 0 371.55375576906954 222.57230861543667 0 222.57230861543667 -337.28194305882607 0 0 0 0 336.5280839788611 6.247519918195394 0 6.247519918195394 -302.58294786266197 0 0 0 0 265.94793328485684 14.137423648002368 0 14.137423648002368 -577.8828242268246 0 0 0 0 572.04225467346259 154.07446162568704 0 154.07446162568704 -521.22660631879444 0 0 0 0 568.2695043257263 75.704502952623443 0 75.704502952623443 -179.95964566384419 0 0 0 0 430.97408585173253 150.98652153876264 0 150.98652153876264 -91.094275260732502 0 0 0 0 297.20944130624412 69.789575249615609 0 69.789575249615609 84.484455139851889 0 0 0 0 522.10449130767665 117.37786278557633 0 117.37786278557633 55.076713059230315 0 0 0 0 511.53543957803049 62.956785772295007 0 62.956785772295007 -93.66071582503011 0 0 0 0 522.31929363394738 151.66651010140686 0 151.66651010140686 109.84259164478499 0 0 0 0 628.2852830808406 10.909221551266683 0 10.909221551266683 57.679882251195522 0 0 0 0 392.64584748445668 79.913389462948203 0 79.913389462948203 214.73274055725506 0 0 0 0 755.45175827361527 140.79506674970548 0 140.79506674970548 175.48603475629943 0 0 0 0 726.40545007464243 -79.716437155550921 0 -79.716437155550921 311.00214369774085 0 0 0 0 867.95204894046765 -21.826669217866311 0 -21.826669217866311 155.27497346976952 0 0 0 0 582.32970767404186 -3.1467065105862275 0 -3.1467065105862275 209.8687077873642 0 0 0 0 608.64100469622645 31.771709528287829 0 31.771709528287829 8.3396151174351871 0 0 0 0 799.07120979344472 -58.828247214091334 0 -58.828247214091334 94.282350025459948 0 0 0 0 662.65914430741395 105.66925152906424 0 105.66925152906424 105.08301154212131 0 0 0 0 640.5630938194081 -110.1276320850443 0 -110.1276320850443 350.72319533412247 0 0 0 0 1013.5994799895561 -268.00904475897596 0 -268.00904475897596 264.36790400712334 0 0 0 0 1096.8520760556858 -718.1024048059835 0 -718.1024048059835 679.23404048755083 0 0 0 0 601.37213303244062 -252.03354760794764 0 -252.03354760794764 500.96218478758328 0 0 0 0 891.83583940450626 -324.61698829273917 0 -324.61698829273917 420.26277631761423 0 0 0 0 1135.1465624673438 -647.29493884906333 0 -647.29493884906333 673.12787761304924 0 0 0 0 1312.4889363394468 -311.71982916817353 0 -311.71982916817353 211.85901299555383 0 0 0 0 779.23824878429878 -200.83628130679324 0 -200.83628130679324 380.84172258653871 0 0 0 0 1402.5175237645744 -680.11632532594115 0 -680.11632532594115 509.22293461689014 0 0 0 0 1779.9693418548923 -1002.070932932644 0 -1002.070932932644 665.54139135034711 0 0 0 0 1316.0196795280353 -1027.6650644732076 0 -1027.6650644732076 805.00584359870845 0 0 0 0 1607.4438037139043 -1062.6224805207607 0 -1062.6224805207607 776.87258063634124 0 0 0 0 1686.9876767576934 -895.71162810622332 0 -895.71162810622332 598.56491539417016 0 0 0 0 1394.5623140704593 -492.6480530362179 0 -492.6480530362179 414.80648185318068 0 0 0 0 1598.3516257591982 -926.72259918926113 0 -926.72259918926113 805.18136212719514 0 0 0 0 1555.5812516639417 -887.21167748702987 0 -887.21167748702987 652.3644031071492 0 0 0 0 1973.9454256103199 -782.74520081320065 0 -782.74520081320065 415.44429089554734 0 0 0 0 805.58202594974136 428.51605321770876 0 428.51605321770876 242.54649695063063 0 0 0 0 2309.4960459462891 113.67402743909543 0 113.67402743909543 164.5824354932501 0 0 0 0 189.58449459481926 80.668854217641638 0 80.668854217641638 385.29571761111748 0 0 0 0 411.96801645426603 284.02769898101133 0 284.02769898101133 365.1969251263663 0 0 0 0 1673.499809476205 -388.54692393732364 0 -388.54692393732364 292.47642408361116 0 0 0 0 1008.7405915527052 -52.576656648533685 0 -52.576656648533685 196.03696405111896 0 0 0 0 89.878332814492751 195.17651244681201 0 195.17651244681201 282.8011579698923 0 0 0 0 208.21275392122334 51.186955738375445 0 51.186955738375445 200.8875498950307 0 0 0 0 16.145801473092831 -8.1907420145816587 0 -8.1907420145816587 3.628783468063455 0 0 0 0 -0.29856077775184531 53.136457239138508 0 53.136457239138508 -180.4050181545872 0 0 0 0 13.972539313057496 -0.94981178416139755 0 -0.94981178416139755 7.0686756538470945 0 0 0 0 39.284724532248219 15.062434825501668 0 15.062434825501668 9.4235867876059274 0 0 0 0 33.657374585411162 23.239175598970405 0 23.239175598970405 -0.27545375902764135 0 0 0 0 4.6882255929657592 11.715504167057048 0 11.715504167057048 6.7195776277452381 0 0 0 0 37.805847588257166 16.351154025127471 0 16.351154025127471 1.9353429538319347 0 0 0 0 2.0773451255054383 11.408923330559901 0 11.408923330559901 3.4198675548446218 0 0 0 0 26.38065434436794 21.239817547609533 0 21.239817547609533 17.056056372342027 0 0 0 0 43.442544520643423 -1.8390371197913282 0 -1.8390371197913282 -19.343541423543002 0 0 0 0 18.162142209475746 -7.0467622354919541 0 -7.0467622354919541 2.9353448671829483 0 0 0 0 124.64834799262462 149.56708399479521 0 149.56708399479521 173.25055775631336 0 0 0 0 55.834421855906839 176.45610996681989 0 176.45610996681989 253.9360430210063 0 0 0 0 355.61568477848778 267.88652350829307 0 267.88652350829307 212.95240352262226 0 0 0 0 99.737439306175474 176.34002621529339 0 176.34002621529339 251.21369589265487 0 0 0 0 2.5524068963020454 1.3553054894235999 0 1.3553054894235999 1.6114362149932351 0 0 0 0 16.712567826662962 30.56196907683875 0 30.56196907683875 291.33735814239481 0 0 0 0 48.274599178359495 18.205932794160162 0 18.205932794160162 8.8154646862026311 0 0 0 0 4.3250903138707493 0.38487711763480092 0 0.38487711763480092 1.1889612092565756 0 0 0 0 134.43592191280914 240.79585806675732 0 240.79585806675732 246.71225574523578 0 0 0 0 276.84894840385095 212.30473500258904 0 212.30473500258904 135.24468349658309 0 0 0 0 151.89164825441549 160.967961326146 0 160.967961326146 119.90831848355401 0 0 0 0 51.471143115690211 202.60018039075749 0 202.60018039075749 241.51964520976981 0 0 0 0 95.517488421639428 232.45129205972626 0 232.45129205972626 395.82598840210267 0 0 0 0 204.41039287674357 61.13638737100564 0 61.13638737100564 266.7767124724669 0 0 0 0 122.02618678234285 181.11762578707021 0 181.11762578707021 128.30614245044853 0 0 0 0 102.94194325487479 103.19518641116792 0 103.19518641116792 162.67738199727273 0 0 0 0 76.715289857944299 182.49521796238508 0 182.49521796238508 56.678705910760982 0 0 0 0 81.06067413738765 121.87098480642067 0 121.87098480642067 18.252691120726013 0 0 0 0 71.604271481191972 116.46473316049287 0 116.46473316049287 89.060118067169242 0 0 0 0 58.49385368853109 197.37313573561505 0 197.37313573561505 153.68978270766456 0 0 0 0 50.561354912351817 153.83053611904234 0 153.83053611904234 208.42969590125676 0 0 0 0 56.717595595644525 170.6509917576829 0 170.6509917576829 287.67715249202138 0 0 0 0 79.770938524627127 190.16262842921742 0 190.16262842921742 244.30907251666167 0 0 0 0 187.24165785904916 130.90058206371805 0 130.90058206371805 334.17034233966751 0 0 0 0 178.82722281565657 183.81384864082793 0 183.81384864082793 247.92892522078364 0 0 0 0 86.099167289394245 137.60946870627376 0 137.60946870627376 262.90639057816043 0 0 0 0 374.99731550599608 201.11016754043948 0 201.11016754043948 189.88943450872284 0 0 0 0 153.88923541735858 108.41790325764487 0 108.41790325764487 156.33783061008126 0 0 0 0 147.68604235289968 208.28763294329019 0 208.28763294329019 186.22152136282511 0 0 0 0 303.10991535771609 172.10386915290263 0 172.10386915290263 33.103328792243701 0 0 0 0 232.09408631944098 187.01911164785724 0 187.01911164785724 -167.00961850200474 0 0 0 0 136.52806246097316 47.422749639182257 0 47.422749639182257 -53.561262617416105 0 0 0 0 118.58551396366784 193.49391367680852 0 193.49391367680852 2.0674272007618129 0 0 0 0 166.95993680058746 85.717344533603864 0 85.717344533603864 -352.34818522431306 0 0 0 0 49.316809397685574 112.93594944141387 0 112.93594944141387 -131.14920060161239 0 0 0 0 49.662278583622538 -8.4659105734244804 0 -8.4659105734244804 -348.0030838372802 0 0 0 0 154.68683917692397 56.106627581315479 0 56.106627581315479 -372.27975769809382 0 0 0 0 135.08470393054449 4.1485834131412958 0 4.1485834131412958 -355.36171438884776 0 0 0 0 321.87307836135733 108.59164521536013 0 108.59164521536013 -706.96085419620067 0 0 0 0 36.578669828420971 133.55157736925321 0 133.55157736925321 15.451884659930329 0 0 0 0 85.081092861189973 141.29824387908411 0 141.29824387908411 -127.45374546795028 0 0 0 0 101.72110770443396 133.79890341552937 0 133.79890341552937 -150.766745582152 0 0 0 0 47.28999510279391 67.771172490662138 0 67.771172490662138 -106.38753573420763 0 0 0 0 -0.51046353929268662 94.965298009011349 0 94.965298009011349 -132.6461643367802 0 0 0 0 65.899245948385214 66.708686723807659 0 66.708686723807659 -315.91449536861001 0 0 0 0 79.431990499404492 72.634014170746923 0 72.634014170746923 -276.79075605206708 0 0 0 0 41.993086924951058 85.759485423257956 0 85.759485423257956 -125.14589038038321 0 0 0 0 55.525578917760868 7.8500806558386103 0 7.8500806558386103 -373.51089366075757 0 0 0 0 -33.068913039343897 59.736542331938836 0 59.736542331938836 -256.59578794675963 0 0 0 0 -108.10208281868836 -70.656610422112863 0 -70.656610422112863 -389.09306994222788 0 0 0 0 40.544602310139453 10.296988004202831 0 10.296988004202831 -427.74705469787659 0 0 0 0 -12.425504739279859 27.336945936631309 0 27.336945936631309 -286.48479536304421 0 0 0 0 -84.047768518634257 -202.80757671343781 0 -202.80757671343781 -569.81250987953536 0 0 0 0 -61.429431929485872 -77.099055227100962 0 -77.099055227100962 -455.42996138436865 0 0 0 0 -310.19537901150761 -376.32378137899832 0 -376.32378137899832 -518.34819385833634 0 0 0 0 -430.6760349693941 -192.66142171930005 0 -192.66142171930005 -354.60840609917614 0 0 0 0 -140.83139297389425 -177.32256952910211 0 -177.32256952910211 -510.67130801146777 0 0 0 0 -216.20931426959578 -69.182089324254775 0 -69.182089324254775 -394.39078939842693 0 0 0 0 -197.34159030977753 -66.592232285733189 0 -66.592232285733189 -389.59961375943385 0 0 0 0 -31.583788223913871 -66.943029255624424 0 -66.943029255624424 -442.3287268148888 0 0 0 0 -35.927711102478497 31.517774797587947 0 31.517774797587947 -363.74285415371196 0 0 0 0 -61.15968132292619 -48.608522215635276 0 -48.608522215635276 -379.03366992057272 0 0 0 0 -72.986417021078523 -24.420050391923724 0 -24.420050391923724 -427.04950080892377 0 0 0 0 41.177189567461028 3.4873216893483914 0 3.4873216893483914 -362.66372553667679 0 0 0 0 36.39346658665454 -21.099866941885921 0 -21.099866941885921 -424.14931832534057 0 0 0 0 263.47605588633451 -375.11752845831234 0 -375.11752845831234 -1151.31990686327 0 0 0 0 822.32189360534539 324.28190420274291 0 324.28190420274291 -556.77747099380395 0 0 0 0 -575.49881537689362 -108.89299406286227 0 -108.89299406286227 699.21268054819302 0 0 0 0 -2.1974358400812548 -1.106342885636181 0 -1.106342885636181 -2.2278353744310628 0 0 0 0 263.36271985198255 -104.53186604001803 0 -104.53186604001803 -895.45059526851037 0 0 0 0 270.37031966279028 -51.247960029222668 0 -51.247960029222668 -707.9096207905568 0 0 0 0 147.41370777014527 -24.525914128016666 0 -24.525914128016666 -621.97233713297464 0 0 0 0 70.550386840302963 -148.60410762570791 0 -148.60410762570791 -599.92380743875583 0 0 0 0 64.56014369285549 -40.637592325231708 0 -40.637592325231708 -495.9547819744439 0 0 0 0 9.4845728610525839 -231.33853045539581 0 -231.33853045539581 -730.57412998298241 0 0 0 0 68.813432547380216 -103.82540277103726 0 -103.82540277103726 -599.37178507164208 0 0 0 0 -35.339813509373926 -83.661494241106993 0 -83.661494241106993 -448.76194399793894 0 0 0 0 -61.997768323257333 -462.57968678479756 0 -462.57968678479756 -818.35778906760811 0 0 0 0 5.2039838579481739 -1.8498793575022745 0 -1.8498793575022745 -0.15860929796351897 0 0 0 0 412.065502712343 925.71944194538173 0 925.71944194538173 924.35608481643976 0 0 0 0 41.190853962732945 384.89247510974383 0 384.89247510974383 1043.3986710034023 0 0 0 0 210.20464091154281 528.407224097773 0 528.407224097773 882.81646502194053 0 0 0 0 384.12908371069352 84.808335009411167 0 84.808335009411167 42.423094457872139 0 0 0 0 156.745802534424 235.64232317899223 0 235.64232317899223 440.3754327719821 0 0 0 0 122.76808211341267 92.731068694654823 0 92.731068694654823 859.50624245967265 0 0 0 0 223.5682549822377 307.05353006223595 0 307.05353006223595 420.09589618837435 0 0 0 0 19.826730337121944 7.7323024413708623 0 7.7323024413708623 3.9264672055145091 0 0 0 0 584.73174101667973 431.89598313665579 0 431.89598313665579 -212.45424358533819 0 0 0 0 189.89452081356285 207.62973665129266 0 207.62973665129266 177.73374750154107 0 0 0 0 -237.36786655709147 -15.344498700840631 0 -15.344498700840631 -364.96431451172612 0 0 0 0 -296.41164538738667 -18.21062742632239 0 -18.21062742632239 -341.85365026522777 0 0 0 0 -103.25750684604282 -13.583484272950955 0 -13.583484272950955 -370.58166372551204 0 0 0 0 28.571645575459115 -36.815280260936561 0 -36.815280260936561 -388.30443038014209 0 0 0 0 47.839146423095372 -55.776876487921982 0 -55.776876487921982 -391.93368047592594 0 0 0 0 -61.139225680264644 -10.586131488635147 0 -10.586131488635147 -382.56536572542609 0 0 0 0 -63.228562228381634 -23.771103974140715 0 -23.771103974140715 -395.12229832258527 0 0 0 0 263.947625130284 83.39708754917956 0 83.39708754917956 373.78131686246525 0 0 0 0 170.26342231660601 232.73352363862523 0 232.73352363862523 178.84085210689955 0 0 0 0 227.41474467446096 163.67666482307959 0 163.67666482307959 28.013118139650032 0 0 0 0 247.93081720957707 233.19629261996215 0 233.19629261996215 -37.790901938745264 0 0 0 0 343.64270474779187 -138.56541600849687 0 -138.56541600849687 -709.75652881210863 0 0 0 0 287.57915398853947 330.86036363467065 0 330.86036363467065 128.96166302928759 0 0 0 0 122.11160877774091 -100.86751072719085 0 -100.86751072719085 -178.66162050531739 0 0 0 0 234.60903874007636 103.7111964969572 0 103.7111964969572 66.347894680111494 0 0 0 0 261.42998313123098 34.421822813028484 0 34.421822813028484 -196.73627902130784 0 0 0 0 86.970740539720282 -40.322166944128185 0 -40.322166944128185 -75.69728424315872 0 0 0 0 223.48332561996477 7.0589738169238956 0 7.0589738169238956 -33.257984899996224 0 0 0 0 74.213943435753862 86.279353701414692 0 86.279353701414692 33.456615924198609 0 0 0 0 186.13074499723007 99.609790911163145 0 99.609790911163145 16.098718224674485 0 0 0 0 32.402747200219892 -36.63189217474519 0 -36.63189217474519 -366.78655295235058 0 0 0 0 30.936031991127535 16.062634763504207 0 16.062634763504207 -7.8956230324475634 0 0 0 0 15.919752902860637 -130.64765535600554 0 -130.64765535600554 -138.75821014016765 0 0 0 0 13.190699471731989 13.309520586720637 0 13.309520586720637 3.3322058438196187 0 0 0 0 79.191167076256534 -37.752319633187653 0 -37.752319633187653 -368.12106690163273 0 0 0 0 95.232834651047597 -62.002198886997576 0 -62.002198886997576 -368.76537693178943 0 0 0 0 72.851589800062357 -25.195820014316268 0 -25.195820014316268 -359.53736977241169 0 0 0 0 58.72245354988263 -66.045660216988836 0 -66.045660216988836 -301.98191505307477 0 0 0 0 124.24128896504408 12.224805033712983 0 12.224805033712983 -279.39054188451337 0 0 0 0 142.64941658356111 -12.592652488024214 0 -12.592652488024214 -346.51737065188354 0 0 0 0 105.5561336093815 -163.91372590669562 0 -163.91372590669562 -249.20052650502475 0 0 0 0 137.68227297044359 -97.461885212127072 0 -97.461885212127072 -208.0034622553394 0 0 0 0 149.34863329408108 -48.309494742877177 0 -48.309494742877177 -252.65455962264059 0 0 0 0 155.12269080704573 -26.008467911494108 0 -26.008467911494108 -166.55317096467115 0 0 0 0 148.62277439051832 37.981119896058317 0 37.981119896058317 -154.93156846929378 0 0 0 0 114.45077254278294 0.53360593378920385 0 0.53360593378920385 -240.46423408285045 0 0 0 0 149.19776423624717 57.599346240242994 0 57.599346240242994 -207.93243916106439 0 0 0 0 162.67409794140258 90.333016437260085 0 90.333016437260085 -199.6740424444215 0 0 0 0 118.5009477744461 67.863618275236149 0 67.863618275236149 -178.17284443579956 0 0 0 0 139.08074448806292 85.237748011505118 0 85.237748011505118 -89.387642093655813 0 0 0 0 161.78710823191068 122.62022683317082 0 122.62022683317082 -94.741152176222386 0 0 0 0 53.815688719012542 -20.802571964298295 0 -20.802571964298295 -317.1609847671607 0 0 0 0 101.56884430983337 43.837695596147569 0 43.837695596147569 -339.653558017043 0 0 0 0 103.51651936565759 -22.9319668767439 0 -22.9319668767439 -369.15489833508946 0 0 0 0 128.99998010348645 41.960990607790336 0 41.960990607790336 -287.78345650986864 0 0 0 0 91.543911824075622 -15.116379533083091 0 -15.116379533083091 -281.28345021844871 0 0 0 0 132.31853237390169 99.400837466882876 0 99.400837466882876 -220.29214707024084 0 0 0 0 92.066292646748479 54.809223699995528 0 54.809223699995528 -197.42797876024451 0 0 0 0 42.672803092485992 51.814613526313565 0 51.814613526313565 -241.63169620295957 0 0 0 0 101.3743901613052 105.01387774447721 0 105.01387774447721 -251.78756134636524 0 0 0 0 89.310036416703952 91.985621008440376 0 91.985621008440376 -94.567160077494918 0 0 0 0 117.78956300776917 108.85151314439372 0 108.85151314439372 -88.797295124233642 0 0 0 0 163.30085855527432 91.847159684747567 0 91.847159684747567 -84.221733719718941 0 0 0 0 112.8758674243727 163.28403262173333 0 163.28403262173333 -2.8773939622296894 0 0 0 0 182.44090787559981 100.69769429161079 0 100.69769429161079 43.457626184662331 0 0 0 0 139.97960479077301 135.8770292328436 0 135.8770292328436 -92.567534559793557 0 0 0 0 72.809196726113441 109.46096806865398 0 109.46096806865398 28.331752523017713 0 0 0 0 140.60724139245576 105.06995495237516 0 105.06995495237516 -24.499616829390106 0 0 0 0 154.17847549458384 155.96267165925656 0 155.96267165925656 -56.803670685604175 0 0 0 0 156.58338971377816 124.01372798638749 0 124.01372798638749 -14.508306466212161 0 0 0 0 173.26867492143538 198.55141685768746 0 198.55141685768746 38.668498707178514 0 0 0 0 140.45701044707675 167.25094036187306 0 167.25094036187306 63.371623824947164 0 0 0 0 166.64660764010478 189.49325851946344 0 189.49325851946344 56.034681713139435 0 0 0 0 137.27423334284686 83.865881336153052 0 83.865881336153052 103.86432230334685 0 0 0 0 150.21817532432033 128.68825680357077 0 128.68825680357077 -5.4508167237263478 0 0 0 0 173.13036167251994 83.097886400928019 0 83.097886400928019 88.871599616268213 0 0 0 0 166.76018425959774 106.40768697134013 0 106.40768697134013 39.877763803682683 0 0 0 0 155.05957228012267 65.837658724686662 0 65.837658724686662 30.800827339394118 0 0 0 0 182.44657067673688 54.647367793765625 0 54.647367793765625 -40.67336703966248 0 0 0 0 146.33441702183336 52.888446042336909 0 52.888446042336909 -51.392092074239372 0 0 0 0 172.13736129515746 76.193559442894184 0 76.193559442894184 -65.664228186902619 0 0 0 0 165.08080914359743 68.563625508128553 0 68.563625508128553 -117.67626395061961 0 0 0 0 139.80782225669827 -18.0966031043572 0 -18.0966031043572 -161.19957443141129 0 0 0 0 155.97501082100644 15.395966985900259 0 15.395966985900259 -125.87350784046976 0 0 0 0 138.97756545781158 9.0771024194341408 0 9.0771024194341408 -77.397303987336954 0 0 0 0 132.33356259680295 -23.796370904646665 0 -23.796370904646665 -83.30437896262265 0 0 0 0 154.32534302627028 57.758281762860975 0 57.758281762860975 -30.449320360178717 0 0 0 0 117.39316638495075 -79.356885249180323 0 -79.356885249180323 -161.56317499417128 0 0 0 0 119.42789514341712 -3.7561767638105721 0 -3.7561767638105721 -107.51084708922281 0 0 0 0 116.62572400877356 0.22231230992015583 0 0.22231230992015583 -9.3771078648225945 0 0 0 0 95.998956030008969 -22.15960527531567 0 -22.15960527531567 -13.29957777805893 0 0 0 0 76.481863816210534 -43.069602182033123 0 -43.069602182033123 -166.20803196531779 0 0 0 0 80.940442280116258 -60.435589872065975 0 -60.435589872065975 -115.56639428952298 0 0 0 0 114.54206952617096 -91.274000313632769 0 -91.274000313632769 -190.15794658142568 0 0 0 0 236.13054325809935 56.523435985031028 0 56.523435985031028 -26.916736436972087 0 0 0 0 158.41520841188321 26.187552376507483 0 26.187552376507483 0.010423568814076134 0 0 0 0 144.59803376105265 14.233777207462026 0 14.233777207462026 -16.557820684685794 0 0 0 0 178.86391092839767 33.862825746774433 0 33.862825746774433 -58.461683975859614 0 0 0 0 93.98203830239072 -18.433546774925617 0 -18.433546774925617 -61.010606568282128 0 0 0 0 163.2879579817818 10.874170027924265 0 10.874170027924265 -91.891093611508268 0 0 0 0 146.64796839123301 40.687009958873205 0 40.687009958873205 -19.252256887286421 0 0 0 0 162.90231159940595 31.176887290238938 0 31.176887290238938 -15.205897928848572 0 0 0 0 227.10586444911314 89.430846643386758 0 89.430846643386758 -11.449246658459799 0 0 0 0 254.68836774403462 114.51415802321117 0 114.51415802321117 18.615167715403459 0 0 0 0 209.88756420571008 65.661524113091218 0 65.661524113091218 34.140371650541056 0 0 0 0 226.21194774753531 68.901328351189932 0 68.901328351189932 -6.1916458705336481 0 0 0 0 215.7268668571669 95.040393439444188 0 95.040393439444188 91.681347549862039 0 0 0 0 238.16987218588474 39.434225409142527 0 39.434225409142527 32.106784362296821 0 0 0 0 240.41128319291602 133.79870740753836 0 133.79870740753836 68.419748641146725 0 0 0 0 293.79366063082489 135.47758607140355 0 135.47758607140355 25.224330902234215 0 0 0 0 287.50019303589943 83.827219813091233 0 83.827219813091233 21.705167721157522 0 0 0 0 1.8808497100682189 -1.7043848288302001 0 -1.7043848288302001 -0.37901833572562182 0 0 0 0 -39.511446070740931 -47.299586709411187 0 -47.299586709411187 -16.479923519022122 0 0 0 0 216.0064595661388 98.002709703212076 0 98.002709703212076 36.526126986819691 0 0 0 0 227.39587884087086 77.126618356437234 0 77.126618356437234 69.300803712612833 0 0 0 0 176.68299748240861 81.719856874197319 0 81.719856874197319 41.79519673158029 0 0 0 0 230.70885675319005 68.664817074001803 0 68.664817074001803 32.081419188967629 0 0 0 0 307.2673797247553 114.6466209283476 0 114.6466209283476 26.893783174663895 0 0 0 0 173.19805031729629 82.944716989418339 0 82.944716989418339 63.173838637690096 0 0 0 0 237.210523900314 99.109072409710279 0 99.109072409710279 33.553995755069081 0 0 0 0 233.64634472153193 107.34440605029306 0 107.34440605029306 71.886718224744982 0 0 0 0 -76.090939904159313 10.677759898250315 0 10.677759898250315 6.1893577414812171 0 0 0 0 0.58688973712145298 -0.48269381560197644 0 -0.48269381560197644 -0.089038304934817347 0 0 0 0 -87.523748831534249 -47.896974382222993 0 -47.896974382222993 -3.1579307671709103 0 0 0 0 -16.903442839575291 -17.333332070950974 0 -17.333332070950974 -29.995595645306821 0 0 0 0 -39.528693088956061 -59.334641569102359 0 -59.334641569102359 -30.852259211804267 0 0 0 0 5.5609853486254792 -16.01418147642093 0 -16.01418147642093 -9.6515413358025857 0 0 0 0 32.889245112965 -16.060169101237079 0 -16.060169101237079 -1.5267323712669167 0 0 0 0 124.56521220257855 -14.248196039142385 0 -14.248196039142385 -19.794196648699653 0 0 0 0 109.26339988804102 -9.2167676886190293 0 -9.2167676886190293 33.97256758140793 0 0 0 0 279.56100863233223 34.236789065715925 0 34.236789065715925 28.375194644679141 0 0 0 0 102.88582651772595 42.835051884937002 0 42.835051884937002 65.872256979809663 0 0 0 0 91.331850586997462 175.18143695300842 0 175.18143695300842 177.01017162226162 0 0 0 0 -0.22050468608438223 -0.31368534502566092 0 -0.31368534502566092 0.73875093484211796 0 0 0 0 101.58834610134363 63.662151722419821 0 63.662151722419821 37.869387613840445 0 0 0 0 91.467514871677849 157.56238810662808 0 157.56238810662808 152.67456008330009 0 0 0 0 50.909518215747084 46.355683582719394 0 46.355683582719394 32.863547354493221 0 0 0 0 155.06069087783544 49.971304368618803 0 49.971304368618803 3.3969145172577555 0 0 0 0 105.20433732737729 45.595169310353469 0 45.595169310353469 -5.8087471464259579 0 0 0 0 98.600263989850646 25.211260752575072 0 25.211260752575072 -7.0706115820762534 0 0 0 0 84.996162832874688 35.273195508297704 0 35.273195508297704 -10.407658985199532 0 0 0 0 75.97990288825531 5.0797350997513604 0 5.0797350997513604 0.21948010934556805 0 0 0 0 129.02766392986814 51.903223831434389 0 51.903223831434389 -5.7870018891508153 0 0 0 0 87.62036748311948 35.245070686577037 0 35.245070686577037 -12.008520383760242 0 0 0 0 80.572827422060072 2.8092170520308173 0 2.8092170520308173 -24.535770979515291 0 0 0 0 17.858225444782875 -9.9035230511929058 0 -9.9035230511929058 12.127071411011457 0 0 0 0 -18.969679593130422 -9.2871872856302105 0 -9.2871872856302105 8.0691295463639108 0 0 0 0 9.8151366006836014 -13.754996653765716 0 -13.754996653765716 -10.275755027112439 0 0 0 0 91.153160462694359 29.216989881841528 0 29.216989881841528 -8.9438739245124452 0 0 0 0 93.897855139133753 10.169073184769331 0 10.169073184769331 -22.460274815214689 0 0 0 0 70.463395230355673 19.008448717073861 0 19.008448717073861 -12.942708588971982 0 0 0 0 38.367935640359065 12.343712372117118 0 12.343712372117118 -3.1144451838435998 0 0 0 0 42.052783533596084 15.757188373087558 0 15.757188373087558 -0.26420523629417403 0 0 0 0 -15.773681583486905 16.161625810171088 0 16.161625810171088 27.925752013791225 0 0 0 0 1.4246678780696271 6.5779308820604285 0 6.5779308820604285 2.3980639119155782 0 0 0 0 -3.6326061672673404 -0.69765878432704653 0 -0.69765878432704653 0.00130190449617551 0 0 0 0 27.464639068770339 -32.611583233115653 0 -32.611583233115653 -36.486376530111102 0 0 0 0 32.971358424866992 -2.9352838078135335 0 -2.9352838078135335 -10.013971760106266 0 0 0 0 15.125844931346364 10.064544515056696 0 10.064544515056696 79.854697967411994 0 0 0 0 48.241866127529647 81.302913846594947 0 81.302913846594947 75.865555026060974 0 0 0 0 3.5692810220203341 5.3502471354825758 0 5.3502471354825758 1.2129712433062529 0 0 0 0 83.763329652068933 -13.260021814927768 0 -13.260021814927768 2.764871890879931 0 0 0 0 85.676358655837248 80.04776800790205 0 80.04776800790205 37.507421110378345 0 0 0 0 66.093427334606531 38.270381751270179 0 38.270381751270179 -46.402118601927214 0 0 0 0 35.374922568416082 -1.3453389161266784 0 -1.3453389161266784 -8.7519642431326616 0 0 0 0 120.50627931262716 -33.922993402689144 0 -33.922993402689144 -81.319847992825089 0 0 0 0 51.727402612745209 -4.1976207226112052 0 -4.1976207226112052 -32.454573528106948 0 0 0 0 17.380030928761698 3.632054513496314 0 3.632054513496314 -15.091782080408052 0 0 0 0 37.616572407336776 1.1091551627665552 0 1.1091551627665552 -8.8310197945491531 0 0 0 0 17.876176734131604 -19.438131187793644 0 -19.438131187793644 -14.812957486536106 0 0 0 0 -10.234737784965546 -63.599683431330902 0 -63.599683431330902 51.44607144478573 0 0 0 0 -82.367693513151607 13.426501275331475 0 13.426501275331475 20.808268906742114 0 0 0 0 17.976124321488896 -28.176651140985996 0 -28.176651140985996 24.769408109392145 0 0 0 0 58.20114169739827 48.865171735650449 0 48.865171735650449 35.599547933729241 0 0 0 0 1.0972269091466842 -0.98820367156258015 0 -0.98820367156258015 -0.88433619661798391 0 0 0 0 114.39790384526714 1.5836664068415303 0 1.5836664068415303 -26.897243498530941 0 0 0 0 2.55143190645488 5.9658318343577719 0 5.9658318343577719 -4.2884469061527195 0 0 0 0 33.0919820133131 16.337118449425589 0 16.337118449425589 0.92382128394888241 0 0 0 0 35.333352276509686 18.216695046052081 0 18.216695046052081 -52.058726095307804 0 0 0 0 27.037162355525652 55.612302445883302 0 55.612302445883302 2.7568917407418212 0 0 0 0 84.380826613858517 -2.3815008614508315 0 -2.3815008614508315 -40.58679948218662 0 0 0 0 30.51131185243986 -4.2819500155717805 0 -4.2819500155717805 -2.2931002591938392 0 0 0 0 94.092536276453757 -84.654077161623235 0 -84.654077161623235 21.357697091405612 0 0 0 0 72.213683685855358 -25.414036998694478 0 -25.414036998694478 -11.859716617486583 0 0 0 0 -9.7698803948442219 -30.931011987976092 0 -30.931011987976092 17.896607009688751 0 0 0 0 6.4896627306879964 -19.840986435348981 0 -19.840986435348981 19.360818221241971 0 0 0 0 8.0215523018275121 -9.3917330837711575 0 -9.3917330837711575 -6.2213270752119634 0 0 0 0 -20.331441182352137 0.74285642283014397 0 0.74285642283014397 -2.6581211551794581 0 0 0 0 6.8455203610635351 -9.7185458556814694 0 -9.7185458556814694 -4.193753262555747 0 0 0 0 33.143285918828042 -8.7934578768891072 0 -8.7934578768891072 -13.249028219870524 0 0 0 0 -5.363777039834531 16.326443948701296 0 16.326443948701296 11.827927582850691 0 0 0 0 -0.49562483433146554 -1.3692725672819535 0 -1.3692725672819535 0.07213404874549606 0 0 0 0 0.7350409015774062 0.065450565886749246 0 0.065450565886749246 -0.25807389964856198 0 0 0 0 25.870882743416587 -47.39525967331511 0 -47.39525967331511 53.228876408285259 0 0 0 0 -52.727070884837303 30.5517797611476 0 30.5517797611476 41.36501743498448 0 0 0 0 278.75789767567767 -21.286828100838989 0 -21.286828100838989 -13.519355524157362 0 0 0 0 201.92758825381316 175.50630697152155 0 175.50630697152155 38.913037294010735 0 0 0 0 213.79976102945511 -82.719602768449533 0 -82.719602768449533 66.244545211070829 0 0 0 0 1.2289277276491362 0.44903309082054932 0 0.44903309082054932 0.0025886808180681647 0 0 0 0 -1.7942172652692534 -69.852260674594064 0 -69.852260674594064 20.407615460227149 0 0 0 0 37.368897216569167 -43.683014975472602 0 -43.683014975472602 -87.119180260768857 0 0 0 0 -2.4757665356155485 -1.5006608038843297 0 -1.5006608038843297 1.4412837924418227 0 0 0 0 -63.468172310487716 -3.2218658375568943 0 -3.2218658375568943 1.4141643117526996 0 0 0 0 27.959142572581186 6.5183674964296268 0 6.5183674964296268 -1.4002725759925017 0 0 0 0 2.3783997600831412 -1.3112716750502393 0 -1.3112716750502393 -0.1296290498571214 0 0 0 0 13.302533653724595 -2.0151121319793504 0 -2.0151121319793504 -1.8014674011887761 0 0 0 0 6.1332506003082017 -8.5023785956256379 0 -8.5023785956256379 0.18400067746342103 0 0 0 0 -1.7111757410748396 -7.8715837138334166 0 -7.8715837138334166 -3.7774581662471292 0 0 0 0 11.866360543825579 -7.2563009603079109 0 -7.2563009603079109 -1.6148052790333389 0 0 0 0 4.9053260846703779 -3.2412428402838582 0 -3.2412428402838582 -33.588656626635867 0 0 0 0 1.830048467237944 0.017303092138462262 0 0.017303092138462262 -0.13686540106402562 0 0 0 0 -31.387100800217013 -8.915919143701279 0 -8.915919143701279 48.712058246875856 0 0 0 0 50.971599832118955 -11.109847757037201 0 -11.109847757037201 0.16935406599583425 0 0 0 0 208.70962230750592 121.49535106806715 0 121.49535106806715 106.05248751920115 0 0 0 0 200.12777753639966 69.701376737024304 0 69.701376737024304 35.613875323712065 0 0 0 0 -7.6949172154272674 12.193730971401811 0 12.193730971401811 96.412675611038509 0 0 0 0 1.2715617172715383 0.70882065321569598 0 0.70882065321569598 0.068478474046408222 0 0 0 0 40.203228439262602 42.102675072340077 0 42.102675072340077 20.261683506018279 0 0 0 0 36.003035582165467 -29.086675927145688 0 -29.086675927145688 42.5502675357492 0 0 0 0 54.786519199551549 -19.354920902337227 0 -19.354920902337227 0.72428867069377589 0 0 0 0 -28.742024853418116 17.441521091951966 0 17.441521091951966 33.129007335625843 0 0 0 0 186.27413219254231 -97.69834159832574 0 -97.69834159832574 39.807252773099407 0 0 0 0 4.2722880365327001 -13.688106061645016 0 -13.688106061645016 0.14863568818019607 0 0 0 0 30.97755921028147 -12.304600032588187 0 -12.304600032588187 -1.872979692131904 0 0 0 0 18.746035773277981 -0.2920917640898022 0 -0.2920917640898022 -0.22227818599853322 0 0 0 0 2.1817836119164156 -0.11742046405069573 0 -0.11742046405069573 -0.24425395645001119 0 0 0 0 15.762987152011192 -0.59438365342224397 0 -0.59438365342224397 -0.8277914708521521 0 0 0 0 32.372395232843701 -1.0326168291977638 0 -1.0326168291977638 -2.0145040194454396 0 0 0 0 9.0294816074892879 -1.5902450041412237 0 -1.5902450041412237 -3.8752659946379993 0 0 0 0 9.6696970929423287 -0.88254838916759581 0 -0.88254838916759581 -0.21590230303272262 0 0 0 0 26.0742923564394 -5.2130515941464068 0 -5.2130515941464068 2.1240503028663511 0 0 0 0 23.154693458869588 27.016341672029355 0 27.016341672029355 26.172794818166928 0 0 0 0 44.328071009134874 7.1744812971291765 0 7.1744812971291765 -19.373509209195262 0 0 0 0 35.832225399193703 3.0258318590061322 0 3.0258318590061322 -0.16764293815566589 0 0 0 0 23.469784099306196 1.2976383886181893 0 1.2976383886181893 -0.19516573094287781 0 0 0 0 30.554560689197388 5.8522438620853237 0 5.8522438620853237 -16.980954402299602 0 0 0 0 1.0090029998100363 1.1210289156290365 0 1.1210289156290365 14.836256964879652 0 0 0 0 17.206305808240586 2.215409234007268 0 2.215409234007268 -0.50208564270773814 0 0 0 0 61.601353358768392 38.621616315521017 0 38.621616315521017 1.4103248974230702 0 0 0 0 34.981104702746961 3.4688835188046596 0 3.4688835188046596 0.85034565191290312 0 0 0 0 5.1619093691133031 0.99114454493323478 0 0.99114454493323478 0.95154556639141452 0 0 0 0 35.109539629425853 2.99714381615604 0 2.99714381615604 2.2103712445480141 0 0 0 0 18.056960721332871 11.576966848358097 0 11.576966848358097 -11.843246654048585 0 0 0 0 55.079529411159456 12.592399324236794 0 12.592399324236794 -17.966618976251993 0 0 0 0 43.722645175803336 -10.406966137866675 0 -10.406966137866675 -18.817919555010349 0 0 0 0 31.888127634185366 -11.579462761137165 0 -11.579462761137165 -18.855554764742237 0 0 0 0 68.442180656613345 -40.736587930177222 0 -40.736587930177222 4.3944489673976932 0 0 0 0 -33.271705030238081 31.82379680220734 0 31.82379680220734 -1.4713695053440006 0 0 0 0 103.72203677427024 69.898040298829073 0 69.898040298829073 -5.8356357379816757 0 0 0 0 68.613928813865641 -4.7689825322070334 0 -4.7689825322070334 -13.708360507590669 0 0 0 0 0.24668112083000437 0.9426390490577603 0 0.9426390490577603 1.0526918753028367 0 0 0 0 381.65996350345085 -129.20380354432012 0 -129.20380354432012 82.250706546588106 0 0 0 0 413.50932523347001 -6.6580280278125912 0 -6.6580280278125912 -69.603947239539707 0 0 0 0 175.82222409342648 197.31026606838697 0 197.31026606838697 -136.32160725107087 0 0 0 0 459.43948084424483 -174.14233484940439 0 -174.14233484940439 -226.019536439033 0 0 0 0 987.0967504727596 -246.08040009939012 0 -246.08040009939012 -126.09828606734135 0 0 0 0 474.872361695172 -94.170729978062681 0 -94.170729978062681 95.491004844625309 0 0 0 0 1227.1010440762038 -249.31164326081412 0 -249.31164326081412 -141.08996561658103 0 0 0 0 35.189582698862068 2.3413814110998032 0 2.3413814110998032 2.9241321794055466 0 0 0 0 2.274333096473665 6.8750390201555831 0 6.8750390201555831 3.1441084826617574 0 0 0 0 -82.514366181552759 -43.957451265852654 0 -43.957451265852654 248.93079375286032 0 0 0 0 35.712801701767603 2.5185472239045481 0 2.5185472239045481 1.5717068813682431 0 0 0 0 35.753018722680281 2.7682753788375578 0 2.7682753788375578 0.29626023956109293 0 0 0 0 21.302491342939902 -4.8986709075979817 0 -4.8986709075979817 -23.965456217974847 0 0 0 0 -25.470588528900407 -40.580435774682506 0 -40.580435774682506 -48.71809733175796 0 0 0 0 54.489693176466972 -2.147367134424826 0 -2.147367134424826 -85.163859320510198 0 0 0 0 84.453726405103225 35.287254898136396 0 35.287254898136396 -50.95377486095267 0 0 0 0 63.64817040116759 -372.37661871970471 0 -372.37661871970471 251.41217995659844 0 0 0 0 -247.30327306738855 154.27819375864851 0 154.27819375864851 160.40617826284415 0 0 0 0 4.8888103089398065 0.55745669947913257 0 0.55745669947913257 -0.91917126776564595 0 0 0 0 5.2064703908789625 0.45943261238172717 0 0.45943261238172717 1.0129384519703157 0 0 0 0 381.79215214989381 -394.78958877508995 0 -394.78958877508995 639.23382338836279 0 0 0 0 589.75053418484458 305.32554484072489 0 305.32554484072489 -49.979968668322556 0 0 0 0 857.40025230703759 -656.01097852098042 0 -656.01097852098042 281.54948521382528 0 0 0 0 1464.8045169294719 -381.28456011726809 0 -381.28456011726809 -86.960375848955778 0 0 0 0 671.15825793112163 -193.02341743611146 0 -193.02341743611146 0.03838993781476506 0 0 0 0 126.68233316834085 -126.92695025628186 0 -126.92695025628186 158.37851751477436 0 0 0 0 -215.19244090584107 107.21732481495897 0 107.21732481495897 76.356267995333369 0 0 0 0 156.23293041753641 -139.10594525958845 0 -139.10594525958845 157.61559729165765 0 0 0 0 755.41173727282876 -287.68753089468839 0 -287.68753089468839 89.197618784196209 0 0 0 0 142.35689759795787 -146.05478538990391 0 -146.05478538990391 157.09561529835054 0 0 0 0 2700.8694966993062 -723.85599672808826 0 -723.85599672808826 171.03640434400626 0 0 0 0 1462.7783174667525 -306.82864489298436 0 -306.82864489298436 299.00736423280216 0 0 0 0 1948.2088790344715 -332.58686283673092 0 -332.58686283673092 1.4175518082145451 0 0 0 0 1459.672622983926 -416.34606019268284 0 -416.34606019268284 275.39657543203288 0 0 0 0 1892.2165796890185 -460.3176334336344 0 -460.3176334336344 259.98297885821512 0 0 0 0 1894.2375518421613 -442.91018146424199 0 -442.91018146424199 309.43147684628229 0 0 0 0 1857.6094687297989 -749.66290171826074 0 -749.66290171826074 67.22223566762932 0 0 0 0 1851.5700537600642 -477.90239083253527 0 -477.90239083253527 -8.5489520039985791 0 0 0 0 1138.128369978891 -592.08646748864419 0 -592.08646748864419 230.06087470961484 0 0 0 0 1630.3118399933737 -594.17809528872442 0 -594.17809528872442 0.52311457367420644 0 0 0 0 1206.6369215948798 -408.8466188915412 0 -408.8466188915412 -24.359949957424078 0 0 0 0 950.34093442875019 -410.71481864779497 0 -410.71481864779497 66.167983381559281 0 0 0 0 1557.0241476397277 -849.84405521838653 0 -849.84405521838653 187.83399749406766 0 0 0 0 1296.2102987415492 -968.74290083554251 0 -968.74290083554251 378.90527762221188 0 0 0 0 873.3818274163641 -488.03305765301212 0 -488.03305765301212 96.64746390340531 0 0 0 0 1465.6365220937732 -766.03649408883598 0 -766.03649408883598 222.74919593273853 0 0 0 0 334.5247825855331 -302.20438696289943 0 -302.20438696289943 417.2568397396833 0 0 0 0 131.61043086013524 72.563909747228081 0 72.563909747228081 175.67269791367016 0 0 0 0 901.73724359404878 -412.26150685320101 0 -412.26150685320101 119.64750497134588 0 0 0 0 607.9751914698079 -377.02605783524353 0 -377.02605783524353 206.74740691461454 0 0 0 0 606.99739830757619 -173.92656246022312 0 -173.92656246022312 11.46822332516922 0 0 0 0 25.544592381542316 -72.53926423885332 0 -72.53926423885332 170.11903281594232 0 0 0 0 143.10055550246034 7.1600874890755222 0 7.1600874890755222 79.778026249879304 0 0 0 0 1.0707692065152514 -75.368825320845247 0 -75.368825320845247 80.850832183495186 0 0 0 0 181.16161349028698 -160.41056856860905 0 -160.41056856860905 244.22202467752413 0 0 0 0 6.5883563733459782 10.048552233953444 0 10.048552233953444 0.23119233577490395 0 0 0 0 182.52596469107084 12.039538066052501 0 12.039538066052501 -35.908690786535544 0 0 0 0 41.069026313809445 31.38587494689466 0 31.38587494689466 28.824729834174377 0 0 0 0 -217.32894601195585 5.4765522864397553 0 5.4765522864397553 171.73909982376927 0 0 0 0 -83.703693766641663 178.9185944778169 0 178.9185944778169 84.809948063340471 0 0 0 0 0.26381030786296833 0.41168221225109392 0 0.41168221225109392 0.44522232265174022 0 0 0 0 61.87969146555406 -26.20527766641618 0 -26.20527766641618 28.036410040499391 0 0 0 0 69.925430505769327 28.825894226498349 0 28.825894226498349 -43.613250846499795 0 0 0 0 109.13138276140671 -43.509668761986632 0 -43.509668761986632 -25.811178133439171 0 0 0 0 125.4777123619715 120.89980505946784 0 120.89980505946784 -85.735431741500634 0 0 0 0 62.807669237372465 59.057745340027395 0 59.057745340027395 -127.88948317049426 0 0 0 0 -1.0191332870163023 -97.147702666429268 0 -97.147702666429268 -77.160163890634067 0 0 0 0 184.40362542757066 47.210530995758518 0 47.210530995758518 81.583930588239355 0 0 0 0 72.622370671306271 94.558575598423431 0 94.558575598423431 -8.9276651832560674 0 0 0 0 6.2687889588996768 140.46576086333334 0 140.46576086333334 -20.829134725759559 0 0 0 0 14.215730886149686 62.948402711432664 0 62.948402711432664 52.499214386194126 0 0 0 0 156.30610478442395 3.0976546647431178 0 3.0976546647431178 13.045678777153626 0 0 0 0 37.379529497651674 52.106829582268574 0 52.106829582268574 -137.84108480746454 0 0 0 0 92.363075212706462 129.08157070185598 0 129.08157070185598 -51.524971563743293 0 0 0 0 -39.827887498060591 103.22526915401272 0 103.22526915401272 -14.493410919341841 0 0 0 0 33.846692686347524 31.434369028485889 0 31.434369028485889 -5.860624996378192 0 0 0 0 47.939157213077124 60.669410133327347 0 60.669410133327347 54.371195013751276 0 0 0 0 6.6747981465681292 28.641676628177976 0 28.641676628177976 7.6127735059454196 0 0 0 0 33.465778501382601 -3.1614463708630822 0 -3.1614463708630822 2.3868731214601269 0 0 0 0 39.789567492975038 31.64113315687564 0 31.64113315687564 33.781775920730752 0 0 0 0 59.182074904761976 6.6554411032491316 0 6.6554411032491316 -2.4751396048600327 0 0 0 0 -142.88293237279868 -20.942945310042433 0 -20.942945310042433 80.006733485520272 0 0 0 0 -129.78107835145784 227.87585517495859 0 227.87585517495859 199.26344976626137 0 0 0 0 -216.2932643371314 -37.567872462574769 0 -37.567872462574769 381.23400569310388 0 0 0 0 -28.794582147449546 -597.49231539550863 0 -597.49231539550863 1103.8383622934684 0 0 0 0 295.13814533031109 21.544297866595912 0 21.544297866595912 -99.851005342872668 0 0 0 0 234.37225109185965 -129.60732903483176 0 -129.60732903483176 -260.50326649565159 0 0 0 0 38.305085639309254 -105.45538201315321 0 -105.45538201315321 5.9064864238894188 0 0 0 0 24.429881623085748 -9.1436616041666525 0 -9.1436616041666525 2.4405358764315586 0 0 0 0 2070.600441600589 -889.80870055421053 0 -889.80870055421053 1032.3617449444655 0 0 0 0 2088.7370294242864 -543.43230976257746 0 -543.43230976257746 910.08247543874722 0 0 0 0 2775.6509218741048 -835.81002890773152 0 -835.81002890773152 921.38094178187703 0 0 0 0 732.11402464320417 -1149.8381909573231 0 -1149.8381909573231 1224.2794325364166 0 0 0 0 10.254985249675713 -4.7552697688211438 0 -4.7552697688211438 1.9710138314016472 0 0 0 0 741.19804154342273 117.16778364178435 0 117.16778364178435 -58.977635550621812 0 0 0 0 2975.9122636107932 -1112.9498902418754 0 -1112.9498902418754 499.64475111529032 0 0 0 0 8.0803557557637191 -3.7707206742260411 0 -3.7707206742260411 2.1169669547008478 0 0 0 0 2699.6304853414767 -1109.9509362815086 0 -1109.9509362815086 123.22650883965025 0 0 0 0 347.70089697639924 -502.71423518056758 0 -502.71423518056758 139.96370191041569 0 0 0 0 2061.4254713404298 -947.00133872146091 0 -947.00133872146091 685.53732182868998 0 0 0 0 1847.9967716870597 -827.16522645512055 0 -827.16522645512055 1024.1254264209936 0 0 0 0 1885.119005632996 -955.39120226820228 0 -955.39120226820228 807.17021363591016 0 0 0 0 1696.2576145186904 -947.7523256406796 0 -947.7523256406796 956.55202151319452 0 0 0 0 1865.545625907529 -1000.2822522422116 0 -1000.2822522422116 767.40350752558959 0 0 0 0 1714.6030772431332 -969.06951606054463 0 -969.06951606054463 778.17298545878452 0 0 0 0 1716.2656325525604 -904.93444345775276 0 -904.93444345775276 817.81612100986968 0 0 0 0 2041.441827265633 -810.6679316092949 0 -810.6679316092949 832.1375043780339 0 0 0 0 2152.5680978792211 -952.97070453152708 0 -952.97070453152708 688.16163477638247 0 0 0 0 2167.6114144342591 -756.4891377688175 0 -756.4891377688175 617.48231208238326 0 0 0 0 1621.9617900843332 -681.00360057683781 0 -681.00360057683781 566.75916888052711 0 0 0 0 2.2885913886062141 -4.7993551430745356 0 -4.7993551430745356 1.648817401920124 0 0 0 0 3526.326401801678 -794.54037189976475 0 -794.54037189976475 34.822519244348882 0 0 0 0 2502.0104801434063 -1141.4500968990653 0 -1141.4500968990653 626.89312589387669 0 0 0 0 2387.1238026735373 -881.03133008273255 0 -881.03133008273255 260.99290293731883 0 0 0 0 2164.9418537065503 -895.86818270898152 0 -895.86818270898152 313.28981812947899 0 0 0 0 2203.9615227556205 -1028.3200620154532 0 -1028.3200620154532 2.4409387364722761 0 0 0 0 2239.9925815169117 -730.3370102770192 0 -730.3370102770192 573.62566059832488 0 0 0 0 2317.1378965125223 -983.33688028662755 0 -983.33688028662755 216.38347140867995 0 0 0 0 1602.3190672848141 -993.986384811211 0 -993.986384811211 534.68960360255824 0 0 0 0 1799.6072677033517 -815.75897172223949 0 -815.75897172223949 32.738808647392446 0 0 0 0 1861.2485871621029 -1002.9534349040468 0 -1002.9534349040468 291.17160120238862 0 0 0 0 1552.3269203323944 -868.33413498179016 0 -868.33413498179016 115.11982617778958 0 0 0 0 1992.8404607137491 -877.10547217690919 0 -877.10547217690919 -84.993569879580718 0 0 0 0 2111.1783189633861 -1095.862404898483 0 -1095.862404898483 41.366762157422897 0 0 0 0 2181.3389858765586 -1079.0430870650098 0 -1079.0430870650098 -39.87236989199539 0 0 0 0 2327.0003522557854 -1257.3736619171548 0 -1257.3736619171548 76.697156533224643 0 0 0 0 1890.8357512534712 -1008.4055264847029 0 -1008.4055264847029 -30.987934878444833 0 0 0 0 2280.2535339572642 -966.63976811024099 0 -966.63976811024099 -58.280706037111514 0 0 0 0 2236.124507689543 -973.46314065314095 0 -973.46314065314095 16.574141462325429 0 0 0 0 2738.0205023330636 -673.93822827084318 0 -673.93822827084318 43.946345914972767 0 0 0 0 2599.2562081663491 -1084.4536010582092 0 -1084.4536010582092 266.78987895193131 0 0 0 0 2610.1872421209991 -1181.1725178525371 0 -1181.1725178525371 131.02994488741268 0 0 0 0 1640.4350450209458 -1289.5278199347219 0 -1289.5278199347219 322.87560342422182 0 0 0 0 2752.6282936871576 -1801.921857667257 0 -1801.921857667257 552.32987084468687 0 0 0 0 2050.365271982213 -2484.4373870391933 0 -2484.4373870391933 2508.7042632392759 0 0 0 0 269.38220294425264 -57.301333096956739 0 -57.301333096956739 -367.45158330803946 0 0 0 0 14.782989731145392 -3.4999971024924221 0 -3.4999971024924221 0.33642592217068695 0 0 0 0 821.86937499410124 -1363.9683430659204 0 -1363.9683430659204 1689.7449667291098 0 0 0 0 4209.0174212865531 -2565.6147954785647 0 -2565.6147954785647 -0.93118037538927123 0 0 0 0 2911.344412026112 -449.98973903358376 0 -449.98973903358376 398.97654733722135 0 0 0 0 4107.6401819144958 -1767.2127273505168 0 -1767.2127273505168 440.61133956584922 0 0 0 0 54.797317125634436 -2.9609741450246498 0 -2.9609741450246498 -4.0717233325485136 0 0 0 0 29.5458501291963 0.18267786502815397 0 0.18267786502815397 -0.25252669121872384 0 0 0 0 -105.61087746848352 9.9095299066676876 0 9.9095299066676876 -0.9532495924094454 0 0 0 0 613.99285060970578 -211.63476974314858 0 -211.63476974314858 -0.16236212077114942 0 0 0 0 205.8779593557847 -412.35297187402165 0 -412.35297187402165 868.96313831171983 0 0 0 0 35.657269212873814 -5.7062295533578222 0 -5.7062295533578222 -4.5000314521762821 0 0 0 0 1634.763280126831 -1143.9366912415742 0 -1143.9366912415742 327.2213349783101 0 0 0 0 234.32266302067728 -347.83197442665221 0 -347.83197442665221 501.10004940848751 0 0 0 0 -613.03911269073296 -180.44487521418804 0 -180.44487521418804 439.25788825774498 0 0 0 0 13.385664114006167 -15.739353238191683 0 -15.739353238191683 -15.625787295475963 0 0 0 0 0.36378005956946868 -13.340392845391762 0 -13.340392845391762 -0.69571980137495371 0 0 0 0 1579.0193410698848 -641.96540081693831 0 -641.96540081693831 120.95069975309761 0 0 0 0 -472.7783252599047 134.8019056247511 0 134.8019056247511 41.037063310419711 0 0 0 0 1243.5650443887425 -298.51059740289986 0 -298.51059740289986 -144.72076666374875 0 0 0 0 1556.2320466008969 -1118.2818759757658 0 -1118.2818759757658 327.40393496397695 0 0 0 0 2156.7992861916937 -486.67923549296739 0 -486.67923549296739 -12.28566599762388 0 0 0 0 2055.735112657072 -1096.3269367558535 0 -1096.3269367558535 116.85029196783049 0 0 0 0 817.7976471432703 27.613577956152419 0 27.613577956152419 0.66707308849596503 0 0 0 0 553.33611971832579 -388.17268528967099 0 -388.17268528967099 -167.70137306993411 0 0 0 0 1079.7245080609355 212.84611266761391 0 212.84611266761391 229.74701542838716 0 0 0 0 1264.4591723439662 -0.084861842431557477 0 -0.084861842431557477 -520.78740437463375 0 0 0 0 1573.8847075773519 14.49778590410267 0 14.49778590410267 -521.75441742815133 0 0 0 0 383.88245136954356 -105.73056142963151 0 -105.73056142963151 -186.58120635260047 0 0 0 0 668.49618922796799 -36.987504058842887 0 -36.987504058842887 -862.42468186084852 0 0 0 0 602.94880423206268 612.92633205726315 0 612.92633205726315 555.46920015579781 0 0 0 0 16.492788742948107 8.6116550351888037 0 8.6116550351888037 2.6011574921582961 0 0 0 0 -148.31037499019658 1417.0421110558732 0 1417.0421110558732 1002.4167410245807 0 0 0 0 1348.2783580910691 -252.47190143922614 0 -252.47190143922614 -792.96896389181893 0 0 0 0 1876.7044986337714 -1476.2597975183157 0 -1476.2597975183157 565.97263292161972 0 0 0 0 62.644670862530461 13.972002049609536 0 13.972002049609536 -0.36984624825270784 0 0 0 0 100.64533458300298 -62.888918112705518 0 -62.888918112705518 124.62461192455211 0 0 0 0 3494.2460627762484 -239.85608337026883 0 -239.85608337026883 -164.02162066629461 0 0 0 0 4483.4801833507227 -1207.177572837976 0 -1207.177572837976 565.75873536714278 0 0 0 0 -2002.9651142359071 1318.346316623662 0 1318.346316623662 1888.1035071697652 0 0 0 0 24.36790646341808 9.6067909197222932 0 9.6067909197222932 4.0554367520977079 0 0 0 0 17.301287652961321 6.7559241372030101 0 6.7559241372030101 1.9172590091621391 0 0 0 0 5965.6032150535902 -1527.8632612629101 0 -1527.8632612629101 -1391.1817848882151 0 0 0 0 1146.8220551287814 2167.4286268856163 0 2167.4286268856163 1321.9617949987833 0 0 0 0 487.32966981694335 -318.93262145403196 0 -318.93262145403196 -201.99249691937609 0 0 0 0 2604.3586835816241 552.71626566183886 0 552.71626566183886 -203.61799860591518 0 0 0 0 4491.1201285197021 1841.8459265204651 0 1841.8459265204651 -352.01437656374247 0 0 0 0 2475.5154356215062 1082.1935531187441 0 1082.1935531187441 -539.84038494496565 0 0 0 0 4500.561009412565 546.07464163362488 0 546.07464163362488 -762.84640504737513 0 0 0 0 3263.2912362992793 310.30881065789288 0 310.30881065789288 -684.35132481425285 0 0 0 0 2890.2200952069034 -301.51852898592205 0 -301.51852898592205 -75.82507439151567 0 0 0 0 1379.8029560868745 -56.158793611911904 0 -56.158793611911904 -27.946718775628824 0 0 0 0 1325.7936355015991 68.323703524485836 0 68.323703524485836 -261.8608055859645 0 0 0 0 -713.0627795945552 -385.76231945668223 0 -385.76231945668223 417.85569222974664 0 0 0 0 1715.0232351190643 -745.62631065439655 0 -745.62631065439655 432.54638890695617 0 0 0 0 2279.665439449338 175.99893737082382 0 175.99893737082382 -58.385048968694051 0 0 0 0 1540.3361309368265 -607.56588013798364 0 -607.56588013798364 548.91439946938817 0 0 0 0 1742.6137486362568 -609.27484726911916 0 -609.27484726911916 520.86231747252361 0 0 0 0 1855.5934585916548 -935.51750066775367 0 -935.51750066775367 777.53048975483625 0 0 0 0 1865.8654476369509 -1009.0872406183759 0 -1009.0872406183759 636.6894952079424 0 0 0 0 2388.1833070314042 -822.74622864425282 0 -822.74622864425282 281.6621556755922 0 0 0 0 2387.7293697935092 -844.80713236537497 0 -844.80713236537497 578.40708229975269 0 0 0 0 3406.7568245563889 -619.78269337951531 0 -619.78269337951531 -366.42390500745751 0 0 0 0 4499.2254643133047 -229.02095967354271 0 -229.02095967354271 -567.22727411284438 0 0 0 0 3278.4984339881048 -386.3762267706511 0 -386.3762267706511 -76.344343616976971 0 0 0 0 19.730589306097386 -6.2486521052115478 0 -6.2486521052115478 -1.010893932346514 0 0 0 0 121.55990641692188 -103.29725578772218 0 -103.29725578772218 -422.34255306580576 0 0 0 0 346.13702676797402 258.74292917316984 0 258.74292917316984 166.53324569376673 0 0 0 0 204.05077764144517 137.54432065105601 0 137.54432065105601 80.090601821033488 0 0 0 0 440.7538527509314 173.58900524959427 0 173.58900524959427 -29.4577646942613 0 0 0 0 277.35036332139862 82.538656090893141 0 82.538656090893141 11.125265472575506 0 0 0 0 43.001888058672193 -7.993845128234625 0 -7.993845128234625 -26.822607806160704 0 0 0 0 231.35617137863301 20.716930840897021 0 20.716930840897021 -22.703483442076504 0 0 0 0 8.0346297195355874 -47.508711115574897 0 -47.508711115574897 -28.012670006363805 0 0 0 0 312.0726580746632 92.778329850822615 0 92.778329850822615 248.61155571453082 0 0 0 0 3.6885773267928244 -6.0504960802645655 0 -6.0504960802645655 -8.6272952157930476 0 0 0 0 62.565024187642848 4.4761553463499695 0 4.4761553463499695 -43.161220859702553 0 0 0 0 354.12971700041089 170.25895102509276 0 170.25895102509276 123.42656328360272 0 0 0 0 159.11478279709991 -570.75918058146294 0 -570.75918058146294 -466.76030738185159 0 0 0 0 623.70228621600108 713.49440076985366 0 713.49440076985366 574.11928908846494 0 0 0 0 7.7010254221465289 -1.9794355321355397 0 -1.9794355321355397 -0.6712540079794973 0 0 0 0 251.82727787664044 -229.95208011110287 0 -229.95208011110287 693.96909017864709 0 0 0 0 4.5100300891397183 -5.0681292434037459 0 -5.0681292434037459 -6.1375571996450109 0 0 0 0 968.64943195914384 406.78486941701431 0 406.78486941701431 -554.2267158720274 0 0 0 0 27.460147049103398 41.80067330081431 0 41.80067330081431 0.1901054376276079 0 0 0 0 623.31357189104892 38.696658571586283 0 38.696658571586283 -284.03545432214378 0 0 0 0 418.13835681971977 78.703429757666527 0 78.703429757666527 -290.43744432798542 0 0 0 0 1.2282255329438954 2.7040370701195968 0 2.7040370701195968 0.79888789766811463 0 0 0 0 631.72182053921279 77.426437054168673 0 77.426437054168673 35.925547546462894 0 0 0 0 149.34377976308315 -121.85623505843932 0 -121.85623505843932 126.6238260668606 0 0 0 0 572.99569641841481 -196.75295186149975 0 -196.75295186149975 -298.65929228612822 0 0 0 0 332.73198318999493 -222.6905355537383 0 -222.6905355537383 -227.7507973744041 0 0 0 0 449.52468840865185 -84.110845651395721 0 -84.110845651395721 -92.750330662523083 0 0 0 0 490.24874239326164 -116.47480935199178 0 -116.47480935199178 -130.45832067859601 0 0 0 0 -187.90200939807983 -83.30815505441069 0 -83.30815505441069 -90.09754553507355 0 0 0 0 18.353243621404545 44.88958116405297 0 44.88958116405297 -16.821213102075944 0 0 0 0 98.89530610179645 253.14898195484443 0 253.14898195484443 354.89135809148729 0 0 0 0 70.010173317088629 105.29988830967955 0 105.29988830967955 -36.995602798358448 0 0 0 0 81.559734354639659 71.612846956129033 0 71.612846956129033 18.259579549136561 0 0 0 0 62.682097847995465 49.537860380577058 0 49.537860380577058 -2.6462956950151693 0 0 0 0 17.181497273108107 29.105608503003396 0 29.105608503003396 28.133192740968525 0 0 0 0 217.32091850445431 5.1417648741916082 0 5.1417648741916082 -39.197642648036549 0 0 0 0 -88.488344271812821 86.272052602736494 0 86.272052602736494 -0.83089237158628748 0 0 0 0 -0.5341703305838621 0.2231543454715279 0 0.2231543454715279 1.6626439357819258 0 0 0 0 14.344105364627467 28.918058379606578 0 28.918058379606578 -9.9863486695608117 0 0 0 0 32.000218982600018 1.9060641429457519 0 1.9060641429457519 -7.6161858486098026 0 0 0 0 4.0207915421498228 2.0374433079991547 0 2.0374433079991547 2.1725552918841426 0 0 0 0 28.482077494059922 28.709995923043607 0 28.709995923043607 -43.551588521260328 0 0 0 0 -11.917521191484411 45.677476628529803 0 45.677476628529803 -19.635978166804989 0 0 0 0 -29.149149578996003 7.744377399435507 0 7.744377399435507 -11.726601275137455 0 0 0 0 90.386435911204899 11.577193785665258 0 11.577193785665258 -35.223451379571543 0 0 0 0 116.53588213198964 -4.193976622414084 0 -4.193976622414084 -30.339220838333404 0 0 0 0 52.674061431338259 -4.5960376680662485 0 -4.5960376680662485 12.26176642603059 0 0 0 0 16.346125637850491 26.12069387704264 0 26.12069387704264 0.067541338257115058 0 0 0 0 51.815104432335374 28.465038354975267 0 28.465038354975267 -33.757010311202066 0 0 0 0 81.934893074969295 27.224907058067174 0 27.224907058067174 -18.522399867916192 0 0 0 0 79.72937347280822 22.645459439860986 0 22.645459439860986 -1.3482320993434769 0 0 0 0 7.0279360482747393 14.610778502043075 0 14.610778502043075 -15.024281576987551 0 0 0 0 14.054254041462826 8.3930759076739037 0 8.3930759076739037 -9.6827923223431327 0 0 0 0 21.808253481634893 30.67434918661661 0 30.67434918661661 7.3933759402789292 0 0 0 0 88.032257786755508 111.79901599051948 0 111.79901599051948 -54.101925965206647 0 0 0 0 38.170076526592311 80.661838310734311 0 80.661838310734311 -28.204171233132456 0 0 0 0 110.4930413592374 55.177500399260566 0 55.177500399260566 -36.122006636989681 0 0 0 0 26.680622121530632 -10.411811051392093 0 -10.411811051392093 0.64560368346744035 0 0 0 0 52.595089049631497 -104.57218221312951 0 -104.57218221312951 -137.61889656759496 0 0 0 0 236.99491814333305 69.213593041722334 0 69.213593041722334 26.557889383141514 0 0 0 0 54.584455237381917 22.756016212731396 0 22.756016212731396 52.322388614546071 0 0 0 0 34.461251936356007 -11.636102976583061 0 -11.636102976583061 2.4455302391272102 0 0 0 0 81.085598891542759 -14.266732790420065 0 -14.266732790420065 7.3429986045789519 0 0 0 0 64.857943764334777 10.413692821336213 0 10.413692821336213 -64.051547935281178 0 0 0 0 25.66335029937909 38.329459939909384 0 38.329459939909384 63.661249985882705 0 0 0 0 39.99417238929891 153.4643207555755 0 153.4643207555755 263.24877908355506 0 0 0 0 8.4118506091853078 -0.52032188635249099 0 -0.52032188635249099 4.3326965316446202 0 0 0 0 -0.066375435144209405 3.0966712227397295 0 3.0966712227397295 3.0050670859736486 0 0 0 0 417.65921833115863 6.1950862620541898 0 6.1950862620541898 -20.096639083515583 0 0 0 0 30.20577946926295 14.945011600090339 0 14.945011600090339 2.8838076694733075 0 0 0 0 -383.16234741191511 708.75442208643062 0 708.75442208643062 -329.29982049129012 0 0 0 0 64.933743654153631 20.876866780032515 0 20.876866780032515 -25.618270683112193 0 0 0 0 75.715913373394869 16.853699450256045 0 16.853699450256045 10.317670319194576 0 0 0 0 54.693876732854221 25.469548332609776 0 25.469548332609776 -3.6365322176408581 0 0 0 0 117.86771231715102 11.589645188671739 0 11.589645188671739 -1.1908427111506761 0 0 0 0 33.752689299915801 20.207921222671146 0 20.207921222671146 -7.4260102817404459 0 0 0 0 36.08289905025606 20.880845519733356 0 20.880845519733356 -8.9557723971246439 0 0 0 0 74.595508708654961 20.863550122898317 0 20.863550122898317 6.2587453174347729 0 0 0 0 64.123949058528524 11.978963635547984 0 11.978963635547984 1.1253982594138847 0 0 0 0 45.832123201507898 16.837566538412617 0 16.837566538412617 -0.33436338820930656 0 0 0 0 39.546640438580653 25.003809432876096 0 25.003809432876096 -6.3846342452284262 0 0 0 0 25.561044006616612 35.123828847583056 0 35.123828847583056 -11.719220700902497 0 0 0 0 17.479868628151905 16.993603846731034 0 16.993603846731034 -10.985687679538851 0 0 0 0 56.675742129038554 58.208947736576192 0 58.208947736576192 25.825790062055965 0 0 0 0 41.508636895072414 17.356005709986675 0 17.356005709986675 -5.9697637520985154 0 0 0 0 48.667404695879668 13.462316188559271 0 13.462316188559271 20.673657200371963 0 0 0 0 16.297660823557806 14.71817291574348 0 14.71817291574348 7.3310908126978109 0 0 0 0 37.219345508841798 21.495262356861986 0 21.495262356861986 25.328742112202235 0 0 0 0 48.404855338623747 14.81743006190527 0 14.81743006190527 26.040385074901565 0 0 0 0 7.6081198877903375 0.99917193839903007 0 0.99917193839903007 -0.63105174622184812 0 0 0 0 82.950772369345941 -7.6313847200399323 0 -7.6313847200399323 -23.237528124271194 0 0 0 0 20.92153385182695 33.144940419483618 0 33.144940419483618 -17.269469414334385 0 0 0 0 101.10679912284832 -30.069839359111484 0 -30.069839359111484 -14.621119619767342 0 0 0 0 29.606541220890733 -5.2474013976768816 0 -5.2474013976768816 0.22833574656962696 0 0 0 0 38.131648780865362 49.83551986645648 0 49.83551986645648 -16.279809085129273 0 0 0 0 20.909959705648362 58.365560884234128 0 58.365560884234128 3.911382972481988 0 0 0 0 20.398357687510938 33.617538122091304 0 33.617538122091304 -16.392165658527183 0 0 0 0 151.77102082094643 -10.162303206879187 0 -10.162303206879187 -34.228904640722249 0 0 0 0 95.893622025490913 43.155301302685984 0 43.155301302685984 -51.988186834138105 0 0 0 0 111.32989728709072 25.926929241102698 0 25.926929241102698 -18.632907134266134 0 0 0 0 71.894978092168458 -2.9576939919988945 0 -2.9576939919988945 7.9935301452514977 0 0 0 0 73.751378581844619 -4.817006858304012 0 -4.817006858304012 -25.171723723000468 0 0 0 0 72.261993087371593 -4.9876222824676688 0 -4.9876222824676688 -28.968113377464761 0 0 0 0 342.86252961053458 177.97570597014547 0 177.97570597014547 -117.77221225457833 0 0 0 0 347.77779646119006 -130.20411285132755 0 -130.20411285132755 -253.12319464560187 0 0 0 0 50.648207956852275 66.50232498405876 0 66.50232498405876 4.659805567263902 0 0 0 0 95.733193513344304 53.802922176689322 0 53.802922176689322 -99.914717952889077 0 0 0 0 89.516877340181964 64.008934361458159 0 64.008934361458159 -24.820868764425995 0 0 0 0 39.420137773151509 31.021986845918946 0 31.021986845918946 -96.686238333992151 0 0 0 0 -17.250755735867642 -276.19655214814981 0 -276.19655214814981 -221.66066817789215 0 0 0 0 3.6712157185315277 -0.349184341705012 0 -0.349184341705012 -4.618423993699281 0 0 0 0 488.10565782604681 112.4002835295787 0 112.4002835295787 -83.746823017690986 0 0 0 0 516.767561332279 234.74985380747103 0 234.74985380747103 107.0335687832885 0 0 0 0 143.09080609777448 65.05478597616775 0 65.05478597616775 20.899688135353244 0 0 0 0 264.80783787716064 185.69457185338979 0 185.69457185338979 76.726652663136292 0 0 0 0 287.05100444983964 68.108264666109335 0 68.108264666109335 -31.977135520574848 0 0 0 0 290.48719337451621 37.584235590690696 0 37.584235590690696 -111.81459389120164 0 0 0 0 192.10018129851051 -7.9562145138369758 0 -7.9562145138369758 4.8013516933433493 0 0 0 0 225.39815086549788 138.01054928841353 0 138.01054928841353 42.085464590326069 0 0 0 0 237.47627361059131 179.43946254527896 0 179.43946254527896 161.16479516129635 0 0 0 0 190.88610941894876 26.664328797062581 0 26.664328797062581 190.87333179261077 0 0 0 0 249.63225655662245 104.74190113493728 0 104.74190113493728 81.904273019748985 0 0 0 0 237.70811717552351 66.496885542747634 0 66.496885542747634 11.078465763282566 0 0 0 0 273.63118753541494 146.19128604022632 0 146.19128604022632 42.43453077259926 0 0 0 0 307.43716339738967 99.321086521684379 0 99.321086521684379 4.8942018418260886 0 0 0 0 234.39301183240605 -32.565331496419731 0 -32.565331496419731 -6.7559553703281097 0 0 0 0 35.361564590177295 -8.4426626384172891 0 -8.4426626384172891 39.682558877806969 0 0 0 0 3.1475235018658907 -3.8382086740142825 0 -3.8382086740142825 -14.946834502640307 0 0 0 0 1.8529175874971884 -1.0872032030100343 0 -1.0872032030100343 -23.023774479460137 0 0 0 0 31.72457010250946 62.240814516321393 0 62.240814516321393 -43.0564847214564 0 0 0 0 229.83391666832904 79.625930499826154 0 79.625930499826154 -5.6489193919178433 0 0 0 0 122.34772548108594 48.17535255680059 0 48.17535255680059 -10.702777627175749 0 0 0 0 4.4535226326843258 40.364784393204218 0 40.364784393204218 38.229916104511176 0 0 0 0 170.38963278873416 -114.35647797124795 0 -114.35647797124795 49.817374723417743 0 0 0 0 14.355637286686601 -4.8216803909386243 0 -4.8216803909386243 1.0686322648363413 0 0 0 0 94.182729174935957 97.396828325731803 0 97.396828325731803 -190.15343909078456 0 0 0 0 10.363195419187832 -95.520063972224278 0 -95.520063972224278 -248.33724435253225 0 0 0 0 223.65644852594414 132.10744966331208 0 132.10744966331208 104.3236449874729 0 0 0 0 -3.4247710962081328 -8.1665596579464363 0 -8.1665596579464363 -9.4928957570390367 0 0 0 0 17.268384656201988 -9.9987284893669113 0 -9.9987284893669113 -6.9481158779487036 0 0 0 0 83.49141819527722 32.815093875492494 0 32.815093875492494 4.7536769105266217 0 0 0 0 66.019108138883894 -18.923764736271664 0 -18.923764736271664 -92.06489954199651 0 0 0 0 5.0326072521643823 0.90057909717802431 0 0.90057909717802431 -32.161632303459683 0 0 0 0 269.79621333410614 120.43442353766409 0 120.43442353766409 13.454552814936449 0 0 0 0 149.65365614467009 143.51906692956555 0 143.51906692956555 112.33088593577759 0 0 0 0 458.06100007203349 90.579807928203309 0 90.579807928203309 -38.139597950928874 0 0 0 0 356.74072469560633 215.4904492384303 0 215.4904492384303 95.994419701475636 0 0 0 0 6.2586036954546671 -1.8833758955524331 0 -1.8833758955524331 0.097003152719089769 0 0 0 0 865.86944573544315 526.24155124982235 0 526.24155124982235 312.8503195755801 0 0 0 0 221.18522412856692 133.91766242236827 0 133.91766242236827 124.30985229816838 0 0 0 0 450.22728109901072 354.88623016202291 0 354.88623016202291 290.50736742165054 0 0 0 0 1140.1452055655536 9.8208451025657268 0 9.8208451025657268 79.652895034003336 0 0 0 0 755.85110865088063 105.12790804194867 0 105.12790804194867 -6.1482259821550542 0 0 0 0 582.82192991125339 -12.404414333503269 0 -12.404414333503269 113.73740177447917 0 0 0 0 532.79682290188975 -33.612513687977085 0 -33.612513687977085 -23.852549045229352 0 0 0 0 522.77077198697953 137.30968644069151 0 137.30968644069151 -7.270106290320939 0 0 0 0 421.85330051492201 14.145659518797402 0 14.145659518797402 -44.284237449696548 0 0 0 0 378.1234160931599 -91.223299220635482 0 -91.223299220635482 -22.572881479474745 0 0 0 0 391.42904548547813 -32.882150719465926 0 -32.882150719465926 6.6023232443808411 0 0 0 0 225.55758224413148 -56.213251072432286 0 -56.213251072432286 4.516469487366976 0 0 0 0 310.65303323268017 -129.90682402902075 0 -129.90682402902075 49.230750648506273 0 0 0 0 328.91923365506227 -32.372459865797737 0 -32.372459865797737 63.700867065478178 0 0 0 0 233.21294900009525 -66.671564410419478 0 -66.671564410419478 109.55345929839632 0 0 0 0 518.15487114341522 -128.26626575457499 0 -128.26626575457499 58.396564716044395 0 0 0 0 555.89358873128367 31.016215723445839 0 31.016215723445839 46.257153838467957 0 0 0 0 355.44294577854453 -97.237462722331884 0 -97.237462722331884 220.83727197464987 0 0 0 0 530.28807792997395 35.500495521376251 0 35.500495521376251 86.357957617013199 0 0 0 0 422.63230269917403 67.573226034214713 0 67.573226034214713 180.00041828116662 0 0 0 0 424.43452509483905 19.533313127124075 0 19.533313127124075 142.3634000899674 0 0 0 0 211.43681034162 -29.414965988351469 0 -29.414965988351469 65.589862723232727 0 0 0 0 306.07315210381057 28.182574085391479 0 28.182574085391479 61.6063974690328 0 0 0 0 336.00667304120725 -20.551375918986423 0 -20.551375918986423 107.64392111179768 0 0 0 0 407.13236847455846 72.097795199450957 0 72.097795199450957 66.856430756114605 0 0 0 0 317.7465277492156 24.055815753118566 0 24.055815753118566 58.492783069781581 0 0 0 0 312.40341745082696 44.006318642191331 0 44.006318642191331 6.8046259888260465 0 0 0 0 232.38059479594813 43.050203702679937 0 43.050203702679937 38.665639148935497 0 0 0 0 390.14445118993171 101.40077359979978 0 101.40077359979978 30.251296743312196 0 0 0 0 334.3946346011071 37.887038118140254 0 37.887038118140254 -25.166538826461874 0 0 0 0 591.92906029180449 57.728241161566757 0 57.728241161566757 -97.152248319124737 0 0 0 0 513.5173849631974 149.1084641399566 0 149.1084641399566 74.986065696930609 0 0 0 0 432.70356333647214 60.332996857828221 0 60.332996857828221 -22.448829571469105 0 0 0 0 529.7947703844402 50.010044636559996 0 50.010044636559996 -75.982842064111537 0 0 0 0 300.21607975923689 -82.2214355258252 0 -82.2214355258252 -56.793150742176749 0 0 0 0 527.79674930367037 0.32056886627196945 0 0.32056886627196945 -142.7485260200101 0 0 0 0 233.26391762917774 72.273559837508401 0 72.273559837508401 -42.376283077756852 0 0 0 0 374.6454328521213 77.734604671930811 0 77.734604671930811 -118.12397905533362 0 0 0 0 0.88159514045882759 -1.3871293238109956 0 -1.3871293238109956 1.7902994373931662 0 0 0 0 677.71667036581493 -54.662057390744394 0 -54.662057390744394 -143.79595976735982 0 0 0 0 -21.401328417210607 -250.35995023660723 0 -250.35995023660723 138.59915964634274 0 0 0 0 231.47965870889311 -25.718767784700731 0 -25.718767784700731 -8.6546823394419334 0 0 0 0 414.95828249148326 121.33226635702158 0 121.33226635702158 -87.597645741159226 0 0 0 0 519.08922821871238 89.087244160944465 0 89.087244160944465 -117.38988351736316 0 0 0 0 499.66586923925206 -134.83653335202962 0 -134.83653335202962 -3.9150599355471059 0 0 0 0 174.47322459837596 -476.16893477201847 0 -476.16893477201847 -125.46561153744187 0 0 0 0 454.72012086265022 -295.00927042878584 0 -295.00927042878584 104.56292552624564 0 0 0 0 -312.73546780452307 -43.818585646103884 0 -43.818585646103884 199.92877608569688 0 0 0 0 529.17573552594035 -12.640197889874521 0 -12.640197889874521 532.11644650182916 0 0 0 0 736.92936176899821 207.42089161936701 0 207.42089161936701 25.934770118799406 0 0 0 0 823.76124470619834 -78.551207939933647 0 -78.551207939933647 -135.81538556729492 0 0 0 0 425.52097082789987 -534.82931755559366 0 -534.82931755559366 -112.87392565388382 0 0 0 0 12.11632238908571 -12.993022455554438 0 -12.993022455554438 -9.9863758872522528 0 0 0 0 -9.6282992771011777 -27.68082903372715 0 -27.68082903372715 -16.273307658029807 0 0 0 0 1.6453357841694185 -3.4613141252725086 0 -3.4613141252725086 -0.042950257231186839 0 0 0 0 282.7877218027279 84.063430059904022 0 84.063430059904022 -25.195754920298896 0 0 0 0 223.84857469808776 91.568794491658991 0 91.568794491658991 0.62814953497900206 0 0 0 0 383.26131125328538 71.537453373148992 0 71.537453373148992 -24.628135078258254 0 0 0 0 248.18207886277742 -19.007890870686936 0 -19.007890870686936 18.503097417449681 0 0 0 0 -2.9579341386123161 -5.9323559827773806 0 -5.9323559827773806 -5.472808632278376 0 0 0 0 431.17394129419699 90.405656488756449 0 90.405656488756449 -36.743173978359323 0 0 0 0 50.354228347394383 -29.934010035135088 0 -29.934010035135088 -47.499181850127229 0 0 0 0 57.523672398383496 -24.729204029353696 0 -24.729204029353696 -15.33768769686867 0 0 0 0 -49.182825195202895 -103.02272407255731 0 -103.02272407255731 11.911799712256197 0 0 0 0 177.19460544362664 -118.38420853039349 0 -118.38420853039349 0.67134013237804879 0 0 0 0 69.184621123196848 -73.338493265596313 0 -73.338493265596313 8.2733416214318822 0 0 0 0 118.94842978354427 -39.134488970415077 0 -39.134488970415077 26.004095129418374 0 0 0 0 48.856497611355735 -64.057909931004133 0 -64.057909931004133 53.209378104762436 0 0 0 0 126.53964326446294 -84.995001759594288 0 -84.995001759594288 16.934419126574539 0 0 0 0 232.15591394212061 -53.975615527932504 0 -53.975615527932504 0.66851943818301152 0 0 0 0 186.28224462698563 15.749372274408586 0 15.749372274408586 7.5218680148386738 0 0 0 0 53.155729426711332 -19.829188118477759 0 -19.829188118477759 40.400079808128567 0 0 0 0 226.43838147000497 10.429945685181963 0 10.429945685181963 -50.357679685376752 0 0 0 0 165.3252290385135 47.490303747925736 0 47.490303747925736 -4.7337652590763355 0 0 0 0 -66.982213690615026 20.651411804562031 0 20.651411804562031 -25.159531173559799 0 0 0 0 125.59666687437857 -42.009537031121681 0 -42.009537031121681 -102.40149344452675 0 0 0 0 49.061516288324128 -49.365413412356176 0 -49.365413412356176 -69.231183930836778 0 0 0 0 -181.01990260118328 -63.944695137327926 0 -63.944695137327926 31.61557081405067 0 0 0 0 1.8951565807679174 -2.6937963164998848 0 -2.6937963164998848 -3.0685102247432994 0 0 0 0 -311.01862216143127 -161.49280497238561 0 -161.49280497238561 -2.1867343413764502 0 0 0 0 0.41713843092477987 -1.0252235004095951 0 -1.0252235004095951 -1.0695459530368385 0 0 0 0 481.51981565046299 105.67791406517426 0 105.67791406517426 -56.827503204846721 0 0 0 0 219.44686053171608 -26.961246344299525 0 -26.961246344299525 40.850964942553219 0 0 0 0 5.1868190674996413 -15.512664690573331 0 -15.512664690573331 -9.0367185052244707 0 0 0 0 -38.831513324796106 -5.4473900550476628 0 -5.4473900550476628 -7.0620824066138539 0 0 0 0 75.520349875179818 -44.382822889893987 0 -44.382822889893987 -23.950677518730458 0 0 0 0 184.49392797687324 -62.107692564339118 0 -62.107692564339118 -25.102088845058915 0 0 0 0 6.2763144081205269 -15.535553582975666 0 -15.535553582975666 -8.8771402059274394 0 0 0 0 117.39736262916995 -104.97363661455779 0 -104.97363661455779 -165.15075955263865 0 0 0 0 90.824001376284286 -64.620626616045911 0 -64.620626616045911 -29.429652561491366 0 0 0 0 212.94766476414225 -14.027435558216666 0 -14.027435558216666 -62.70647400840835 0 0 0 0 59.674509435229993 -13.102998429227796 0 -13.102998429227796 -18.480378651240244 0 0 0 0 146.07710144290468 63.427365082087363 0 63.427365082087363 -62.907971951848594 0 0 0 0 195.62870903768635 24.853118189126917 0 24.853118189126917 -46.11846260960192 0 0 0 0 274.24522471874661 28.109966854823597 0 28.109966854823597 -49.590345728506691 0 0 0 0 232.53979715854075 85.461479421274134 0 85.461479421274134 -12.631025224798577 0 0 0 0 239.78146606661903 73.037452686113738 0 73.037452686113738 3.1299137037890432 0 0 0 0 294.27203461735917 85.992913111322878 0 85.992913111322878 -42.226621517604144 0 0 0 0 239.61936284143303 86.635363517190171 0 86.635363517190171 -36.12083699533207 0 0 0 0 296.06148560799193 144.75654673088229 0 144.75654673088229 -33.000763523633395 0 0 0 0 442.23877379433543 213.09219871546918 0 213.09219871546918 -15.872422181031197 0 0 0 0 96.94016001613636 221.10339020408469 0 221.10339020408469 56.748463316611307 0 0 0 0 275.77011133574706 299.13000906682305 0 299.13000906682305 53.352330851358147 0 0 0 0 326.00500840089808 -30.172277182446123 0 -30.172277182446123 -60.71638671863434 0 0 0 0 915.89027727657231 -188.86433019787478 0 -188.86433019787478 -19.89851323886171 0 0 0 0 404.6427429086616 -18.622720791597487 0 -18.622720791597487 -81.536305468006049 0 0 0 0 177.67718636785867 2.4038985876507013 0 2.4038985876507013 -25.801783182954523 0 0 0 0 -10.285763429594226 -105.61389408897844 0 -105.61389408897844 37.062011808914122 0 0 0 0 204.70609766217785 -104.08236983947026 0 -104.08236983947026 -21.483817895940774 0 0 0 0 271.43752989508539 -246.76671915050906 0 -246.76671915050906 12.348744554934001 0 0 0 0 19.958894689789304 -58.597360435572853 0 -58.597360435572853 25.732503546784301 0 0 0 0 -12.936336936763837 -18.315146084610319 0 -18.315146084610319 -12.637873551271014 0 0 0 0 484.0550402883091 -17.265018643535768 0 -17.265018643535768 64.161453854643355 0 0 0 0 491.25666702449962 -10.438565186736582 0 -10.438565186736582 -27.583077425223564 0 0 0 0 504.64970185348648 45.873877061756502 0 45.873877061756502 79.074307286383146 0 0 0 0 1.3655959111873699 1.4634990932789265 0 1.4634990932789265 1.4755150186260906 0 0 0 0 -82.661166612175293 101.88910079878224 0 101.88910079878224 20.774806483285829 0 0 0 0 1003.7182518058544 -342.13486077262951 0 -342.13486077262951 -259.09567810602493 0 0 0 0 1.9235805197937452 -2.9677022869725818 0 -2.9677022869725818 4.1125133687136071 0 0 0 0 677.77094465123082 194.51743900445194 0 194.51743900445194 292.01753134919636 0 0 0 0 128.77811383951484 192.23699105832668 0 192.23699105832668 -0.015454199381565559 0 0 0 0 188.24014658628221 212.59972347860764 0 212.59972347860764 6.3006418980412491 0 0 0 0 672.36144431546563 125.76551743683103 0 125.76551743683103 -89.006308645219519 0 0 0 0 530.33575430410201 -15.849970279934723 0 -15.849970279934723 -51.887879954235359 0 0 0 0 501.70798214364913 29.317906796944044 0 29.317906796944044 -112.91948362918265 0 0 0 0 509.90972031583806 -15.116511255776118 0 -15.116511255776118 -71.148836434078476 0 0 0 0 504.17850272028591 14.918267594505323 0 14.918267594505323 -101.35658500467844 0 0 0 0 504.38168782410503 23.441951481062347 0 23.441951481062347 -57.766951703936684 0 0 0 0 444.35610602487577 80.605257422871091 0 80.605257422871091 -33.533195927932638 0 0 0 0 410.84906620901893 15.825246196771559 0 15.825246196771559 19.472082447576213 0 0 0 0 475.11842282791622 -7.2145560939441111 0 -7.2145560939441111 -27.763073085358428 0 0 0 0 457.38718875622726 21.981309505527861 0 21.981309505527861 -52.612603122979863 0 0 0 0 306.66075158535386 77.783394440870325 0 77.783394440870325 -10.297543239662218 0 0 0 0 392.63595805394289 36.078918123003177 0 36.078918123003177 -28.734737531806331 0 0 0 0 368.67397685276228 70.765586876498219 0 70.765586876498219 -30.642861609262411 0 0 0 0 341.59549366560532 36.103988861046446 0 36.103988861046446 52.15183428276714 0 0 0 0 298.1566943142825 65.118319553322635 0 65.118319553322635 32.812909163843869 0 0 0 0 354.93492862879066 40.837004471490673 0 40.837004471490673 12.211509322356278 0 0 0 0 401.48571938130772 -25.305978461085942 0 -25.305978461085942 66.426572566195318 0 0 0 0 266.07883175360621 -31.688932117967624 0 -31.688932117967624 160.82380600757278 0 0 0 0 505.98742370083346 -39.403864601215446 0 -39.403864601215446 61.651078190148382 0 0 0 0 300.2345122112165 40.362253968403706 0 40.362253968403706 123.79165341199678 0 0 0 0 94.921267505473224 103.01935447853339 0 103.01935447853339 141.20356723622604 0 0 0 0 413.58296919128043 -5.7777890468732949 0 -5.7777890468732949 109.41533649545818 0 0 0 0 218.56387687643291 104.9657132704715 0 104.9657132704715 82.310037736680329 0 0 0 0 260.27565059234621 145.12688595905252 0 145.12688595905252 90.486619392367174 0 0 0 0 130.83276163428673 172.56444173744308 0 172.56444173744308 91.163409451510375 0 0 0 0 42.32002722893958 195.4447936867507 0 195.4447936867507 72.434991490962148 0 0 0 0 180.77498273868696 135.84500549835275 0 135.84500549835275 81.710984514844313 0 0 0 0 4.9765072868467541 196.79110508846668 0 196.79110508846668 43.36616808380063 0 0 0 0 157.12912039156799 157.42978957538435 0 157.42978957538435 -335.82637992378909 0 0 0 0 222.31381250469713 -84.028455583109917 0 -84.028455583109917 134.67259742654369 0 0 0 0 -41.710668481187895 -140.88452338916341 0 -140.88452338916341 318.09098819537599 0 0 0 0 504.56957185015199 -350.27941331099237 0 -350.27941331099237 154.1881962299401 0 0 0 0 1.0177286319551229 -1.0214108850614139 0 -1.0214108850614139 2.4737473017321214 0 0 0 0 955.9034507977849 -62.31923948651206 0 -62.31923948651206 -40.309229933217466 0 0 0 0 4.547478313115576 6.3587314196095122 0 6.3587314196095122 6.3106856922610159 0 0 0 0 436.55421380056941 209.98798729324585 0 209.98798729324585 249.16990215931423 0 0 0 0 644.2599514079775 -182.65697771814257 0 -182.65697771814257 -119.07656257953295 0 0 0 0 48.843144286889583 -259.25109514407444 0 -259.25109514407444 117.17662774899964 0 0 0 0 772.90930930286413 -216.2055136376805 0 -216.2055136376805 -46.531737436313279 0 0 0 0 625.1621705032303 -259.4807876341456 0 -259.4807876341456 -59.203777005555366 0 0 0 0 606.5772389548365 -140.01389846092638 0 -140.01389846092638 -38.389003580350618 0 0 0 0 846.87289264172432 -80.658575837800981 0 -80.658575837800981 -23.959610315674126 0 0 0 0 635.33192353876075 -75.416886073121077 0 -75.416886073121077 101.25507774825564 0 0 0 0 825.57862557488988 0.18090325226228288 0 0.18090325226228288 -156.35781268097253 0 0 0 0 894.14385282470175 70.604837001779657 0 70.604837001779657 -60.490933093769854 0 0 0 0 349.19627538419445 70.656107057666304 0 70.656107057666304 -29.13024933667441 0 0 0 0 165.52700757414277 159.99871057237851 0 159.99871057237851 73.955302669550292 0 0 0 0 -105.7285585031932 76.208035528177447 0 76.208035528177447 131.33922401160225 0 0 0 0 -9.9556027116486803 138.02199697754713 0 138.02199697754713 99.638865305626496 0 0 0 0 334.67562358279247 52.634549937738825 0 52.634549937738825 0.78069384684204124 0 0 0 0 302.61308667241246 236.26872361060441 0 236.26872361060441 96.167229154581037 0 0 0 0 538.74816965151695 -418.25796200189478 0 -418.25796200189478 -213.01759793298424 0 0 0 0 7.0375784739554774 -0.2836640122408971 0 -0.2836640122408971 -0.17349577744636707 0 0 0 0 14.975654758761323 0.60461010868061482 0 0.60461010868061482 -0.67486500411366823 0 0 0 0 200.20533883009921 54.683881134655621 0 54.683881134655621 -445.17639338371714 0 0 0 0 -77.563416766759474 224.66449635516528 0 224.66449635516528 -341.68214200080558 0 0 0 0 -3.18900765030412 9.2639693031187562 0 9.2639693031187562 -135.69504490922441 0 0 0 0 -452.09231502799958 182.78570728570776 0 182.78570728570776 407.54937094624688 0 0 0 0 656.05486743940855 154.17212054918517 0 154.17212054918517 413.23461059493991 0 0 0 0 3.5376267769870537 2.152405786323385 0 2.152405786323385 1.5244588531755463 0 0 0 0 -139.76425316013228 -159.54655755440422 0 -159.54655755440422 303.86807781476796 0 0 0 0 -59.898885272705229 -19.04760547102137 0 -19.04760547102137 5.0947037572955196 0 0 0 0 -81.217734716192354 81.507599345251492 0 81.507599345251492 33.861501747973023 0 0 0 0 -39.063373291050084 72.048056778281648 0 72.048056778281648 5.7350246807711756 0 0 0 0 6.5937015761717248 5.412452752936133 0 5.412452752936133 4.3173764665857037 0 0 0 0 -45.291398152185138 178.79279058024326 0 178.79279058024326 19.914500640747519 0 0 0 0 373.82624762965133 -550.99943857373512 0 -550.99943857373512 223.34847292920651 0 0 0 0 106.99168928652944 -608.46334052987436 0 -608.46334052987436 -17.623494340485365 0 0 0 0 159.74026513325225 -377.07281885430132 0 -377.07281885430132 89.214032777639204 0 0 0 0 3.1298330096781228 -1.7519781908386562 0 -1.7519781908386562 0.47429291480730207 0 0 0 0 341.58043350177468 75.902496919200345 0 75.902496919200345 164.06799649356481 0 0 0 0 350.22361226307112 -350.13519083162254 0 -350.13519083162254 95.202968844219512 0 0 0 0 235.57689975689573 63.816261363943795 0 63.816261363943795 -111.65585889789591 0 0 0 0 -60.532013428164646 -19.500215610251075 0 -19.500215610251075 21.251723369170236 0 0 0 0 511.44488509651273 -14.375343236963772 0 -14.375343236963772 -90.201408017082031 0 0 0 0 224.47017438706825 14.718249704405309 0 14.718249704405309 2.7436111420986435 0 0 0 0 568.80337279885134 -20.283493926228175 0 -20.283493926228175 -41.38581191983576 0 0 0 0 270.42381275212392 -12.917045829236258 0 -12.917045829236258 17.872475108023309 0 0 0 0 145.70259911654284 34.784671337037253 0 34.784671337037253 22.537977026439421 0 0 0 0 265.53569026662899 64.664367955287588 0 64.664367955287588 -7.4515681837897318 0 0 0 0 -92.700048798011267 -27.533978729934404 0 -27.533978729934404 4.5675124122225839 0 0 0 0 -102.61511666467413 12.53114748411555 0 12.53114748411555 218.25984771080198 0 0 0 0 164.01599630352575 47.563032270366307 0 47.563032270366307 8.3136145052830344 0 0 0 0 80.75211972319812 219.66803979250176 0 219.66803979250176 -6.7560956064797608 0 0 0 0 792.4595603486523 162.22371392670652 0 162.22371392670652 162.04614463108328 0 0 0 0 -43.719813655989128 -144.20111107906374 0 -144.20111107906374 80.771471908545863 0 0 0 0 214.97455265239842 -181.06806089657698 0 -181.06806089657698 565.32956972743932 0 0 0 0 585.47339732803812 442.97499591922474 0 442.97499591922474 114.47651286937003 0 0 0 0 7.9030742656549364 -0.27597849606509506 0 -0.27597849606509506 -0.21503254277678555 0 0 0 0 899.39285684021888 -500.17860811656612 0 -500.17860811656612 -294.5971374646266 0 0 0 0 689.00682557995788 -344.28531172977739 0 -344.28531172977739 -65.728746517891295 0 0 0 0 862.81496104106191 -229.05014420657932 0 -229.05014420657932 -161.84098842649186 0 0 0 0 968.34118636236963 -26.370140753535054 0 -26.370140753535054 -46.550780555395704 0 0 0 0 -49.35388254764257 58.082655452118161 0 58.082655452118161 17.334762329422858 0 0 0 0 156.45722931963974 149.86799399070617 0 149.86799399070617 58.870412844570581 0 0 0 0 8.4321359902893391 -1.2028213782560258 0 -1.2028213782560258 0.32444343730515057 0 0 0 0 355.91737991484115 488.06169896589677 0 488.06169896589677 552.41043265994756 0 0 0 0 581.09462812726269 -397.14494523179224 0 -397.14494523179224 -258.79411531823433 0 0 0 0 22.189103135806135 -1.8225058791314979 0 -1.8225058791314979 -0.025345889663921373 0 0 0 0 154.94668475539947 149.99053434739795 0 149.99053434739795 79.166951604441635 0 0 0 0 117.9372074518069 105.36892343051693 0 105.36892343051693 28.923767208684353 0 0 0 0 89.102935326096485 -12.270788109259144 0 -12.270788109259144 -21.660294021411687 0 0 0 0 32.251487002809881 37.997971266755172 0 37.997971266755172 -225.63066796784886 0 0 0 0 372.76960015275108 -111.37477116986405 0 -111.37477116986405 -28.157544847013924 0 0 0 0 468.65734608742059 119.1908866759187 0 119.1908866759187 -8.5293024177629562 0 0 0 0 200.66260763056925 104.21602519607382 0 104.21602519607382 -8.9973564280352321 0 0 0 0 258.25998903971049 43.870323677623873 0 43.870323677623873 -11.134831116238729 0 0 0 0 207.37655288061433 183.57846550659195 0 183.57846550659195 -11.675087099914151 0 0 0 0 239.23304544850544 137.14500070639605 0 137.14500070639605 4.4016623613915584 0 0 0 0 247.68653636300587 187.77099322855901 0 187.77099322855901 134.79473225477003 0 0 0 0 194.87401334499009 92.599720990225435 0 92.599720990225435 -23.653457547823631 0 0 0 0 6.0281617457701486 -2.2797450227041054 0 -2.2797450227041054 -0.13953807668436533 0 0 0 0 175.50049200184003 186.90056928362867 0 186.90056928362867 32.576307994156195 0 0 0 0 223.60565814449728 -58.94210773227784 0 -58.94210773227784 -331.0591398603558 0 0 0 0 6.9330484454881116 -3.1414743077012304 0 -3.1414743077012304 0.27455530675031858 0 0 0 0 134.94933780220163 -19.154874268049333 0 -19.154874268049333 -67.78824962437497 0 0 0 0 13.087740304033105 -16.545260455711901 0 -16.545260455711901 2.8388105366038872 0 0 0 0 56.606952125581302 31.35928076413046 0 31.35928076413046 -23.612433144456602 0 0 0 0 41.053152326800046 -6.5159344296429715 0 -6.5159344296429715 -33.081259633651854 0 0 0 0 -13.342629724778817 -0.51659189145963824 0 -0.51659189145963824 0.10987804576059312 0 0 0 0 6.9986919474495153 -67.835391345424142 0 -67.835391345424142 -96.182951452856628 0 0 0 0 43.29689678788418 9.8169425804527251 0 9.8169425804527251 -54.916503013192582 0 0 0 0 -69.204138430017338 -109.95702664177045 0 -109.95702664177045 -64.619015301682637 0 0 0 0 2.6506464443446589 -0.70709735052523115 0 -0.70709735052523115 -0.14076451603140866 0 0 0 0 165.99673180581885 -75.271634215931456 0 -75.271634215931456 -67.373270202777618 0 0 0 0 453.74518292106222 75.111335434920093 0 75.111335434920093 -0.19854989951857235 0 0 0 0 552.86384602930048 12.406439911486629 0 12.406439911486629 10.442807826189025 0 0 0 0 608.27730450699164 260.49003195975922 0 260.49003195975922 142.1152440805499 0 0 0 0 227.23347077233484 -106.82385935624899 0 -106.82385935624899 -19.720772702497051 0 0 0 0 88.511059021369874 90.4053189923156 0 90.4053189923156 112.39875073522057 0 0 0 0 3.4447738012686955 1.9386145587177168 0 1.9386145587177168 1.2551834320905393 0 0 0 0 432.2542582895403 -143.24454625973752 0 -143.24454625973752 -31.150891883864006 0 0 0 0 32.812733974351431 -74.744620887597478 0 -74.744620887597478 33.684459874656454 0 0 0 0 6.9099569171632993 5.1841320641552215 0 5.1841320641552215 3.6893735320706087 0 0 0 0 316.60457963093359 -137.78092722123299 0 -137.78092722123299 -10.440180430215221 0 0 0 0 300.49536498947418 14.051302196564365 0 14.051302196564365 -51.756920160441645 0 0 0 0 762.89110259604786 37.075035961375733 0 37.075035961375733 -56.951369562403556 0 0 0 0 135.50273797419504 -13.594620556478407 0 -13.594620556478407 -13.404287547386744 0 0 0 0 251.78929772143624 -54.429041959134686 0 -54.429041959134686 43.279138596263181 0 0 0 0 251.20501560672074 -27.848494832118988 0 -27.848494832118988 -46.049772401410806 0 0 0 0 125.09366372975637 -31.072097125050295 0 -31.072097125050295 -0.081641179683839216 0 0 0 0 181.05912924250879 27.021248675865071 0 27.021248675865071 -3.1377152810367095 0 0 0 0 240.56150554479245 -32.665355015546893 0 -32.665355015546893 0.099029418635525876 0 0 0 0 304.89394063295913 -6.4439489853833294 0 -6.4439489853833294 -11.506826819413845 0 0 0 0 538.99016570976528 134.47104637769604 0 134.47104637769604 49.823420946808177 0 0 0 0 544.10791618845542 -2.5901591994351003 0 -2.5901591994351003 -0.073908990427882112 0 0 0 0 306.39826614706749 78.825333617615044 0 78.825333617615044 69.729128491712245 0 0 0 0 534.66219581023324 -12.411452302136478 0 -12.411452302136478 -8.6089290522795459 0 0 0 0 523.26186873334518 -9.367568718984483 0 -9.367568718984483 -0.035635963357535619 0 0 0 0 748.47707418230129 -66.540945720007244 0 -66.540945720007244 3.1747512119239047 0 0 0 0 287.46113229145703 7.1441556697373425 0 7.1441556697373425 0.057173641619505632 0 0 0 0 446.3844741423527 -84.674337019693866 0 -84.674337019693866 22.691604649529584 0 0 0 0 264.44691821953165 -34.916403105803226 0 -34.916403105803226 66.029431576568371 0 0 0 0 246.98628003839985 17.054163366533128 0 17.054163366533128 15.31099396071243 0 0 0 0 461.73465301971009 -36.371929618930693 0 -36.371929618930693 22.501986186860975 0 0 0 0 189.76434136742046 -38.65685015130024 0 -38.65685015130024 60.235638088686869 0 0 0 0 518.30998621499748 -17.137544834780044 0 -17.137544834780044 -51.613115490973314 0 0 0 0 728.74435897290823 129.21161773748909 0 129.21161773748909 35.815147429844302 0 0 0 0 453.10806869962835 -13.206799963443586 0 -13.206799963443586 197.26221609494834 0 0 0 0 515.89227291836869 24.280415810101942 0 24.280415810101942 -7.5346280427023657 0 0 0 0 893.05058661980729 -189.67558798885955 0 -189.67558798885955 -27.884825787615853 0 0 0 0 674.44457595761924 -23.907586945384594 0 -23.907586945384594 -108.44683828383631 0 0 0 0 513.8323240885602 -71.570878541322145 0 -71.570878541322145 -51.541491608384831 0 0 0 0 668.83536507733515 -7.2792202983447396 0 -7.2792202983447396 -36.030978677164967 0 0 0 0 534.56280812429759 -122.83956765479462 0 -122.83956765479462 114.98926287411223 0 0 0 0 449.53675002793898 20.475779338538814 0 20.475779338538814 92.009131115363516 0 0 0 0 654.59039585876053 -71.472445633888228 0 -71.472445633888228 -26.518650609471706 0 0 0 0 639.05846231148462 -36.699342689084915 0 -36.699342689084915 -59.126021969601652 0 0 0 0 662.95144921102474 -0.9002607231851556 0 -0.9002607231851556 -17.56686147050425 0 0 0 0 601.85598958420451 128.69384760966091 0 128.69384760966091 24.400788885211114 0 0 0 0 1.3064158445453131 -0.47533024804096158 0 -0.47533024804096158 0.1882312287814889 0 0 0 0 52.388115550609655 -136.39941150902234 0 -136.39941150902234 -81.125491336556593 0 0 0 0 105.90428584771325 73.515342507682888 0 73.515342507682888 -52.991796178005302 0 0 0 0 99.601344287671964 -58.841716660811329 0 -58.841716660811329 -40.980708504882386 0 0 0 0 1.9824004374273727 -0.60604520608652024 0 -0.60604520608652024 -0.14689535298606726 0 0 0 0 72.3113272353512 106.76072605935667 0 106.76072605935667 39.806468677152736 0 0 0 0 449.1194988660518 31.523299583893486 0 31.523299583893486 -84.484002510852179 0 0 0 0 3.7512127172802252 0.97478330900393928 0 0.97478330900393928 0.32561731110647107 0 0 0 0 32.174423293719883 81.246830352733014 0 81.246830352733014 -85.467055666799297 0 0 0 0 205.27225935117167 -88.072170573827066 0 -88.072170573827066 -122.2152777221213 0 0 0 0 443.3961268263738 122.72173248174261 0 122.72173248174261 24.017954224202185 0 0 0 0 433.13635227082705 154.57872065019683 0 154.57872065019683 -69.958693635887812 0 0 0 0 325.75883689327748 99.002026222645782 0 99.002026222645782 113.38077737816876 0 0 0 0 363.42309556444525 -10.162498099050765 0 -10.162498099050765 -138.08567452793341 0 0 0 0 3.5842217859116516 1.8985604103349374 0 1.8985604103349374 2.9586782470903934 0 0 0 0 281.72480017453927 -116.74144617575655 0 -116.74144617575655 64.594390530647615 0 0 0 0 196.93543653714005 119.32913054901724 0 119.32913054901724 -120.83762368096131 0 0 0 0 337.74971266314969 26.985682322324806 0 26.985682322324806 427.27180552595905 0 0 0 0 778.27887118326544 -320.59135180301894 0 -320.59135180301894 18.444509792013832 0 0 0 0 306.81450258643599 -7.1110186311061625 0 -7.1110186311061625 -16.425612266036751 0 0 0 0 0.81522814104374675 0.49006594845428708 0 0.49006594845428708 1.5367794226484444 0 0 0 0 518.5321538381977 -207.80541433440578 0 -207.80541433440578 22.183984814082351 0 0 0 0 567.98042092617834 -27.74052222778198 0 -27.74052222778198 -14.984545324506144 0 0 0 0 451.72770706602023 107.14175408276287 0 107.14175408276287 -5.1146439781070967 0 0 0 0 -115.93502772149805 85.133013652021305 0 85.133013652021305 -5.437074002119175 0 0 0 0 65.547495880309725 8.0391231168057402 0 8.0391231168057402 -182.45939437052948 0 0 0 0 29.847492778251763 14.94434954788403 0 14.94434954788403 -20.174687846778397 0 0 0 0 5.9994375356087062 2.8601285140404116 0 2.8601285140404116 -1.9010059577400904 0 0 0 0 40.803730910396553 -5.2255399789189028 0 -5.2255399789189028 -18.602252676759576 0 0 0 0 29.384845700391452 28.422201704466033 0 28.422201704466033 -18.094599874074447 0 0 0 0 7.0129529928744887 16.355365501895676 0 16.355365501895676 -12.546552867926039 0 0 0 0 18.206203615714912 17.427410458133181 0 17.427410458133181 -20.038539070443221 0 0 0 0 18.357262974413516 8.862252909085619 0 8.862252909085619 3.07274122448147 0 0 0 0 75.505257338867523 130.81417732676891 0 130.81417732676891 -154.50214751345629 0 0 0 0 15.088218165390174 5.4946823531095603 0 5.4946823531095603 1.5450099300320206 0 0 0 0 45.735246297874255 1.0313090131321587 0 1.0313090131321587 -9.7384965976593776 0 0 0 0 25.276104322372703 42.893233345374938 0 42.893233345374938 -216.94474764555866 0 0 0 0 10.222080725785759 2.9915877176001615 0 2.9915877176001615 0.68320790500775175 0 0 0 0 36.963556558650453 57.683705929106054 0 57.683705929106054 61.07189601794289 0 0 0 0 -43.375321712868754 -34.315828222087589 0 -34.315828222087589 -127.70139514693983 0 0 0 0 -37.466715139918961 0.57816626033013563 0 0.57816626033013563 3.2221238064953468 0 0 0 0 0.34870381884161361 -0.1842686536477629 0 -0.1842686536477629 0.13673857725551741 0 0 0 0 0.88003651372855529 101.99866579514764 0 101.99866579514764 67.112771842103655 0 0 0 0 122.42634955444191 196.78091854421211 0 196.78091854421211 26.640680113055168 0 0 0 0 -26.44080179707089 -22.927244279784759 0 -22.927244279784759 -240.99488118009941 0 0 0 0 45.344623823577422 32.823704803701844 0 32.823704803701844 32.818132051914745 0 0 0 0 -0.057155282847816125 71.166682778706445 0 71.166682778706445 0.52554293949447128 0 0 0 0 100.49203141110775 39.42015368030269 0 39.42015368030269 -25.034295622535637 0 0 0 0 100.68200463165704 42.621047057524947 0 42.621047057524947 -73.457585256031052 0 0 0 0 63.59022684948286 72.446509234978691 0 72.446509234978691 -54.588637007928583 0 0 0 0 78.095770016996539 41.933000602293021 0 41.933000602293021 -59.107327623369756 0 0 0 0 -4.9620697564259899 42.552145421088412 0 42.552145421088412 -63.386942761618911 0 0 0 0 1.4186573391561978 108.99705133663483 0 108.99705133663483 -38.331600179333236 0 0 0 0 116.00708992753061 -2.2367429255082243 0 -2.2367429255082243 0.46019348431593698 0 0 0 0 -149.20450016004907 96.479754981643111 0 96.479754981643111 -28.945880267124039 0 0 0 0 1.1353370119325064 1.8508227774917714 0 1.8508227774917714 -0.13160748415535473 0 0 0 0 -222.51464197017776 111.37973464282078 0 111.37973464282078 -15.131289644735773 0 0 0 0 -28.466037115358631 53.190385880425481 0 53.190385880425481 -59.398319173826224 0 0 0 0 0.63788382144412026 90.199935735486491 0 90.199935735486491 -26.042822412374107 0 0 0 0 -16.270430468182894 17.996223939363816 0 17.996223939363816 -7.7448258020540095 0 0 0 0 -28.03848866372573 108.41145805869857 0 108.41145805869857 -42.472853904683461 0 0 0 0 73.308873017718724 58.608579048911167 0 58.608579048911167 2.8206969161961695 0 0 0 0 77.508575230691349 50.04531650016834 0 50.04531650016834 3.7578496726655146 0 0 0 0 182.05957454926329 46.412720284734164 0 46.412720284734164 -14.197100940877363 0 0 0 0 105.38818028777314 -5.3492764454858346 0 -5.3492764454858346 45.969031465499711 0 0 0 0 54.737821385730058 3.6630312227083444 0 3.6630312227083444 27.361736569912772 0 0 0 0 185.65272666436795 -24.746653553375022 0 -24.746653553375022 40.235555141429707 0 0 0 0 130.13937880832236 37.789578273264787 0 37.789578273264787 0.0015489867611053979 0 0 0 0 2.0591142451885389 57.05822870628441 0 57.05822870628441 0.060820683687341733 0 0 0 0 0.96463918820518302 54.030743381544866 0 54.030743381544866 -8.0744867283421229 0 0 0 0 -1.1692002990894252 52.007211100881015 0 52.007211100881015 -0.037603085910133865 0 0 0 0 7.8567211000918178 59.20937451527179 0 59.20937451527179 -5.1348554669851438 0 0 0 0 10.629781160634593 43.203652024774094 0 43.203652024774094 -11.63887337499952 0 0 0 0 -36.037101109861396 17.095237067858953 0 17.095237067858953 -9.3220508508388349 0 0 0 0 -27.848274938267423 29.69594404632668 0 29.69594404632668 -13.001237754745132 0 0 0 0 -92.271796543616802 23.340839688955754 0 23.340839688955754 -7.5890624363042605 0 0 0 0 -79.31915572064463 26.013830430362152 0 26.013830430362152 -0.0083800971957878855 0 0 0 0 -43.50397471733595 41.903034706211798 0 41.903034706211798 -7.8351961555563729 0 0 0 0 280.12752848677337 -73.048508452050442 0 -73.048508452050442 -242.43004162586192 0 0 0 0 11.993050561730342 -2.9520599132609395 0 -2.9520599132609395 -2.6112519000442012 0 0 0 0 9.3178136316955715 -1.8313426422525652 0 -1.8313426422525652 0.27092635073103 0 0 0 0 -38.828552237711847 40.056686149058692 0 40.056686149058692 -30.863400544151006 0 0 0 0 0.63792278766345589 2.0458179300961419 0 2.0458179300961419 -0.61405619162971847 0 0 0 0 -193.2147124291223 117.76670818468637 0 117.76670818468637 221.06148545360077 0 0 0 0 5.2341900135037065 6.4304358037372822 0 6.4304358037372822 -4.552904998476226 0 0 0 0 -68.620162995939609 41.413542767889226 0 41.413542767889226 5.8849391597115357 0 0 0 0 2.2457227785296112 5.5770190552913164 0 5.5770190552913164 -7.0298172212243042 0 0 0 0 314.97294566020719 -133.46002751418155 0 -133.46002751418155 -85.542089724557854 0 0 0 0 -39.683058299393451 -22.826117419994262 0 -22.826117419994262 37.148895798153944 0 0 0 0 87.419031535464455 -59.169520820986236 0 -59.169520820986236 -3.8649530321381462 0 0 0 0 197.10681713922531 7.5269950304209061 0 7.5269950304209061 -56.563074934127854 0 0 0 0 0.86397509276204687 0.91566379473343318 0 0.91566379473343318 -0.27952816618311549 0 0 0 0 229.10262289662569 -81.416298380578041 0 -81.416298380578041 -15.888522527218583 0 0 0 0 -11.637262495260075 59.790532120969445 0 59.790532120969445 11.450740381802973 0 0 0 0 -221.65248011042422 -64.284558543918848 0 -64.284558543918848 752.86731602555164 0 0 0 0 -210.97607845065068 -301.8747695141019 0 -301.8747695141019 210.19770575459381 0 0 0 0 3.2577559099327686 -1.4007569440095082 0 -1.4007569440095082 0.96727727001161123 0 0 0 0 -348.96241857887799 83.019779254822367 0 83.019779254822367 301.84624377187674 0 0 0 0 -425.16539168581949 -156.49879145290885 0 -156.49879145290885 430.07002942225307 0 0 0 0 -107.86907268856885 72.220383084212926 0 72.220383084212926 468.20051302640479 0 0 0 0 116.89235555392224 146.321330421157 0 146.321330421157 124.91520044464556 0 0 0 0 387.81992235549842 94.829509146272954 0 94.829509146272954 82.281220348078477 0 0 0 0 278.49126630288083 91.657462716691711 0 91.657462716691711 0.10871392032383105 0 0 0 0 546.51472369869589 137.38887144071089 0 137.38887144071089 -5.393415103686773 0 0 0 0 -89.735813656472601 63.030449193959392 0 63.030449193959392 123.45567113711495 0 0 0 0 -64.589192235524024 -35.31627967248258 0 -35.31627967248258 -12.095433670056071 0 0 0 0 107.46004123828607 -125.89742655174291 0 -125.89742655174291 29.746257680553299 0 0 0 0 65.45147957286099 -102.06267548216377 0 -102.06267548216377 170.40614427516493 0 0 0 0 299.80123327157344 37.485452494518995 0 37.485452494518995 99.879682109365774 0 0 0 0 252.64199999865377 -196.2084806278408 0 -196.2084806278408 62.193834102070525 0 0 0 0 -172.29837220578338 -46.096580803442066 0 -46.096580803442066 95.340711456593112 0 0 0 0 9.3959253261265872 -3.8980488557389315 0 -3.8980488557389315 1.1127403649297742 0 0 0 0 5.9305761279538274 -5.7003978061378628 0 -5.7003978061378628 0.044110703839364371 0 0 0 0 111.59285290502885 -132.68068404846304 0 -132.68068404846304 23.460356794462768 0 0 0 0 5.9274644294055179 -5.5626595505540424 0 -5.5626595505540424 -0.020730979380029217 0 0 0 0 14.24825183102331 -3.434129255844681 0 -3.434129255844681 -0.039313052255997759 0 0 0 0 -165.48215522119426 -84.319069566658754 0 -84.319069566658754 37.627908684174628 0 0 0 0 -452.31002041077591 -371.87313729068899 0 -371.87313729068899 84.565613732447105 0 0 0 0 363.73265422869372 202.15456687062084 0 202.15456687062084 101.42361244099538 0 0 0 0 3.4957863629170447 -2.1781812372962008 0 -2.1781812372962008 0.72565265278723246 0 0 0 0 112.39805482022348 25.257309180978609 0 25.257309180978609 12.276608294894004 0 0 0 0 181.18388633502764 40.801599735674927 0 40.801599735674927 -12.001925306412772 0 0 0 0 8.655715963178011 -4.1655077597599472 0 -4.1655077597599472 -0.60820018538203247 0 0 0 0 173.62456762877991 117.74581259609032 0 117.74581259609032 55.168061268382189 0 0 0 0 -435.46442938754899 -0.76167487442988602 0 -0.76167487442988602 522.07801725569277 0 0 0 0 244.83686020926689 -428.86263983932099 0 -428.86263983932099 -534.67462261010678 0 0 0 0 7.6033799115293732 -1.6559804905554358 0 -1.6559804905554358 0.14419646061840946 0 0 0 0 -39.707181199664774 21.986272635663255 0 21.986272635663255 -57.857758507797485 0 0 0 0 36.97200954737491 -289.00241297789148 0 -289.00241297789148 46.338868729923149 0 0 0 0 43.707310935622445 9.6773482753374651 0 9.6773482753374651 -138.78707083537847 0 0 0 0 33.779422937586787 -38.659751756029891 0 -38.659751756029891 -214.87409849219512 0 0 0 0 8.47386093281483 -2.3071576437983481 0 -2.3071576437983481 -5.7023090083151082 0 0 0 0 47.649637415379402 0.96503162955173138 0 0.96503162955173138 -11.86612299123226 0 0 0 0 44.679866791506356 9.3559142392363128 0 9.3559142392363128 -8.6649345143614482 0 0 0 0 70.425841630494688 8.0976682179853015 0 8.0976682179853015 -24.170359810883383 0 0 0 0 -11.973805172874563 -61.536778647093399 0 -61.536778647093399 -115.07676156093248 0 0 0 0 9.5635343652672873 -3.1046160278150978 0 -3.1046160278150978 -2.9329658056604329 0 0 0 0 -24.156461508246139 -117.7102821338367 0 -117.7102821338367 -211.12925703559262 0 0 0 0 90.151074830020661 51.557770346109237 0 51.557770346109237 11.938100361173383 0 0 0 0 57.418229262213572 25.252589975105934 0 25.252589975105934 8.1121668868468078 0 0 0 0 85.091576955644996 36.494634837029253 0 36.494634837029253 -14.04164005380153 0 0 0 0 68.586273461387464 16.857922440711491 0 16.857922440711491 -32.783593311514778 0 0 0 0 98.415748877443548 28.6584036742546 0 28.6584036742546 -43.303131763167585 0 0 0 0 73.889848879844067 9.2122418337953604 0 9.2122418337953604 -22.267362330590117 0 0 0 0 146.44760261924239 30.124693931824368 0 30.124693931824368 -30.566886521921788 0 0 0 0 85.137771532550687 41.021796125752189 0 41.021796125752189 47.037361278619613 0 0 0 0 114.0042235012952 -7.7256754896433222 0 -7.7256754896433222 -91.353679347832895 0 0 0 0 76.424033086166219 -1.0957810418598086 0 -1.0957810418598086 -2.4331240062078705 0 0 0 0 67.897727784678864 2.3827605193607653 0 2.3827605193607653 -4.5825494183341675 0 0 0 0 66.775376718200278 1.7850891193982079 0 1.7850891193982079 -4.4104865714843413 0 0 0 0 69.457613232740187 -8.2866385362839168 0 -8.2866385362839168 11.34741511698121 0 0 0 0 127.57930221047718 5.6379992613535705 0 5.6379992613535705 -26.725712375280409 0 0 0 0 93.418081483483547 11.896042709339781 0 11.896042709339781 -55.760441644869161 0 0 0 0 78.48671143374645 2.1346210429001715 0 2.1346210429001715 -3.3977685482618067 0 0 0 0 76.040876343671698 8.8189128978210647 0 8.8189128978210647 -29.559747564624104 0 0 0 0 13.600947070318853 -9.8891876909425065 0 -9.8891876909425065 -8.3016621068475871 0 0 0 0 69.773010530218016 22.742809183909344 0 22.742809183909344 32.008131075442634 0 0 0 0 115.00340212561423 -10.217661956392021 0 -10.217661956392021 -6.6163730223659059 0 0 0 0 112.90122314402652 20.596319781031326 0 20.596319781031326 6.229248462974283 0 0 0 0 80.376293272180192 -2.8412410863506068 0 -2.8412410863506068 6.3060518695187966 0 0 0 0 94.325881377633777 4.6165983887792663 0 4.6165983887792663 8.249716536136134 0 0 0 0 31.773126272715217 -3.1100782676417396 0 -3.1100782676417396 -7.6411178978191376 0 0 0 0 48.491793197340542 -4.517304266940311 0 -4.517304266940311 -8.3913492403695749 0 0 0 0 25.587894270400284 -12.307159274686455 0 -12.307159274686455 -26.995123040152976 0 0 0 0 82.353350650635548 5.8352245325454533 0 5.8352245325454533 -17.919109583399404 0 0 0 0 43.553699205183136 -5.9638621425844036 0 -5.9638621425844036 -8.2469621569757727 0 0 0 0 79.104439123475458 1.0377936970999144 0 1.0377936970999144 -24.748772815147447 0 0 0 0 6.4082993867528444 -0.30420617784164961 0 -0.30420617784164961 -4.9017622707736326 0 0 0 0 11.209199513177737 -7.9766545866073102 0 -7.9766545866073102 -12.703759349334177 0 0 0 0 42.764749593305169 -6.9042276267931584 0 -6.9042276267931584 -28.138509608563481 0 0 0 0 5.7235377054146852 12.124883795024509 0 12.124883795024509 -3.7918072884063321 0 0 0 0 77.387203592486912 -9.4209995500929153 0 -9.4209995500929153 -54.154236444677963 0 0 0 0 116.85427702200832 2.676667206146476 0 2.676667206146476 -1.9266720929435905 0 0 0 0 73.150524473341648 44.762522442285444 0 44.762522442285444 15.141762897010551 0 0 0 0 -7.2620034423307516 166.83078202293405 0 166.83078202293405 79.772615303429006 0 0 0 0 211.99248969879409 64.39898172378264 0 64.39898172378264 -113.52974584422941 0 0 0 0 61.736275472881971 -27.604120233264666 0 -27.604120233264666 13.200714474301492 0 0 0 0 121.43964905870962 17.190966154650937 0 17.190966154650937 28.052106231568189 0 0 0 0 124.02602837714949 15.070864475550025 0 15.070864475550025 -50.091130196302402 0 0 0 0 72.138009856222197 20.028126532856845 0 20.028126532856845 -26.078359902273291 0 0 0 0 126.38055977012846 -13.189962948653744 0 -13.189962948653744 12.012729725733948 0 0 0 0 153.41089446852857 1.3670051153519012 0 1.3670051153519012 -34.912663350198727 0 0 0 0 74.705696001299657 65.243772306485198 0 65.243772306485198 -42.860465062906115 0 0 0 0 8.1251329152728431 54.120771916099073 0 54.120771916099073 -6.624921861807934 0 0 0 0 13.007771280928353 3.8101926853306622 0 3.8101926853306622 -13.636349356437623 0 0 0 0 25.411894937366014 -21.474042672834912 0 -21.474042672834912 -23.150306747758805 0 0 0 0 148.96151680136973 -6.7285622223096198 0 -6.7285622223096198 -35.942679618312013 0 0 0 0 64.05118790679262 -19.019772853281211 0 -19.019772853281211 -35.36396476843511 0 0 0 0 75.60812279790116 -34.80358132656329 0 -34.80358132656329 -59.687018087776551 0 0 0 0 104.27278272109106 8.7756506605783215 0 8.7756506605783215 -3.0328763241745946 0 0 0 0 76.835721518307992 3.988197729531727 0 3.988197729531727 -5.631239955503192 0 0 0 0 111.52339699293952 7.6497253610062899 0 7.6497253610062899 -2.7210846637392478 0 0 0 0 98.890504003022215 4.9519804559437262 0 4.9519804559437262 1.1758276739333269 0 0 0 0 87.154721352810157 14.124134179679345 0 14.124134179679345 2.6992175546930639 0 0 0 0 106.89321331249084 11.463697970162912 0 11.463697970162912 2.0439394988288768 0 0 0 0 75.344922331889393 -4.4443593036146467 0 -4.4443593036146467 -3.0596139562346707 0 0 0 0 101.38347183908627 4.4076257566091499 0 4.4076257566091499 -6.2300820691055492 0 0 0 0 94.972333637444535 12.253880559929371 0 12.253880559929371 -3.9732182061161438 0 0 0 0 97.198961232890724 14.893950637394937 0 14.893950637394937 -1.0994636360807704 0 0 0 0 108.25494921521749 -1.4804851830007237 0 -1.4804851830007237 2.3246348516886428 0 0 0 0 123.99539103537245 4.6711043181684317 0 4.6711043181684317 -4.2802477571706277 0 0 0 0 17.252230908747208 14.095765250644376 0 14.095765250644376 -7.6913251544869974 0 0 0 0 107.10705245097506 6.536936058552282 0 6.536936058552282 7.3821353305418143 0 0 0 0 34.089226652612467 38.509064812679696 0 38.509064812679696 -5.4957457605093003 0 0 0 0 119.31154465251893 -1.5253134968483266 0 -1.5253134968483266 1.0363930084647563 0 0 0 0 113.5551563554327 0.96218613248061047 0 0.96218613248061047 6.905796841868721 0 0 0 0 21.462947524571916 11.377782140226707 0 11.377782140226707 1.0100232559139677 0 0 0 0 42.141263234181679 20.259186368676524 0 20.259186368676524 -32.198768210927938 0 0 0 0 116.78359312620887 8.030849601881016 0 8.030849601881016 -20.762336800937646 0 0 0 0 11.092653803336262 1.2265245522753503 0 1.2265245522753503 -1.6040938093924471 0 0 0 0 -26.27042367021204 69.088565468524621 0 69.088565468524621 -37.341957101583603 0 0 0 0 40.59998521985699 20.742710639391262 0 20.742710639391262 -9.9054021863145145 0 0 0 0 65.496291808442038 26.329838747372801 0 26.329838747372801 8.1811023232122579 0 0 0 0 11.931269283958258 9.7389865477994704 0 9.7389865477994704 -15.522567105228678 0 0 0 0 48.135469581946381 9.6349274906665414 0 9.6349274906665414 -26.022755548548162 0 0 0 0 67.37534855917329 1.0774960225484591 0 1.0774960225484591 -11.222033932265759 0 0 0 0 97.847746414277935 -35.952346433629316 0 -35.952346433629316 -22.130369159540393 0 0 0 0 73.027226828613493 6.1079476835548121 0 6.1079476835548121 2.9226581891241494 0 0 0 0 111.85998092747468 -26.307863085989652 0 -26.307863085989652 4.7451113521851767 0 0 0 0 8.4341521060131157 13.792968982063343 0 13.792968982063343 -11.938967630938663 0 0 0 0 2.294746138118299 10.726607954277284 0 10.726607954277284 -12.792228570125328 0 0 0 0 105.18712897028308 13.02221772362217 0 13.02221772362217 13.851103572896136 0 0 0 0 -15.565701765735867 -23.264461494514762 0 -23.264461494514762 47.251203467696541 0 0 0 0 160.13086899009068 -48.891668120332497 0 -48.891668120332497 -17.482641480620259 0 0 0 0 87.742568867310183 115.00292903483978 0 115.00292903483978 -166.14299051449325 0 0 0 0 -157.08221707359189 98.253794103543441 0 98.253794103543441 13.946786743591474 0 0 0 0 73.709883762858226 61.857445239846356 0 61.857445239846356 -68.127356131880333 0 0 0 0 -11.086347594740801 -77.299773111369177 0 -77.299773111369177 -93.990674245419541 0 0 0 0 42.75143320672214 2.9454709959782122 0 2.9454709959782122 -58.085881237978356 0 0 0 0 90.556884552714109 15.451040775026854 0 15.451040775026854 -77.637333720123934 0 0 0 0 58.619514391059056 -0.67659488015897296 0 -0.67659488015897296 -216.56621440637537 0 0 0 0 -22.585340547695523 -38.428011125743069 0 -38.428011125743069 -48.403104605833505 0 0 0 0 13.036109445887206 5.4921614708510731 0 5.4921614708510731 -0.36992752148943531 0 0 0 0 -17.61985254008323 -40.715903000356775 0 -40.715903000356775 -51.605787783242704 0 0 0 0 50.589738182243309 25.675899603514154 0 25.675899603514154 -42.453334948793781 0 0 0 0 -14.029442887171172 -39.94351490459303 0 -39.94351490459303 -52.25813868205114 0 0 0 0 -17.702211536074174 -31.842782866843663 0 -31.842782866843663 -47.485015808055323 0 0 0 0 -11.770367125514895 -9.1126878849117929 0 -9.1126878849117929 -32.262536947961962 0 0 0 0 9.8095657914453795 -9.3670308411883525 0 -9.3670308411883525 -9.2219712187139677 0 0 0 0 26.642199762907694 30.711822457125436 0 30.711822457125436 0.48840134673264401 0 0 0 0 38.860755067318678 35.513418311318674 0 35.513418311318674 -1.4175397988738041 0 0 0 0 119.70513540332468 19.996643234112526 0 19.996643234112526 -53.332628261703576 0 0 0 0 53.373246378903445 27.236281153996877 0 27.236281153996877 6.9476480319031833 0 0 0 0 31.460304835269199 -10.829619303327604 0 -10.829619303327604 -4.2441318169621809 0 0 0 0 0.1312721257357623 -0.93930945918305042 0 -0.93930945918305042 0.1376694513165404 0 0 0 0 6.9161885758076096 -111.69326245194725 0 -111.69326245194725 -68.633844006977142 0 0 0 0 380.14558644061617 99.111096788780287 0 99.111096788780287 -17.288439140356559 0 0 0 0 168.29807779158 -2.9876898406528198 0 -2.9876898406528198 -66.03598118165155 0 0 0 0 154.78652423866151 -50.878727560931566 0 -50.878727560931566 -13.173823034588168 0 0 0 0 215.46768342439464 -64.877107638197458 0 -64.877107638197458 -58.247816547735965 0 0 0 0 166.73993014919688 33.911581947543482 0 33.911581947543482 -52.780105297558293 0 0 0 0 91.366193928030043 25.519569925519392 0 25.519569925519392 -4.0063678995229566 0 0 0 0 151.04605249660381 -32.163411615044652 0 -32.163411615044652 -26.758050291331529 0 0 0 0 86.321017292568285 -8.0785640140122723 0 -8.0785640140122723 -11.395592440741439 0 0 0 0 99.178939719262416 17.816559901198616 0 17.816559901198616 -17.506028232646358 0 0 0 0 96.20967560812278 26.663290006735338 0 26.663290006735338 -17.860724494259102 0 0 0 0 103.47553201456321 10.146880210602831 0 10.146880210602831 -3.911687844419248 0 0 0 0 102.83415777752089 9.397395070253765 0 9.397395070253765 -3.7739727464304451 0 0 0 0 39.634923790115863 -19.926553293186089 0 -19.926553293186089 1.5367643265478819 0 0 0 0 110.79606972226611 8.7511817957833955 0 8.7511817957833955 -6.8108430467711969 0 0 0 0 0.42683339203965431 -1.1123255555669687 0 -1.1123255555669687 -0.4561383006655646 0 0 0 0 65.347901740151428 0.089115960060439647 0 0.089115960060439647 -2.1333279615209904 0 0 0 0 77.429874966284842 -12.603331865805785 0 -12.603331865805785 -1.5334771125528732 0 0 0 0 75.137621520683751 -7.0992728189821719 0 -7.0992728189821719 -4.1566230156072379 0 0 0 0 80.131860090128612 -5.2350192116882681 0 -5.2350192116882681 -7.5878803014613823 0 0 0 0 0.53430096568872898 -1.3348527982955716 0 -1.3348527982955716 -0.79153999360273275 0 0 0 0 88.234890322826686 7.2879108148464979 0 7.2879108148464979 7.4387572999021359 0 0 0 0 90.60384808377421 1.4739013693790639 0 1.4739013693790639 -0.40115739587486132 0 0 0 0 87.994592688090052 5.8547515783359358 0 5.8547515783359358 0.83123940521431905 0 0 0 0 98.835592763593013 0.72682715050279967 0 0.72682715050279967 -5.8146068127366561 0 0 0 0 88.147339023213135 -2.8784928435852635 0 -2.8784928435852635 -9.9657352774047467 0 0 0 0 79.781848599319346 -3.7687289075108765 0 -3.7687289075108765 -3.2157460819965991 0 0 0 0 85.007927782433399 -1.0145259589062334 0 -1.0145259589062334 2.1482958515634891 0 0 0 0 99.04769379852587 -17.644917545448266 0 -17.644917545448266 -34.014136232224701 0 0 0 0 102.40642169940111 -2.7410409817412074 0 -2.7410409817412074 -26.625625492683866 0 0 0 0 85.279648359195562 0.3977214669453133 0 0.3977214669453133 -11.099275538466145 0 0 0 0 77.772386913362425 5.4821100745191416 0 5.4821100745191416 -9.8872516808960427 0 0 0 0 74.88541792302567 14.95892241897559 0 14.95892241897559 -7.3496254004276125 0 0 0 0 107.18481493112631 26.783261910685724 0 26.783261910685724 -38.19211250041235 0 0 0 0 94.72232736699516 25.576594773648139 0 25.576594773648139 -37.88308862006852 0 0 0 0 111.97061281504284 5.6188077747947318 0 5.6188077747947318 -32.556991432835275 0 0 0 0 175.05807938723592 -1.3333415732486174 0 -1.3333415732486174 -60.606818611336166 0 0 0 0 115.96029709899449 -1.3354464620688304 0 -1.3354464620688304 -57.613061175438816 0 0 0 0 90.118126907793339 -8.2646653794274698 0 -8.2646653794274698 -19.82983865812821 0 0 0 0 70.697218715533381 -4.6744871110900021 0 -4.6744871110900021 0.59704313522161101 0 0 0 0 75.044437659322284 -12.479503157684576 0 -12.479503157684576 -49.786580047635653 0 0 0 0 98.709793445814284 17.852698241736562 0 17.852698241736562 -16.562381772912886 0 0 0 0 69.828870587822166 25.909792234534507 0 25.909792234534507 -23.198186503029319 0 0 0 0 23.651191231816483 -46.020025691300361 0 -46.020025691300361 -64.277001914455468 0 0 0 0 0.41872012069558195 -1.1614819456404462 0 -1.1614819456404462 -0.59370482184603901 0 0 0 0 64.959856966597727 -31.089378774939178 0 -31.089378774939178 -78.026275614178758 0 0 0 0 26.722207834376604 -41.050456388231396 0 -41.050456388231396 -70.213546473507449 0 0 0 0 38.606351628712162 -4.7004816090872747 0 -4.7004816090872747 -0.87998640380241566 0 0 0 0 49.702186900041852 11.946047112450287 0 11.946047112450287 -36.456973648380881 0 0 0 0 38.408974861085881 -35.128390930945898 0 -35.128390930945898 -63.402259837097517 0 0 0 0 -11.480322190531297 -7.8093274578245655 0 -7.8093274578245655 -39.034445883093213 0 0 0 0 20.84035935983411 -46.280679351366416 0 -46.280679351366416 -62.938988519428847 0 0 0 0 56.353923163005675 -5.954732773730484 0 -5.954732773730484 -19.910703921990716 0 0 0 0 160.01930209925922 -229.32946409709047 0 -229.32946409709047 -72.331311235758221 0 0 0 0 49.228238305964624 -7.2158758763725928 0 -7.2158758763725928 -14.122608780185885 0 0 0 0 44.233365292324379 -7.4302402137414081 0 -7.4302402137414081 -0.8689035907244268 0 0 0 0 24.4943234960665 -9.3119015640841099 0 -9.3119015640841099 1.8849160795286934 0 0 0 0 -19.939598181874317 -60.288203138817607 0 -60.288203138817607 38.935621329464993 0 0 0 0 34.594151166525279 -6.4152848856521558 0 -6.4152848856521558 -7.1930537630501341 0 0 0 0 -68.351005438795255 -11.742437655098001 0 -11.742437655098001 -48.282658154685123 0 0 0 0 114.34213482274313 2.9918063638287293 0 2.9918063638287293 -9.5432280057270589 0 0 0 0 -441.1759627572028 -757.84321217446632 0 -757.84321217446632 237.04948720927518 0 0 0 0 954.05959680094384 1532.1649063236305 0 1532.1649063236305 801.37555882310335 0 0 0 0 224.5664976091648 -63.367973173040809 0 -63.367973173040809 -6.3200364095609984 0 0 0 0 150.7859007253719 -66.273379913674944 0 -66.273379913674944 179.7389382388792 0 0 0 0 162.55900220910553 -1.4557423731084782 0 -1.4557423731084782 -48.49126020537733 0 0 0 0 196.85520956715482 -1.0124319051144539 0 -1.0124319051144539 -56.755176048505746 0 0 0 0 125.91272673229105 35.782856319344319 0 35.782856319344319 -59.135527874164836 0 0 0 0 144.23526560136816 29.298857437005609 0 29.298857437005609 -70.179698318104784 0 0 0 0 77.715676634805277 49.861545862874664 0 49.861545862874664 -76.431186315851733 0 0 0 0 12.035683496111403 0.061675178909744943 0 0.061675178909744943 0.18658425898723463 0 0 0 0 66.623206190750352 53.750292738676762 0 53.750292738676762 -45.578574161065262 0 0 0 0 53.069365739880595 10.093161203847558 0 10.093161203847558 -35.736594074106506 0 0 0 0 59.904992334485598 -3.5074059668598956 0 -3.5074059668598956 -0.34239135151868316 0 0 0 0 39.167734536596981 0.73330589189981765 0 0.73330589189981765 -15.111244542232271 0 0 0 0 5.8581916266266489 225.77881453311124 0 225.77881453311124 56.672473179670305 0 0 0 0 91.917475951326196 -0.077374621425406076 0 -0.077374621425406076 -50.722091855406688 0 0 0 0 55.741701901658473 -0.13232179127198407 0 -0.13232179127198407 -2.803471638147542 0 0 0 0 -12.647389146753994 28.40484839886085 0 28.40484839886085 -167.6441579716361 0 0 0 0 344.01711151084965 63.68469178107398 0 63.68469178107398 -682.7242422232739 0 0 0 0 39.566686044214293 338.1103395880782 0 338.1103395880782 -480.8284440791158 0 0 0 0 94.172331249457784 -165.08222388270588 0 -165.08222388270588 624.20298919043489 0 0 0 0 972.11170675066387 -28.698804497962101 0 -28.698804497962101 -498.31724817968279 0 0 0 0 96.627261404275487 -169.7424295606088 0 -169.7424295606088 -5.2022356592960932 0 0 0 0 197.02504767780192 -99.064102184180229 0 -99.064102184180229 43.37347267543646 0 0 0 0 2.410630015471412 0.77738305388190554 0 0.77738305388190554 -0.37546860378311564 0 0 0 0 139.81197515805252 137.13829859831367 0 137.13829859831367 -57.370277578935202 0 0 0 0 154.14216727259918 -103.59076456892399 0 -103.59076456892399 44.628992948340965 0 0 0 0 -24.833541675725428 -147.45672022305189 0 -147.45672022305189 -539.82565200258978 0 0 0 0 -231.63329286938824 280.52625878463186 0 280.52625878463186 -274.11121003595372 0 0 0 0 50.514844944740275 -0.95738330257579918 0 -0.95738330257579918 -3.6935769997253782 0 0 0 0 8.7388515949688923 3.7402677125692207 0 3.7402677125692207 -8.7257711976476315 0 0 0 0 -223.32025751018955 -192.66031060239038 0 -192.66031060239038 838.91552629902071 0 0 0 0 -809.07955482864054 485.580912357118 0 485.580912357118 558.80843437979456 0 0 0 0 245.37638797302498 380.91406214453673 0 380.91406214453673 -579.13247326074872 0 0 0 0 73.353275213565212 280.16634861011516 0 280.16634861011516 -74.64433502088832 0 0 0 0 237.41737199552153 266.73183263605551 0 266.73183263605551 -236.15175782109509 0 0 0 0 183.03277211923705 234.18858494803317 0 234.18858494803317 -111.24254040025698 0 0 0 0 0.61606142451637425 279.35564835587502 0 279.35564835587502 -163.24144564359494 0 0 0 0 -82.741495956521248 -199.33123853001143 0 -199.33123853001143 21.625031125892747 0 0 0 0 196.89119175511587 -97.195220929441348 0 -97.195220929441348 -224.72838209604129 0 0 0 0 1.9029462574422382 -1.1683490855158425 0 -1.1683490855158425 -5.5653711284632799 0 0 0 0 170.08347529567982 -79.428099077679235 0 -79.428099077679235 155.60590202800813 0 0 0 0 439.23088560588076 7.2965947610537114 0 7.2965947610537114 -13.537202691939456 0 0 0 0 163.74416857244796 -24.857775689430127 0 -24.857775689430127 6.273824240299291 0 0 0 0 327.42421062471112 93.435224586180993 0 93.435224586180993 25.82119245080321 0 0 0 0 -80.990033546098516 105.8800301670459 0 105.8800301670459 59.191239483909158 0 0 0 0 224.61528146776254 278.60222812531447 0 278.60222812531447 37.545250050329003 0 0 0 0 437.65440714779834 3.8637464215998989 0 3.8637464215998989 -58.283535566244609 0 0 0 0 134.02325617107272 32.651869643688315 0 32.651869643688315 49.199395211446245 0 0 0 0 190.54438722224586 87.839418590305058 0 87.839418590305058 -7.3269603271219239 0 0 0 0 181.61993689273368 34.312755388360529 0 34.312755388360529 -153.13017527842567 0 0 0 0 127.52826086597634 182.87053696668772 0 182.87053696668772 -99.281136747093115 0 0 0 0 223.43746056777309 187.36350634022165 0 187.36350634022165 -6.1119796886778204 0 0 0 0 173.60511344563565 113.77555415328243 0 113.77555415328243 2.1995168151770486 0 0 0 0 133.21553198713809 161.16165675771845 0 161.16165675771845 247.31884316780634 0 0 0 0 38.059740480268374 -53.878737939350685 0 -53.878737939350685 150.1871766129143 0 0 0 0 386.7062116964953 219.5781064707553 0 219.5781064707553 -14.812921751736212 0 0 0 0 7.2537050771958889 -0.5434585687648692 0 -0.5434585687648692 -2.7431108839892744 0 0 0 0 314.56148903672874 375.44377670963786 0 375.44377670963786 167.61768718556596 0 0 0 0 6.5934129464309592 0.37856824074324891 0 0.37856824074324891 -4.5795879696692836 0 0 0 0 473.40847539177048 196.54773698598183 0 196.54773698598183 -36.987095860400586 0 0 0 0 221.54617249392322 241.1548726627625 0 241.1548726627625 45.551115076878887 0 0 0 0 -25.628934607317206 -53.904453210274369 0 -53.904453210274369 -82.202010183773382 0 0 0 0 12.890532946684289 -5.4329128981609927 0 -5.4329128981609927 0.4451411921714481 0 0 0 0 5.5431631156534422 -35.464748000289546 0 -35.464748000289546 -43.969650102701621 0 0 0 0 -19.876754289580276 -40.585871341843813 0 -40.585871341843813 -59.624192832605331 0 0 0 0 0.90248997672460973 -22.938430895317651 0 -22.938430895317651 -44.696751198724087 0 0 0 0 43.567863266405766 -5.8450227226385323 0 -5.8450227226385323 -53.865710276942991 0 0 0 0 56.639490267058136 13.432078863241259 0 13.432078863241259 -32.389882319292155 0 0 0 0 24.728602354909526 -6.7255733478104958 0 -6.7255733478104958 -34.984037921291019 0 0 0 0 21.728788285254268 -20.839933679035312 0 -20.839933679035312 -67.648369057331365 0 0 0 0 -4.7646544786548475 -27.623670330947789 0 -27.623670330947789 -16.43068034695807 0 0 0 0 34.433329929801403 -11.176544505999118 0 -11.176544505999118 -40.035794121040453 0 0 0 0 30.092783965927083 -6.7516360046283808 0 -6.7516360046283808 -16.944632917251511 0 0 0 0 20.920540183025878 -37.822346079708041 0 -37.822346079708041 70.33190766425173 0 0 0 0 20.787826685715117 4.2796842750667565 0 4.2796842750667565 -11.878559748476619 0 0 0 0 74.134707546952995 65.701426486047239 0 65.701426486047239 -35.475362922170461 0 0 0 0 9.0343556945437058 -1.4180551939873141 0 -1.4180551939873141 -4.5681648447430874 0 0 0 0 40.008327499148436 122.52560912631088 0 122.52560912631088 2.8774612992365292 0 0 0 0 184.80560547277082 102.02230387527784 0 102.02230387527784 -30.745519290074299 0 0 0 0 182.15471758201602 55.534188837762485 0 55.534188837762485 85.319951368079273 0 0 0 0 122.87105916484143 121.76648834337425 0 121.76648834337425 82.152824212767428 0 0 0 0 118.83623356866156 166.49036113112447 0 166.49036113112447 -35.980109900977368 0 0 0 0 13.550838442209681 0.45488591908228138 0 0.45488591908228138 -3.043263570480371 0 0 0 0 787.12438914371887 -432.16873970355664 0 -432.16873970355664 495.36174806142299 0 0 0 0 52.840010213374626 11.528773177783478 0 11.528773177783478 -0.18128348446407472 0 0 0 0 -290.78466339346778 155.22632097213045 0 155.22632097213045 599.68368046615637 0 0 0 0 15.25975060331595 2.7107857046171802 0 2.7107857046171802 -3.9326605163825556 0 0 0 0 3.8169967895374839 5.6962358292019379 0 5.6962358292019379 0.79598083950181442 0 0 0 0 422.95873310812749 -164.57113377865539 0 -164.57113377865539 -6.5860788990114543 0 0 0 0 99.288064365580794 31.032603626821469 0 31.032603626821469 -122.13037888012406 0 0 0 0 82.072131570643251 -41.615798448931656 0 -41.615798448931656 -11.726512352160171 0 0 0 0 50.450258852448115 -17.985742583384834 0 -17.985742583384834 -22.567978599446857 0 0 0 0 119.18906808973406 -65.422785941436814 0 -65.422785941436814 -14.017225983837989 0 0 0 0 105.54224170050293 31.231595007252963 0 31.231595007252963 20.248678264252703 0 0 0 0 21.01011904590888 3.9171453926185222 0 3.9171453926185222 -0.39514153382468464 0 0 0 0 151.94540454800881 30.687609348891783 0 30.687609348891783 -29.955061350055075 0 0 0 0 280.06398205287405 5.8222420269094073 0 5.8222420269094073 -65.984840543290375 0 0 0 0 70.779291753900907 -18.388725455780332 0 -18.388725455780332 2.8862176033080686 0 0 0 0 228.98911059191869 -38.711250020085174 0 -38.711250020085174 -52.543107967368996 0 0 0 0 102.26845680126206 4.5263430966956761 0 4.5263430966956761 -4.6689875197367714 0 0 0 0 1.3470085506538396 -13.120188840235732 0 -13.120188840235732 -4.9897345283148802 0 0 0 0 205.06669368418079 73.25554961552416 0 73.25554961552416 -67.742716561052475 0 0 0 0 241.09226625664451 65.147126494597615 0 65.147126494597615 -82.075166350770814 0 0 0 0 221.45960761232709 73.004682252865905 0 73.004682252865905 -78.530902679332939 0 0 0 0 14.184256052308257 5.6207194245957055 0 5.6207194245957055 -13.365029390595543 0 0 0 0 70.968176367707201 -42.660169618460372 0 -42.660169618460372 -41.992414191964031 0 0 0 0 62.35367383697303 53.520699519016262 0 53.520699519016262 8.1649211902436605 0 0 0 0 21.298243386259742 8.438059340873977 0 8.438059340873977 -5.242835947948258 0 0 0 0 27.961302916919522 -336.23968093359417 0 -336.23968093359417 -415.57757038747513 0 0 0 0 269.96195000427542 -102.58043545810142 0 -102.58043545810142 -624.53017961531259 0 0 0 0 71.476559235576133 -53.855719876722105 0 -53.855719876722105 -245.50774701742012 0 0 0 0 116.99080523442535 28.083357663313336 0 28.083357663313336 -60.48206957407433 0 0 0 0 96.191489088812347 -10.290597299078904 0 -10.290597299078904 -9.2720354280277579 0 0 0 0 245.87610142262565 127.04407423027533 0 127.04407423027533 -63.979016443295222 0 0 0 0 151.10382730230484 8.2383663370595173 0 8.2383663370595173 -9.0431317532611324 0 0 0 0 173.72319443470042 -14.668409613537733 0 -14.668409613537733 -73.262314931860146 0 0 0 0 125.82921402298962 -30.500285727600385 0 -30.500285727600385 -59.796062535260717 0 0 0 0 141.67789882361831 -13.906085720996998 0 -13.906085720996998 -77.20373492350609 0 0 0 0 124.17228199831152 7.5426326356158526 0 7.5426326356158526 -1.7980068265914273 0 0 0 0 197.80468378170372 -120.88486754371388 0 -120.88486754371388 -100.00626596091388 0 0 0 0 189.8115795780468 -86.032839962755133 0 -86.032839962755133 -225.60957353854064 0 0 0 0 203.81839929731359 -13.906128682277995 0 -13.906128682277995 -145.03110204715995 0 0 0 0 138.3308321960867 -234.44729538374713 0 -234.44729538374713 -106.8311065500784 0 0 0 0 34.705087635302334 -202.77100969365483 0 -202.77100969365483 80.539985732277273 0 0 0 0 164.72058886353625 -84.561298382414861 0 -84.561298382414861 67.157544408464673 0 0 0 0 160.49109437766629 -170.39163347745588 0 -170.39163347745588 28.450658118110368 0 0 0 0 311.13909583821078 101.56801021433785 0 101.56801021433785 215.86683968575926 0 0 0 0 8.5994402447540779 -168.167969156646 0 -168.167969156646 413.50748695189395 0 0 0 0 77.510950322273857 -147.96123933569027 0 -147.96123933569027 496.92631706676912 0 0 0 0 4.8136856284399983 -163.0086151975238 0 -163.0086151975238 508.41263504706694 0 0 0 0 87.405368143452506 -201.74181127537167 0 -201.74181127537167 78.947772437553795 0 0 0 0 76.354572026160895 -255.89259753153146 0 -255.89259753153146 260.63285884445577 0 0 0 0 243.78110242678667 -395.15667068757512 0 -395.15667068757512 287.00909000561296 0 0 0 0 541.72061727917026 -125.76570559827405 0 -125.76570559827405 -49.680251109326036 0 0 0 0 206.45227076362062 -140.15653451276103 0 -140.15653451276103 -39.180798136394515 0 0 0 0 218.16993107445523 -33.020377076923978 0 -33.020377076923978 -297.52956751572128 0 0 0 0 291.56084614516658 63.542548297052235 0 63.542548297052235 -84.226580682492568 0 0 0 0 229.56490102458338 -110.19060703992272 0 -110.19060703992272 -246.20731054291264 0 0 0 0 337.21063868200872 2.5038495049493577 0 2.5038495049493577 -16.095839846074796 0 0 0 0 342.17164373158448 18.209224722796989 0 18.209224722796989 -38.83243333194423 0 0 0 0 3.5125603139806572 3.6556476968692238 0 3.6556476968692238 2.6358671747210067 0 0 0 0 39.32093014720158 27.769510527369903 0 27.769510527369903 -189.70149597100499 0 0 0 0 8.7450713695543527 74.61359598351919 0 74.61359598351919 -144.64572842462439 0 0 0 0 487.17414610691776 -24.566418542081919 0 -24.566418542081919 -100.17398175173184 0 0 0 0 316.19954978944224 108.61471503513349 0 108.61471503513349 -39.448361380931601 0 0 0 0 -72.205932609023876 -37.886628566532636 0 -37.886628566532636 23.659260900414665 0 0 0 0 0.40737860777153401 -24.162721314735791 0 -24.162721314735791 23.988306598335839 0 0 0 0 -79.87397045603575 31.596679560482698 0 31.596679560482698 32.370958086019527 0 0 0 0 -53.58007460385852 45.736343653518816 0 45.736343653518816 -157.68497527006639 0 0 0 0 -1.8587288813650957 -62.969724090963155 0 -62.969724090963155 -196.58438783487054 0 0 0 0 63.423651942150229 -3.0698648402404274 0 -3.0698648402404274 -0.2814588693741974 0 0 0 0 24.177173002768541 15.349498884642344 0 15.349498884642344 -41.155219035060327 0 0 0 0 37.945837726438185 16.119131049130374 0 16.119131049130374 -81.380396658729296 0 0 0 0 86.466774463275215 -1.1918779021616501 0 -1.1918779021616501 -75.505315442058418 0 0 0 0 58.282839387653752 -0.59854483903036737 0 -0.59854483903036737 -2.9608707766749918 0 0 0 0 26.08536417689902 117.66501355286164 0 117.66501355286164 -529.09151364246645 0 0 0 0 55.493418945311305 3.7859159070260944 0 3.7859159070260944 -2.7377484482552026 0 0 0 0 -57.435053880210035 -72.424269554948751 0 -72.424269554948751 -49.81681677888173 0 0 0 0 -31.00798323948402 39.562807515002532 0 39.562807515002532 -61.837477933339869 0 0 0 0 44.10810484128524 -3.4223092946255065 0 -3.4223092946255065 -38.052074761966651 0 0 0 0 367.25543401477626 273.75496769557321 0 273.75496769557321 -391.92370466960222 0 0 0 0 80.584415309567703 -86.807901400962692 0 -86.807901400962692 -185.03913718952754 0 0 0 0 182.38045794835125 -61.407992157517128 0 -61.407992157517128 -68.107716940266982 0 0 0 0 141.59776313070324 11.550455553473512 0 11.550455553473512 -27.008675454116201 0 0 0 0 385.73853107789182 335.96833246998813 0 335.96833246998813 -1051.0721128904443 0 0 0 0 239.14328825719713 -285.53509053998641 0 -285.53509053998641 -186.12130042946319 0 0 0 0 -6.6021891078999033 5.3624552184328422 0 5.3624552184328422 -200.26475842895161 0 0 0 0 39.128244558960432 398.04786300221349 0 398.04786300221349 -512.28790244009906 0 0 0 0 63.281879978886025 -13.993129971831458 0 -13.993129971831458 -1.2437325566742921 0 0 0 0 95.921066859184066 0.94382315154416574 0 0.94382315154416574 -90.925212350342008 0 0 0 0 60.551406300597591 34.724071521440237 0 34.724071521440237 -122.39324459025883 0 0 0 0 49.842875968082808 31.370367308802088 0 31.370367308802088 -52.933103147855036 0 0 0 0 101.29383955193771 -5.3817151350490349 0 -5.3817151350490349 -48.5031039080759 0 0 0 0 95.611054104396317 13.563310199326565 0 13.563310199326565 -88.868212262366796 0 0 0 0 103.62165098449873 5.0939765230053595 0 5.0939765230053595 -6.3336863356776059 0 0 0 0 76.600575174248661 22.106122298499031 0 22.106122298499031 17.186547225094728 0 0 0 0 83.244116986705194 11.278868036441281 0 11.278868036441281 -41.450234776682919 0 0 0 0 50.574473891392699 5.7303459771064809 0 5.7303459771064809 2.7890715835164883 0 0 0 0 104.52566725313955 12.063723597080525 0 12.063723597080525 -0.23032967192045817 0 0 0 0 107.30639663801412 53.367511477182688 0 53.367511477182688 10.811737383311197 0 0 0 0 50.603299463432506 -22.430743286468854 0 -22.430743286468854 -24.855559796808205 0 0 0 0 47.716386578169477 -81.339325000628833 0 -81.339325000628833 -47.565006735716452 0 0 0 0 73.859780647568186 -32.216454153980862 0 -32.216454153980862 -39.35120287117752 0 0 0 0 127.86137363619491 -22.550965084142945 0 -22.550965084142945 -33.357289961595598 0 0 0 0 70.255772295291536 -50.765169598356351 0 -50.765169598356351 -40.598480907345674 0 0 0 0 33.684640891427989 -28.626744027526911 0 -28.626744027526911 -12.115727054466333 0 0 0 0 55.356219329158193 11.566643051342908 0 11.566643051342908 -30.552621458941303 0 0 0 0 81.89947269235563 -8.6134037751039614 0 -8.6134037751039614 -3.8545968625767273 0 0 0 0 70.086256160968333 0.82500437797386894 0 0.82500437797386894 17.943254500721196 0 0 0 0 75.637865550044808 -16.156091872994466 0 -16.156091872994466 -5.1618581250008901 0 0 0 0 89.323731615244469 2.4361673253888512 0 2.4361673253888512 1.8708287990771169 0 0 0 0 88.542247724340996 1.1478767341271805 0 1.1478767341271805 4.3544732179841503 0 0 0 0 95.16358899980878 24.033069337426355 0 24.033069337426355 24.018136125125693 0 0 0 0 89.012585659846081 5.5874078072608881 0 5.5874078072608881 11.622983208014375 0 0 0 0 110.7747970315977 16.877840048324288 0 16.877840048324288 -66.495627610339398 0 0 0 0 -7.0988970411890477 -47.726803759391942 0 -47.726803759391942 -13.593201034265803 0 0 0 0 27.356046244589379 -171.53209727063222 0 -171.53209727063222 -59.247001222911422 0 0 0 0 54.341635251081868 -23.456620321412544 0 -23.456620321412544 -23.357119476757127 0 0 0 0 160.35800767959154 18.220865211680575 0 18.220865211680575 -44.679392261847852 0 0 0 0 131.05865814289427 -17.697305395104195 0 -17.697305395104195 -10.596750441087693 0 0 0 0 181.46756107993133 70.682015212566512 0 70.682015212566512 1.5767840142081013 0 0 0 0 197.69249862467404 64.165246439297334 0 64.165246439297334 28.404796454431562 0 0 0 0 218.29066659971431 -20.249642826785021 0 -20.249642826785021 -32.890525324600276 0 0 0 0 142.86239471389854 39.069775286779077 0 39.069775286779077 76.968550500333549 0 0 0 0 146.97479151862353 -6.0320133589443685 0 -6.0320133589443685 -70.158243055942876 0 0 0 0 163.68819302921474 -35.428443827440788 0 -35.428443827440788 -18.678038311536511 0 0 0 0 159.83710760695976 -29.634570708331012 0 -29.634570708331012 -63.275670880650068 0 0 0 0 71.052983780987034 -12.88619342910458 0 -12.88619342910458 -30.034083868854708 0 0 0 0 95.838173097494291 47.559375919391641 0 47.559375919391641 -27.406420848908965 0 0 0 0 175.46983095319592 28.715905309128175 0 28.715905309128175 -116.03548601810462 0 0 0 0 142.96125819885492 -0.93151054312784254 0 -0.93151054312784254 -69.452832222894358 0 0 0 0 242.75496215689054 -25.887092928048332 0 -25.887092928048332 -36.917660720964705 0 0 0 0 210.40282050845417 9.5010886822024077 0 9.5010886822024077 -69.311824000104025 0 0 0 0 121.19808463065419 62.823881667362912 0 62.823881667362912 -26.346503781847787 0 0 0 0 201.42297336875345 115.33961045292563 0 115.33961045292563 -19.85678874455698 0 0 0 0 49.365154532162705 165.31835378793176 0 165.31835378793176 382.036508601077 0 0 0 0 387.07951514828892 86.918648752279296 0 86.918648752279296 -16.399037701370162 0 0 0 0 212.48759560411963 21.388218947206383 0 21.388218947206383 33.908082310605096 0 0 0 0 309.7959634942672 -80.964780439312563 0 -80.964780439312563 136.22564875135322 0 0 0 0 224.26607220248843 126.22230635562119 0 126.22230635562119 242.07583411593077 0 0 0 0 193.51407608154113 64.679136869299327 0 64.679136869299327 124.53387847631893 0 0 0 0 383.83032191931852 136.14516988413015 0 136.14516988413015 74.034299068298424 0 0 0 0 193.57637335581239 -24.808051956510099 0 -24.808051956510099 -50.415187001314735 0 0 0 0 3.2087914507748678 2.4520045741682654 0 2.4520045741682654 0.085323505384541587 0 0 0 0 358.18010464363033 12.346108718757023 0 12.346108718757023 -48.333635776436495 0 0 0 0 212.59298762928847 -11.629350872070745 0 -11.629350872070745 -10.681268994745551 0 0 0 0 69.696723131259205 -24.358468774024914 0 -24.358468774024914 15.132631594822669 0 0 0 0 169.87102300292463 10.143375683205136 0 10.143375683205136 13.333113774659068 0 0 0 0 190.02311375939462 69.804916612894203 0 69.804916612894203 28.288177941046342 0 0 0 0 151.10171336412895 48.089908458046011 0 48.089908458046011 19.07081632189329 0 0 0 0 220.61784382263431 57.172307438591815 0 57.172307438591815 1.0270430292257515 0 0 0 0 215.13441649821652 105.47677339081946 0 105.47677339081946 34.959665721235069 0 0 0 0 234.77535772013289 80.071830719997138 0 80.071830719997138 23.461342095048167 0 0 0 0 263.2556750777585 64.323519163541278 0 64.323519163541278 31.808300940963818 0 0 0 0 258.98779698473027 135.97348040003919 0 135.97348040003919 59.834368429392271 0 0 0 0 213.02185988624115 104.01866350978753 0 104.01866350978753 37.697351939174951 0 0 0 0 187.73587671268615 98.759140596532234 0 98.759140596532234 68.588123532841564 0 0 0 0 212.48701404120948 110.05172085081995 0 110.05172085081995 30.518431817054989 0 0 0 0 176.02003820218306 67.286115151325248 0 67.286115151325248 26.17411586439448 0 0 0 0 224.25903246337839 92.989110398617868 0 92.989110398617868 25.909764670821765 0 0 0 0 206.59183203427528 72.368169265115739 0 72.368169265115739 4.0889580244675017 0 0 0 0 323.04854842233181 106.41071991183617 0 106.41071991183617 13.727617985703546 0 0 0 0 197.05944503410137 113.13034094716932 0 113.13034094716932 42.723473673055196 0 0 0 0 219.23390785555603 111.70761485857588 0 111.70761485857588 28.938719210844283 0 0 0 0 179.1066046350461 82.454349411863404 0 82.454349411863404 21.292553799553843 0 0 0 0 211.64829441046459 111.42142524578912 0 111.42142524578912 39.028715640444489 0 0 0 0 134.32139730939525 103.58225139326873 0 103.58225139326873 87.980116707337856 0 0 0 0 215.1675719832856 136.81091336251939 0 136.81091336251939 64.612342936888126 0 0 0 0 280.22096845565829 166.92945393646005 0 166.92945393646005 66.499422875018354 0 0 0 0 267.38480690190045 155.01434722160593 0 155.01434722160593 67.061348599143457 0 0 0 0 158.69615430908743 173.97758268219081 0 173.97758268219081 174.09576443351671 0 0 0 0 67.212229280208703 73.950704894487899 0 73.950704894487899 87.816325118680197 0 0 0 0 127.5323515024611 73.243241729236502 0 73.243241729236502 69.736019291090088 0 0 0 0 53.328296003013349 -17.902041501342111 0 -17.902041501342111 5.0511904564333019 0 0 0 0 62.763432703446597 -21.748244035653897 0 -21.748244035653897 27.770478997012788 0 0 0 0 125.768550624809 22.519323397611515 0 22.519323397611515 36.315936080037773 0 0 0 0 98.461756853124825 50.175206445571099 0 50.175206445571099 -377.20625221693626 0 0 0 0 29.558993231563363 -5.3375351354343366 0 -5.3375351354343366 -8.0421578645809859 0 0 0 0 45.022679461995665 -3.1668464490873873 0 -3.1668464490873873 1.6969774159239259 0 0 0 0 45.336228771775495 -24.0524776943696 0 -24.0524776943696 -20.622244340745965 0 0 0 0 37.383463999000583 -1.2325178071337746 0 -1.2325178071337746 -6.4053201590784754 0 0 0 0 10.114552806804625 -7.5559673806308183 0 -7.5559673806308183 2.7024881214310739 0 0 0 0 67.876489688700531 32.507511259573448 0 32.507511259573448 15.465225109430321 0 0 0 0 138.21635656655417 31.248710170305912 0 31.248710170305912 12.133944666941716 0 0 0 0 84.27189574734075 1.7046956641274846 0 1.7046956641274846 27.443129544014482 0 0 0 0 73.490457547872211 13.279508866427477 0 13.279508866427477 28.248998922345891 0 0 0 0 136.13101274636574 40.803612296551819 0 40.803612296551819 41.432686147812547 0 0 0 0 110.81113768602154 27.645745650933804 0 27.645745650933804 35.349254037400897 0 0 0 0 -1.1537584298230854 -8.4738805943187749 0 -8.4738805943187749 -3.281775059482209 0 0 0 0 84.405032253140234 -72.315113431569443 0 -72.315113431569443 -93.840531367595759 0 0 0 0 0.42779917349582774 -9.0304960205112224 0 -9.0304960205112224 -4.3535402082125483 0 0 0 0 -27.752997333707754 -39.236410429486568 0 -39.236410429486568 -2.715356967770731 0 0 0 0 -6.1616970466566272 -18.985763796023093 0 -18.985763796023093 -8.8073336307916179 0 0 0 0 2.0767146534635685 3.9311759331885696 0 3.9311759331885696 14.834331124013033 0 0 0 0 2.37900161344254 -0.46009195834727734 0 -0.46009195834727734 -2.8419198472481675 0 0 0 0 -19.076553368475288 -17.228154764496139 0 -17.228154764496139 17.807670064245485 0 0 0 0 95.269980956712971 12.50158146955863 0 12.50158146955863 11.370023513130924 0 0 0 0 57.846896854258773 -21.556231403273017 0 -21.556231403273017 -19.724334139878884 0 0 0 0 -23.016266540420474 13.865579509668351 0 13.865579509668351 -58.172162752108974 0 0 0 0 -34.221071725973161 -103.96137864498314 0 -103.96137864498314 -4.1499512086211325 0 0 0 0 -59.780725370132132 -29.518689508209263 0 -29.518689508209263 30.546409543497248 0 0 0 0 104.54958284868917 19.454154418836424 0 19.454154418836424 -111.01103165403765 0 0 0 0 192.4112381010782 -74.831858257444537 0 -74.831858257444537 -22.726752662514627 0 0 0 0 55.964788608296658 -113.32751035202409 0 -113.32751035202409 137.23784093612085 0 0 0 0 1.9743063486842516 2.8147805552966254 0 2.8147805552966254 -0.88122319512752334 0 0 0 0 222.15064951876411 20.405703666977388 0 20.405703666977388 35.474284684901924 0 0 0 0 121.72761345890467 20.938721606314402 0 20.938721606314402 35.471653564062763 0 0 0 0 235.26255991739163 6.1362052621948351 0 6.1362052621948351 6.4217418504595116 0 0 0 0 497.16864364998764 81.412328518796585 0 81.412328518796585 -22.279340954565441 0 0 0 0 269.53709857395006 27.563139966160634 0 27.563139966160634 -34.899200738330364 0 0 0 0 617.27841926178371 -140.14328079081827 0 -140.14328079081827 53.067089729972849 0 0 0 0 508.97461278340779 337.07013346391909 0 337.07013346391909 127.01563580749644 0 0 0 0 0.71562591578890533 1.0947372426811199 0 1.0947372426811199 1.0085806089127312 0 0 0 0 74.166538524834323 206.48313071065104 0 206.48313071065104 -213.73975844895153 0 0 0 0 241.33789389147569 -96.184486816508752 0 -96.184486816508752 55.412917244769233 0 0 0 0 46.582205536731635 -17.011032278609036 0 -17.011032278609036 50.866813002783829 0 0 0 0 47.075615145091433 -24.746000262332473 0 -24.746000262332473 30.75757311848497 0 0 0 0 3.1248198348811798 1.0146377364628592 0 1.0146377364628592 -0.19787438270319235 0 0 0 0 41.939117228437681 -31.672972645036225 0 -31.672972645036225 21.458976276839167 0 0 0 0 7.9177263719320763 -39.867663355764535 0 -39.867663355764535 -124.78225875268549 0 0 0 0 7.8837169692124007 -50.554815290755414 0 -50.554815290755414 -90.006303131796813 0 0 0 0 6.0747235325543443 -15.757314930780922 0 -15.757314930780922 -87.512096818303235 0 0 0 0 6.0528272263618419 -17.456125981856076 0 -17.456125981856076 -141.09077394359451 0 0 0 0 400.87083635362796 65.13529904523773 0 65.13529904523773 -422.73506771892573 0 0 0 0 18.323385607951479 -1.8974903193177823 0 -1.8974903193177823 -0.85685469061638653 0 0 0 0 493.02063031354919 -436.83637664385719 0 -436.83637664385719 -705.80934588269622 0 0 0 0 10.631717865238898 9.4589947182447531 0 9.4589947182447531 -93.874851196660757 0 0 0 0 18.53631378596765 -37.272225503473464 0 -37.272225503473464 -162.26920027422011 0 0 0 0 17.075459600310751 -23.879652013700991 0 -23.879652013700991 -106.35199831066302 0 0 0 0 -3.7479719545226544 -11.841790200180185 0 -11.841790200180185 -112.48858913993774 0 0 0 0 -5.7200931920197036 -17.464509173363581 0 -17.464509173363581 -91.914693534795788 0 0 0 0 -592.67377538225264 -166.67547776109845 0 -166.67547776109845 290.19598350531703 0 0 0 0 -220.18767080557154 902.20169231918362 0 902.20169231918362 1013.5087538041184 0 0 0 0 452.79575343430042 809.8736963613328 0 809.8736963613328 710.26641562974999 0 0 0 0 1304.4889920002315 788.73495337943746 0 788.73495337943746 608.84205280585491 0 0 0 0 9.8237228907819372 -45.757023934078632 0 -45.757023934078632 107.91504199088735 0 0 0 0 1169.4087413477828 802.37307221213302 0 802.37307221213302 192.83458206674504 0 0 0 0 7.0420178912515894 3.4282766431087524 0 3.4282766431087524 -1.0145357874479912 0 0 0 0 68.32678486360237 -15.636099864013431 0 -15.636099864013431 -199.97845168971162 0 0 0 0 11.529254658620516 1.513414260344355 0 1.513414260344355 -1.1017514300796187 0 0 0 0 338.98232501751045 -329.18566972963151 0 -329.18566972963151 300.67490867953074 0 0 0 0 1012.7680351725139 156.5583863315419 0 156.5583863315419 -233.89674384191596 0 0 0 0 341.81942009838531 240.59436912398996 0 240.59436912398996 158.32585190620307 0 0 0 0 497.10054959543049 557.14653280562402 0 557.14653280562402 414.74861096262066 0 0 0 0 174.64994789743469 109.94404779359117 0 109.94404779359117 149.62413967433349 0 0 0 0 179.38415039546089 201.70829244750462 0 201.70829244750462 793.78680872019095 0 0 0 0 16.839518726919778 -3.8249245170140966 0 -3.8249245170140966 -6.4217870392371879 0 0 0 0 12.729575455414647 -1.1556131460879797 0 -1.1556131460879797 -0.58688123223101607 0 0 0 0 11.424347029518344 0.29290748031571923 0 0.29290748031571923 -1.5281170992120896 0 0 0 0 -16.306163366796682 -7.1970721655941361 0 -7.1970721655941361 52.264080694556299 0 0 0 0 344.65544831589796 -112.21440317022518 0 -112.21440317022518 -137.70154087279707 0 0 0 0 18.338448809096008 18.743632869343557 0 18.743632869343557 -27.367578516863219 0 0 0 0 13.579795506913797 13.292774924731809 0 13.292774924731809 -21.031846034796459 0 0 0 0 10.034494248655392 47.378321527594593 0 47.378321527594593 0.06366492363849835 0 0 0 0 10.245758006043616 28.750467535666843 0 28.750467535666843 -39.15177313024374 0 0 0 0 84.866732517024502 35.178156900922289 0 35.178156900922289 -40.035840775762523 0 0 0 0 126.58688914775848 -90.031968880858003 0 -90.031968880858003 6.5859519311780161 0 0 0 0 5.080215834478679 1.0660070198917708 0 1.0660070198917708 -0.87207162010858008 0 0 0 0 26.347912565826846 13.932615741176107 0 13.932615741176107 -134.62140901555904 0 0 0 0 197.80203600900131 128.58656250333092 0 128.58656250333092 65.415552448546549 0 0 0 0 -3.4519143745128531 72.835573449013012 0 72.835573449013012 -45.318589411045537 0 0 0 0 13.05683163788359 -1.6791527863426268 0 -1.6791527863426268 -0.49013569528924644 0 0 0 0 -65.820789355748275 -36.558420618328086 0 -36.558420618328086 -1.9889685146696081 0 0 0 0 -147.83312711500912 34.318692525931908 0 34.318692525931908 499.4574449549807 0 0 0 0 5.1162864952152063 -0.31347548312628248 0 -0.31347548312628248 -0.22253853437305288 0 0 0 0 148.51871974152164 -169.32713848955746 0 -169.32713848955746 -225.38389324965797 0 0 0 0 673.6733076897799 947.39820423541346 0 947.39820423541346 604.31574689740637 0 0 0 0 1248.0937243177323 826.07076731177563 0 826.07076731177563 59.681242843927464 0 0 0 0 815.84611228189897 506.95505885108417 0 506.95505885108417 451.89328276786813 0 0 0 0 1118.4333793059777 433.97604066698347 0 433.97604066698347 421.48896112554291 0 0 0 0 883.10178358276607 497.66762559000534 0 497.66762559000534 823.57029130659339 0 0 0 0 1082.3111955577042 492.57364816970977 0 492.57364816970977 823.45625697647483 0 0 0 0 328.18140736492205 62.700708633108647 0 62.700708633108647 -0.14430194501402482 0 0 0 0 1033.0063501239638 25.149393520175948 0 25.149393520175948 -189.89693153978416 0 0 0 0 464.89847882610047 -63.594240497410993 0 -63.594240497410993 828.40032604321118 0 0 0 0 691.76683812172269 310.91066588720156 0 310.91066588720156 257.2446072663389 0 0 0 0 685.5783041639952 257.91448575763309 0 257.91448575763309 86.510588225611542 0 0 0 0 576.36193977593211 -10.720395616711002 0 -10.720395616711002 134.51850183581274 0 0 0 0 327.82213504007086 -338.65448392809259 0 -338.65448392809259 478.11814858421963 0 0 0 0 1144.4767322411644 258.77163516255871 0 258.77163516255871 843.66991752791228 0 0 0 0 827.50890752259875 294.51630244275304 0 294.51630244275304 842.92882949755085 0 0 0 0 1113.3850537421822 150.64386201665081 0 150.64386201665081 353.75679052268418 0 0 0 0 367.8799913853145 -298.66560212772799 0 -298.66560212772799 208.72973763274746 0 0 0 0 19.631842154427432 37.4514347318418 0 37.4514347318418 21.644990629481384 0 0 0 0 -28.163614981225692 6.3964805552776056 0 6.3964805552776056 29.913466437767084 0 0 0 0 69.988982902345015 -4.4582466211847986 0 -4.4582466211847986 26.840025191842074 0 0 0 0 54.352412153384648 -25.360836825257124 0 -25.360836825257124 2.6193222537889369 0 0 0 0 66.742043882608414 41.759976475460206 0 41.759976475460206 19.279212939117542 0 0 0 0 139.1561694938282 5.4000098352163448 0 5.4000098352163448 -42.899859614724249 0 0 0 0 79.417462218436413 -61.006938165392732 0 -61.006938165392732 -70.087979621766777 0 0 0 0 -0.85513873489208869 0.04902025775854213 0 0.04902025775854213 1.2314272430786353 0 0 0 0 171.26093219144241 -50.469510799698263 0 -50.469510799698263 -271.63097074435996 0 0 0 0 158.02622279577918 10.666056768207316 0 10.666056768207316 -73.980055276051644 0 0 0 0 13.9070223602093 -0.81160508593274017 0 -0.81160508593274017 0.36303263661750584 0 0 0 0 129.68403871638748 -231.04608752993406 0 -231.04608752993406 -15.426731587012625 0 0 0 0 -16.149119137713569 3.6050763138871389 0 3.6050763138871389 573.40440487865078 0 0 0 0 236.58998191045248 215.70726148141279 0 215.70726148141279 -122.15873199267884 0 0 0 0 271.92676218270208 170.2114630683175 0 170.2114630683175 -237.88573327898678 0 0 0 0 -31.399684614385478 79.866961505136373 0 79.866961505136373 80.184401415448605 0 0 0 0 4.3992259839135954 -0.29682874634001877 0 -0.29682874634001877 0.28414664408445639 0 0 0 0 101.7045083198027 163.34565718443153 0 163.34565718443153 113.15556557639695 0 0 0 0 85.796736684933421 -1.4859000854116857 0 -1.4859000854116857 40.961291941615286 0 0 0 0 10.950865725165727 -7.1696104400646163 0 -7.1696104400646163 0.88901647287409458 0 0 0 0 -19.062527590402169 -99.738050215403376 0 -99.738050215403376 -4.2389768254463434 0 0 0 0 36.991916755991269 -10.718689813269833 0 -10.718689813269833 1.8769465967926784 0 0 0 0 26.914001455064863 48.455108736029047 0 48.455108736029047 163.22047530333066 0 0 0 0 129.73880725423805 332.82121192271779 0 332.82121192271779 275.61545435750668 0 0 0 0 72.718243062117836 68.534842741280499 0 68.534842741280499 124.72440133530472 0 0 0 0 12.675278805094138 -4.0427097425673537 0 -4.0427097425673537 0.43471360063843534 0 0 0 0 -77.753732479584869 131.36073951500862 0 131.36073951500862 150.41131460247607 0 0 0 0 -147.48591303436842 126.51497266322258 0 126.51497266322258 166.33068093168777 0 0 0 0 -104.72854587057373 49.758058011907906 0 49.758058011907906 281.36381872205163 0 0 0 0 14.326784038188634 4.6576304449896639 0 4.6576304449896639 -28.670998827105208 0 0 0 0 17.806452352247106 -4.8545005123436624 0 -4.8545005123436624 -0.90900599275057914 0 0 0 0 31.925757355551468 0.7825171763331582 0 0.7825171763331582 2.4842845449454671 0 0 0 0 -272.60468427441083 -86.188671879604954 0 -86.188671879604954 -67.865802734963836 0 0 0 0 21.41303216879129 -15.273155741350024 0 -15.273155741350024 1.3102671852868057 0 0 0 0 23.739124245234393 -10.913695440979907 0 -10.913695440979907 1.4765500573782719 0 0 0 0 16.036446058016736 -7.5608269375484269 0 -7.5608269375484269 -0.43024920393980892 0 0 0 0 38.97226021863753 -1.7712030484447254 0 -1.7712030484447254 6.3592588266015468 0 0 0 0 96.330076754442416 -42.936703489546289 0 -42.936703489546289 -20.724452273769714 0 0 0 0 -5.2257509813280194 -66.013867522333086 0 -66.013867522333086 30.898208808924096 0 0 0 0 84.93992199524655 -47.480344581123774 0 -47.480344581123774 17.774647257255339 0 0 0 0 -2.0843195453057319 -2.6777998649160537 0 -2.6777998649160537 1.8866474442346015 0 0 0 0 -11.526926508537144 -2.0707247783483922 0 -2.0707247783483922 -21.543597556756538 0 0 0 0 82.997077202511718 0.59322254644322925 0 0.59322254644322925 -0.1805134582318999 0 0 0 0 3.5168108814688708 -1.5749551177667627 0 -1.5749551177667627 -0.32742882057724371 0 0 0 0 54.963851628701377 -25.577896172898768 0 -25.577896172898768 2.4189936080940129 0 0 0 0 13.31616990067414 4.5017146426157595 0 4.5017146426157595 -22.123236396377905 0 0 0 0 6.1294621895358432 21.301382909517613 0 21.301382909517613 -26.532223603463624 0 0 0 0 6.7769850204349495 18.024888732719127 0 18.024888732719127 -9.9905314189379535 0 0 0 0 -13.482226150750648 23.502574517577443 0 23.502574517577443 -0.058976938246155075 0 0 0 0 -0.20192776297741943 0.023922271868286771 0 0.023922271868286771 -0.28505746346164168 0 0 0 0 40.372211962021538 -18.219477021301167 0 -18.219477021301167 10.954096758413471 0 0 0 0 76.371229502750793 -46.269626734408867 0 -46.269626734408867 0.0012950490727443795 0 0 0 0 110.8122431133088 -13.83903532218028 0 -13.83903532218028 8.9224368667824905 0 0 0 0 81.009516556790913 -38.409450307654872 0 -38.409450307654872 5.3794867167052303 0 0 0 0 79.059628571587382 -28.172783897302565 0 -28.172783897302565 -2.2756998819144343 0 0 0 0 114.53635748992383 -26.969175797443153 0 -26.969175797443153 -27.416782708853397 0 0 0 0 106.59166979986185 -5.8880585213224883 0 -5.8880585213224883 35.48696010518151 0 0 0 0 196.52138619347443 -13.733195667270259 0 -13.733195667270259 -24.199708742683001 0 0 0 0 139.55003877502168 -41.513769845825635 0 -41.513769845825635 0.038598594218107449 0 0 0 0 0.38175333625616226 -0.18635981652690248 0 -0.18635981652690248 0.2851303492817352 0 0 0 0 104.52350142702926 11.461899330938085 0 11.461899330938085 -0.033787124339401918 0 0 0 0 117.89681840722005 7.6836569031479334 0 7.6836569031479334 -6.2261912220015887 0 0 0 0 98.43825709662633 10.76860509233485 0 10.76860509233485 0.12880326105642415 0 0 0 0 101.21779481075646 7.8374431249780292 0 7.8374431249780292 -2.0086178877311553 0 0 0 0 22.116981014834238 5.4108692937350611 0 5.4108692937350611 0.11967372181848931 0 0 0 0 101.11334931931924 32.072581864806224 0 32.072581864806224 4.9395309230762265 0 0 0 0 93.270354616935947 21.38971599076519 0 21.38971599076519 -9.6008017048604408 0 0 0 0 97.921445920757833 8.1421944693745658 0 8.1421944693745658 4.1278284334145994 0 0 0 0 100.17204991360177 9.6340698460402958 0 9.6340698460402958 1.3628334902372927 0 0 0 0 74.434162419507629 2.1173092658765427 0 2.1173092658765427 5.1259024810088647 0 0 0 0 65.177622485884058 35.950455195340517 0 35.950455195340517 6.5104392041694723 0 0 0 0 50.953679345465048 25.728845808786886 0 25.728845808786886 4.6258076752710044 0 0 0 0 81.633089872426353 5.6478572812334704 0 5.6478572812334704 0.2251544073127576 0 0 0 0 46.083385803662736 16.42502953656016 0 16.42502953656016 -0.36456277149739158 0 0 0 0 116.82274493896693 91.884457499411269 0 91.884457499411269 33.722715075938254 0 0 0 0 192.05038927560236 -3.0134817279833612 0 -3.0134817279833612 -65.982186683232385 0 0 0 0 224.39364059408399 58.976120899732024 0 58.976120899732024 -5.6601126367679626 0 0 0 0 8.7634979037797223 15.258905077339818 0 15.258905077339818 -4.8172663303914085 0 0 0 0 63.398460259777494 20.412413119440544 0 20.412413119440544 -7.6280977665044247 0 0 0 0 87.15172222213755 33.240687161994387 0 33.240687161994387 3.1294619367973882 0 0 0 0 152.10285147474497 23.283475832964541 0 23.283475832964541 0.68631592567220423 0 0 0 0 116.88023867594893 11.273021340866251 0 11.273021340866251 15.24461524628785 0 0 0 0 82.854423544314898 -37.878164927999734 0 -37.878164927999734 -11.09431635719768 0 0 0 0 148.39368139498038 17.05471715454857 0 17.05471715454857 15.784474744556064 0 0 0 0 17.284725318641733 -9.6699312786517169 0 -9.6699312786517169 -8.0219567308282151 0 0 0 0 92.787841314020625 19.046938298026443 0 19.046938298026443 -0.10003369045291022 0 0 0 0 158.76785949643818 47.742554894156292 0 47.742554894156292 -12.895028993383175 0 0 0 0 -273.85513421683572 -499.03671819318714 0 -499.03671819318714 0.95876651022006121 0 0 0 0 10.00784984369696 3.7530168335340761 0 3.7530168335340761 -0.82623726127019914 0 0 0 0 -66.959780509350821 -218.26820500518699 0 -218.26820500518699 -380.02475595288627 0 0 0 0 -274.05277926243929 -456.331486321829 0 -456.331486321829 -600.27263656165292 0 0 0 0 -203.40840116360778 -734.27918941722373 0 -734.27918941722373 -4.6461315699523373 0 0 0 0 58.513455938329571 -410.47590350802352 0 -410.47590350802352 -854.7261064508416 0 0 0 0 45.18748074179166 35.293646214991213 0 35.293646214991213 -55.081722584073816 0 0 0 0 -127.38901328726206 -563.5985418699529 0 -563.5985418699529 -549.25738312779981 0 0 0 0 39.764968747535022 -245.20379256485376 0 -245.20379256485376 -359.8197628624464 0 0 0 0 -248.34860632699565 -295.30025310381143 0 -295.30025310381143 17.467822944960744 0 0 0 0 2277.5587424272671 -1931.8162667912572 0 -1931.8162667912572 -1718.5420652321295 0 0 0 0 -8.8092743785819039 -882.1117485729917 0 -882.1117485729917 -1089.3936390280478 0 0 0 0 313.55793126953358 -1608.5088338321164 0 -1608.5088338321164 13.362139981204729 0 0 0 0 -119.19986064755358 -386.60922429830225 0 -386.60922429830225 -737.58612564332157 0 0 0 0 1219.1788884314738 -256.22663532620379 0 -256.22663532620379 -3757.5690826359632 0 0 0 0 109.62992871037619 22.916912938782794 0 22.916912938782794 0.040684088304717925 0 0 0 0 401.50083182101525 391.90039706931225 0 391.90039706931225 -511.19352120256121 0 0 0 0 251.75491710403003 23.169740058278421 0 23.169740058278421 -73.833965684174814 0 0 0 0 1455.6347392235184 15.38796185981613 0 15.38796185981613 -221.71428420080696 0 0 0 0 1310.5204998080626 -314.7235668862694 0 -314.7235668862694 167.2107377083762 0 0 0 0 119.00067037248027 18.099573251625728 0 18.099573251625728 -2.3562007021390228 0 0 0 0 -151.50453032177757 283.73711610013584 0 283.73711610013584 -158.90456516916424 0 0 0 0 11.71715327759739 444.44076753406387 0 444.44076753406387 -111.34406430991658 0 0 0 0 199.87348645766906 24.370995180698742 0 24.370995180698742 -227.74367182246374 0 0 0 0 -249.80771914876823 386.92110238418911 0 386.92110238418911 26.33851609132023 0 0 0 0 -370.71113619024982 187.8617242355956 0 187.8617242355956 -73.878176509058221 0 0 0 0 84.832307949734968 192.38198357571423 0 192.38198357571423 -274.07790044640444 0 0 0 0 19.278742551926342 9.1915990959088134 0 9.1915990959088134 -5.4732295011296248 0 0 0 0 110.76923763962986 -30.150425037101343 0 -30.150425037101343 -168.8412543548626 0 0 0 0 -256.29950281593483 264.39563306528498 0 264.39563306528498 22.319969604042171 0 0 0 0 -308.71255397817731 -39.671678229489089 0 -39.671678229489089 291.08445550471515 0 0 0 0 37.061618143474334 -52.545666368025195 0 -52.545666368025195 118.02022792518392 0 0 0 0 33.464861552442017 87.604121438987704 0 87.604121438987704 122.57692225355868 0 0 0 0 -24.067261264135595 94.732998762360353 0 94.732998762360353 123.75431403854304 0 0 0 0 333.77355101922876 416.76234590888487 0 416.76234590888487 423.59809596397622 0 0 0 0 5.5890711295259905 4.730541680576124 0 4.730541680576124 5.5553201551840878 0 0 0 0 46.26843897861545 -118.54532161483962 0 -118.54532161483962 444.75920908927947 0 0 0 0 1728.5360708268145 280.78747500126627 0 280.78747500126627 11.782637950146665 0 0 0 0 1862.2144000431872 -249.96075115331598 0 -249.96075115331598 46.785598507365876 0 0 0 0 973.15836669491546 42.31394229967384 0 42.31394229967384 -139.12657330520096 0 0 0 0 1326.2220921577537 160.7609073749685 0 160.7609073749685 -108.78881201780587 0 0 0 0 412.31404940598804 132.62263627415103 0 132.62263627415103 33.208717070790499 0 0 0 0 13.492030926662494 14.02905825505448 0 14.02905825505448 14.650902806662407 0 0 0 0 592.63779766963853 -323.90948137183841 0 -323.90948137183841 56.312178126585536 0 0 0 0 577.24113721055619 133.01941562372554 0 133.01941562372554 -10.129474140463117 0 0 0 0 383.63902479677199 -104.49020470645689 0 -104.49020470645689 -63.498306348616097 0 0 0 0 748.28656580147799 100.03023684713844 0 100.03023684713844 -34.591570128901139 0 0 0 0 -2.7597971464565489 -13.048181061074729 0 -13.048181061074729 94.290164107803776 0 0 0 0 -20.703634732861246 20.627099957023688 0 20.627099957023688 51.808240666173788 0 0 0 0 -45.725375279624132 32.092325912513843 0 32.092325912513843 156.4274163009004 0 0 0 0 9.0332635921126325 19.769724148621833 0 19.769724148621833 27.735361818035788 0 0 0 0 -41.992718723209691 104.79627991088864 0 104.79627991088864 76.534234309307067 0 0 0 0 19.900024833757925 84.688097045115228 0 84.688097045115228 11.679835788587297 0 0 0 0 -3.8784910050297015 9.495394656796833 0 9.495394656796833 13.449101511514275 0 0 0 0 3.5231049949215958 29.904373521539128 0 29.904373521539128 48.604463428873601 0 0 0 0 85.965306374098873 81.03823244274281 0 81.03823244274281 -23.574308011891844 0 0 0 0 38.109339094953611 93.712952591637077 0 93.712952591637077 -5.2991683148629818 0 0 0 0 9.0828490166750271 31.28325356397454 0 31.28325356397454 8.2698887755186661 0 0 0 0 98.042464925412787 48.692825400198444 0 48.692825400198444 -4.0392848297778983 0 0 0 0 38.86584367492469 13.865471564971813 0 13.865471564971813 -12.328321643760546 0 0 0 0 44.938885037314321 131.21946822910058 0 131.21946822910058 -81.919847308025055 0 0 0 0 150.90614481229568 -122.01639829820942 0 -122.01639829820942 297.48204314553004 0 0 0 0 25.900863750212011 -17.407302235078532 0 -17.407302235078532 98.657312282562543 0 0 0 0 3.8202924750034981 0.69517645938370265 0 0.69517645938370265 -1.2336287451395247 0 0 0 0 -7.6725957079520697 6.7954181567394869 0 6.7954181567394869 6.7870478081304242 0 0 0 0 286.17210900134523 28.377847075973477 0 28.377847075973477 -192.63193061600396 0 0 0 0 56.380003303085687 -3.4207248751163206 0 -3.4207248751163206 -14.391896155908398 0 0 0 0 141.89699416143412 -84.011682573043345 0 -84.011682573043345 61.449097027403695 0 0 0 0 3.3613990177982487 16.777584997904341 0 16.777584997904341 50.552188923201584 0 0 0 0 21.674572996300412 -19.602071013575369 0 -19.602071013575369 63.279656979475931 0 0 0 0 0.16816993259999435 10.74480518967539 0 10.74480518967539 20.849827141231799 0 0 0 0 4.1159950660949107 0.3137978358026885 0 0.3137978358026885 21.61972114459968 0 0 0 0 0.32561605807859451 -12.883820166803162 0 -12.883820166803162 -5.7720503688087774 0 0 0 0 40.007150995414122 9.8821784356036915 0 9.8821784356036915 -2.2284430374929798 0 0 0 0 -6.5877747458871454 33.766733121543439 0 33.766733121543439 -19.876780618300472 0 0 0 0 5.084526892809663 4.0485338956568739 0 4.0485338956568739 -2.2535495181718943 0 0 0 0 -17.250750117440475 18.583943509267556 0 18.583943509267556 22.272237784863137 0 0 0 0 1.2364524039654725 1.5330820931584999 0 1.5330820931584999 -0.53937403780235282 0 0 0 0 63.929484816573677 -49.747488967863319 0 -49.747488967863319 -11.307714647525245 0 0 0 0 -3.8537444293615408 -13.461019399972429 0 -13.461019399972429 36.689064898575452 0 0 0 0 -42.868270582926925 12.025321669264486 0 12.025321669264486 26.682926174210934 0 0 0 0 54.249899875758274 -0.054523181932836451 0 -0.054523181932836451 30.727145716624364 0 0 0 0 5.8108294672128977 -2.2898535716353763 0 -2.2898535716353763 39.226832256808166 0 0 0 0 5.9169849275931483 -1.2697120095051559 0 -1.2697120095051559 36.379461532347477 0 0 0 0 -5.4204480724365567 1.5539105013281187 0 1.5539105013281187 38.697852662862715 0 0 0 0 8.2695385435770277 -1.2337402853705584 0 -1.2337402853705584 -0.72686096574949133 0 0 0 0 59.262110547628254 73.296753582795191 0 73.296753582795191 79.516615640779492 0 0 0 0 6.0584486714215018 6.4768210584229564 0 6.4768210584229564 12.59251070092796 0 0 0 0 43.926040507183643 -6.8003162301108659 0 -6.8003162301108659 0.55863449836715517 0 0 0 0 7.628317718648761 -2.0600392449669869 0 -2.0600392449669869 -0.07454027946997499 0 0 0 0 44.288062835032179 34.137818289668871 0 34.137818289668871 0.98004983270084267 0 0 0 0 15.332564880767279 -1.0514611069778681 0 -1.0514611069778681 0.21620175012233922 0 0 0 0 38.360353470983682 28.956328355338883 0 28.956328355338883 19.867325253921763 0 0 0 0 20.868361922854092 5.5283112275019448 0 5.5283112275019448 10.420544496642151 0 0 0 0 46.781722610479378 -1.4037399739700334 0 -1.4037399739700334 -3.1929147654689567 0 0 0 0 43.080363111861516 23.582230719584345 0 23.582230719584345 21.905718972157956 0 0 0 0 43.686251624239958 34.771856463038262 0 34.771856463038262 16.064118136185243 0 0 0 0 22.328313366459042 14.355318403693673 0 14.355318403693673 18.328805503586864 0 0 0 0 75.713177928235382 20.697516681007301 0 20.697516681007301 -9.1287660846433027 0 0 0 0 237.3336091684032 193.37680539195071 0 193.37680539195071 -54.937831743677407 0 0 0 0 -10.238470578611469 9.2367014360826261 0 9.2367014360826261 1.545641484836735 0 0 0 0 -13.870074917034799 239.42674858003932 0 239.42674858003932 183.08166244107269 0 0 0 0 124.90851424180437 16.933169527766495 0 16.933169527766495 -7.690593992736467 0 0 0 0 3698.1895137955871 2164.1069949412395 0 2164.1069949412395 316.94269415268218 0 0 0 0 23.216920656378363 -6.8088501996567601 0 -6.8088501996567601 7.3541939089913626 0 0 0 0 1455.3002011375793 2487.9113663636549 0 2487.9113663636549 2779.9255719700436 0 0 0 0 315.2372445413057 -429.70216999991408 0 -429.70216999991408 269.67054164402907 0 0 0 0 783.99431692459621 -389.15447911180581 0 -389.15447911180581 184.09284264558346 0 0 0 0 1572.7432084663305 905.75296367473061 0 905.75296367473061 684.49640430005024 0 0 0 0 56.884373711271678 -23.250401339915129 0 -23.250401339915129 7.6307391905730393 0 0 0 0 1513.3288850387617 520.56015250789449 0 520.56015250789449 327.36315293259332 0 0 0 0 1999.3718123026774 680.94673697904204 0 680.94673697904204 338.43929670951394 0 0 0 0 1928.7722606846073 1218.6086154048116 0 1218.6086154048116 -21.620434180129365 0 0 0 0 26.650022795304722 -6.3763778723354108 0 -6.3763778723354108 -0.31124950380128091 0 0 0 0 745.41172761213966 702.95202373178904 0 702.95202373178904 639.89745690299219 0 0 0 0 4493.5439666088459 997.87491475948616 0 997.87491475948616 -564.16161574892942 0 0 0 0 3233.8430068850648 176.81719289329493 0 176.81719289329493 2.5299949621831614 0 0 0 0 2793.3598559435341 -13.809961521690624 0 -13.809961521690624 -183.41207077241484 0 0 0 0 2558.9453706588683 585.53960042813867 0 585.53960042813867 -5.1088683875121887 0 0 0 0 1227.7739600491695 -226.65966915026007 0 -226.65966915026007 72.817927425079574 0 0 0 0 2843.9944044107033 249.65734185249534 0 249.65734185249534 -255.48909976872483 0 0 0 0 29.734912751902186 0.090331157968705611 0 0.090331157968705611 2.0201869462043671 0 0 0 0 134.62700654636137 -28.6473427122217 0 -28.6473427122217 7.3590117168660409 0 0 0 0 121.81442836292263 -21.37588706993256 0 -21.37588706993256 0.032502171645594435 0 0 0 0 1.7030607136079539 2.7392687336500217 0 2.7392687336500217 1.1678815778123017 0 0 0 0 115.8127721417477 -19.590691003154792 0 -19.590691003154792 2.5012577627618953 0 0 0 0 116.16963177055004 -21.786212915015035 0 -21.786212915015035 7.4846143709212498 0 0 0 0 121.26821870409185 -16.77793577918003 0 -16.77793577918003 10.843721445712575 0 0 0 0 101.53418427464055 -28.001270538390244 0 -28.001270538390244 3.3260463792605042 0 0 0 0 205.57231268007308 -96.61799460662678 0 -96.61799460662678 -27.528896674293719 0 0 0 0 758.0909903550928 257.40220202273775 0 257.40220202273775 123.60453656943743 0 0 0 0 109.57434214983368 -34.880508269563279 0 -34.880508269563279 46.855092046526494 0 0 0 0 89.375190832109809 -27.574580914536853 0 -27.574580914536853 3.4283124116996402 0 0 0 0 192.46168702541036 -44.833194949390986 0 -44.833194949390986 -11.157352548938206 0 0 0 0 105.58923227475316 -84.347819796857607 0 -84.347819796857607 388.48453542074503 0 0 0 0 182.18628450400138 -10.702421539729016 0 -10.702421539729016 -18.232584810114531 0 0 0 0 144.46107339192167 -46.271440866208422 0 -46.271440866208422 10.325712675751674 0 0 0 0 14.719179953774059 -9.9894363002197792 0 -9.9894363002197792 -5.5549322812647652 0 0 0 0 135.37435266254397 -15.208004933844563 0 -15.208004933844563 6.9484049603788662 0 0 0 0 86.022829453453596 10.07975794366638 0 10.07975794366638 106.44635878483177 0 0 0 0 507.52562212276098 -29.665185522983393 0 -29.665185522983393 -80.407017543080883 0 0 0 0 27.08456497151613 -3.1788427744497483 0 -3.1788427744497483 -4.7099642469475693 0 0 0 0 502.0355106312054 109.17776861750724 0 109.17776861750724 20.453231105569785 0 0 0 0 871.74734092270955 319.3492941946572 0 319.3492941946572 6.3249995391711309 0 0 0 0 948.12137032336614 200.48420410095582 0 200.48420410095582 -58.174357477905687 0 0 0 0 766.3099972513628 393.67538775751751 0 393.67538775751751 146.81538566295876 0 0 0 0 302.51385055220453 1021.7525769391805 0 1021.7525769391805 -28.055546426337514 0 0 0 0 215.77847922297951 194.09475227956807 0 194.09475227956807 194.15838348286502 0 0 0 0 105.02464867899107 -25.911349061167236 0 -25.911349061167236 -0.0017496795358219464 0 0 0 0 104.89866280985007 -27.286891514116071 0 -27.286891514116071 1.4782301086961525 0 0 0 0 102.49020231870236 -26.062437030206826 0 -26.062437030206826 9.2460479810162646 0 0 0 0 102.20232274702062 -28.950191793524397 0 -28.950191793524397 4.3175496887882527 0 0 0 0 95.568717840636964 -26.593377000245265 0 -26.593377000245265 3.7110288292142748 0 0 0 0 -552.78480313025648 23.490839832310712 0 23.490839832310712 81.20505704178828 0 0 0 0 -287.5021335455076 1914.5892751579674 0 1914.5892751579674 838.35871164701439 0 0 0 0 3311.8663693533017 2520.1072313829759 0 2520.1072313829759 659.44386571739142 0 0 0 0 2562.9655395996815 1215.3264420713244 0 1215.3264420713244 -33.345896208821159 0 0 0 0 2712.8123257165425 1313.1850519484606 0 1313.1850519484606 -439.18895389879611 0 0 0 0 4760.4297461929091 -449.24981965977713 0 -449.24981965977713 -506.25086541325368 0 0 0 0 5936.700247766692 -577.45246343451163 0 -577.45246343451163 -638.29195849123971 0 0 0 0 6176.407320834347 937.6507538321639 0 937.6507538321639 -401.94990403910981 0 0 0 0 90.486418628531112 -21.383602600489979 0 -21.383602600489979 2.4643585344802674 0 0 0 0 85.945490896410774 -14.326342306387023 0 -14.326342306387023 -9.5404890015362902 0 0 0 0 6986.7851632265374 -2554.3992885176467 0 -2554.3992885176467 3456.1841465431389 0 0 0 0 65.044773377769161 -20.983971622243001 0 -20.983971622243001 -0.032917978717110163 0 0 0 0 3209.8160938714927 6126.6914757415379 0 6126.6914757415379 1421.5586922981611 0 0 0 0 43.915127029030998 -2.3605392895360353 0 -2.3605392895360353 -0.43826803139281401 0 0 0 0 3208.85299811 -1586.6878129658101 0 -1586.6878129658101 567.17417857984492 0 0 0 0 -801.14655233704252 3966.3765895591087 0 3966.3765895591087 263.82304501016188 0 0 0 0 49.212915943169321 14.922905787147428 0 14.922905787147428 3.6942392817835703 0 0 0 0 2397.3417523012322 -342.86671958113971 0 -342.86671958113971 -396.07816255884018 0 0 0 0 567.14413671269995 -1222.7086326998683 0 -1222.7086326998683 541.9711836012716 0 0 0 0 2287.8603830579668 499.93585595068657 0 499.93585595068657 -267.93982730132393 0 0 0 0 2034.4840395731444 108.13847057759199 0 108.13847057759199 -495.4550631758193 0 0 0 0 1319.5358251655853 451.90994657758176 0 451.90994657758176 -262.08820591225259 0 0 0 0 1823.7345922215391 34.998066178927218 0 34.998066178927218 -158.5518550989334 0 0 0 0 1607.2705284300609 -298.8012268774981 0 -298.8012268774981 -396.88946667133155 0 0 0 0 1367.2783847721439 185.68295619032239 0 185.68295619032239 379.03755164213476 0 0 0 0 1310.5910690867167 235.5548493047034 0 235.5548493047034 -98.218536873300309 0 0 0 0 1373.1948841015546 189.13887003465425 0 189.13887003465425 -64.247826085731148 0 0 0 0 1273.8119193690072 282.66391874919901 0 282.66391874919901 -16.213165943892022 0 0 0 0 1247.8810694505955 196.81039280726259 0 196.81039280726259 -0.054570397090856204 0 0 0 0 1375.5174211975536 285.57735916212624 0 285.57735916212624 -123.36027537214045 0 0 0 0 1274.2376865824772 289.69901223685872 0 289.69901223685872 -132.17399768517043 0 0 0 0 1307.1808151290752 261.7454973860182 0 261.7454973860182 -113.00028778665137 0 0 0 0 1143.8065674891986 201.26724462328775 0 201.26724462328775 -102.2811895283246 0 0 0 0 1319.8922657676012 318.11791529933294 0 318.11791529933294 -109.28537961225993 0 0 0 0 1398.242281002953 312.42446058013638 0 312.42446058013638 -108.9982514980407 0 0 0 0 1407.2692176953133 291.00477779820426 0 291.00477779820426 -135.37730134810641 0 0 0 0 1343.9335918323632 316.06321721977235 0 316.06321721977235 -69.327992362990358 0 0 0 0 1307.9341145709914 265.33656871758467 0 265.33656871758467 -130.45000726831154 0 0 0 0 1307.758840600065 240.94671839089045 0 240.94671839089045 -76.70630088413813 0 0 0 0 1366.6648328152369 237.06290851281517 0 237.06290851281517 -138.79803922720293 0 0 0 0 1234.7871469039092 122.99851995050506 0 122.99851995050506 -124.97864791726818 0 0 0 0 1482.5623114179034 139.64441033410378 0 139.64441033410378 -208.86347479878577 0 0 0 0 1133.3573227940324 -272.96245435353023 0 -272.96245435353023 -329.61565315941698 0 0 0 0 2.7788684085458613 2.1705586873079312 0 2.1705586873079312 -0.95201483606810822 0 0 0 0 1210.2652085200098 119.96995682989775 0 119.96995682989775 -125.32740072226497 0 0 0 0 944.3040065179739 -29.335163688802652 0 -29.335163688802652 -42.406041052223429 0 0 0 0 1342.3229354054711 5.3716205617471928 0 5.3716205617471928 -60.350381420101456 0 0 0 0 1263.3190488168821 237.01336317596247 0 237.01336317596247 -73.338251248182871 0 0 0 0 1131.5954472248268 239.74238707688789 0 239.74238707688789 -51.884810739561999 0 0 0 0 1147.5038431657304 227.82496163296864 0 227.82496163296864 -84.044722694339953 0 0 0 0 1310.7017045789071 243.23062668713396 0 243.23062668713396 -125.29079718354069 0 0 0 0 1105.9638670221902 303.61337581575742 0 303.61337581575742 -52.802092530474965 0 0 0 0 541.75792722043116 -13.524133009148301 0 -13.524133009148301 34.481729608999444 0 0 0 0 888.32375763109303 156.47147885074094 0 156.47147885074094 -36.736264883954618 0 0 0 0 896.21200254860742 146.13237500556329 0 146.13237500556329 -53.822621032408506 0 0 0 0 1.1034388903639325 3.5768616526525534 0 3.5768616526525534 -1.9540199456580121 0 0 0 0 103.69460418344534 -33.151266347220272 0 -33.151266347220272 44.610906464597406 0 0 0 0 459.6956554101489 92.900583312771715 0 92.900583312771715 29.027624261336882 0 0 0 0 1043.5527139245314 -940.73634631454513 0 -940.73634631454513 392.3683488061049 0 0 0 0 -2.723460856048149 -3.7065652037552184 0 -3.7065652037552184 -2.520732114504006 0 0 0 0 766.42990106006619 -632.44272547080061 0 -632.44272547080061 526.52424573937196 0 0 0 0 1243.8067433552205 -703.47362897173218 0 -703.47362897173218 226.15561895756144 0 0 0 0 301.80020442412933 -38.862331431633052 0 -38.862331431633052 -58.643401523207274 0 0 0 0 1623.3260232122702 -688.52894342124341 0 -688.52894342124341 -113.83539127267613 0 0 0 0 13.911266645416617 -13.888010180858799 0 -13.888010180858799 101.8887888537821 0 0 0 0 449.56359767761023 -32.793667036707916 0 -32.793667036707916 -88.438287027078104 0 0 0 0 1.3692533186274147 -1.3460310614217121 0 -1.3460310614217121 -1.6790933977969065 0 0 0 0 1705.1616062340618 -645.54328922408581 0 -645.54328922408581 -92.56522848192526 0 0 0 0 1650.8690165547741 -71.964850448364132 0 -71.964850448364132 -305.45183114601639 0 0 0 0 1708.8892513325409 -647.73330209763265 0 -647.73330209763265 -353.52463785042369 0 0 0 0 1788.8391542353493 -661.74782239708725 0 -661.74782239708725 -419.45697128163783 0 0 0 0 1649.6259134091815 -831.05717177661722 0 -831.05717177661722 -130.1214395205281 0 0 0 0 1602.1736793375967 -698.22259470345512 0 -698.22259470345512 175.24139775613867 0 0 0 0 1946.5947262846457 -1218.1581665102253 0 -1218.1581665102253 97.197066770436464 0 0 0 0 1641.2282725659989 -785.12135036509596 0 -785.12135036509596 -228.88891678324364 0 0 0 0 1859.604450387691 -1067.9879311344398 0 -1067.9879311344398 -8.0478453994169143 0 0 0 0 1963.4985393160896 -911.58923068990157 0 -911.58923068990157 -547.0783615113337 0 0 0 0 1798.4490175665269 -483.67219588803255 0 -483.67219588803255 -998.70189467477257 0 0 0 0 1725.4925225609441 -81.813060521033819 0 -81.813060521033819 -802.36935555722482 0 0 0 0 4490.6745217804564 1098.3264960464192 0 1098.3264960464192 -1517.2046422928611 0 0 0 0 3335.0975435365981 -460.09827016592055 0 -460.09827016592055 -752.44090687054859 0 0 0 0 4502.4906578217342 -1176.0236616008476 0 -1176.0236616008476 -720.46735413589704 0 0 0 0 3008.6068029187154 -1505.2736400253091 0 -1505.2736400253091 149.25628921285366 0 0 0 0 3004.3867365408223 -1613.3382112511631 0 -1613.3382112511631 -309.07198689781239 0 0 0 0 1259.9854318341968 -807.61867245327164 0 -807.61867245327164 396.49725529969851 0 0 0 0 1184.9046686632755 -1767.3291250433331 0 -1767.3291250433331 1514.1219261926847 0 0 0 0 1272.6806693069793 -1076.0929688399285 0 -1076.0929688399285 635.36187385170672 0 0 0 0 435.26704947787948 -605.04431334228093 0 -605.04431334228093 953.53202333221373 0 0 0 0 473.39236367138801 -22.306460933600079 0 -22.306460933600079 263.09467607743272 0 0 0 0 1432.1474464970088 -2845.658395785219 0 -2845.658395785219 3904.9582111927966 0 0 0 0 4490.54047401145 -2554.1392443213144 0 -2554.1392443213144 122.74932901309919 0 0 0 0 4500.2084062388894 -102.74778225593651 0 -102.74778225593651 -303.43783148010715 0 0 0 0 298.7747553929803 -132.51214718561187 0 -132.51214718561187 -102.75573082057554 0 0 0 0 49.105739202059993 38.448429610115383 0 38.448429610115383 20.348139596129599 0 0 0 0 217.49372418089501 105.29123262264196 0 105.29123262264196 -278.50027588224293 0 0 0 0 15.662115965063563 -18.465819755439639 0 -18.465819755439639 -55.421060169946905 0 0 0 0 3238.6088006489226 -649.09666583794956 0 -649.09666583794956 27.553786455702976 0 0 0 0 4495.5769349586772 -1278.0178843944218 0 -1278.0178843944218 254.71838478611303 0 0 0 0 18.190216214206799 8.0780386538587123 0 8.0780386538587123 -0.91393111621342715 0 0 0 0 16.459628435159502 3.8882445128791119 0 3.8882445128791119 -14.771400892561308 0 0 0 0 94.808575708831995 20.024431932550556 0 20.024431932550556 -244.33461487980941 0 0 0 0 774.35200680130083 -104.75571096928077 0 -104.75571096928077 -62.3731736577638 0 0 0 0 1334.4317213767208 -20.981323938429114 0 -20.981323938429114 -761.62163343071234 0 0 0 0 1390.6899680433708 -445.2500392977081 0 -445.2500392977081 170.52491053010601 0 0 0 0 1158.7791649680148 -412.35478088927221 0 -412.35478088927221 181.75646835175849 0 0 0 0 1387.6787639531685 -399.91995089686225 0 -399.91995089686225 193.74266572010015 0 0 0 0 1690.5680929650844 -562.16847844134327 0 -562.16847844134327 128.5708594555108 0 0 0 0 1442.5359398696892 -300.21411081385304 0 -300.21411081385304 -148.01036532000853 0 0 0 0 1606.701128364366 -436.84155394358186 0 -436.84155394358186 -181.50105528722025 0 0 0 0 1824.1986450430413 -442.80518049236616 0 -442.80518049236616 -520.70406729405113 0 0 0 0 1413.5139561846008 -425.05633557395413 0 -425.05633557395413 -258.58353763659488 0 0 0 0 1747.4247850115134 -304.81867741530601 0 -304.81867741530601 -229.05325680498345 0 0 0 0 1826.0219941804244 -58.109193095453065 0 -58.109193095453065 -97.235790132908733 0 0 0 0 2230.5881041444372 -329.14772918313656 0 -329.14772918313656 -258.56329298443552 0 0 0 0 2925.520098102159 185.36541536677794 0 185.36541536677794 -54.819905142348944 0 0 0 0 2232.7319716390339 -896.9244621271713 0 -896.9244621271713 419.61972588539174 0 0 0 0 4339.3385215817398 -1154.1548168501995 0 -1154.1548168501995 416.46810028498686 0 0 0 0 16.945774162162309 12.118458465029903 0 12.118458465029903 12.236489656676085 0 0 0 0 54.562503470137017 805.51241754121202 0 805.51241754121202 744.258046953546 0 0 0 0 3524.9839240719302 793.43577411685408 0 793.43577411685408 710.36505438519089 0 0 0 0 1945.296420367551 542.62860654355472 0 542.62860654355472 1467.8506074512597 0 0 0 0 1602.1092986106596 540.4295477103949 0 540.4295477103949 930.84830151185542 0 0 0 0 1692.1889253701956 57.710448523525884 0 57.710448523525884 653.85629416074198 0 0 0 0 1337.735064916691 192.69798725773717 0 192.69798725773717 475.82356033801761 0 0 0 0 2105.0350019903708 354.19311846268215 0 354.19311846268215 225.57427565361195 0 0 0 0 2080.5487791508931 342.70841851218393 0 342.70841851218393 623.88037437770072 0 0 0 0 1712.1465600180964 220.69562794760418 0 220.69562794760418 217.95339449982112 0 0 0 0 2019.9100608245863 299.35494377357998 0 299.35494377357998 -45.637679400113939 0 0 0 0 1534.1281867498328 124.8702671398255 0 124.8702671398255 -108.23889983578101 0 0 0 0 1426.6678817371576 171.60082552934637 0 171.60082552934637 -126.00039967211387 0 0 0 0 1634.9742950683139 254.5761105906472 0 254.5761105906472 -159.31729427949813 0 0 0 0 1504.6407167273792 413.60067849312532 0 413.60067849312532 -17.460205252887135 0 0 0 0 1585.7424891926894 535.86484620116426 0 535.86484620116426 389.93106416476166 0 0 0 0 1434.2847049968841 330.6040292308594 0 330.6040292308594 125.86133535226509 0 0 0 0 1317.8891552421701 345.01078476871226 0 345.01078476871226 143.43268781953907 0 0 0 0 1279.5088978886197 333.90841404909042 0 333.90841404909042 3.93995040768732 0 0 0 0 1265.9049481508046 256.13466355484252 0 256.13466355484252 -4.7831696975358682 0 0 0 0 1020.3831776513107 183.85779717210517 0 183.85779717210517 2.7776074124813022 0 0 0 0 950.98224492561712 192.51906658320377 0 192.51906658320377 226.99706637927943 0 0 0 0 1139.7738445581926 326.48749193976187 0 326.48749193976187 144.19816500379056 0 0 0 0 1071.456473809907 246.08983610381347 0 246.08983610381347 249.53847498396954 0 0 0 0 817.0995105465845 233.19321750355448 0 233.19321750355448 353.95750044200258 0 0 0 0 1328.4966924224136 273.20480823713478 0 273.20480823713478 315.5930476313938 0 0 0 0 1088.1409670419489 310.38369761871638 0 310.38369761871638 425.84934164323931 0 0 0 0 954.36399924913712 178.28078114101072 0 178.28078114101072 612.45185652668124 0 0 0 0 883.49572332839307 -24.434276859342276 0 -24.434276859342276 194.56695955334544 0 0 0 0 771.30816405102087 -152.89114093783792 0 -152.89114093783792 566.62272528806125 0 0 0 0 1143.8249173757067 -30.917005203873487 0 -30.917005203873487 402.97721209676592 0 0 0 0 1085.0069046057542 19.814666960069189 0 19.814666960069189 475.79801688523003 0 0 0 0 779.67160439001964 -148.42944629753168 0 -148.42944629753168 298.57767011097985 0 0 0 0 634.62762375302555 -328.77245780854207 0 -328.77245780854207 361.95067777684744 0 0 0 0 759.38850563691813 -163.78060707860732 0 -163.78060707860732 345.81419578046996 0 0 0 0 733.85394181015545 -39.456309825829635 0 -39.456309825829635 405.47497051712207 0 0 0 0 1128.1482130824879 -204.99153715695411 0 -204.99153715695411 407.31215275025579 0 0 0 0 1331.6916955979541 229.13163811548384 0 229.13163811548384 197.1452501769536 0 0 0 0 982.86651040126162 411.64495584583494 0 411.64495584583494 254.84441064635485 0 0 0 0 1573.0984963873489 207.37380355167556 0 207.37380355167556 161.88329051580092 0 0 0 0 1595.4376490617869 598.15139270257703 0 598.15139270257703 -41.944564048584425 0 0 0 0 1926.7744274177458 -129.71441750555221 0 -129.71441750555221 392.5138816968647 0 0 0 0 1704.0401410034829 163.20347411260354 0 163.20347411260354 546.00922585940884 0 0 0 0 1235.5691762942952 156.15946869496997 0 156.15946869496997 748.89594915802081 0 0 0 0 1387.845427237713 -172.10164846412272 0 -172.10164846412272 569.34060071653403 0 0 0 0 2067.5527105505753 -301.88128104332691 0 -301.88128104332691 1115.6029335717294 0 0 0 0 3136.7768524546045 1.9724748128699048 0 1.9724748128699048 193.7041874476763 0 0 0 0 2301.1386997672016 1465.8640401969178 0 1465.8640401969178 329.42225480189518 0 0 0 0 1702.0518090054902 864.28497523581109 0 864.28497523581109 267.57445602250664 0 0 0 0 1275.1087117465358 591.86874265231609 0 591.86874265231609 249.23750481584199 0 0 0 0 2126.0316478107543 482.81947313493492 0 482.81947313493492 -22.785081298028672 0 0 0 0 1914.3374399154418 471.23010529092608 0 471.23010529092608 8.3440468658268401 0 0 0 0 1928.6814322542514 703.93131275368557 0 703.93131275368557 -162.54250118182063 0 0 0 0 1964.0828365032503 260.78118466171611 0 260.78118466171611 -665.3305808660682 0 0 0 0 1957.5343654705539 586.60929652617369 0 586.60929652617369 -352.80536501861479 0 0 0 0 1727.5053703625599 467.75512779439168 0 467.75512779439168 -134.58106736514901 0 0 0 0 2108.7039320713084 713.24607081581189 0 713.24607081581189 -4.3014415616480619 0 0 0 0 1733.0376008886492 530.04899463756647 0 530.04899463756647 285.24456539940547 0 0 0 0 1398.8203779012547 610.27281544689549 0 610.27281544689549 269.08125326481468 0 0 0 0 3142.7721831842719 1404.8243938658461 0 1404.8243938658461 -610.13818734392112 0 0 0 0 1802.9096283489489 237.38846227209626 0 237.38846227209626 -108.37539516208039 0 0 0 0 2518.1296870777442 1587.9494050957499 0 1587.9494050957499 -808.06075429894872 0 0 0 0 4.6791309380823778 -0.078747626566340045 0 -0.078747626566340045 -8.930768780011233 0 0 0 0 4499.8774698428533 213.79588016501006 0 213.79588016501006 -221.93441225701395 0 0 0 0 4373.188625825489 190.85104727883621 0 190.85104727883621 -133.67669609112789 0 0 0 0 6.1696092283414181 -2.5784937552254235 0 -2.5784937552254235 -22.564855051828221 0 0 0 0 1419.7573192666532 622.20852603547019 0 622.20852603547019 204.0384821785492 0 0 0 0 1383.210310272887 363.73390565882357 0 363.73390565882357 -269.86946471535157 0 0 0 0 233.93852011868876 94.022308281377718 0 94.022308281377718 503.4926610949251 0 0 0 0 4499.6516582545619 82.958188120358557 0 82.958188120358557 -44.111015775450781 0 0 0 0 3.7094107403405543 -13.602184065115281 0 -13.602184065115281 -36.314360750907284 0 0 0 0 4308.6336033985208 -85.864526196862911 0 -85.864526196862911 -186.62374730332328 0 0 0 0 63.188835450426268 10.407739242797561 0 10.407739242797561 11.130534075266951 0 0 0 0 19.929710428972612 -0.44755043523036875 0 -0.44755043523036875 28.828661824809387 0 0 0 0 17.128627442289144 5.2409819641156901 0 5.2409819641156901 17.6041936775473 0 0 0 0 -5.4493249724182533 18.779092186153321 0 18.779092186153321 32.712499289243851 0 0 0 0 16.95343279093504 1.59798594109634 0 1.59798594109634 26.337543758632819 0 0 0 0 24.235741034528473 14.341423649117132 0 14.341423649117132 37.050189775744002 0 0 0 0 25.549596180528169 9.5444815129230847 0 9.5444815129230847 28.369155329939815 0 0 0 0 48.406903448936646 -1.7308753659453942 0 -1.7308753659453942 30.665553007675044 0 0 0 0 84.437663124699611 21.491117012868472 0 21.491117012868472 32.471495807727706 0 0 0 0 -0.93454665985007068 1.9113504436088533 0 1.9113504436088533 6.0685436951778726 0 0 0 0 49.655460222613328 -8.0154071079871301 0 -8.0154071079871301 53.659528725265773 0 0 0 0 97.99077308611686 3.0679142502296628 0 3.0679142502296628 1.2901323894838601 0 0 0 0 106.52938613804872 59.177820460451585 0 59.177820460451585 -50.057590826051182 0 0 0 0 84.856981072323833 100.69362761986213 0 100.69362761986213 82.408537177116159 0 0 0 0 52.074645265340223 48.381322114531486 0 48.381322114531486 8.8745581633093025 0 0 0 0 10.272450186382855 22.744753384611329 0 22.744753384611329 14.061913187349468 0 0 0 0 90.578851699348888 -3.1338941698145391 0 -3.1338941698145391 13.471591008854375 0 0 0 0 -68.920524489978561 77.787314629867069 0 77.787314629867069 203.41851990324631 0 0 0 0 20.163345629398918 20.619736555487151 0 20.619736555487151 114.07356402940422 0 0 0 0 8.0262626768780407 2.2057107578055195 0 2.2057107578055195 -0.12063178062181379 0 0 0 0 110.55729577696184 90.192475832385753 0 90.192475832385753 7.4804701214552551 0 0 0 0 -0.33545853315314389 7.710082124846851 0 7.710082124846851 3.4414019164955625 0 0 0 0 11.349261433759239 26.223569416330065 0 26.223569416330065 -27.560205558429402 0 0 0 0 116.27631158256554 29.324446178467042 0 29.324446178467042 47.577619201013476 0 0 0 0 -89.23187031391717 1.4125027050986318 0 1.4125027050986318 45.490637511078603 0 0 0 0 9.4056658469139052 3.7154547149441122 0 3.7154547149441122 0.039522702008950805 0 0 0 0 -30.822543797446997 22.96024606236324 0 22.96024606236324 -19.219734219530437 0 0 0 0 2.0217891692548733 1.8064744532394137 0 1.8064744532394137 -0.72397145561565335 0 0 0 0 40.338350904101389 2.5251539960863738 0 2.5251539960863738 -23.591575386190016 0 0 0 0 16.008497202408648 3.0322196447704179 0 3.0322196447704179 -0.8258715949503288 0 0 0 0 -54.940847263438627 -3.4214887237076255 0 -3.4214887237076255 -5.885112293372913 0 0 0 0 23.559124405801413 -3.5943716890014912 0 -3.5943716890014912 -51.455323515149757 0 0 0 0 24.701112877199193 19.959982110424789 0 19.959982110424789 95.083582469882458 0 0 0 0 39.878482174120734 6.6022805570781635 0 6.6022805570781635 -2.2523404768261108 0 0 0 0 51.841078262412339 17.198008651743294 0 17.198008651743294 63.998688297860497 0 0 0 0 16.446684119182464 7.0542843902499044 0 7.0542843902499044 76.811331651044384 0 0 0 0 35.15912577151903 64.015941456840665 0 64.015941456840665 46.291212476366127 0 0 0 0 30.871729599166429 73.100174185005017 0 73.100174185005017 52.726629356370722 0 0 0 0 1.2725903840014325 1.6754443839897259 0 1.6754443839897259 -0.59153162629664813 0 0 0 0 41.847120007092599 -1.8742918057077986 0 -1.8742918057077986 -44.01854626063141 0 0 0 0 23.484704929466432 7.1764569247114292 0 7.1764569247114292 7.1940223040446565 0 0 0 0 142.19572987878928 30.966152403601882 0 30.966152403601882 47.464266914077598 0 0 0 0 71.735264373128302 41.872882498209947 0 41.872882498209947 57.916182455152011 0 0 0 0 86.366160093282815 22.031557204009005 0 22.031557204009005 -39.291555175283975 0 0 0 0 32.571433225684814 62.867807032474047 0 62.867807032474047 38.713614028278243 0 0 0 0 -52.921588556993811 -48.864393499003199 0 -48.864393499003199 54.495498682619655 0 0 0 0 -12.822647034795438 11.697014573873673 0 11.697014573873673 44.486599084029748 0 0 0 0 -8.5341376676806249 83.61060468949654 0 83.61060468949654 67.657755582327809 0 0 0 0 -17.843320170617687 -4.9678557451063057 0 -4.9678557451063057 15.876649850157648 0 0 0 0 -6.2823712475536126 -3.1104814554906346 0 -3.1104814554906346 17.743474133022488 0 0 0 0 -51.280557676625904 -20.416783534304614 0 -20.416783534304614 41.446339038533779 0 0 0 0 26.160741353291087 -18.094425143240187 0 -18.094425143240187 33.259472180003741 0 0 0 0 8.4638912814261857 -15.146465212754265 0 -15.146465212754265 120.7194988232277 0 0 0 0 -13.857826379215112 17.850588440270485 0 17.850588440270485 73.664446755935387 0 0 0 0 7.763063196602161 10.701396805725153 0 10.701396805725153 30.894327210774421 0 0 0 0 3.9803804002585821 5.7029651069942702 0 5.7029651069942702 25.366048930527541 0 0 0 0 2.3200723462955182 -0.16329837488601129 0 -0.16329837488601129 32.172897071172066 0 0 0 0 10.225008600707383 -18.304229763205655 0 -18.304229763205655 92.615294534309214 0 0 0 0 10.700230133270225 34.932213003166453 0 34.932213003166453 74.246250602722284 0 0 0 0 49.168106480770803 36.980742985331744 0 36.980742985331744 -9.1963884949873318 0 0 0 0 6.5004019695823274 5.0665311278196725 0 5.0665311278196725 -5.2341947398788733 0 0 0 0 20.399241178500233 14.165782128558931 0 14.165782128558931 81.386475432012958 0 0 0 0 25.693539506435627 -8.0077019840373396 0 -8.0077019840373396 157.35185223082226 0 0 0 0 13.447198720372398 16.06518101421716 0 16.06518101421716 87.014189908013577 0 0 0 0 26.373286469548475 23.801328985373402 0 23.801328985373402 53.979455193445574 0 0 0 0 18.501647171389777 41.505570889137744 0 41.505570889137744 73.797686078789411 0 0 0 0 946.05214262970549 252.42730216573273 0 252.42730216573273 8.8925633923663554 0 0 0 0 948.63170080769214 217.79928360440778 0 217.79928360440778 -83.996071132050929 0 0 0 0 899.42974764341488 263.87999960486559 0 263.87999960486559 62.732936443124345 0 0 0 0 750.06939335132483 228.81379968226383 0 228.81379968226383 41.838973953294953 0 0 0 0 808.48149922516313 202.42134732205977 0 202.42134732205977 34.099407190252123 0 0 0 0 445.44635088191717 354.51991663623494 0 354.51991663623494 384.89203341079428 0 0 0 0 49.235955390904564 92.517090275599003 0 92.517090275599003 211.97785815118903 0 0 0 0 271.5041215091187 296.41037690701614 0 296.41037690701614 237.74044943720946 0 0 0 0 350.61401876111631 102.18924723077816 0 102.18924723077816 40.153283333324907 0 0 0 0 671.80183449867764 147.34573069391172 0 147.34573069391172 34.379765113804751 0 0 0 0 175.95340824915911 36.902555379659134 0 36.902555379659134 90.833428217643814 0 0 0 0 265.13248612271855 177.44158295272564 0 177.44158295272564 142.88961759257472 0 0 0 0 64.601986846071668 81.535228827251558 0 81.535228827251558 146.07343566522727 0 0 0 0 118.72664960005204 41.779207393463366 0 41.779207393463366 103.29419499153482 0 0 0 0 0.42340520341613797 -2.5560411917283261 0 -2.5560411917283261 1.4528160118495137 0 0 0 0 -56.591087434324436 -11.674869934488925 0 -11.674869934488925 115.96777996887499 0 0 0 0 268.67994273766817 248.00409875845935 0 248.00409875845935 297.57441723059628 0 0 0 0 -157.82575656000699 67.7585015203681 0 67.7585015203681 240.30731424664964 0 0 0 0 0.2077205240497193 4.2076765860652472 0 4.2076765860652472 24.173738081370274 0 0 0 0 0.97667071215784063 -0.83502948298472113 0 -0.83502948298472113 3.8426414443628687 0 0 0 0 396.2438143541076 -71.229379299685206 0 -71.229379299685206 -240.05680651981584 0 0 0 0 781.2334913681334 318.12054635680306 0 318.12054635680306 10.940924155078392 0 0 0 0 934.45713855716167 147.06618682014323 0 147.06618682014323 120.18614970290173 0 0 0 0 747.65533272996254 -0.53441116061321736 0 -0.53441116061321736 -32.374459575098172 0 0 0 0 267.05770962485985 -84.130257774482288 0 -84.130257774482288 -3.1744522322669582 0 0 0 0 2.8413889098860068 1.23335930220059 0 1.23335930220059 7.7184003635733669 0 0 0 0 246.25754947093083 -114.34256801450192 0 -114.34256801450192 50.37344848099201 0 0 0 0 -145.87801784844487 33.089878087752368 0 33.089878087752368 23.571358467305799 0 0 0 0 -16.590587013866752 -127.49782794470957 0 -127.49782794470957 90.342765714609413 0 0 0 0 -166.66157788431155 -5.31747765793898 0 -5.31747765793898 119.96908617071676 0 0 0 0 -124.18654689798132 -78.593345784296616 0 -78.593345784296616 153.71066874529515 0 0 0 0 -43.907134458349901 -30.443671333575708 0 -30.443671333575708 166.11628575749819 0 0 0 0 18.746993920663954 0.039959764723789704 0 0.039959764723789704 144.12065760038968 0 0 0 0 -28.251799243269488 34.524229027114416 0 34.524229027114416 133.24361645882163 0 0 0 0 178.07372174790362 -62.582815996141107 0 -62.582815996141107 107.29221550795683 0 0 0 0 -12.523928662238177 37.189493333474275 0 37.189493333474275 114.49550439484847 0 0 0 0 211.83984234146919 -7.7101191708077295 0 -7.7101191708077295 173.23033897414643 0 0 0 0 277.49937396266614 -28.484603017392374 0 -28.484603017392374 167.37323880609165 0 0 0 0 673.47846030225628 62.379420495899467 0 62.379420495899467 270.21008691703014 0 0 0 0 438.8311627472649 -161.31829723857436 0 -161.31829723857436 144.76147754018439 0 0 0 0 18.153899725347685 5.766369855015876 0 5.766369855015876 3.2500671736150117 0 0 0 0 1.4191591695998795 7.7047949442658137 0 7.7047949442658137 25.321507550210299 0 0 0 0 6.453327120620088 62.900099310264437 0 62.900099310264437 -12.058046692531207 0 0 0 0 8.3273398090699686 12.814101940321166 0 12.814101940321166 21.108059395594111 0 0 0 0 14.41553697490599 11.030590177977501 0 11.030590177977501 12.016639639941559 0 0 0 0 15.906569158249454 19.154885953401241 0 19.154885953401241 15.022887234937672 0 0 0 0 16.13218674781092 6.3741279837081493 0 6.3741279837081493 19.605268568057909 0 0 0 0 16.731938029231969 8.1221572483755153 0 8.1221572483755153 14.343919989092683 0 0 0 0 -4.4685984282405116 9.371635401738331 0 9.371635401738331 18.044312105296825 0 0 0 0 0.4069797630701828 9.1039586684401499 0 9.1039586684401499 45.602534124566965 0 0 0 0 4.3030977527378127 7.0713153148753918 0 7.0713153148753918 22.197973668531631 0 0 0 0 7.6672761860199756 11.991441263678951 0 11.991441263678951 18.603774602282122 0 0 0 0 11.800841387477703 2.5009777097511687 0 2.5009777097511687 24.228042640816057 0 0 0 0 -278.15469770305208 225.91957822202767 0 225.91957822202767 -241.41344634391498 0 0 0 0 1.5095228929123152 8.6025838399710892 0 8.6025838399710892 25.730185588274594 0 0 0 0 -277.80438658947241 -30.017376424899339 0 -30.017376424899339 116.21117541624517 0 0 0 0 16.138645848084707 1.4372543504769055 0 1.4372543504769055 22.265528015316704 0 0 0 0 -177.00332923690439 -52.863809006346855 0 -52.863809006346855 -60.693560196083126 0 0 0 0 16.113014723443484 8.0611942790690136 0 8.0611942790690136 26.841694706497947 0 0 0 0 17.643346993427258 4.2709273236132503 0 4.2709273236132503 21.144200352790904 0 0 0 0 11.183832316142798 7.2108838615289415 0 7.2108838615289415 20.29546870334525 0 0 0 0 -191.40237292999791 170.49527861560395 0 170.49527861560395 103.32815641274283 0 0 0 0 24.007283088605618 12.178926291984908 0 12.178926291984908 28.961610132318356 0 0 0 0 22.662620476927259 7.3222801554288708 0 7.3222801554288708 26.199856772985186 0 0 0 0 -265.38771005215312 105.01489543380194 0 105.01489543380194 161.87847394061282 0 0 0 0 45.500544855247426 -63.347217541012355 0 -63.347217541012355 172.3798012386369 0 0 0 0 3.9455392542490415 9.8347606160673706 0 9.8347606160673706 28.133628264236965 0 0 0 0 -197.93529911138467 53.013271693733259 0 53.013271693733259 195.14131585226278 0 0 0 0 -171.76576081856183 33.989950083611348 0 33.989950083611348 151.25471163627299 0 0 0 0 -136.07070615876 1.0725269821778056 0 1.0725269821778056 169.51003517191384 0 0 0 0 -125.57625066244509 96.827054163491084 0 96.827054163491084 143.40192183193358 0 0 0 0 -60.069261802025721 169.05731082986495 0 169.05731082986495 -58.844540075657278 0 0 0 0 -9.4897202043212019 36.788252375616139 0 36.788252375616139 99.473854510474666 0 0 0 0 108.05805615952704 54.894036050284967 0 54.894036050284967 -45.768448391385391 0 0 0 0 -62.961250995933369 -6.4890537022989747 0 -6.4890537022989747 127.14422521673316 0 0 0 0 76.683255121257389 15.569435429066061 0 15.569435429066061 -22.078843211451726 0 0 0 0 83.539688086388196 15.127409447364528 0 15.127409447364528 -24.009249497137034 0 0 0 0 6.9311699919614398 12.450999860532249 0 12.450999860532249 24.808098099016323 0 0 0 0 -0.92596961495797814 -0.6116452958542169 0 -0.6116452958542169 5.4302420460453371 0 0 0 0 72.482963095550076 -28.957924843659839 0 -28.957924843659839 99.446585343899642 0 0 0 0 88.52453022627742 -24.442497087999982 0 -24.442497087999982 -192.07670646668521 0 0 0 0 53.578081448504236 -180.69937665222506 0 -180.69937665222506 1.7048623997598042 0 0 0 0 28.049946314313274 -198.66804551589121 0 -198.66804551589121 165.10146832348801 0 0 0 0 -51.935018492855306 -43.30961944041735 0 -43.30961944041735 175.08395966691569 0 0 0 0 178.27359284670092 -252.65120107895791 0 -252.65120107895791 279.7832208795212 0 0 0 0 164.37076531944331 -30.041487705331292 0 -30.041487705331292 18.714127907794136 0 0 0 0 1.341094576796479 5.3332763413290252 0 5.3332763413290252 20.426431001741889 0 0 0 0 480.04361125521245 -206.36569865850834 0 -206.36569865850834 378.76560293845932 0 0 0 0 447.78910106832336 -118.22952102026602 0 -118.22952102026602 158.44622363935241 0 0 0 0 190.89594022821984 -164.82739370893887 0 -164.82739370893887 226.90507276346989 0 0 0 0 207.70929036010057 -91.156476686117458 0 -91.156476686117458 52.321568417605931 0 0 0 0 245.60412720813383 -248.62628537623135 0 -248.62628537623135 324.38221034400522 0 0 0 0 236.03261388586543 -144.7980513422167 0 -144.7980513422167 140.42828145143585 0 0 0 0 462.67460638169723 -275.96241623360561 0 -275.96241623360561 251.07939105422065 0 0 0 0 464.72278874237963 -239.48404089800988 0 -239.48404089800988 461.51849068736328 0 0 0 0 398.93369101428834 -343.06637749360993 0 -343.06637749360993 344.65855888338058 0 0 0 0 279.86881278423243 -299.1386395244715 0 -299.1386395244715 389.83482644394826 0 0 0 0 290.09997215668773 -285.61208788756903 0 -285.61208788756903 198.18240925925693 0 0 0 0 291.1745915043648 -267.63010255730228 0 -267.63010255730228 298.99483181005826 0 0 0 0 427.16942510467925 -276.00371898826188 0 -276.00371898826188 407.70605921087054 0 0 0 0 300.04110934193159 -385.51131155426697 0 -385.51131155426697 360.85628019510966 0 0 0 0 0.81378134134229185 1.4174284370744772 0 1.4174284370744772 7.4283962283183858 0 0 0 0 204.33357231832633 38.750735361744773 0 38.750735361744773 74.38834778595583 0 0 0 0 422.52424101461293 -400.75271862642165 0 -400.75271862642165 440.62993067489424 0 0 0 0 244.32427122048102 -349.54377665448646 0 -349.54377665448646 410.86663766472634 0 0 0 0 387.58723398730945 -292.17210879597746 0 -292.17210879597746 110.79382692258332 0 0 0 0 279.60609534397372 -243.70085351014905 0 -243.70085351014905 451.04110450630054 0 0 0 0 249.56280268029514 -274.38450810859945 0 -274.38450810859945 684.56460476245479 0 0 0 0 11.355462924489984 -167.7639990027406 0 -167.7639990027406 71.210485892234828 0 0 0 0 -19.115533120246255 -253.91532823438092 0 -253.91532823438092 1002.476456439209 0 0 0 0 196.75187700467359 4.7738228485429772 0 4.7738228485429772 -71.431536390927704 0 0 0 0 -295.74601592423278 94.480933735025445 0 94.480933735025445 323.31901237607241 0 0 0 0 1.3225424600397133 2.344055199318575 0 2.344055199318575 4.8895076687967807 0 0 0 0 23.726489210030195 -37.823912561260755 0 -37.823912561260755 -58.879228889576552 0 0 0 0 -2.5258737332042074 39.834612389100812 0 39.834612389100812 26.477047709531689 0 0 0 0 -116.93158478748228 128.65423040785316 0 128.65423040785316 424.91407184648983 0 0 0 0 1.8886740259330992 5.3070441093426837 0 5.3070441093426837 13.66154541826227 0 0 0 0 55.318468387675239 -98.701288298511273 0 -98.701288298511273 -52.396658478424428 0 0 0 0 5.006805897247034 8.2484202897581724 0 8.2484202897581724 17.13688142819975 0 0 0 0 9.8990747157760666 7.9963606075625222 0 7.9963606075625222 9.7755802576968964 0 0 0 0 -5.0193235860642744 -23.808330003622814 0 -23.808330003622814 41.622767193681398 0 0 0 0 -28.287786082626553 72.884865001740309 0 72.884865001740309 1.9559119910127549 0 0 0 0 15.85196975965664 29.873117668010536 0 29.873117668010536 23.035302892497384 0 0 0 0 26.071965013019508 4.4452867131849416 0 4.4452867131849416 30.448237834132669 0 0 0 0 50.692760964986519 9.7474156469179434 0 9.7474156469179434 29.667129840749112 0 0 0 0 12.7893580363816 2.7440826801143885 0 2.7440826801143885 37.455954226174072 0 0 0 0 92.378033620625501 -23.128760132301977 0 -23.128760132301977 17.549412961529015 0 0 0 0 83.092637613437546 -44.323492819341482 0 -44.323492819341482 -22.873803867179959 0 0 0 0 9.4830642891444281 -15.24305334378576 0 -15.24305334378576 30.079654152861508 0 0 0 0 106.57084932558791 7.3235487830252168 0 7.3235487830252168 18.875285291952423 0 0 0 0 53.448964295035694 18.666186529084371 0 18.666186529084371 50.132707152782473 0 0 0 0 122.59876984548464 -12.071260813501794 0 -12.071260813501794 39.88209913130413 0 0 0 0 44.002147479081032 -19.388282950316352 0 -19.388282950316352 28.532276133237247 0 0 0 0 101.44705411030736 -87.907239970210867 0 -87.907239970210867 -92.989526959740033 0 0 0 0 101.13959271361819 -66.321688562941745 0 -66.321688562941745 -4.1448125671149683 0 0 0 0 93.031754824565724 -253.09143043143104 0 -253.09143043143104 -107.32978666117742 0 0 0 0 -171.3737069462295 -149.38527216404282 0 -149.38527216404282 2.5997440065930277 0 0 0 0 105.11673196518677 -95.058236309971107 0 -95.058236309971107 -49.696540040444233 0 0 0 0 1.5633318005939536 -12.979568913475163 0 -12.979568913475163 13.643431514288643 0 0 0 0 63.634883357408398 14.729970198278806 0 14.729970198278806 -1.1572864909248892 0 0 0 0 19.759096596929737 11.584434160661758 0 11.584434160661758 11.312715753793107 0 0 0 0 -307.78304467041016 -61.814807335869205 0 -61.814807335869205 10.531201185465761 0 0 0 0 4.7213397768558707 -4.6628226961651222 0 -4.6628226961651222 0.68280771337077795 0 0 0 0 208.47382680830196 -171.39036502964427 0 -171.39036502964427 -127.62411118653836 0 0 0 0 -1386.0819490655849 -818.29921251061569 0 -818.29921251061569 -498.31660188376918 0 0 0 0 79.568757408502279 -89.710738134235726 0 -89.710738134235726 -153.33987579141194 0 0 0 0 630.66426959974342 371.86954691506799 0 371.86954691506799 -454.48680088577902 0 0 0 0 63.025135067960946 -221.2077304522245 0 -221.2077304522245 1413.432404676736 0 0 0 0 648.65027830692088 679.59407333555419 0 679.59407333555419 533.03996462245777 0 0 0 0 -566.64305867521034 650.92131419452198 0 650.92131419452198 123.42134131202408 0 0 0 0 480.48277061972476 -578.64329006376693 0 -578.64329006376693 609.37303673568385 0 0 0 0 1.3775093575167716 4.4549471548334054 0 4.4549471548334054 5.3918201606388259 0 0 0 0 336.95768912971107 -326.27718062457643 0 -326.27718062457643 168.78479541381239 0 0 0 0 2.8839397480620077 3.4060919718139644 0 3.4060919718139644 14.473302659253687 0 0 0 0 -5.9765495082974667 -404.93654849639222 0 -404.93654849639222 1150.7201727988768 0 0 0 0 -503.66303539989894 371.81578996690035 0 371.81578996690035 908.82396139284879 0 0 0 0 381.39003361364303 -263.75646182908599 0 -263.75646182908599 310.70441011992773 0 0 0 0 -285.21613261122548 -764.00119290486396 0 -764.00119290486396 856.57692436135892 0 0 0 0 932.48370875813998 -363.96140280596933 0 -363.96140280596933 -657.83469356436194 0 0 0 0 2.3799895652919076 43.265374499405539 0 43.265374499405539 -44.34833412914611 0 0 0 0 -2.6905229646072257 -9.8992156032383818 0 -9.8992156032383818 1.3041439736274394 0 0 0 0 -1011.958565189314 -57.169457316811986 0 -57.169457316811986 543.58633645247255 0 0 0 0 -0.084634771235869266 -54.362225802079365 0 -54.362225802079365 161.55159267648105 0 0 0 0 -3.559659309355979 3.6130349164755842 0 3.6130349164755842 16.950723253580694 0 0 0 0 -39.942931235076685 8.8979145336220711 0 8.8979145336220711 3.9077783481052393 0 0 0 0 -4.9701126739573311 -5.59968198030748 0 -5.59968198030748 -5.7629240737635161 0 0 0 0 -22.355692547207582 -18.671185113874742 0 -18.671185113874742 19.373458270401898 0 0 0 0 -4.4451917983533349 -18.162223452136686 0 -18.162223452136686 0.57976050087017938 0 0 0 0 -20.633550896462111 -29.787809707103889 0 -29.787809707103889 128.51397430831048 0 0 0 0 2.0488833987037651 -2.7912179369338901 0 -2.7912179369338901 15.341936065801292 0 0 0 0 -13.602065292478073 -0.43640835892153973 0 -0.43640835892153973 53.852755132087623 0 0 0 0 3.7220747376122745 -75.307523556365481 0 -75.307523556365481 70.222815035582983 0 0 0 0 -2.0683727945197461 -51.734398559907063 0 -51.734398559907063 8.0781805911337869 0 0 0 0 17.458720344526228 -78.348379863516925 0 -78.348379863516925 37.470084300235953 0 0 0 0 363.57237742816505 -129.47382359512591 0 -129.47382359512591 71.305297295691616 0 0 0 0 61.156659472864703 4.0730698680391342 0 4.0730698680391342 222.0887407150484 0 0 0 0 56.489235254295636 -43.729619817525816 0 -43.729619817525816 73.353974866752083 0 0 0 0 -20.867877025593771 18.42369183622759 0 18.42369183622759 51.804263082960915 0 0 0 0 47.361092760547763 -90.858180123000011 0 -90.858180123000011 56.503319772233056 0 0 0 0 88.442635738552781 -75.925075701456876 0 -75.925075701456876 60.946910207065343 0 0 0 0 11.580195081846341 -4.962059453188453 0 -4.962059453188453 -1.6889057826773777 0 0 0 0 172.16925775971322 -46.870466895408498 0 -46.870466895408498 -31.27033128201208 0 0 0 0 130.43316044782114 402.34084483417848 0 402.34084483417848 -507.96326857286761 0 0 0 0 226.76665240503644 -475.25864470117017 0 -475.25864470117017 510.15150706809368 0 0 0 0 -21.858721116514062 -483.58442268505252 0 -483.58442268505252 528.78250709783401 0 0 0 0 -368.81865929172636 -1.896419585712664 0 -1.896419585712664 278.07026645595624 0 0 0 0 87.245527706560097 158.73647183481035 0 158.73647183481035 490.43661976085536 0 0 0 0 554.08956918367767 -336.05547855626418 0 -336.05547855626418 388.71517001465082 0 0 0 0 554.00726419011335 -153.14996562979042 0 -153.14996562979042 -49.747359106788771 0 0 0 0 398.21573707597418 302.18002007071232 0 302.18002007071232 -626.48175525602505 0 0 0 0 380.20650204898266 -585.76303085373343 0 -585.76303085373343 768.85986760440539 0 0 0 0 6.5010997421392176 -1.7677760860461031 0 -1.7677760860461031 -0.11881180633117885 0 0 0 0 416.82203535962981 -406.02267450845648 0 -406.02267450845648 270.49014663356706 0 0 0 0 601.13719566892541 -368.05856471389222 0 -368.05856471389222 287.775794101982 0 0 0 0 486.73615108562808 -314.09580690005123 0 -314.09580690005123 268.68423275663577 0 0 0 0 446.42866541011608 -315.60532001972319 0 -315.60532001972319 486.78728874601279 0 0 0 0 802.36429208185291 -173.62317962967086 0 -173.62317962967086 328.11516392959618 0 0 0 0 442.68457456588294 -285.99339717765025 0 -285.99339717765025 256.82745892855576 0 0 0 0 3.2054040218586124 0.45785994047027501 0 0.45785994047027501 -0.29864593482027274 0 0 0 0 211.21960256457533 -448.87112196466194 0 -448.87112196466194 144.22559591811762 0 0 0 0 293.91469060384043 81.192633774906 0 81.192633774906 -253.61036322346399 0 0 0 0 13.010664848115994 10.057896081055674 0 10.057896081055674 97.770585639285258 0 0 0 0 400.62490524315217 -384.80975559647243 0 -384.80975559647243 217.34387019962412 0 0 0 0 526.36398179463868 -303.74085965322627 0 -303.74085965322627 -156.05253195064074 0 0 0 0 306.34029328546899 -417.96202344890668 0 -417.96202344890668 -168.47180954324563 0 0 0 0 94.01047683894285 -73.882375973156513 0 -73.882375973156513 -460.08409630627023 0 0 0 0 50.781354871345684 192.11730878412686 0 192.11730878412686 -692.72745491355454 0 0 0 0 299.22636368956887 16.04671205397608 0 16.04671205397608 -420.9960076831137 0 0 0 0 166.61460449938022 152.72773696532954 0 152.72773696532954 -725.80230762713632 0 0 0 0 -20.080939483785187 -61.240796127401154 0 -61.240796127401154 -310.42811179337218 0 0 0 0 382.27260777282936 -314.84309619458861 0 -314.84309619458861 206.91999381384471 0 0 0 0 -18.013577824400272 -97.646141187360342 0 -97.646141187360342 211.88790488155684 0 0 0 0 876.18114308424992 -662.19183833318471 0 -662.19183833318471 134.73610629760469 0 0 0 0 590.82881193484354 -561.7342102357054 0 -561.7342102357054 146.05197319998996 0 0 0 0 696.79709046428616 -335.94581911136481 0 -335.94581911136481 -162.64471097409375 0 0 0 0 582.88193222945847 -333.95072360252573 0 -333.95072360252573 -478.4231259219498 0 0 0 0 541.55270274284703 -436.80273101504861 0 -436.80273101504861 -166.66387236204639 0 0 0 0 647.66107525904954 -413.15172667537018 0 -413.15172667537018 -172.73990730957507 0 0 0 0 650.65428886110021 -325.74733719613209 0 -325.74733719613209 -9.4591172750530177 0 0 0 0 400.31830871108104 -150.98684897198149 0 -150.98684897198149 -127.94018246294968 0 0 0 0 829.30666974354972 -317.3509013403015 0 -317.3509013403015 -598.14705698192574 0 0 0 0 1010.0381025255592 166.86221822782608 0 166.86221822782608 17.661162728379509 0 0 0 0 575.70413214854489 -375.45333558826928 0 -375.45333558826928 -578.28734250216439 0 0 0 0 -73.404699347898713 257.30901774088977 0 257.30901774088977 1000.8943917331521 0 0 0 0 12.908991386155833 3.8810431104931009 0 3.8810431104931009 0.53323385306517324 0 0 0 0 319.1184418921257 241.71557963433884 0 241.71557963433884 -213.3938894659309 0 0 0 0 321.30363847526314 657.32890646443889 0 657.32890646443889 504.05544934069496 0 0 0 0 1094.1466177230395 -395.17751910347573 0 -395.17751910347573 -10.87836045132201 0 0 0 0 79.37120281184616 -123.62568562532283 0 -123.62568562532283 -919.58930850585239 0 0 0 0 28.061226435940625 196.64244879596058 0 196.64244879596058 -45.514046954338482 0 0 0 0 34.509219972989229 10.304249978410837 0 10.304249978410837 -0.21628969525524783 0 0 0 0 219.71219889163331 186.5610005056717 0 186.5610005056717 -1222.0721528927645 0 0 0 0 -294.75915538734989 304.76777099299125 0 304.76777099299125 -639.22606412097366 0 0 0 0 -399.94569727018825 -64.867648097317897 0 -64.867648097317897 -549.16670210941732 0 0 0 0 42.307841162168188 -451.89469975885208 0 -451.89469975885208 -446.04808666077702 0 0 0 0 -161.53733658709098 -337.02941461998216 0 -337.02941461998216 -440.99500536165016 0 0 0 0 244.53291169866861 -215.25986689177887 0 -215.25986689177887 -565.91635170408608 0 0 0 0 14.658338336041197 209.7343189394262 0 209.7343189394262 368.44986711806735 0 0 0 0 164.69439721915842 363.67552526005761 0 363.67552526005761 -131.30550250869419 0 0 0 0 188.21119845265639 -60.967546929184465 0 -60.967546929184465 243.80384395087401 0 0 0 0 -28.434974172341754 266.77538623803531 0 266.77538623803531 337.14882505497991 0 0 0 0 30.873364055994898 -70.279987630943083 0 -70.279987630943083 -217.33165602320062 0 0 0 0 1.5270603357680272 4.2699320369242901 0 4.2699320369242901 -1.0242601857597247 0 0 0 0 104.39747373839782 62.472505572110094 0 62.472505572110094 -215.73072023975703 0 0 0 0 27.281454245028726 200.79674448752007 0 200.79674448752007 -86.466304864828089 0 0 0 0 231.41048416587 376.0993169753342 0 376.0993169753342 -717.83759408697188 0 0 0 0 15.504114801751712 -33.38340212049718 0 -33.38340212049718 40.33076824635782 0 0 0 0 153.77640553904791 15.645030727620709 0 15.645030727620709 -0.57013674766011668 0 0 0 0 10.908576958456251 225.69790141992775 0 225.69790141992775 -354.1641971740143 0 0 0 0 -353.54791536694029 146.47665107818898 0 146.47665107818898 401.12477630716035 0 0 0 0 -9.1787410622091556 -56.869721547226959 0 -56.869721547226959 -114.04357645883795 0 0 0 0 -53.525097857636865 124.6220040496778 0 124.6220040496778 -180.55073435290603 0 0 0 0 692.63290927812341 129.11635666501559 0 129.11635666501559 -1214.761447963896 0 0 0 0 155.84894589464471 13.496374556829009 0 13.496374556829009 -0.87301087074108596 0 0 0 0 264.58229533281701 122.66349733938043 0 122.66349733938043 -164.58643307983994 0 0 0 0 12.034776210643031 -20.016314097261329 0 -20.016314097261329 83.881771915248692 0 0 0 0 76.547548735048622 136.38480442952709 0 136.38480442952709 -41.367314719992464 0 0 0 0 319.32366633268975 54.628433200898201 0 54.628433200898201 -263.98793858678675 0 0 0 0 52.675088507581677 90.222075376203406 0 90.222075376203406 50.753629514756661 0 0 0 0 147.44583436539821 9.9632346050022154 0 9.9632346050022154 -0.42607991963523761 0 0 0 0 305.88587577649741 -105.90296508558924 0 -105.90296508558924 -745.40284520691762 0 0 0 0 117.89264985290356 -278.83415435041462 0 -278.83415435041462 -11.946947724154825 0 0 0 0 133.46996327499608 8.8210028251284918 0 8.8210028251284918 0.37917001771983455 0 0 0 0 76.081903695187066 21.397780208742915 0 21.397780208742915 166.54230997162313 0 0 0 0 79.65745745825734 -114.80501656863245 0 -114.80501656863245 -25.623963901593925 0 0 0 0 77.831919614480285 -109.08262036549422 0 -109.08262036549422 -38.494429238540079 0 0 0 0 134.28276539713988 -155.03707866965129 0 -155.03707866965129 -424.68543125889954 0 0 0 0 14.664173137571197 -165.53494356788366 0 -165.53494356788366 34.260927928720093 0 0 0 0 50.461469426911208 -150.22953203213638 0 -150.22953203213638 -45.503942700003506 0 0 0 0 72.177691044758831 -110.67314099195403 0 -110.67314099195403 25.667477881448349 0 0 0 0 35.951314773032209 -119.7071950719087 0 -119.7071950719087 27.779754326659031 0 0 0 0 7.2143792958195263 -100.61081019944592 0 -100.61081019944592 16.719478859460878 0 0 0 0 -7.765806806258297 -80.710798090009163 0 -80.710798090009163 175.40122661285545 0 0 0 0 -8.0268700171000091 -86.246110552829578 0 -86.246110552829578 60.038774412639555 0 0 0 0 6.3868629978778699 -119.06816458560147 0 -119.06816458560147 100.61790984014578 0 0 0 0 57.595550478275982 -149.47264093674227 0 -149.47264093674227 76.506052690705928 0 0 0 0 58.337439064998762 -189.56260457247436 0 -189.56260457247436 222.75326005367751 0 0 0 0 168.11460877618811 46.422108606582071 0 46.422108606582071 478.20725772773267 0 0 0 0 15.495267299735929 -130.17858368043315 0 -130.17858368043315 67.833917344642146 0 0 0 0 1074.0105208267632 2698.7485864599976 0 2698.7485864599976 4416.2128032927003 0 0 0 0 4494.1494951149143 3138.980312856871 0 3138.980312856871 1417.3935233955974 0 0 0 0 110.39871847390896 1202.9078467657446 0 1202.9078467657446 2415.3027284154959 0 0 0 0 1649.0710748807469 2733.6167584054615 0 2733.6167584054615 1686.2089774024546 0 0 0 0 848.16317870472994 1959.8217360420138 0 1959.8217360420138 947.99638319875658 0 0 0 0 577.57739148314613 1982.4138562114699 0 1982.4138562114699 948.02889032649114 0 0 0 0 2222.3454303272047 1457.2181604344919 0 1457.2181604344919 228.70515077720239 0 0 0 0 4489.7868592546511 2116.8071709099545 0 2116.8071709099545 -432.03665619626662 0 0 0 0 1919.9992825839654 -31.193748904663607 0 -31.193748904663607 -2227.0552426241538 0 0 0 0 2033.4467084714124 2869.1313210157114 0 2869.1313210157114 1174.8986959008532 0 0 0 0 15.002905372252798 8.0762441816186303 0 8.0762441816186303 -2.9676489517616651 0 0 0 0 4492.9697044620316 2304.5911870777895 0 2304.5911870777895 -1339.4512660649757 0 0 0 0 315.80886487798125 1144.8894767558004 0 1144.8894767558004 -529.61384645881196 0 0 0 0 14.657206740014146 7.0660030165874481 0 7.0660030165874481 -2.8408312564272813 0 0 0 0 1211.8184737322808 2456.241978562638 0 2456.241978562638 1123.0398453579091 0 0 0 0 1149.1889642284659 -525.86525122621833 0 -525.86525122621833 -2267.6074976411819 0 0 0 0 2187.1920033155184 950.91164114321839 0 950.91164114321839 -1058.953214996538 0 0 0 0 2156.4742400744444 1075.3026140691406 0 1075.3026140691406 -89.089849337602573 0 0 0 0 1030.6816296133184 450.91809617171987 0 450.91809617171987 267.08930391385968 0 0 0 0 2092.7305869684642 1438.7695033904265 0 1438.7695033904265 307.99688593777273 0 0 0 0 499.77778464374933 793.71946735279312 0 793.71946735279312 102.22274386153072 0 0 0 0 78.015758946312417 293.81730977931602 0 293.81730977931602 409.76560914773563 0 0 0 0 1116.7509756248328 1750.5997001685962 0 1750.5997001685962 1043.8245152631416 0 0 0 0 127.4899155929088 821.92272794742757 0 821.92272794742757 197.25980263421525 0 0 0 0 395.21512312054256 -198.70085971561934 0 -198.70085971561934 -922.06549342775543 0 0 0 0 91.298369057607488 66.378677032243104 0 66.378677032243104 -647.3339248268835 0 0 0 0 -132.87671196310839 187.08539287851545 0 187.08539287851545 -693.22277615566395 0 0 0 0 34.784714444169367 -77.282854178361958 0 -77.282854178361958 -160.80503987222664 0 0 0 0 866.39449130960566 629.86465183163455 0 629.86465183163455 120.10381619328007 0 0 0 0 4.2658775841977672 2.9534876955465492 0 2.9534876955465492 -1.2056162938143302 0 0 0 0 1229.1985173868452 939.70750663947342 0 939.70750663947342 466.74592371647157 0 0 0 0 820.22994522810768 287.63321649173503 0 287.63321649173503 244.21640751027735 0 0 0 0 575.81918264279375 427.62129581283739 0 427.62129581283739 206.49826509082493 0 0 0 0 -100.19948402247974 53.736746959222842 0 53.736746959222842 202.24724376620384 0 0 0 0 262.83744905949425 -196.81221296895242 0 -196.81221296895242 278.63225738769893 0 0 0 0 464.66384038546676 -62.118492190120321 0 -62.118492190120321 346.97960486957913 0 0 0 0 -90.117567902852898 83.53196771625808 0 83.53196771625808 97.832428781980425 0 0 0 0 88.151489733587368 12.203502018184508 0 12.203502018184508 -372.21278582967602 0 0 0 0 388.47715682685521 -120.39588236746508 0 -120.39588236746508 -440.44820677114143 0 0 0 0 6.7519530918597184 1.560520925951252 0 1.560520925951252 -1.1974584413580349 0 0 0 0 -123.12855847671744 25.652553737350445 0 25.652553737350445 -17.589886244009563 0 0 0 0 96.299249596741447 -164.4902990168309 0 -164.4902990168309 -529.38080542281295 0 0 0 0 -133.31488834391348 -42.482155767729637 0 -42.482155767729637 -575.50588434683095 0 0 0 0 78.813636724204116 -71.439282093729844 0 -71.439282093729844 -893.27545134104912 0 0 0 0 -118.60383914297563 65.199280680083007 0 65.199280680083007 -385.05425872907063 0 0 0 0 84.255284287544782 43.39321343276481 0 43.39321343276481 -649.99025057052336 0 0 0 0 -181.45956191810546 60.07790241721068 0 60.07790241721068 -651.03691549110999 0 0 0 0 49.777390323874442 14.886564016523614 0 14.886564016523614 0.0080836700008706797 0 0 0 0 88.639516948045639 145.47518493071914 0 145.47518493071914 -1095.5894815713659 0 0 0 0 42.390847626498726 98.308214528841404 0 98.308214528841404 -145.23991322957477 0 0 0 0 97.605074920298648 107.72256813743525 0 107.72256813743525 -184.81099435834528 0 0 0 0 34.374275797847076 94.591038679859025 0 94.591038679859025 -119.89549550840457 0 0 0 0 17.796454259841994 107.54946412000163 0 107.54946412000163 -129.71213950605875 0 0 0 0 2.5130392776617327 5.4472862738123613 0 5.4472862738123613 -1.6394459908835037 0 0 0 0 59.784443126532096 114.50010523328567 0 114.50010523328567 -161.02889066597982 0 0 0 0 64.143170425217249 80.949440112496063 0 80.949440112496063 -132.17851666694662 0 0 0 0 65.933967565695639 67.096963546298412 0 67.096963546298412 -1.4538863545080858 0 0 0 0 99.614957112426055 135.20945129249958 0 135.20945129249958 -151.48705826894957 0 0 0 0 100.7355539295022 183.30131591550025 0 183.30131591550025 -219.79447284035859 0 0 0 0 1254.0471313917333 -61.338463626644653 0 -61.338463626644653 -871.58889436330105 0 0 0 0 138.61199745792564 14.128659244328439 0 14.128659244328439 -0.47372664761289079 0 0 0 0 -301.76163741297569 -34.474468830188869 0 -34.474468830188869 339.00864376991962 0 0 0 0 -23.741541653471359 -72.807376054337738 0 -72.807376054337738 -128.46722365475853 0 0 0 0 115.63492441110429 119.83297494047463 0 119.83297494047463 -176.81533105812468 0 0 0 0 1.7764512944559101 92.966833947577925 0 92.966833947577925 84.521960270480122 0 0 0 0 111.82860704662693 11.171997087281795 0 11.171997087281795 0.20999992264965026 0 0 0 0 111.04794237832175 -155.57217141608885 0 -155.57217141608885 -243.77745410123225 0 0 0 0 96.651236272688038 -87.414887438592274 0 -87.414887438592274 -60.58301961016025 0 0 0 0 0.82912055040287669 -73.047494158033828 0 -73.047494158033828 120.01849813400588 0 0 0 0 81.458521070198913 -34.216696860333286 0 -34.216696860333286 6.2472952055762221 0 0 0 0 164.82129088550573 101.18819637707361 0 101.18819637707361 -305.63720435278901 0 0 0 0 67.794364486739141 27.663972812326165 0 27.663972812326165 111.6111201861936 0 0 0 0 -40.531161964980129 64.314320326021743 0 64.314320326021743 126.78445788812357 0 0 0 0 1.7159460252556755 4.0058474217927849 0 4.0058474217927849 -1.2793893299121446 0 0 0 0 194.63505182724475 -21.75626974557872 0 -21.75626974557872 -433.80491634273812 0 0 0 0 200.02204420588896 159.11452379980904 0 159.11452379980904 -299.12156467839463 0 0 0 0 58.143848652036638 18.612232689619937 0 18.612232689619937 0.067182909537213065 0 0 0 0 384.5717929403545 63.950715536625466 0 63.950715536625466 -1286.0311578581441 0 0 0 0 57.410075225936453 89.849608869760658 0 89.849608869760658 -490.77985975788818 0 0 0 0 52.128789443257091 20.965410475167261 0 20.965410475167261 1.0172647035055571 0 0 0 0 669.89317177206976 661.42213328310481 0 661.42213328310481 -689.2362877188425 0 0 0 0 -189.25099289850186 155.92630459234095 0 155.92630459234095 -117.48267305390218 0 0 0 0 2.2161784010058909 -13.069987798738453 0 -13.069987798738453 -118.26598295662848 0 0 0 0 57.737295442108007 123.55014572653454 0 123.55014572653454 -56.952841858610896 0 0 0 0 82.774461553682684 9.8154352925589414 0 9.8154352925589414 0.54718746208071889 0 0 0 0 154.36443089900422 -18.807646238619725 0 -18.807646238619725 -78.398475445062729 0 0 0 0 94.268001911288593 -116.76287187413706 0 -116.76287187413706 5.1938728736478481 0 0 0 0 -34.82363603640988 3.8450830739090804 0 3.8450830739090804 249.35098128280532 0 0 0 0 -50.089437705464661 -34.760575689693155 0 -34.760575689693155 280.39031068630868 0 0 0 0 31.648413020564476 -96.865353549560723 0 -96.865353549560723 -32.698027195296731 0 0 0 0 59.899108760204399 -63.113939633475184 0 -63.113939633475184 -67.580201556923839 0 0 0 0 55.199884074012516 65.147007448486832 0 65.147007448486832 84.56814506465696 0 0 0 0 34.76423770372412 -68.7642618544741 0 -68.7642618544741 -19.592883277575311 0 0 0 0 58.351805503363011 10.061123238067406 0 10.061123238067406 1.2487228052066275 0 0 0 0 -10.115348336126772 -4.4357191938373717 0 -4.4357191938373717 160.01597722102105 0 0 0 0 123.85577734189792 -123.845552746561 0 -123.845552746561 -46.039209251220655 0 0 0 0 19.791830969053478 15.301773998582142 0 15.301773998582142 13.015207722872573 0 0 0 0 30.995346052455716 24.784373996810359 0 24.784373996810359 308.77364494269909 0 0 0 0 12.608279772752212 66.423881015557569 0 66.423881015557569 460.848065841108 0 0 0 0 -17.330106542751309 -172.19555690886125 0 -172.19555690886125 216.75244226362452 0 0 0 0 -26.15832697750011 -118.18534112813479 0 -118.18534112813479 569.95043057461487 0 0 0 0 28.423808868392371 -116.84126630134597 0 -116.84126630134597 36.614526648098291 0 0 0 0 22.287689664124628 -88.138051588481289 0 -88.138051588481289 30.225153159552775 0 0 0 0 13.61576887810952 -102.01231120600764 0 -102.01231120600764 121.20469874961279 0 0 0 0 74.508924399226089 -226.55683430470594 0 -226.55683430470594 88.495433071882204 0 0 0 0 570.11240990257647 -305.135715047502 0 -305.135715047502 651.90765839731444 0 0 0 0 9.1719780366544512 3.44461315427926 0 3.44461315427926 0.31202134796142089 0 0 0 0 76.67762023924297 985.69778132726026 0 985.69778132726026 -131.88156054420159 0 0 0 0 176.74773750030727 -421.29224811700084 0 -421.29224811700084 41.879159485731961 0 0 0 0 3962.7086211370624 965.94028929404237 0 965.94028929404237 -137.42962127876507 0 0 0 0 4491.617683621007 410.51617938541108 0 410.51617938541108 -12.796117147213689 0 0 0 0 1330.586153511118 732.48071120557779 0 732.48071120557779 431.80676172812912 0 0 0 0 5.6218235657364488 6.0589723086320362 0 6.0589723086320362 5.2087022298149002 0 0 0 0 2266.8628040865151 783.58272223865674 0 783.58272223865674 115.6308121454117 0 0 0 0 3943.528056379786 -427.14736943414903 0 -427.14736943414903 -361.74468440950113 0 0 0 0 1856.7405015389304 -900.2622917211512 0 -900.2622917211512 -184.67372289012809 0 0 0 0 91.371322457453061 167.39684207833244 0 167.39684207833244 -262.41595408575228 0 0 0 0 10.409076027177122 5.7487403525664362 0 5.7487403525664362 4.7205599072970532 0 0 0 0 4499.1166046842991 -1520.5917337014382 0 -1520.5917337014382 -116.49196142300048 0 0 0 0 205.73088738513616 -45.346532897197179 0 -45.346532897197179 -55.612256283458677 0 0 0 0 -188.73017600235471 -259.08574647166625 0 -259.08574647166625 -84.117038743080798 0 0 0 0 21.925725552422392 13.67901969089559 0 13.67901969089559 4.3864469777670712 0 0 0 0 852.62094875574257 11.012273843409943 0 11.012273843409943 -708.3037897302562 0 0 0 0 4419.5503611091845 1810.6473657939632 0 1810.6473657939632 176.42922236119227 0 0 0 0 2471.5935293230887 -1595.2890758473234 0 -1595.2890758473234 223.35873488202247 0 0 0 0 4493.2524205059162 -242.55612167521809 0 -242.55612167521809 -965.451738515432 0 0 0 0 1275.0953089404138 329.74499986928743 0 329.74499986928743 -343.37214081513423 0 0 0 0 848.57384622314203 -487.79727492078956 0 -487.79727492078956 -51.743478049302738 0 0 0 0 -209.22383000500849 203.57628435924852 0 203.57628435924852 498.38114258438816 0 0 0 0 -289.19114214568617 -15.645227000333193 0 -15.645227000333193 112.0460508947026 0 0 0 0 476.23977235487109 286.04782576377943 0 286.04782576377943 -176.50454426967826 0 0 0 0 102.1702115846274 -850.13713128383051 0 -850.13713128383051 759.33843724648023 0 0 0 0 4476.8716909740751 139.85287798143429 0 139.85287798143429 -317.50675837679233 0 0 0 0 8.1815512947574973 -4.872886147133265 0 -4.872886147133265 4.2395462808659952 0 0 0 0 11.968600813655712 -0.97987851237559198 0 -0.97987851237559198 1.9966193976303139 0 0 0 0 74.247137715079589 -146.82596269310289 0 -146.82596269310289 319.6043485107358 0 0 0 0 1320.3213526473082 895.87192729057369 0 895.87192729057369 632.58851135018051 0 0 0 0 4498.3260541984664 -917.4954356216009 0 -917.4954356216009 -624.85916039699862 0 0 0 0 4487.4035730101832 -920.11474370769702 0 -920.11474370769702 -623.28135036339916 0 0 0 0 117.28833451631363 -103.69327072616056 0 -103.69327072616056 -200.40329528741017 0 0 0 0 122.80153466745833 -101.2993996387878 0 -101.2993996387878 -241.30634550091759 0 0 0 0 106.36734641506519 -100.39914879620932 0 -100.39914879620932 -196.30845323460267 0 0 0 0 103.29916001043603 -111.12670454823765 0 -111.12670454823765 -121.94186994427969 0 0 0 0 70.383426874672296 -185.5133131199006 0 -185.5133131199006 -125.32324131765813 0 0 0 0 233.57033334865991 -282.66834124958058 0 -282.66834124958058 -365.36465939179027 0 0 0 0 226.41422648949083 -67.015228433634888 0 -67.015228433634888 -487.3741389618786 0 0 0 0 22.026935851892006 0.25621388550446511 0 0.25621388550446511 0.40213351613323711 0 0 0 0 25.360894065903267 139.41646185282207 0 139.41646185282207 -387.21170759894898 0 0 0 0 74.117881160909747 -28.902286712859961 0 -28.902286712859961 -82.704915745146991 0 0 0 0 7.6687302797363373 -14.966725934171791 0 -14.966725934171791 -17.255586544582002 0 0 0 0 44.387288284080569 2.5545674011723349 0 2.5545674011723349 -113.9585732615833 0 0 0 0 84.84322250785408 -9.9843595910822387 0 -9.9843595910822387 -379.39144103425224 0 0 0 0 36.347774768265708 -21.599334241960598 0 -21.599334241960598 -0.00065118281446863158 0 0 0 0 42.710513683444788 112.66049431980261 0 112.66049431980261 -111.67331148230232 0 0 0 0 23.715471832317327 -8.8817968022950247 0 -8.8817968022950247 3.9872631392679105 0 0 0 0 49.639148410094791 -25.947702163654824 0 -25.947702163654824 -3.1533218369231162 0 0 0 0 37.941191844132845 21.874063295526412 0 21.874063295526412 29.596944074790372 0 0 0 0 18.85585956060045 -9.8186372766210077 0 -9.8186372766210077 5.2629187064184126 0 0 0 0 9.3123661834544009 -8.1047162159384101 0 -8.1047162159384101 1.892820125585235 0 0 0 0 106.88152539570001 -320.77106099964203 0 -320.77106099964203 -218.43772155698781 0 0 0 0 159.66015801245521 -32.415259568326746 0 -32.415259568326746 -18.220378055416404 0 0 0 0 0.20862102115714798 1.0694948643162974 0 1.0694948643162974 0.19821095651808385 0 0 0 0 -354.18145751768861 -3.6603202736455387 0 -3.6603202736455387 83.075861624145546 0 0 0 0 65.294107606030593 -107.62760297869454 0 -107.62760297869454 -126.531500020561 0 0 0 0 -159.03647490575531 -30.035165083951142 0 -30.035165083951142 -153.35815242390663 0 0 0 0 -72.994736944092438 -1.3354143601036412 0 -1.3354143601036412 0.97040777660458843 0 0 0 0 0.27612081903043872 49.718745898503698 0 49.718745898503698 -114.02869524172547 0 0 0 0 -32.337937807755225 -5.6748417614048776 0 -5.6748417614048776 -5.7292414332866883 0 0 0 0 61.704699722443749 -9.0355024034465181 0 -9.0355024034465181 -1.8500862627914585 0 0 0 0 97.012004408046778 -148.76337548019774 0 -148.76337548019774 -26.714083877546273 0 0 0 0 12.417712947937069 -7.0811390873704658 0 -7.0811390873704658 1.1727399677509509 0 0 0 0 -3.8466653225323029 -11.312256741536563 0 -11.312256741536563 3.2819541413759641 0 0 0 0 104.16340246431355 -18.925939285872801 0 -18.925939285872801 -248.79714109683528 0 0 0 0 118.37874101719353 -62.829188538214112 0 -62.829188538214112 -278.72564613073212 0 0 0 0 173.11050355301995 -61.701904450106667 0 -61.701904450106667 -280.24737960360289 0 0 0 0 27.164285516322707 -39.171264082108337 0 -39.171264082108337 -236.35192687057724 0 0 0 0 27.044629880459979 -150.70354223964284 0 -150.70354223964284 -370.70890117807039 0 0 0 0 10.412154148512855 5.3209601533686062 0 5.3209601533686062 -5.9456920557842761 0 0 0 0 24.611659394413437 11.559866023480751 0 11.559866023480751 -232.08919699710373 0 0 0 0 -0.044160078658023849 -87.079200527664852 0 -87.079200527664852 -76.789044870569498 0 0 0 0 13.448176943828003 -35.168746549913976 0 -35.168746549913976 -70.112456899065592 0 0 0 0 75.011005113163264 -63.501646420284487 0 -63.501646420284487 -112.48300365811811 0 0 0 0 65.296014250117878 -63.10154083229159 0 -63.10154083229159 -112.49873568326802 0 0 0 0 92.269225266529247 -58.283464386364358 0 -58.283464386364358 -206.97175122068552 0 0 0 0 112.66996235171246 -76.496000382281039 0 -76.496000382281039 -253.65973063804722 0 0 0 0 63.423353330101236 -18.068890680106279 0 -18.068890680106279 -237.03994566225902 0 0 0 0 44.975972556076727 -8.8935755793550673 0 -8.8935755793550673 1.319140928169819 0 0 0 0 284.94878255974618 -26.946927824080717 0 -26.946927824080717 -5.1935228314664208 0 0 0 0 55.019448958846624 -23.757313987788166 0 -23.757313987788166 -236.47102508051921 0 0 0 0 106.87672970302447 -52.75706353961408 0 -52.75706353961408 -234.39222804054941 0 0 0 0 0.098022198930266313 8.3587404471426225 0 8.3587404471426225 -90.563958853660779 0 0 0 0 0.51260497031800512 3.6719742839764962 0 3.6719742839764962 7.9455747896763631 0 0 0 0 505.78005758069185 -19.020535659591019 0 -19.020535659591019 -29.352038823561998 0 0 0 0 120.41181619618135 611.62021162756071 0 611.62021162756071 30.720372873154702 0 0 0 0 103.03760887819953 35.341764669130043 0 35.341764669130043 405.46574918691709 0 0 0 0 29.288212338637095 -734.40965038045033 0 -734.40965038045033 391.7575891466322 0 0 0 0 452.09664433827493 181.36910433931735 0 181.36910433931735 33.887603751261395 0 0 0 0 1.1722725857260059 0.78801233970808582 0 0.78801233970808582 1.2366576591462497 0 0 0 0 318.75924733874854 31.494188806552529 0 31.494188806552529 1.8875403754299214 0 0 0 0 275.77132557317691 -54.281915663362668 0 -54.281915663362668 -7.6514941838127015 0 0 0 0 -0.27964612822385604 -3.4014632961954696 0 -3.4014632961954696 6.1626633599651868 0 0 0 0 10.316572282651578 22.603196529581396 0 22.603196529581396 63.832538003385253 0 0 0 0 -11.410211185248045 -15.988641746352869 0 -15.988641746352869 50.244178991713852 0 0 0 0 45.532414119836176 13.206670593170202 0 13.206670593170202 4.8674014423506833 0 0 0 0 292.23238381691954 41.046074807483819 0 41.046074807483819 -10.639545597319284 0 0 0 0 90.390667486260099 84.266919771485504 0 84.266919771485504 78.408623324618475 0 0 0 0 85.489181306264072 3.8279987800522122 0 3.8279987800522122 25.800045254356064 0 0 0 0 102.8262890090682 -66.071005806911899 0 -66.071005806911899 155.96387399383502 0 0 0 0 15.095883520711183 9.6461479317527363 0 9.6461479317527363 18.136850011408491 0 0 0 0 -6.6445190678196013 -411.99037862819455 0 -411.99037862819455 -77.622820342911837 0 0 0 0 13.643268663621026 6.3174686100062196 0 6.3174686100062196 -1.2991778495665649 0 0 0 0 64.606418557686993 20.017894628932481 0 20.017894628932481 -110.31539189493765 0 0 0 0 65.361151389313818 51.36776650435695 0 51.36776650435695 -66.90230404776139 0 0 0 0 -51.425202456939587 36.550570131364566 0 36.550570131364566 -25.639537025445406 0 0 0 0 -78.96456438883979 101.94726735077347 0 101.94726735077347 151.03564051740523 0 0 0 0 -71.75092074333952 185.77761866718038 0 185.77761866718038 208.82421417855562 0 0 0 0 -71.374495647169169 163.38099419929017 0 163.38099419929017 74.561681884863901 0 0 0 0 -468.59015549637843 40.665054715862198 0 40.665054715862198 110.01149362906119 0 0 0 0 28.868277264464126 -4.2919008999949071 0 -4.2919008999949071 0.72115606715640279 0 0 0 0 12.722181588166023 0.85692565251161312 0 0.85692565251161312 -0.79173539928153769 0 0 0 0 103.73107858860021 173.44333249992417 0 173.44333249992417 -224.0952974538489 0 0 0 0 71.888560548752139 -111.13863672028293 0 -111.13863672028293 -72.965278903523995 0 0 0 0 25.010298283748853 66.797237777837836 0 66.797237777837836 20.595338611675743 0 0 0 0 -19.369479575048899 -90.128725015415739 0 -90.128725015415739 -16.55645050383049 0 0 0 0 -1178.2257556783734 50.31529226347368 0 50.31529226347368 330.51896211639593 0 0 0 0 220.29011908678513 275.699654621234 0 275.699654621234 343.11478252390418 0 0 0 0 722.83904911860009 13.205481024396477 0 13.205481024396477 110.51590100890348 0 0 0 0 4.4823383020383432 1.5678621765685472 0 1.5678621765685472 -0.36421163314458471 0 0 0 0 23.383816530204058 69.350220000428919 0 69.350220000428919 143.7675582443635 0 0 0 0 249.45855963977374 123.31592398129533 0 123.31592398129533 -81.50394947427958 0 0 0 0 52.947665246950237 175.44545696287983 0 175.44545696287983 131.37156030559436 0 0 0 0 46.880062666572485 133.15750452412112 0 133.15750452412112 69.278074056013793 0 0 0 0 421.81835776213848 105.20511944221698 0 105.20511944221698 -1.5827442273650831 0 0 0 0 203.35084058184293 -63.069972383482309 0 -63.069972383482309 -111.01466554214994 0 0 0 0 9.7471319196579174 -1.2704828851918988 0 -1.2704828851918988 0.63785982774854821 0 0 0 0 648.04209291726875 -28.042088999979569 0 -28.042088999979569 65.443464601591131 0 0 0 0 1326.5001396167208 98.548159544163582 0 98.548159544163582 315.18661319784275 0 0 0 0 403.16866910403587 -11.852693674298052 0 -11.852693674298052 145.55004098518748 0 0 0 0 360.89765417838498 -38.045636920915285 0 -38.045636920915285 465.25706366069414 0 0 0 0 331.43064179891826 -159.83104639473117 0 -159.83104639473117 74.286485833520146 0 0 0 0 334.43795697003969 25.619868495765939 0 25.619868495765939 -94.996249306373102 0 0 0 0 335.51174287848619 100.80269961926635 0 100.80269961926635 -318.92309517070498 0 0 0 0 294.89186825928482 215.45957077909952 0 215.45957077909952 -187.26821063813713 0 0 0 0 277.20222352010023 177.21969888935564 0 177.21969888935564 -133.48794137203458 0 0 0 0 932.30567200152518 -509.3162413877111 0 -509.3162413877111 -184.53387003024545 0 0 0 0 707.92522385505072 465.1337907368852 0 465.1337907368852 56.586956093069603 0 0 0 0 249.51709814387141 212.56186910516521 0 212.56186910516521 49.159049050103931 0 0 0 0 117.30192256493865 68.955265782363085 0 68.955265782363085 -97.970264116579983 0 0 0 0 49.841113823498745 36.324863606023882 0 36.324863606023882 -55.863778276230732 0 0 0 0 21.608471052813165 11.001232755162711 0 11.001232755162711 -0.97214979008449376 0 0 0 0 -3.673247726081172 24.745214774495253 0 24.745214774495253 67.261381592095972 0 0 0 0 106.61434385260509 280.86014495761901 0 280.86014495761901 390.08901039910597 0 0 0 0 7.4294992206129535 3.207584874522599 0 3.207584874522599 1.9602547740203917 0 0 0 0 352.84948118519242 -529.15430706431289 0 -529.15430706431289 636.52935449103461 0 0 0 0 469.8855026388901 -639.20314348287877 0 -639.20314348287877 -103.23397049071718 0 0 0 0 683.12094065558085 -81.61891364381745 0 -81.61891364381745 -112.91552238358418 0 0 0 0 284.76404433663902 -326.13861627564938 0 -326.13861627564938 32.269964821687608 0 0 0 0 11.117021617819042 0.61725084795292418 0 0.61725084795292418 0.77345798967689561 0 0 0 0 428.56256241732808 -117.69414122135231 0 -117.69414122135231 -200.90510103525594 0 0 0 0 99.001400157554599 -21.017756558142082 0 -21.017756558142082 497.08652920338545 0 0 0 0 305.48309735479052 -331.0725178302398 0 -331.0725178302398 153.52053074237847 0 0 0 0 -6.8405115316918454 102.2401664061781 0 102.2401664061781 63.20053698926867 0 0 0 0 55.868596404002709 37.360381357768183 0 37.360381357768183 0.75793700395308683 0 0 0 0 130.31380660861419 78.293885468887083 0 78.293885468887083 -127.47983530480997 0 0 0 0 106.62721428008263 -19.255390366961535 0 -19.255390366961535 39.633248728143315 0 0 0 0 110.11978477350976 -31.370369016120122 0 -31.370369016120122 4.8713694224985602 0 0 0 0 114.23654071972487 294.81598656878896 0 294.81598656878896 -194.96021551416715 0 0 0 0 21.93968207123271 93.023528483552695 0 93.023528483552695 40.709845735813815 0 0 0 0 123.26660333852669 45.420377258995131 0 45.420377258995131 -27.174475021922945 0 0 0 0 52.245189165778939 49.31771956693288 0 49.31771956693288 14.906504242607731 0 0 0 0 109.49060831003908 55.304401872956646 0 55.304401872956646 138.63320633046396 0 0 0 0 296.88202270327383 71.472629019485794 0 71.472629019485794 6.9486660541352876 0 0 0 0 184.99637781456568 -47.510332243155176 0 -47.510332243155176 61.373358214370057 0 0 0 0 96.52464259497583 8.5682402316009245 0 8.5682402316009245 26.7882521104641 0 0 0 0 283.34898359296494 69.502920357042285 0 69.502920357042285 -11.515548752729217 0 0 0 0 174.51635421943047 164.23402221168351 0 164.23402221168351 63.163182837268096 0 0 0 0 147.87879350821913 104.83595370879056 0 104.83595370879056 -39.216000897904905 0 0 0 0 10.499054521526539 -8.4066945265985211 0 -8.4066945265985211 -1.8668181557588936 0 0 0 0 69.616895675624619 59.318246799801273 0 59.318246799801273 149.00912603411913 0 0 0 0 275.88502715367372 -65.622932884726083 0 -65.622932884726083 2.9244662160549524 0 0 0 0 175.62905409160703 51.735429705169395 0 51.735429705169395 4.7237841716378171 0 0 0 0 42.941265133521441 -30.170279993569153 0 -30.170279993569153 -6.1275141786258747 0 0 0 0 149.60411021005461 -59.640214553068205 0 -59.640214553068205 12.587598927303361 0 0 0 0 113.47147731359109 11.742124808672088 0 11.742124808672088 -10.290174542066325 0 0 0 0 155.54236970190868 33.045961941302124 0 33.045961941302124 -12.18233473011054 0 0 0 0 144.41680362177249 57.711648364351504 0 57.711648364351504 -3.4703542757709442 0 0 0 0 60.001547293576955 51.045687925606899 0 51.045687925606899 22.338816041332628 0 0 0 0 56.332768105558443 857.31383891169037 0 857.31383891169037 403.02513387600993 0 0 0 0 90.734378589804692 -54.512169126418598 0 -54.512169126418598 30.081907816149851 0 0 0 0 49.081023037500245 -26.624139671278577 0 -26.624139671278577 -3.0981122194641024 0 0 0 0 142.99058706135293 12.33927199098116 0 12.33927199098116 -15.451538612789136 0 0 0 0 119.43607488694761 18.375682581145156 0 18.375682581145156 -13.401805112178181 0 0 0 0 60.376220009733515 58.129917716986029 0 58.129917716986029 28.143016567206928 0 0 0 0 129.99370485079362 32.221375083752264 0 32.221375083752264 -4.5285332658995685 0 0 0 0 117.47945222006911 -1.7251778926790315 0 -1.7251778926790315 1.3515695929649425 0 0 0 0 79.199313670827905 36.19023345147707 0 36.19023345147707 -4.5782570685177006 0 0 0 0 77.086709483814957 31.500590540456756 0 31.500590540456756 -7.4798882493905694 0 0 0 0 77.0545407333247 19.304278300668692 0 19.304278300668692 4.5662011750578859 0 0 0 0 111.64366262303884 10.468395928215614 0 10.468395928215614 -9.3424191598369362 0 0 0 0 112.8041921363656 10.418678881201686 0 10.418678881201686 -11.527847573177269 0 0 0 0 110.8553959647852 9.1396554114044193 0 9.1396554114044193 -10.539759284324191 0 0 0 0 55.397676514970044 52.349361432740693 0 52.349361432740693 -32.466824723390459 0 0 0 0 75.50086853916568 20.089459762565323 0 20.089459762565323 2.1762030422768062 0 0 0 0 80.989130447447678 27.631399136208188 0 27.631399136208188 -18.784332137422382 0 0 0 0 16.646260408813113 2.7936493455399365 0 2.7936493455399365 -2.3016670805581119 0 0 0 0 38.769139730756251 -7.3430351394221418 0 -7.3430351394221418 30.074791648536348 0 0 0 0 87.68094795882638 98.749412045440636 0 98.749412045440636 -57.527228774002197 0 0 0 0 86.612678467541627 125.75150046175906 0 125.75150046175906 6.5387885028123947 0 0 0 0 134.57735090748429 69.302131927478172 0 69.302131927478172 -39.066953645445778 0 0 0 0 199.49321512884126 50.853520852058409 0 50.853520852058409 -129.61631217182719 0 0 0 0 143.32862168367683 34.077605315618086 0 34.077605315618086 -122.63968647773788 0 0 0 0 108.06714550796278 -9.3430835320815504 0 -9.3430835320815504 -46.544341036978892 0 0 0 0 78.718802787515642 20.231442660393448 0 20.231442660393448 -9.9536744508811807 0 0 0 0 139.48618332919432 19.826617561007243 0 19.826617561007243 -13.656935204980041 0 0 0 0 111.52506733797054 3.9152194006480983 0 3.9152194006480983 1.1885133254380662 0 0 0 0 46.529876072809202 -129.15896907045556 0 -129.15896907045556 -116.55155151231207 0 0 0 0 199.27783618892136 -12.885171071691047 0 -12.885171071691047 -275.59558731700577 0 0 0 0 240.04091479991439 22.7099381848804 0 22.7099381848804 -246.52353813413151 0 0 0 0 3887.6448351396925 922.07653563049109 0 922.07653563049109 219.20576210311924 0 0 0 0 15.836147039640821 -23.134800244595006 0 -23.134800244595006 4.6568070052093331 0 0 0 0 11.173143809966859 -218.87956273538606 0 -218.87956273538606 -310.88676531223018 0 0 0 0 4497.1451674956998 720.02608368595986 0 720.02608368595986 -446.3973582691093 0 0 0 0 2870.4682267033513 406.35700374624571 0 406.35700374624571 -372.52486217998512 0 0 0 0 3647.3591924721395 -1295.1749775843539 0 -1295.1749775843539 366.00399790140534 0 0 0 0 4501.6708832299519 -217.10347557099749 0 -217.10347557099749 783.90842025830989 0 0 0 0 4547.9380277017262 -293.2660768377076 0 -293.2660768377076 -386.62381057811859 0 0 0 0 2043.7070937205258 -801.88943038664024 0 -801.88943038664024 410.7911089170783 0 0 0 0 29.629139919814953 -26.066401565112422 0 -26.066401565112422 2.1088145988509588 0 0 0 0 31.973720963170308 25.270927058898565 0 25.270927058898565 17.388492352108187 0 0 0 0 -390.07542291190839 -320.75411924228348 0 -320.75411924228348 621.71849027476378 0 0 0 0 14.853143578846781 -4.3735846428582228 0 -4.3735846428582228 8.1608935086648753 0 0 0 0 621.9757865829506 930.86929433592923 0 930.86929433592923 184.83188662690944 0 0 0 0 2744.4229200764621 910.92729838027412 0 910.92729838027412 -170.55416885549624 0 0 0 0 19.58522200748979 -2.4930237644649047 0 -2.4930237644649047 1.8801867514866977 0 0 0 0 4470.9543453494625 -695.08839578778748 0 -695.08839578778748 -117.02266342644862 0 0 0 0 76.808898800889438 -55.913737497688373 0 -55.913737497688373 66.489801325743883 0 0 0 0 86.31258339462147 -31.201392209110736 0 -31.201392209110736 -6.0763119410066793 0 0 0 0 104.48704362579156 -81.13647267205647 0 -81.13647267205647 105.45358106450317 0 0 0 0 177.01165004755603 -16.118560235476707 0 -16.118560235476707 -30.33581165101586 0 0 0 0 207.05275488013285 3.8261168458094517 0 3.8261168458094517 -29.447868248900704 0 0 0 0 35.374931828828267 11.151502374061238 0 11.151502374061238 6.2418682273722084 0 0 0 0 69.43389272675995 -8.4954183135116637 0 -8.4954183135116637 15.07033928708006 0 0 0 0 87.76348964227509 23.103047056920332 0 23.103047056920332 -39.725074169828076 0 0 0 0 41.805998722163878 15.974058973386363 0 15.974058973386363 8.6405832318846123 0 0 0 0 70.809900124211708 -12.847402903738384 0 -12.847402903738384 19.211040323378711 0 0 0 0 69.358836989278643 -17.79794565061502 0 -17.79794565061502 -25.961815534254129 0 0 0 0 54.258172839256076 -3.0282588417432237 0 -3.0282588417432237 -39.356532545943992 0 0 0 0 26.374335748765333 14.985538965118856 0 14.985538965118856 8.1256750033786922 0 0 0 0 59.400964591404772 44.764687107955524 0 44.764687107955524 -134.0025184762444 0 0 0 0 84.700711193087045 -52.092748596803403 0 -52.092748596803403 -80.783603698356387 0 0 0 0 31.308562108439219 -98.964000835933973 0 -98.964000835933973 31.570479679023492 0 0 0 0 109.95278504518501 -51.188894315412426 0 -51.188894315412426 -90.795445559968698 0 0 0 0 160.23494417861002 36.492948050402163 0 36.492948050402163 -40.530962325307655 0 0 0 0 127.56334213872242 38.543583774259929 0 38.543583774259929 -69.196907037968231 0 0 0 0 121.46988630471606 -38.089168132265172 0 -38.089168132265172 -2.1652749427626077 0 0 0 0 38.068556006210201 126.17183834587779 0 126.17183834587779 -189.37016790018379 0 0 0 0 26.790968245484692 8.1664017317347088 0 8.1664017317347088 -73.531288810955857 0 0 0 0 17.04736261894584 9.0431104215709297 0 9.0431104215709297 4.7912172306207985 0 0 0 0 203.69304405485309 -100.88486931630905 0 -100.88486931630905 109.28813765371649 0 0 0 0 -57.256463462974352 17.389914214536702 0 17.389914214536702 -39.399194685843213 0 0 0 0 99.243113073348923 107.12858976310694 0 107.12858976310694 2.7476744924551895 0 0 0 0 -242.02700592391193 -552.49139540357464 0 -552.49139540357464 88.735148066953116 0 0 0 0 20.592711023082302 249.74282622471353 0 249.74282622471353 -19.236719720050587 0 0 0 0 345.76132726531796 217.32467829426582 0 217.32467829426582 -35.747565540943924 0 0 0 0 579.71882927136903 -50.818462167364942 0 -50.818462167364942 -113.09859512592982 0 0 0 0 1564.9806786588742 19.379957792773666 0 19.379957792773666 -253.77352425625031 0 0 0 0 272.62927640040289 -207.56505177870929 0 -207.56505177870929 207.03305228082877 0 0 0 0 -51.199941904436855 28.322612979381461 0 28.322612979381461 400.95916783052883 0 0 0 0 -92.951725323604478 -312.2789639668913 0 -312.2789639668913 -81.075971554018111 0 0 0 0 0.79811437254477369 1.1011752421988348 0 1.1011752421988348 -4.4465467405887926 0 0 0 0 411.63885530259722 7.1159907994324954 0 7.1159907994324954 41.136532294117387 0 0 0 0 355.89154132959811 -188.92384849764858 0 -188.92384849764858 301.91730835136286 0 0 0 0 215.43660569440954 -11.643833082010588 0 -11.643833082010588 97.612201845037362 0 0 0 0 4.9907558767823446 3.5760927354191168 0 3.5760927354191168 2.6980164760118019 0 0 0 0 -127.90289633349312 31.905902212383239 0 31.905902212383239 165.85770399962939 0 0 0 0 92.643813336097082 -207.72695206641129 0 -207.72695206641129 320.97092740389638 0 0 0 0 -65.041688557206726 93.22261227113222 0 93.22261227113222 111.03792611056588 0 0 0 0 -8.3414055096509401 59.313376179516581 0 59.313376179516581 129.25466944925995 0 0 0 0 -16.287106216484972 126.5906229844868 0 126.5906229844868 43.981678436193761 0 0 0 0 -30.214655494542967 64.984460031264462 0 64.984460031264462 134.91862748815788 0 0 0 0 164.27454852710071 -0.93047604963294361 0 -0.93047604963294361 -67.704489209771964 0 0 0 0 -45.766086970077595 9.9091167343507323 0 9.9091167343507323 171.71993439686639 0 0 0 0 141.34159409725908 -51.070564975045272 0 -51.070564975045272 33.726989408440659 0 0 0 0 -17.479703196875562 -64.680407163805512 0 -64.680407163805512 -86.964822352328611 0 0 0 0 81.41397266122658 49.162335481446235 0 49.162335481446235 -109.87540818803473 0 0 0 0 -2.5946597035912973 5.138465013076484 0 5.138465013076484 -11.971772752801769 0 0 0 0 113.94298119084669 62.204641233402754 0 62.204641233402754 -50.987391364452378 0 0 0 0 86.353642208448946 37.788044754487601 0 37.788044754487601 12.049894676036274 0 0 0 0 96.865553932304465 52.303868565398716 0 52.303868565398716 5.0638158791982733 0 0 0 0 236.74516468239017 101.40495613373696 0 101.40495613373696 5.0616812310261139 0 0 0 0 262.8526023883278 -62.900193770057513 0 -62.900193770057513 47.530639806994259 0 0 0 0 164.33741551966523 -22.785103628481806 0 -22.785103628481806 -12.180984163493122 0 0 0 0 146.18414301592929 14.360175425008947 0 14.360175425008947 -38.30622404624728 0 0 0 0 81.775194291632943 61.791099716066469 0 61.791099716066469 -92.674552383743503 0 0 0 0 63.340544930148099 14.22943853423223 0 14.22943853423223 -13.947476216470932 0 0 0 0 54.82794341103363 45.452895629105058 0 45.452895629105058 -36.03465303128678 0 0 0 0 2.0506507077278542 13.842990832702263 0 13.842990832702263 -21.443371199016653 0 0 0 0 27.242066841441556 -15.303182122389444 0 -15.303182122389444 -41.127656358945387 0 0 0 0 49.428392482572235 21.637323209420856 0 21.637323209420856 -13.351242405904486 0 0 0 0 26.873798062690184 40.377656897938095 0 40.377656897938095 -13.09806924378071 0 0 0 0 38.487144791773972 64.19769980726943 0 64.19769980726943 -44.424686681700678 0 0 0 0 66.291729366635991 58.68187565693006 0 58.68187565693006 63.49077894815116 0 0 0 0 55.894864155660301 4.032822289859638 0 4.032822289859638 -11.752731058961933 0 0 0 0 15.540904878613219 -56.986278610722366 0 -56.986278610722366 300.28707775455905 0 0 0 0 124.61122663418791 -107.23439969253741 0 -107.23439969253741 76.535312589725891 0 0 0 0 137.763565070185 -261.29094121250273 0 -261.29094121250273 370.69634922817636 0 0 0 0 120.11725024589941 -148.35255373675682 0 -148.35255373675682 127.12928851260313 0 0 0 0 72.768371642422153 -59.819936084216408 0 -59.819936084216408 101.41522113455221 0 0 0 0 150.6972645242422 -110.51760547054516 0 -110.51760547054516 72.475078516175927 0 0 0 0 169.81827362641889 -84.414764322466397 0 -84.414764322466397 43.471491091831922 0 0 0 0 344.28321359007168 -154.50031848000413 0 -154.50031848000413 53.029751260969078 0 0 0 0 1.4038643233288433 2.3450192372861274 0 2.3450192372861274 -0.48113834846361314 0 0 0 0 99.865450439256165 -95.58422292854948 0 -95.58422292854948 -110.59575758480059 0 0 0 0 119.02517087501792 -5.4899414706925995 0 -5.4899414706925995 24.582883584542742 0 0 0 0 84.861194704647133 16.200956343361241 0 16.200956343361241 -4.3985860304600282 0 0 0 0 117.53322176662914 48.282176519131554 0 48.282176519131554 -96.575716680142705 0 0 0 0 119.93636684412195 -40.22331637962634 0 -40.22331637962634 -39.785010481760082 0 0 0 0 71.055620868969228 10.205727536631795 0 10.205727536631795 -7.0914812390051303 0 0 0 0 133.68548077493506 -97.296873062251848 0 -97.296873062251848 79.308856251574753 0 0 0 0 105.90836207332086 -101.34769825893204 0 -101.34769825893204 95.291047991158507 0 0 0 0 207.59710232074804 -152.77887759243504 0 -152.77887759243504 52.983187241124142 0 0 0 0 144.1496144730358 13.29637411750565 0 13.29637411750565 -137.42595554444642 0 0 0 0 92.490112038085968 25.58901348756736 0 25.58901348756736 -2.2135106138977445 0 0 0 0 20.23919507735501 -0.065570657938422983 0 -0.065570657938422983 -2.5435874830373777 0 0 0 0 94.002063747437205 8.6047335126011149 0 8.6047335126011149 8.6278814048005188 0 0 0 0 161.21386506265844 5.9711443341179802 0 5.9711443341179802 -53.648378435901122 0 0 0 0 91.964360887674047 11.040825468806702 0 11.040825468806702 9.0800356831532554 0 0 0 0 53.156273176432933 126.57916367085454 0 126.57916367085454 -196.79799389777941 0 0 0 0 51.079389022750362 16.474070236155015 0 16.474070236155015 -1.4655793847971137 0 0 0 0 86.731973745288997 -1.8263228213587581 0 -1.8263228213587581 -11.378873791004935 0 0 0 0 96.770804179981496 -11.559048343254858 0 -11.559048343254858 16.866328060475553 0 0 0 0 217.87671592672268 -28.869710347695673 0 -28.869710347695673 -34.922185435732445 0 0 0 0 54.083297924485123 -0.93077735795043282 0 -0.93077735795043282 6.4467732670368605 0 0 0 0 -1.4358575954227994 0.22473829594318318 0 0.22473829594318318 -1.4618586198590666 0 0 0 0 75.24056433674923 -3.1045597994857417 0 -3.1045597994857417 -7.8708904122337344 0 0 0 0 62.929292641259963 -16.480832096557947 0 -16.480832096557947 6.1673683817029996 0 0 0 0 0.55154254485543674 0.276986656213289 0 0.276986656213289 -0.70015626587653834 0 0 0 0 139.30741631107367 -28.747973934418809 0 -28.747973934418809 24.195000290916141 0 0 0 0 226.94212618120946 -57.943022914996163 0 -57.943022914996163 -13.42457062864878 0 0 0 0 85.312049647640379 -2.8641699561836731 0 -2.8641699561836731 3.410789545701391 0 0 0 0 69.577641188818234 -3.4406827227439862 0 -3.4406827227439862 12.347718703375335 0 0 0 0 25.449688664777234 -16.356161011103843 0 -16.356161011103843 6.2652729483300593 0 0 0 0 73.494863787771465 -1.5899172300479449 0 -1.5899172300479449 11.858905689330641 0 0 0 0 93.4540488480161 9.3548942981531127 0 9.3548942981531127 -2.0635992878137586 0 0 0 0 11.509329009021329 -17.725793454521963 0 -17.725793454521963 1.8860445883157633 0 0 0 0 61.328228567406768 -10.615082273684891 0 -10.615082273684891 2.4212989175930488 0 0 0 0 58.109741239080904 -12.127666222615289 0 -12.127666222615289 6.4301163844802431 0 0 0 0 51.485547901086647 -8.3102461397355114 0 -8.3102461397355114 2.3770536817742141 0 0 0 0 83.023325234509684 7.8031869747245537 0 7.8031869747245537 16.094854322003812 0 0 0 0 97.725271704963234 16.865968862527723 0 16.865968862527723 5.7094775003001814 0 0 0 0 21.16637999409355 -13.920915404639011 0 -13.920915404639011 -1.9720437291578214 0 0 0 0 35.976640905761087 -10.288631708485468 0 -10.288631708485468 4.6867060183617468 0 0 0 0 39.023718611195363 -6.3961901061520621 0 -6.3961901061520621 5.6955522171560915 0 0 0 0 48.99016070111611 -12.012608224207725 0 -12.012608224207725 4.0782408080957566 0 0 0 0 48.986960461115814 -14.415415625747414 0 -14.415415625747414 22.58111205229261 0 0 0 0 50.041258927321906 -11.93663011875185 0 -11.93663011875185 5.2574357489246495 0 0 0 0 49.342704948550818 -11.319891360370775 0 -11.319891360370775 5.064759655472244 0 0 0 0 44.080790032930963 -5.47485999319656 0 -5.47485999319656 10.629505615386961 0 0 0 0 53.290170376460082 -38.618489986925994 0 -38.618489986925994 7.6914505897377694 0 0 0 0 30.402294984106781 -17.500019276193079 0 -17.500019276193079 8.0262337327280715 0 0 0 0 30.373816735725995 -2.740782183091369 0 -2.740782183091369 11.575281775801727 0 0 0 0 6.0643440535402036 -8.2095009864387922 0 -8.2095009864387922 0.17173003750580684 0 0 0 0 61.459564133305321 -26.010681464943687 0 -26.010681464943687 7.5724316865998844 0 0 0 0 64.105575259009584 -12.062527420824068 0 -12.062527420824068 -0.33555611252131712 0 0 0 0 40.556047934624075 -8.7054316075552833 0 -8.7054316075552833 0.13707071732869736 0 0 0 0 59.642438865397708 -17.330721664939119 0 -17.330721664939119 -1.7391764600129136 0 0 0 0 55.87068669303153 -18.87135719602793 0 -18.87135719602793 1.6288197374856281 0 0 0 0 55.644618361711764 -18.697666224486284 0 -18.697666224486284 2.4407850159195732 0 0 0 0 55.708469362224605 -17.195276235684162 0 -17.195276235684162 6.0840044195606424 0 0 0 0 23.973465525702977 -8.6602311046403884 0 -8.6602311046403884 5.7979616480311051 0 0 0 0 20.049505306002175 -13.280554126248262 0 -13.280554126248262 6.8450591521877868 0 0 0 0 18.468885190368646 -5.7269964198764196 0 -5.7269964198764196 0.91630603018739087 0 0 0 0 18.087914095356176 -9.6303265503822235 0 -9.6303265503822235 6.061446070399775 0 0 0 0 30.6679725691626 -15.258485742457788 0 -15.258485742457788 1.6127556792339419 0 0 0 0 32.587223777398322 -13.966452361189113 0 -13.966452361189113 1.2765376969500721 0 0 0 0 29.954755635644688 -9.8401884121203693 0 -9.8401884121203693 2.9480691512621888 0 0 0 0 17.058740858879901 -7.6475623124651975 0 -7.6475623124651975 4.9167282956855161 0 0 0 0 25.002718565486248 -8.9965891712499797 0 -8.9965891712499797 5.2562642662671806 0 0 0 0 15.589812376507098 -18.810612205554662 0 -18.810612205554662 4.3428094301325473 0 0 0 0 18.282621427025283 -11.693438672412476 0 -11.693438672412476 6.7473734787613679 0 0 0 0 3.3975123299205734 -30.34141706445007 0 -30.34141706445007 45.518213090315385 0 0 0 0 37.524495573466993 -54.063754350498357 0 -54.063754350498357 58.424202750659333 0 0 0 0 22.574878135834759 -10.834733627136284 0 -10.834733627136284 -4.3506766346471757 0 0 0 0 21.682455044323433 -16.756761786937659 0 -16.756761786937659 3.5539786694546365 0 0 0 0 24.616724756724579 -18.414573029806434 0 -18.414573029806434 10.694358806770197 0 0 0 0 16.395061668199737 -4.8310310827926948 0 -4.8310310827926948 -10.018996133076003 0 0 0 0 20.539719979975871 -11.155394246203116 0 -11.155394246203116 3.7298251218435325 0 0 0 0 6.5001232207273816 -3.3966044135210289 0 -3.3966044135210289 1.1314850119042337 0 0 0 0 31.512765448829668 -10.031007852183734 0 -10.031007852183734 1.1536476811324974 0 0 0 0 39.047260953357181 -52.641407052406521 0 -52.641407052406521 43.780730550041994 0 0 0 0 93.449739893760125 -37.130449483158657 0 -37.130449483158657 -39.384983331391027 0 0 0 0 4.5901978734953133 -7.0584268906768202 0 -7.0584268906768202 -3.645412802289175 0 0 0 0 50.487878360088871 -53.775430569031414 0 -53.775430569031414 -52.753051495689306 0 0 0 0 14.881904422269145 39.75657233818356 0 39.75657233818356 -59.599370746590594 0 0 0 0 -0.78507099651823609 -0.1155058815842942 0 -0.1155058815842942 -0.13716085732493921 0 0 0 0 61.771188270278799 -14.371680982615544 0 -14.371680982615544 0.43299284289446405 0 0 0 0 58.223391768831789 -18.87052443593484 0 -18.87052443593484 -1.7323556871660912 0 0 0 0 41.907794691003801 -13.968270830772326 0 -13.968270830772326 -0.072629101098982574 0 0 0 0 43.960253702069167 -11.592078998700799 0 -11.592078998700799 -3.0432905403558834 0 0 0 0 47.888220764270955 -13.198761534281743 0 -13.198761534281743 -4.5928322739957821 0 0 0 0 27.291637853377324 -2.785201964470275 0 -2.785201964470275 -6.2809607095041429 0 0 0 0 40.256976888709687 -14.82836413610255 0 -14.82836413610255 5.6107275289177778 0 0 0 0 42.720102763822069 -10.562123755689754 0 -10.562123755689754 -5.4471670693137639 0 0 0 0 23.656250370692206 -0.63033343078798509 0 -0.63033343078798509 -8.9759820937637116 0 0 0 0 29.817149184125334 -5.7730108143464633 0 -5.7730108143464633 -7.9764962694820492 0 0 0 0 70.746228350482852 -19.33891587055723 0 -19.33891587055723 14.477570944465697 0 0 0 0 70.760002180046286 -19.346613630470983 0 -19.346613630470983 0.49665956681201351 0 0 0 0 28.685489299493142 -11.195497748000989 0 -11.195497748000989 -13.322759875060608 0 0 0 0 58.089916689102743 7.252498080380505 0 7.252498080380505 -11.341818603189539 0 0 0 0 46.381959666193325 -3.6206615408578955 0 -3.6206615408578955 -6.4070893518301091 0 0 0 0 48.017064600891899 8.21134540393723 0 8.21134540393723 -8.7869133680787854 0 0 0 0 61.541798138219747 4.7997539963489544 0 4.7997539963489544 -11.120923648873941 0 0 0 0 59.799224882219278 6.1874080555926412 0 6.1874080555926412 -1.7229366020212638 0 0 0 0 20.00548014185005 -16.701731276817654 0 -16.701731276817654 -6.6413628695219931 0 0 0 0 57.812893143160181 -6.3608003950447483 0 -6.3608003950447483 -8.9930179964212584 0 0 0 0 56.552655840980151 -1.973565069692313 0 -1.973565069692313 -9.6077010227938899 0 0 0 0 64.020595556459739 -9.237440716965466 0 -9.237440716965466 -6.056055851965084 0 0 0 0 37.383286044784512 12.912980739767406 0 12.912980739767406 -3.1624613811653965 0 0 0 0 26.055329933558824 4.7789686015985353 0 4.7789686015985353 -9.0432380704951356 0 0 0 0 45.556488816953539 -6.8698038207257781 0 -6.8698038207257781 -14.083544539853676 0 0 0 0 45.486465687543387 -8.7889410845118618 0 -8.7889410845118618 -13.621399487927192 0 0 0 0 55.466976601501926 -10.687978383606016 0 -10.687978383606016 -23.740501460556377 0 0 0 0 28.54327944321313 -21.416460941884431 0 -21.416460941884431 -12.777791440923577 0 0 0 0 27.944652385555969 -7.3630131571576847 0 -7.3630131571576847 -6.999399772640694 0 0 0 0 38.069668791878939 -11.59192829508271 0 -11.59192829508271 -5.6065218826465752 0 0 0 0 12.696128011633387 -4.9170742290738545 0 -4.9170742290738545 -5.5961761571645905 0 0 0 0 49.935331252134347 -6.8121374729864783 0 -6.8121374729864783 -9.4067783154405333 0 0 0 0 87.652142731522872 -5.2565256968622975 0 -5.2565256968622975 -25.911027539595693 0 0 0 0 16.919776687409467 -33.927771090390479 0 -33.927771090390479 11.735413450576345 0 0 0 0 12.557573435766528 -7.0534064947011821 0 -7.0534064947011821 -2.0905171544458288 0 0 0 0 48.408688625628201 -3.1706300068402982 0 -3.1706300068402982 -0.27513771137753906 0 0 0 0 42.681141764824133 -64.657314980167115 0 -64.657314980167115 36.252309583297574 0 0 0 0 32.965230579007766 -31.927806978864183 0 -31.927806978864183 29.450392783263542 0 0 0 0 38.729643863629462 -35.651629968440254 0 -35.651629968440254 4.2097512662275847 0 0 0 0 40.549786226982178 -31.466376120438838 0 -31.466376120438838 -8.3994928392092447 0 0 0 0 32.241279011675942 -31.724152654395439 0 -31.724152654395439 4.6915596598203138 0 0 0 0 27.843860793826025 -44.987354383590912 0 -44.987354383590912 4.0925167185721127 0 0 0 0 52.356760656199185 -41.508976107280688 0 -41.508976107280688 4.0659738780991148 0 0 0 0 73.299326712949551 -55.486689105756795 0 -55.486689105756795 -43.123104940914345 0 0 0 0 44.616728170178874 -26.751054005999269 0 -26.751054005999269 8.052328359951435 0 0 0 0 88.525437875301577 -33.865085802330896 0 -33.865085802330896 -39.520414466529019 0 0 0 0 29.729041088918166 -40.717110126355919 0 -40.717110126355919 -10.229179848755905 0 0 0 0 40.789533147159339 -23.222840516456614 0 -23.222840516456614 9.2202429789069704 0 0 0 0 17.259879971210466 -59.835603253348978 0 -59.835603253348978 -37.62493901473249 0 0 0 0 10.61070824109629 -39.121942204764139 0 -39.121942204764139 -1.2995823259423105 0 0 0 0 15.017537861487654 -35.070752726997739 0 -35.070752726997739 -7.1881815059399514 0 0 0 0 17.98900590555786 -66.318523515862879 0 -66.318523515862879 18.409544590577752 0 0 0 0 94.849597585391166 -35.69519816162159 0 -35.69519816162159 5.1955439516523256 0 0 0 0 219.50589796755958 -143.53016862549282 0 -143.53016862549282 -52.841401312691914 0 0 0 0 12.410745630301996 -14.286683208634926 0 -14.286683208634926 -2.6434943096783723 0 0 0 0 111.77742628703709 -59.321079762617217 0 -59.321079762617217 16.677646376748797 0 0 0 0 -115.40427254380484 -184.07482744232402 0 -184.07482744232402 248.84243272210097 0 0 0 0 112.72456675478315 44.609323311821299 0 44.609323311821299 -168.87488574353415 0 0 0 0 87.279510326827221 -66.633290457744863 0 -66.633290457744863 -0.0820609443644571 0 0 0 0 0.5537955048494041 51.075781140703384 0 51.075781140703384 -150.45890655827861 0 0 0 0 84.91869079166645 -4.7749114607220235 0 -4.7749114607220235 -16.561046285095927 0 0 0 0 8.4923225306508812 -1.5361059035300428 0 -1.5361059035300428 -3.5392187252174718 0 0 0 0 2.6197874206216198 -3.0238077871297051 0 -3.0238077871297051 1.2602211355170176 0 0 0 0 3.1310630313562484 -16.189987793205091 0 -16.189987793205091 -20.775375008162882 0 0 0 0 86.143450163996022 -27.333141713298119 0 -27.333141713298119 0.059863970595642968 0 0 0 0 90.279942498927994 -39.263359549555958 0 -39.263359549555958 -36.644513393262059 0 0 0 0 228.9422485784562 14.889738093491701 0 14.889738093491701 -72.219454820309693 0 0 0 0 -48.746902933635283 241.67102500346846 0 241.67102500346846 -196.97907000624036 0 0 0 0 91.269586382386478 -145.30617280194838 0 -145.30617280194838 76.557046067626288 0 0 0 0 98.829460847174232 -130.51583564185398 0 -130.51583564185398 -65.854838003508121 0 0 0 0 30.260344085148972 -114.80719071287012 0 -114.80719071287012 89.626271373329473 0 0 0 0 12.673548913116974 121.71415917032027 0 121.71415917032027 -240.28651916658089 0 0 0 0 314.2589708913838 -162.29709087370247 0 -162.29709087370247 -299.15747580778861 0 0 0 0 118.72907916981421 -56.735987209536688 0 -56.735987209536688 -81.099823891668166 0 0 0 0 58.252331699070055 -31.804183765611015 0 -31.804183765611015 -57.966869554961249 0 0 0 0 0.55527684301123514 -15.79057452697004 0 -15.79057452697004 -20.779614315940822 0 0 0 0 34.540748773479208 -34.743968296043022 0 -34.743968296043022 -1.7839522260992169 0 0 0 0 110.96950127322725 -105.94113733964247 0 -105.94113733964247 -22.06775904456299 0 0 0 0 34.304117525096444 -31.402274991105173 0 -31.402274991105173 -6.2616688374126852 0 0 0 0 20.704070899329963 -53.476141772322308 0 -53.476141772322308 -32.563346012717147 0 0 0 0 35.007834085125296 -25.038039362634596 0 -25.038039362634596 0.060755156413071942 0 0 0 0 30.139923681104051 -31.344278525469971 0 -31.344278525469971 -3.7432698113423157 0 0 0 0 27.446975074439251 -32.38397819955361 0 -32.38397819955361 -2.3945908920900933 0 0 0 0 35.134416488999705 -31.262107436007099 0 -31.262107436007099 -4.3673038988159831 0 0 0 0 32.653775372167729 -28.69258130258018 0 -28.69258130258018 -1.4951941382671805 0 0 0 0 35.469847844924516 -34.524238572410809 0 -34.524238572410809 -0.77541018363309178 0 0 0 0 33.181721812228716 -34.690189331779095 0 -34.690189331779095 9.284842368338218 0 0 0 0 40.161351988367642 -53.090088137295574 0 -53.090088137295574 -0.3234073884366353 0 0 0 0 28.036699482876429 -29.546930612802811 0 -29.546930612802811 -2.0680195783387489 0 0 0 0 30.171266021993418 -15.964170630751081 0 -15.964170630751081 3.3997988374349619 0 0 0 0 25.902409632552917 -31.854101536941521 0 -31.854101536941521 -3.8103668910235342 0 0 0 0 22.730355141825385 -26.295914998621591 0 -26.295914998621591 -3.523303718654617 0 0 0 0 1.5820792584584851 -9.13283109911956 0 -9.13283109911956 -13.252997951244383 0 0 0 0 39.820967240254049 -48.667232329771196 0 -48.667232329771196 399.39327713085731 0 0 0 0 -253.74350744928552 1509.079054278247 0 1509.079054278247 -913.49157722248447 0 0 0 0 -85.096087876207093 -1066.7920294574533 0 -1066.7920294574533 -174.34523162013375 0 0 0 0 6.0100831963396786 -1.5348463672661623 0 -1.5348463672661623 2.5732518744917456 0 0 0 0 1125.1714790469596 -1468.9214197511092 0 -1468.9214197511092 -45.80929201989602 0 0 0 0 2543.0643755671017 1195.3872630438136 0 1195.3872630438136 -941.26419759146665 0 0 0 0 326.57139371311496 676.86285717191549 0 676.86285717191549 867.55390574295552 0 0 0 0 1915.9723364150173 -576.25124375487189 0 -576.25124375487189 -258.92501535974225 0 0 0 0 617.3896522935338 268.82806511824492 0 268.82806511824492 -13.102465210457012 0 0 0 0 2016.8465844331124 601.83615035782213 0 601.83615035782213 49.455598970163919 0 0 0 0 -723.4294305047606 -194.60938815360919 0 -194.60938815360919 309.69923227628033 0 0 0 0 38.716978313474328 314.86750658291487 0 314.86750658291487 118.15724710382619 0 0 0 0 -20.259546783919177 96.342417745808234 0 96.342417745808234 -30.281161853982667 0 0 0 0 -0.81919293814983973 1.0141379711853391 0 1.0141379711853391 -0.6534426590532334 0 0 0 0 118.15617918707267 148.04055849127099 0 148.04055849127099 -274.51437349809748 0 0 0 0 135.46176915607066 91.688218199363291 0 91.688218199363291 -168.88076880640801 0 0 0 0 1054.2168125310018 -429.19734467956096 0 -429.19734467956096 -250.67616223224394 0 0 0 0 1459.4249591379248 -365.92324616720089 0 -365.92324616720089 -256.90158102406713 0 0 0 0 304.98340821692909 -64.158728086299334 0 -64.158728086299334 -229.00415900497501 0 0 0 0 42.787023985689302 -39.454958068360611 0 -39.454958068360611 -17.43875944617082 0 0 0 0 28.216120555408452 4.6235298260194782 0 4.6235298260194782 10.44089536151273 0 0 0 0 47.262114159431803 -29.764640402539385 0 -29.764640402539385 -2.153561076805218 0 0 0 0 33.667533165543695 -24.489278836738247 0 -24.489278836738247 16.048745828911422 0 0 0 0 25.438102245218033 86.69148815257995 0 86.69148815257995 -27.57845958042617 0 0 0 0 -104.55189501831182 22.109212571878402 0 22.109212571878402 53.652989728061584 0 0 0 0 50.434120956763309 -12.892446483113844 0 -12.892446483113844 17.217120700327314 0 0 0 0 38.245716176643192 -28.801599198416213 0 -28.801599198416213 18.512123922782635 0 0 0 0 -90.493463140034692 -68.522283439097919 0 -68.522283439097919 31.592058152647951 0 0 0 0 -20.259423932953723 -48.01147627303817 0 -48.01147627303817 26.568296277653189 0 0 0 0 2.903378770875527 -4.5912090361831659 0 -4.5912090361831659 7.0383567965244414 0 0 0 0 21.323270752678582 -14.152081105630486 0 -14.152081105630486 9.8153235323889021 0 0 0 0 22.218341335060359 25.984639367014097 0 25.984639367014097 -2.8417474187226617 0 0 0 0 11.517744674950791 62.995817635418916 0 62.995817635418916 66.130923477208853 0 0 0 0 1.934041687269314 5.6968091304163284 0 5.6968091304163284 -0.73491146482827752 0 0 0 0 53.275000076819481 -61.388134798580495 0 -61.388134798580495 -81.409699321130574 0 0 0 0 25.112419353200433 8.6961344664422295 0 8.6961344664422295 2.0316724679391989 0 0 0 0 34.193975692306594 9.2064425861460393 0 9.2064425861460393 -97.874757837974357 0 0 0 0 21.449648009446037 -27.422479653344681 0 -27.422479653344681 -15.384353898970403 0 0 0 0 18.539070683146974 -8.38301933324842 0 -8.38301933324842 5.8464339611162357 0 0 0 0 31.790804270302264 -22.783916341057406 0 -22.783916341057406 -13.986116175839015 0 0 0 0 20.309589431449982 -11.847424969752446 0 -11.847424969752446 5.2599527857351518 0 0 0 0 968.779047810473 -384.52675091811443 0 -384.52675091811443 -135.92985377752484 0 0 0 0 186.12706076162681 -47.422149875498235 0 -47.422149875498235 -53.632844865301195 0 0 0 0 -0.44137879446043371 -1.6060364144679404 0 -1.6060364144679404 0.047033790074557658 0 0 0 0 42.101235718012276 -26.567628709702717 0 -26.567628709702717 51.733891938316447 0 0 0 0 48.846481483524258 4.2500353233190253 0 4.2500353233190253 9.3873103839919168 0 0 0 0 11.528987666277317 12.318756687269797 0 12.318756687269797 17.620506393141568 0 0 0 0 51.260040567387477 -2.0395610585846953 0 -2.0395610585846953 -9.5356431977324974 0 0 0 0 133.58173127513317 264.38398865116324 0 264.38398865116324 -6.3733812706656181 0 0 0 0 -40.864262833439284 -97.970986118932615 0 -97.970986118932615 86.444353327792214 0 0 0 0 24.787917130765486 9.5702893496235237 0 9.5702893496235237 2.2410655665751911 0 0 0 0 21.731549678017927 24.902331742707702 0 24.902331742707702 28.631961429950024 0 0 0 0 39.410833389783875 44.336836947398297 0 44.336836947398297 -25.049608044198067 0 0 0 0 0.26332123397054108 -3.7883054361820125 0 -3.7883054361820125 2.0283865385945283 0 0 0 0 680.31599338492742 -420.85942857751661 0 -420.85942857751661 241.99338498921406 0 0 0 0 837.95868827329559 -437.83598546609437 0 -437.83598546609437 161.8253374726537 0 0 0 0 926.59825684614316 -290.02304014061929 0 -290.02304014061929 107.00010516137172 0 0 0 0 570.0850136895142 -487.08444221083437 0 -487.08444221083437 6.4014803141353696 0 0 0 0 498.13593465004305 -250.59016540681569 0 -250.59016540681569 101.34972703973335 0 0 0 0 501.43698506076544 -333.24012713005459 0 -333.24012713005459 168.02397832378028 0 0 0 0 754.04569007523514 -356.30011231496701 0 -356.30011231496701 169.48627761689204 0 0 0 0 643.49145866346748 -274.99881682553439 0 -274.99881682553439 146.47282352580169 0 0 0 0 424.16987881235582 -140.96022680882652 0 -140.96022680882652 171.00380047921601 0 0 0 0 635.38305770057059 -184.83559522436417 0 -184.83559522436417 160.3232675886893 0 0 0 0 330.74835734965109 50.360272243305644 0 50.360272243305644 153.73554069791044 0 0 0 0 558.67116415634609 19.08688639173397 0 19.08688639173397 144.38692000450737 0 0 0 0 472.40917674389402 -54.020730755818022 0 -54.020730755818022 146.43478711892385 0 0 0 0 362.13154142567964 -147.53657913659526 0 -147.53657913659526 122.20422987228812 0 0 0 0 210.92364720823662 -35.125324528661167 0 -35.125324528661167 146.97203641945288 0 0 0 0 428.66099906729596 -115.01502135593591 0 -115.01502135593591 126.92196205008986 0 0 0 0 247.58534698011636 -359.8764433106258 0 -359.8764433106258 90.643380178528787 0 0 0 0 238.29546310268967 -56.486890860464676 0 -56.486890860464676 82.671664253104609 0 0 0 0 150.8356645196518 -133.55104942630942 0 -133.55104942630942 25.06594505729754 0 0 0 0 -21.520382651877298 -172.84862373618853 0 -172.84862373618853 -168.15878057225746 0 0 0 0 7.1571710223397531 0.42744956765636744 0 0.42744956765636744 -54.038150273672727 0 0 0 0 102.56084173644831 -22.610970026103587 0 -22.610970026103587 -241.48491151544022 0 0 0 0 124.71214781268918 -658.99336377583904 0 -658.99336377583904 89.347735430698776 0 0 0 0 69.222052518571218 -305.50746577121572 0 -305.50746577121572 -8.1354482839678894 0 0 0 0 1138.3419034883045 -868.81624403213937 0 -868.81624403213937 -13.470006736707091 0 0 0 0 920.36993575820179 -567.97172335911728 0 -567.97172335911728 -161.93372810025448 0 0 0 0 913.14957308077862 -548.15961540018907 0 -548.15961540018907 -20.779863194879908 0 0 0 0 1131.8954830204675 -616.51702241960811 0 -616.51702241960811 -260.66724359577688 0 0 0 0 247.7465809448131 -222.58993415254736 0 -222.58993415254736 20.228125309783536 0 0 0 0 334.66513719415525 223.30370177276654 0 223.30370177276654 103.78787480067396 0 0 0 0 244.94721859985384 222.74502033877661 0 222.74502033877661 119.82418702349878 0 0 0 0 212.99342662437812 192.51067963385503 0 192.51067963385503 104.49928747280505 0 0 0 0 219.58896494990677 238.60406157533794 0 238.60406157533794 152.5524760523931 0 0 0 0 228.74696298202616 243.63245312501658 0 243.63245312501658 147.0911730177213 0 0 0 0 210.50853032842952 244.88777395664374 0 244.88777395664374 161.87635604630213 0 0 0 0 204.14652095397651 254.21918174227494 0 254.21918174227494 149.28771418862937 0 0 0 0 259.80392108594242 189.67894256904538 0 189.67894256904538 156.51767687098072 0 0 0 0 158.54179961199225 186.75332231674838 0 186.75332231674838 160.744876831282 0 0 0 0 255.04796836011064 185.74389326451228 0 185.74389326451228 171.82860833103859 0 0 0 0 258.8580113545213 183.84553682867772 0 183.84553682867772 163.07489192127468 0 0 0 0 336.24492322317383 51.074947399184111 0 51.074947399184111 144.36701733681002 0 0 0 0 257.22049391680321 189.49879145365594 0 189.49879145365594 165.90832733489515 0 0 0 0 254.5029359353257 86.939228871661271 0 86.939228871661271 130.97914730783668 0 0 0 0 158.1762527101946 45.091870299804668 0 45.091870299804668 115.14859911034273 0 0 0 0 69.668293840609294 100.15469433295186 0 100.15469433295186 86.34561567712899 0 0 0 0 101.33295880826245 29.25931655111799 0 29.25931655111799 -44.389879089215356 0 0 0 0 -46.307899005751096 -31.699506661444957 0 -31.699506661444957 -23.561253219964897 0 0 0 0 22.40771580730916 145.5821153129508 0 145.5821153129508 127.20127573111949 0 0 0 0 97.823413962438281 120.71828975525659 0 120.71828975525659 44.534945217916174 0 0 0 0 146.14022093124913 161.29698240648395 0 161.29698240648395 105.34269219963653 0 0 0 0 151.87193751661616 196.72106185996049 0 196.72106185996049 149.63687614038645 0 0 0 0 105.19843289197706 214.54780426131811 0 214.54780426131811 170.92875790907419 0 0 0 0 180.4382752852689 251.31199261280881 0 251.31199261280881 158.33748403525624 0 0 0 0 124.25527396129837 265.21350029640462 0 265.21350029640462 276.87279414373552 0 0 0 0 36.216515264060945 156.4982021023161 0 156.4982021023161 188.83018258319316 0 0 0 0 270.97315175100994 330.17297690681607 0 330.17297690681607 402.56932285996936 0 0 0 0 243.82687331729903 248.83147163965305 0 248.83147163965305 178.34399678608133 0 0 0 0 401.54422965526464 182.33650404011303 0 182.33650404011303 293.11297006749828 0 0 0 0 270.08084013156986 304.20078448536947 0 304.20078448536947 171.0558332365008 0 0 0 0 173.38153386865042 259.05387069287394 0 259.05387069287394 210.88555693016406 0 0 0 0 150.31769709347464 -28.427999807305241 0 -28.427999807305241 368.69720796801084 0 0 0 0 303.7820377461594 -327.5660209840114 0 -327.5660209840114 147.3813890200795 0 0 0 0 264.86535809059569 -190.12440248891562 0 -190.12440248891562 -322.06376359514616 0 0 0 0 3.1828505872908863 -186.83090978521204 0 -186.83090978521204 32.32617518380448 0 0 0 0 195.25948548036649 -64.90036196175538 0 -64.90036196175538 -22.58479032028481 0 0 0 0 123.17311686628273 41.986161944828837 0 41.986161944828837 189.90614248486327 0 0 0 0 146.12668558792393 159.04781502911419 0 159.04781502911419 458.00355242168735 0 0 0 0 24.933935761312739 -45.751559841431657 0 -45.751559841431657 -75.18501190664756 0 0 0 0 19.832394587529052 98.594368020723778 0 98.594368020723778 170.59670275859207 0 0 0 0 -45.816972912970414 -219.37839515788426 0 -219.37839515788426 -253.06804093601022 0 0 0 0 -48.40467887799241 -81.04985772345799 0 -81.04985772345799 -22.534930034485114 0 0 0 0 28.385853370742552 -167.09729652710121 0 -167.09729652710121 64.790959458895486 0 0 0 0 38.454277521827862 -259.61680076306357 0 -259.61680076306357 -230.04419959274401 0 0 0 0 -141.85817790641886 -181.45538229117847 0 -181.45538229117847 -261.28637237457542 0 0 0 0 -51.030194091930753 -346.44119492915979 0 -346.44119492915979 -440.72135904272409 0 0 0 0 -94.276976146904417 -220.62933447594924 0 -220.62933447594924 -243.9396962735068 0 0 0 0 -4.0583174804451119 -216.94864287400696 0 -216.94864287400696 -628.89678622539986 0 0 0 0 -61.704436145810178 -308.65679547375157 0 -308.65679547375157 -485.37485844797629 0 0 0 0 -83.682321693625454 -160.33078537615643 0 -160.33078537615643 -491.2782785269801 0 0 0 0 -120.17530627317683 -207.91233861029423 0 -207.91233861029423 -281.44993333958973 0 0 0 0 -30.066150901195215 -149.01859242272712 0 -149.01859242272712 -304.92736618965978 0 0 0 0 -55.055220085620022 37.924796758495177 0 37.924796758495177 105.65123088943801 0 0 0 0 42.292603147602676 -15.792581227967275 0 -15.792581227967275 -177.2281578411621 0 0 0 0 -86.458690835273956 -67.0185229826252 0 -67.0185229826252 -35.20041931383912 0 0 0 0 -95.550152056539446 -122.21575724713762 0 -122.21575724713762 -131.23379626088627 0 0 0 0 6.7127147606133803 -142.78324497072617 0 -142.78324497072617 -417.91379112927098 0 0 0 0 -67.091035589106923 -175.25207052646056 0 -175.25207052646056 -268.4218877751664 0 0 0 0 -2.2883338857091076 -313.87302843098655 0 -313.87302843098655 -638.9516169398139 0 0 0 0 -146.80966702952082 -253.36549460509377 0 -253.36549460509377 -382.45242178668764 0 0 0 0 -149.06746233770173 74.467308638824193 0 74.467308638824193 -179.5433814829621 0 0 0 0 -354.35229103553866 -131.68943314644048 0 -131.68943314644048 250.73487025017221 0 0 0 0 -230.92036878195904 -23.091733695623589 0 -23.091733695623589 289.33746782965864 0 0 0 0 -143.02490346665581 -115.87169661553617 0 -115.87169661553617 328.70547462187369 0 0 0 0 -231.30244185994707 -16.224038217968769 0 -16.224038217968769 366.72997478033722 0 0 0 0 222.52264335549626 -172.3907744295384 0 -172.3907744295384 185.20873297386242 0 0 0 0 203.07769901093707 -205.77256343147519 0 -205.77256343147519 193.2214682631477 0 0 0 0 1.375899587881932 -1.3856529461510547 0 -1.3856529461510547 -0.11836475962887327 0 0 0 0 137.64679011655608 -91.158536486004778 0 -91.158536486004778 -5.3668544905076487 0 0 0 0 114.7871198711 111.03962866941129 0 111.03962866941129 262.53681225176661 0 0 0 0 280.82016416201441 -375.36599297095245 0 -375.36599297095245 33.54595470777258 0 0 0 0 -55.518394623413769 -454.36512433276721 0 -454.36512433276721 -685.71064617644072 0 0 0 0 71.154380419781091 -28.860149693993392 0 -28.860149693993392 9.31924192471247 0 0 0 0 -103.71663219921174 163.67194635418946 0 163.67194635418946 -112.40224726252973 0 0 0 0 -305.29694009868035 -373.87553272925925 0 -373.87553272925925 -406.61997525268112 0 0 0 0 18.254434877926542 -319.22577039940552 0 -319.22577039940552 -408.81548585374253 0 0 0 0 -238.57224843103177 -106.51238077118433 0 -106.51238077118433 -581.58882675247537 0 0 0 0 119.07193532886595 -204.10260612262186 0 -204.10260612262186 -916.48215226289346 0 0 0 0 56.124221703561489 84.988170765609539 0 84.988170765609539 54.288371036826902 0 0 0 0 -19.570643239982019 76.2813491384386 0 76.2813491384386 81.512113139021494 0 0 0 0 -76.432414506398345 24.568861475575886 0 24.568861475575886 78.495004643529683 0 0 0 0 64.701355890574632 -86.682683337723574 0 -86.682683337723574 68.23725332126287 0 0 0 0 29.752010667187278 15.168677394774932 0 15.168677394774932 25.311532021934454 0 0 0 0 143.28597743171485 -517.71310827275715 0 -517.71310827275715 -889.27624064812358 0 0 0 0 -44.220812238865619 7.4034398719954879 0 7.4034398719954879 38.03216268140477 0 0 0 0 8.276467533312541 2.3648573353924185 0 2.3648573353924185 8.577238820312882 0 0 0 0 65.511883042234615 -16.870140980136373 0 -16.870140980136373 7.8424603117965717 0 0 0 0 -103.32066661616955 -539.16946515538712 0 -539.16946515538712 -604.56756992293583 0 0 0 0 76.917514156393736 -245.48263965257183 0 -245.48263965257183 -415.22151586508699 0 0 0 0 145.77827401570903 -319.05730198015499 0 -319.05730198015499 -534.77049065178289 0 0 0 0 169.76945295796759 -422.05068201627677 0 -422.05068201627677 -710.34608100389664 0 0 0 0 172.10971625111415 -404.77923295605433 0 -404.77923295605433 -605.77254471267406 0 0 0 0 90.898892664408777 -250.2529306732124 0 -250.2529306732124 -276.00213081691345 0 0 0 0 75.973549549792551 -134.42078037864349 0 -134.42078037864349 -592.60886098487663 0 0 0 0 271.18496401552693 -322.61490232996903 0 -322.61490232996903 -548.85191342380176 0 0 0 0 -379.15906613931384 -784.98515558686313 0 -784.98515558686313 167.57592749356991 0 0 0 0 -221.19555051212228 769.11158187607464 0 769.11158187607464 413.45239365010525 0 0 0 0 730.34572023458895 234.09389947168165 0 234.09389947168165 42.683516350308537 0 0 0 0 1452.1773423284103 512.06950467678598 0 512.06950467678598 83.061948419949431 0 0 0 0 1452.0527797756076 200.99224527652814 0 200.99224527652814 -0.59711432929680086 0 0 0 0 2312.5616368371411 518.49592487021255 0 518.49592487021255 -131.54492057726657 0 0 0 0 2308.4475344858292 518.39941779403671 0 518.39941779403671 16.160113539605106 0 0 0 0 12.671754123528544 -5.3822284730980599 0 -5.3822284730980599 -2.43690326061036 0 0 0 0 2819.2525729853551 -67.508747992527105 0 -67.508747992527105 60.734679161560507 0 0 0 0 1472.726640857938 861.55253952295084 0 861.55253952295084 -98.73064037899735 0 0 0 0 1645.484210877079 1235.0436765871414 0 1235.0436765871414 -299.48711390381209 0 0 0 0 30.63786346785237 -8.1391816801508554 0 -8.1391816801508554 1.2660296924092789 0 0 0 0 2135.4000730410407 943.58955977050618 0 943.58955977050618 -210.72523631823924 0 0 0 0 55.027215759650971 -761.32848648169556 0 -761.32848648169556 71.146443746700243 0 0 0 0 2784.4168384998302 492.3603970518559 0 492.3603970518559 -428.38106707166935 0 0 0 0 -81.621811323761563 75.343233324499806 0 75.343233324499806 -342.46780707323342 0 0 0 0 108.22551849774482 -139.42217710464956 0 -139.42217710464956 -405.23530392023895 0 0 0 0 -123.81132540587896 -211.40307964817021 0 -211.40307964817021 -356.80416166988016 0 0 0 0 131.33916180563347 -288.39543585019237 0 -288.39543585019237 -849.09174497675644 0 0 0 0 75.567565062533504 -33.303182966336863 0 -33.303182966336863 -262.47135815727233 0 0 0 0 17.986414182510998 -100.84209713397922 0 -100.84209713397922 -530.06250043228511 0 0 0 0 -196.50627934930526 -482.4020671389062 0 -482.4020671389062 -432.79018858683139 0 0 0 0 73.747022264682087 -29.683935173012056 0 -29.683935173012056 10.085415961190392 0 0 0 0 -573.72346914140871 -195.67436578309957 0 -195.67436578309957 108.9299878854863 0 0 0 0 65.293509767952798 -24.628883763139893 0 -24.628883763139893 6.5368287560797302 0 0 0 0 333.24925589092891 -901.47685441335761 0 -901.47685441335761 -1110.3594281170858 0 0 0 0 49.056562992904219 86.171349459018529 0 86.171349459018529 -553.77913092978315 0 0 0 0 373.76572898289305 -435.35361124312521 0 -435.35361124312521 67.665521145740058 0 0 0 0 -140.92637117299091 69.385202736846281 0 69.385202736846281 521.91269126216594 0 0 0 0 2.9405116936468403 -245.99814982920373 0 -245.99814982920373 81.226214792852261 0 0 0 0 719.3559601344532 135.41578132910809 0 135.41578132910809 305.60126846258845 0 0 0 0 -332.2690357603351 -29.371491976123252 0 -29.371491976123252 356.94946665154612 0 0 0 0 -265.80124773964781 -216.39802185780263 0 -216.39802185780263 177.81841241575967 0 0 0 0 10.155724826414371 -66.711637801064171 0 -66.711637801064171 327.32838699660078 0 0 0 0 47.513282108593444 -49.619167340682651 0 -49.619167340682651 285.88673219742122 0 0 0 0 -289.10735121674952 3.3958885357956206 0 3.3958885357956206 448.86750680639489 0 0 0 0 -286.86414704993513 -30.983580316512416 0 -30.983580316512416 334.66579020577865 0 0 0 0 -10.444100278728001 -55.258041446443713 0 -55.258041446443713 467.36857733309625 0 0 0 0 47.298838558068383 -73.229231031746167 0 -73.229231031746167 352.06021314352074 0 0 0 0 562.31446694947226 186.70782757066718 0 186.70782757066718 398.40294378073236 0 0 0 0 660.43267543776892 -121.18298642907666 0 -121.18298642907666 346.78757164150011 0 0 0 0 864.01055011947028 19.809323085006326 0 19.809323085006326 259.13943562622808 0 0 0 0 1251.5227730527695 19.823997172215968 0 19.823997172215968 189.03515410952423 0 0 0 0 1585.5034267541496 -527.40447245014957 0 -527.40447245014957 284.49492846949761 0 0 0 0 1815.7657760144502 135.5033200095595 0 135.5033200095595 226.60407801896963 0 0 0 0 725.69384574984724 93.469531663204179 0 93.469531663204179 579.8077986631024 0 0 0 0 2198.3842840032958 818.56229251677655 0 818.56229251677655 373.53220674430668 0 0 0 0 670.86938486955114 -20.205424340533 0 -20.205424340533 915.40012904332343 0 0 0 0 -698.89356238149776 719.52747272920169 0 719.52747272920169 156.62468589191576 0 0 0 0 3.7413484802844437 3.2674348992770561 0 3.2674348992770561 1.4463552652901654 0 0 0 0 15.888900481644669 -408.67552380484631 0 -408.67552380484631 180.02204949540828 0 0 0 0 3195.2902200715707 -517.40566548731658 0 -517.40566548731658 -40.364865578367244 0 0 0 0 1588.9879500517454 282.80855610370827 0 282.80855610370827 418.68064555328056 0 0 0 0 2170.5842648581529 1496.2388898827985 0 1496.2388898827985 53.621441419316852 0 0 0 0 16.529575834292856 6.2091260069538734 0 6.2091260069538734 3.0960140810182857 0 0 0 0 1436.9454034571536 -404.335263314445 0 -404.335263314445 213.51313574457527 0 0 0 0 1495.3296138228798 -470.47362216586225 0 -470.47362216586225 255.1305543626695 0 0 0 0 1562.8723830961844 -160.00565290486907 0 -160.00565290486907 29.612161661443679 0 0 0 0 1287.3716897869917 -433.09679813767377 0 -433.09679813767377 482.98185324816586 0 0 0 0 1465.5399280691345 -209.62313293821535 0 -209.62313293821535 361.0977315715063 0 0 0 0 1121.8900012855229 -324.82159322339703 0 -324.82159322339703 364.11695665515072 0 0 0 0 1209.3902359985077 -927.82712832606603 0 -927.82712832606603 601.22183520769977 0 0 0 0 1520.3493861675306 -1069.0893841920688 0 -1069.0893841920688 639.79153310591937 0 0 0 0 1.8415035643489261 -0.10135678918068436 0 -0.10135678918068436 3.6669336750783841 0 0 0 0 1477.9763411109307 -514.84580116838151 0 -514.84580116838151 251.08176129199092 0 0 0 0 1930.0371587976479 -685.14235369140079 0 -685.14235369140079 304.41514813162212 0 0 0 0 1139.5978371467504 -661.32940600137442 0 -661.32940600137442 416.0422682828721 0 0 0 0 1145.9414262664068 -472.5372833526817 0 -472.5372833526817 285.82058721123212 0 0 0 0 1248.0442496824544 -510.23762303023796 0 -510.23762303023796 292.64421972577657 0 0 0 0 881.94300617144472 -253.1186759926095 0 -253.1186759926095 316.09412736424929 0 0 0 0 1144.9470453767299 -215.0375205045666 0 -215.0375205045666 273.46625037187914 0 0 0 0 950.56180218979193 -219.97053274630525 0 -219.97053274630525 254.86154107643233 0 0 0 0 662.77322202669166 -164.54531290285195 0 -164.54531290285195 309.06367327013322 0 0 0 0 819.38088498066645 -338.01611887225772 0 -338.01611887225772 337.48400620675329 0 0 0 0 962.89488376344548 -442.1527548101173 0 -442.1527548101173 386.20883559398135 0 0 0 0 638.87224385542504 -69.71228492224509 0 -69.71228492224509 265.7822813880789 0 0 0 0 553.6457693241282 125.15501191020849 0 125.15501191020849 147.7496822595549 0 0 0 0 528.27907387702726 59.724361201671854 0 59.724361201671854 220.88106757344076 0 0 0 0 817.47699719855882 -151.19422609955654 0 -151.19422609955654 299.17821427413219 0 0 0 0 829.7710107386838 -29.752987839980165 0 -29.752987839980165 223.42406979388943 0 0 0 0 716.79032325551452 62.587232848421081 0 62.587232848421081 200.40652432624847 0 0 0 0 591.33465933498519 -74.579517526094605 0 -74.579517526094605 309.58851895670159 0 0 0 0 1017.0511986012934 -279.77641610823321 0 -279.77641610823321 340.97111510781133 0 0 0 0 996.6191566725247 -100.1471047300829 0 -100.1471047300829 268.37148066950067 0 0 0 0 1451.552140081214 -374.98778971847059 0 -374.98778971847059 266.4405358553031 0 0 0 0 1246.8008769899725 -230.32367444174588 0 -230.32367444174588 198.37185956154644 0 0 0 0 911.39163069121423 -152.37623915582844 0 -152.37623915582844 226.51290246989447 0 0 0 0 865.42918313745577 16.552667682524543 0 16.552667682524543 240.02203074908357 0 0 0 0 259.49515855129721 122.22201457813117 0 122.22201457813117 355.32661579697577 0 0 0 0 97.793680771377694 178.19544316270913 0 178.19544316270913 153.44779095810554 0 0 0 0 78.989433819919213 -102.19300758380314 0 -102.19300758380314 113.35841795101624 0 0 0 0 612.33340288768522 16.184701188564759 0 16.184701188564759 107.27967628229817 0 0 0 0 -130.11465763281012 2.0982056242110048 0 2.0982056242110048 302.36642743290781 0 0 0 0 -284.06564644011451 -162.31505111466277 0 -162.31505111466277 160.2055305271424 0 0 0 0 -138.00981282517023 232.61675048287179 0 232.61675048287179 -278.55890443145745 0 0 0 0 -618.7552585101439 -60.110585352231737 0 -60.110585352231737 60.517747204459738 0 0 0 0 -63.901823522523046 39.265484399186334 0 39.265484399186334 127.30529881663097 0 0 0 0 135.02914313053043 203.58184881342095 0 203.58184881342095 -78.776510142708503 0 0 0 0 -198.87172059300792 166.45096815842862 0 166.45096815842862 108.13708195460094 0 0 0 0 -179.35951038286248 72.190337141335192 0 72.190337141335192 5.1930289374813583 0 0 0 0 350.66330412334355 139.67187870709586 0 139.67187870709586 250.37406793830723 0 0 0 0 502.69288395719195 -8.0353981077842036 0 -8.0353981077842036 222.71362540946575 0 0 0 0 308.07896860934125 47.087932128602461 0 47.087932128602461 52.913516261554832 0 0 0 0 132.01462133847235 197.63437805681588 0 197.63437805681588 191.41871649603763 0 0 0 0 324.49309786571393 133.25228422059899 0 133.25228422059899 224.07852333129358 0 0 0 0 340.87155642518337 139.55662511297714 0 139.55662511297714 81.539715362388961 0 0 0 0 217.12702743179398 290.02307685298456 0 290.02307685298456 113.95476222011393 0 0 0 0 138.43924668805994 229.69053375106978 0 229.69053375106978 98.678430286616276 0 0 0 0 188.90168790419557 251.66649327630194 0 251.66649327630194 140.29639227637199 0 0 0 0 339.81392772214531 158.9484767044778 0 158.9484767044778 142.80816866793248 0 0 0 0 129.95793888974003 247.77986770016378 0 247.77986770016378 62.953722637759256 0 0 0 0 -130.32444907986792 55.0567180820467 0 55.0567180820467 11.004674437092035 0 0 0 0 476.75424064548133 316.86561255555762 0 316.86561255555762 30.521411127366264 0 0 0 0 0.40136909708928314 1.6042305895602951 0 1.6042305895602951 8.0308241987738498 0 0 0 0 254.6496075725081 183.52631116741281 0 183.52631116741281 -46.739427443968452 0 0 0 0 154.36146637622733 349.97684190746418 0 349.97684190746418 138.50301512948317 0 0 0 0 286.50387460183629 496.29416254995476 0 496.29416254995476 282.25330638088963 0 0 0 0 206.02536969490757 261.24144606989603 0 261.24144606989603 136.73400318405766 0 0 0 0 161.53356598714163 328.39436780212782 0 328.39436780212782 80.756841744780104 0 0 0 0 113.54620873748718 315.95889699948066 0 315.95889699948066 186.86265529081902 0 0 0 0 112.75875533751969 329.31388915846856 0 329.31388915846856 146.32835719141804 0 0 0 0 39.326974462586804 246.92658440123296 0 246.92658440123296 138.12845430494599 0 0 0 0 173.48950719449203 179.134005314565 0 179.134005314565 83.783119683002269 0 0 0 0 171.10419410236864 129.53960738278806 0 129.53960738278806 -43.119767041527666 0 0 0 0 326.28106419467076 103.87273285024821 0 103.87273285024821 107.61773613534478 0 0 0 0 479.82772183001362 47.505424977670373 0 47.505424977670373 75.823528292866285 0 0 0 0 228.64609277953787 2.4974213595608035 0 2.4974213595608035 68.926025401842708 0 0 0 0 423.81398216704838 46.59784323414442 0 46.59784323414442 -160.0547675015971 0 0 0 0 449.45562208430238 -210.24799898199444 0 -210.24799898199444 204.40095010904042 0 0 0 0 348.7998088403674 88.571960599890872 0 88.571960599890872 117.23232804415602 0 0 0 0 388.80058789522445 -105.014342496479 0 -105.014342496479 306.20063874651714 0 0 0 0 641.93650927055569 -113.44239944347737 0 -113.44239944347737 231.97351318262554 0 0 0 0 575.63490224007546 -281.91701224788403 0 -281.91701224788403 549.22312768248594 0 0 0 0 946.60987732302601 -504.86155176360353 0 -504.86155176360353 441.25369761593174 0 0 0 0 897.65218901883054 -382.9705554268603 0 -382.9705554268603 379.3590999139351 0 0 0 0 867.54654670233867 -298.40838236037871 0 -298.40838236037871 341.09733073696043 0 0 0 0 566.92478774962365 -179.64625339739723 0 -179.64625339739723 392.04573288798929 0 0 0 0 716.73994047865563 -120.48612776157461 0 -120.48612776157461 271.21782171874474 0 0 0 0 529.10843103461411 38.954002910702229 0 38.954002910702229 235.23220219324139 0 0 0 0 329.26542427761888 174.77847106212084 0 174.77847106212084 200.88415000653936 0 0 0 0 536.53525510278996 49.853356735941816 0 49.853356735941816 185.14285456194921 0 0 0 0 299.93682822946721 112.74960784364976 0 112.74960784364976 192.24704010907772 0 0 0 0 497.21765126896935 5.0730404034029561 0 5.0730404034029561 199.23794578193701 0 0 0 0 26.738691940332501 44.24241687746769 0 44.24241687746769 14.760763437669539 0 0 0 0 54.870724124604749 25.423431691677706 0 25.423431691677706 -3.7310937562749587 0 0 0 0 49.184588313883069 30.247944188003004 0 30.247944188003004 -5.3526386652479232 0 0 0 0 32.571625473799571 22.351380722135296 0 22.351380722135296 22.301114704345295 0 0 0 0 -28.799634297880402 28.504571160848627 0 28.504571160848627 43.748530492243844 0 0 0 0 52.210516648498015 70.688727243790709 0 70.688727243790709 6.4701620972464298 0 0 0 0 -4.2004483499476919 41.884713386008116 0 41.884713386008116 58.243618681737644 0 0 0 0 -29.766180571174118 39.49525112591212 0 39.49525112591212 59.095433492372649 0 0 0 0 -11.565783876445494 76.290844838986231 0 76.290844838986231 9.5709315400736159 0 0 0 0 29.638657338553458 56.678430998329418 0 56.678430998329418 -11.513430846210895 0 0 0 0 29.296044696417795 25.829697209389536 0 25.829697209389536 21.101197652371624 0 0 0 0 45.607361918080642 12.136862619052408 0 12.136862619052408 -1.8755966537555651 0 0 0 0 65.984836525996798 40.474659217811677 0 40.474659217811677 -22.799756676991819 0 0 0 0 231.15996713842833 55.320026934868565 0 55.320026934868565 29.699514068757708 0 0 0 0 74.660038950922171 106.3564478333351 0 106.3564478333351 62.413903338869204 0 0 0 0 81.408030563805369 31.636391760153401 0 31.636391760153401 83.389486674577711 0 0 0 0 123.89934267749049 -6.2682468547565122 0 -6.2682468547565122 -4.9970172798912245 0 0 0 0 -0.1774735520705164 -0.04661093253196924 0 -0.04661093253196924 2.5607635913650384 0 0 0 0 -185.76082371951634 -50.903808047201892 0 -50.903808047201892 258.08695901660303 0 0 0 0 -392.19265846709914 169.31235559604011 0 169.31235559604011 91.52670818014667 0 0 0 0 -0.089015916843074194 3.948070907726283 0 3.948070907726283 2.0868016908486311 0 0 0 0 55.060100172460807 11.58931795864828 0 11.58931795864828 -5.604984422731377 0 0 0 0 0.37223894430054827 3.5815213221577125 0 3.5815213221577125 4.9867125106143106 0 0 0 0 -22.328658691665623 58.516009985960409 0 58.516009985960409 -74.453359035201174 0 0 0 0 7.7178867137764726 9.2980826317480023 0 9.2980826317480023 -10.335879300942796 0 0 0 0 24.537601893476676 24.691730863412886 0 24.691730863412886 -5.6019510526180056 0 0 0 0 -236.1095163286227 119.10631268795032 0 119.10631268795032 90.594403458668239 0 0 0 0 -12.669425779942685 57.428793144579345 0 57.428793144579345 1.1941598483290363 0 0 0 0 -7.2582460535577411 45.082744740968508 0 45.082744740968508 -21.537213311101368 0 0 0 0 0.95560633872493028 7.9305614781874567 0 7.9305614781874567 19.688984635251735 0 0 0 0 44.523293273588934 7.8865373850467222 0 7.8865373850467222 -116.42300634348339 0 0 0 0 32.697356446621598 -26.966287801937227 0 -26.966287801937227 20.841594477450144 0 0 0 0 -100.34115892167392 43.655262099476204 0 43.655262099476204 284.79584188805075 0 0 0 0 -75.241133206858649 -30.709749186851695 0 -30.709749186851695 245.91384937470229 0 0 0 0 27.99049773911247 -92.659821960829049 0 -92.659821960829049 95.87112554630221 0 0 0 0 -3.5592237068593278 1.1865920521902353 0 1.1865920521902353 4.2203468491087808 0 0 0 0 28.668716846066673 73.466747823922788 0 73.466747823922788 66.20064814141233 0 0 0 0 -76.478468736403784 50.225505823673537 0 50.225505823673537 110.48429676924843 0 0 0 0 67.538698762698914 49.840767365672491 0 49.840767365672491 20.930521420138803 0 0 0 0 -9.628280604644786 13.76393257683528 0 13.76393257683528 12.811474234420327 0 0 0 0 7.6153621732960488 8.039894072066609 0 8.039894072066609 1.1627902743126297 0 0 0 0 10.276817221776582 37.139093946936896 0 37.139093946936896 17.502713393373597 0 0 0 0 -2.1245191341804457 61.951152101742764 0 61.951152101742764 23.058086783198632 0 0 0 0 26.325396139902296 52.810285272507372 0 52.810285272507372 -20.685093981677937 0 0 0 0 25.577856540665138 28.35635106386566 0 28.35635106386566 20.62796020248285 0 0 0 0 -1.1379152122535743 36.900566624266276 0 36.900566624266276 25.72319337894578 0 0 0 0 29.621443509073288 47.690440255062185 0 47.690440255062185 28.069719673337659 0 0 0 0 23.529656221377081 34.516786685021543 0 34.516786685021543 50.05845950920957 0 0 0 0 2.7861695722058357 40.947505006624169 0 40.947505006624169 54.443861330273194 0 0 0 0 10.848196346449129 5.8035270755771613 0 5.8035270755771613 3.2311841180708241 0 0 0 0 -4.2624400885297575 12.198553164553012 0 12.198553164553012 23.509938896127302 0 0 0 0 26.597699221150833 23.58142283729353 0 23.58142283729353 77.998286328773702 0 0 0 0 58.369281054692692 50.371192768156789 0 50.371192768156789 42.884941804858045 0 0 0 0 91.235458668888896 61.901613112416271 0 61.901613112416271 67.360232738779814 0 0 0 0 27.911910484850523 49.770969443329022 0 49.770969443329022 135.67711982559013 0 0 0 0 58.468525712567498 51.947707567419002 0 51.947707567419002 64.336489204338704 0 0 0 0 93.392064679035684 45.113987231476244 0 45.113987231476244 30.071879704805724 0 0 0 0 98.431409988355881 53.475527384687354 0 53.475527384687354 26.494500061088729 0 0 0 0 28.920731783973679 45.965681202850874 0 45.965681202850874 43.30798759040772 0 0 0 0 67.834700228268048 43.282813804437183 0 43.282813804437183 5.8981765665032526 0 0 0 0 90.560485088934001 28.401114303556255 0 28.401114303556255 0.67083992934203707 0 0 0 0 66.431887118596933 41.111999202855941 0 41.111999202855941 22.546411352232099 0 0 0 0 123.47404691578231 59.795453192908326 0 59.795453192908326 45.0202017284264 0 0 0 0 82.51130360319803 91.446996352062342 0 91.446996352062342 -4.7510955623038171 0 0 0 0 37.972130474081496 113.04329595691433 0 113.04329595691433 -15.177139259158139 0 0 0 0 10.336039348712461 6.7170937279688445 0 6.7170937279688445 8.8611526537327805 0 0 0 0 138.42656753625488 -17.498692215633127 0 -17.498692215633127 41.854679747470072 0 0 0 0 84.732591508334735 16.131378556181517 0 16.131378556181517 44.08174197306198 0 0 0 0 42.839504041454518 8.7046759965296481 0 8.7046759965296481 -10.398492404531495 0 0 0 0 54.720532062041457 59.696003060407747 0 59.696003060407747 61.633227945958424 0 0 0 0 58.245784040802391 85.030757053404386 0 85.030757053404386 173.49379386707301 0 0 0 0 3.2415776973231232 -6.5117272083797459 0 -6.5117272083797459 -4.7171794318570601 0 0 0 0 34.989138072645289 21.351077613559763 0 21.351077613559763 5.3618753125958367 0 0 0 0 28.444364159193356 22.151305134800623 0 22.151305134800623 24.788922161366827 0 0 0 0 104.93172933297319 24.937260178566248 0 24.937260178566248 43.236597994142357 0 0 0 0 1.9313142522441922 49.09810525476405 0 49.09810525476405 -0.6292494229563772 0 0 0 0 73.525245388882468 69.340215414656996 0 69.340215414656996 2.1191404151868483 0 0 0 0 31.945629873429425 25.231215249241359 0 25.231215249241359 14.699294977632235 0 0 0 0 118.68595046150585 50.853541285341635 0 50.853541285341635 13.700330490628403 0 0 0 0 38.325680634916353 46.171774651538271 0 46.171774651538271 96.298810288861205 0 0 0 0 86.092714925282053 40.977829340794415 0 40.977829340794415 -36.951671578313835 0 0 0 0 42.867297778378997 21.533350145015902 0 21.533350145015902 110.89655504097027 0 0 0 0 -60.7514145884561 178.04816413847493 0 178.04816413847493 -0.81301464011858116 0 0 0 0 77.489081947826463 39.295860020418161 0 39.295860020418161 13.36000435188839 0 0 0 0 404.09527663965855 742.19237954975324 0 742.19237954975324 -382.44998324687504 0 0 0 0 95.691689655330435 38.862901754501358 0 38.862901754501358 9.689823898715936 0 0 0 0 58.183242129831342 -34.466921616746049 0 -34.466921616746049 100.15373928147164 0 0 0 0 -125.98888665698178 62.452998043449952 0 62.452998043449952 211.87441640738143 0 0 0 0 70.946626555058174 35.450563924448034 0 35.450563924448034 39.049399163324779 0 0 0 0 67.611573496145866 -15.143345229624401 0 -15.143345229624401 79.391013433543776 0 0 0 0 74.62546696384743 -14.935277816314851 0 -14.935277816314851 7.0792177188632195 0 0 0 0 58.149733262143855 -0.21044779656131141 0 -0.21044779656131141 -97.883484433939884 0 0 0 0 75.922315256299044 -10.43775713576315 0 -10.43775713576315 -42.859170790088683 0 0 0 0 46.23685090863728 23.113667031355362 0 23.113667031355362 -19.055453905753893 0 0 0 0 83.044386648718501 25.774079125721073 0 25.774079125721073 -67.19991944391586 0 0 0 0 -7.8162805945976288 38.519005971459592 0 38.519005971459592 -66.97776302958664 0 0 0 0 -78.611052547457803 298.15669421443909 0 298.15669421443909 66.430715384483847 0 0 0 0 32.331728011631412 13.505580416192686 0 13.505580416192686 5.0669863832903346 0 0 0 0 204.48429251705238 24.661012785089042 0 24.661012785089042 148.08751827288506 0 0 0 0 -141.22544295861735 349.81505867051601 0 349.81505867051601 271.28917983190786 0 0 0 0 433.72558326271246 115.40635051931713 0 115.40635051931713 27.391831354476381 0 0 0 0 307.12193776020285 -244.08076175405904 0 -244.08076175405904 -105.72295883109473 0 0 0 0 -21.636954892310314 -47.686105746133762 0 -47.686105746133762 -132.7421344522154 0 0 0 0 89.069101782144571 5.0930990705055592 0 5.0930990705055592 -311.06148902143286 0 0 0 0 59.020695543546026 11.038591705680119 0 11.038591705680119 -81.740722835356792 0 0 0 0 53.871454300822961 19.453683556120794 0 19.453683556120794 6.259461299779943 0 0 0 0 76.131101903549279 38.659364812766853 0 38.659364812766853 -128.31002573710612 0 0 0 0 59.784374006529106 83.693277172226772 0 83.693277172226772 -142.32592454897531 0 0 0 0 25.274117542430758 42.777173942151421 0 42.777173942151421 -37.001574099272375 0 0 0 0 32.186775431469869 12.037687086440656 0 12.037687086440656 -87.291562605147192 0 0 0 0 35.480791695787048 9.0050406052278049 0 9.0050406052278049 -106.57478482646184 0 0 0 0 5.0104179390473291 -38.183633985296183 0 -38.183633985296183 -112.6453604133676 0 0 0 0 23.008972482959507 -9.3235382376951748 0 -9.3235382376951748 -60.661151071348286 0 0 0 0 22.773435230308678 -17.749300654766557 0 -17.749300654766557 -89.19180275438157 0 0 0 0 43.698042361196713 25.478902224613194 0 25.478902224613194 -71.612888318898513 0 0 0 0 43.247755110176513 12.327306334431341 0 12.327306334431341 -46.147504657779791 0 0 0 0 36.789570145570906 -2.2495598799741856 0 -2.2495598799741856 -78.760187277301156 0 0 0 0 57.173262400116073 15.692214974551462 0 15.692214974551462 -41.535716234531719 0 0 0 0 57.027491739048855 17.495568409693078 0 17.495568409693078 -60.730508919503336 0 0 0 0 59.565801298333099 19.448685265113454 0 19.448685265113454 -59.866216816764791 0 0 0 0 43.699065706634428 25.003812261476924 0 25.003812261476924 -51.177603749076297 0 0 0 0 62.271673325391021 39.763162562132493 0 39.763162562132493 -103.37032005678884 0 0 0 0 62.812415386495559 53.92553160045145 0 53.92553160045145 -72.938863453236991 0 0 0 0 276.00613620120203 8.2607027224662488 0 8.2607027224662488 -219.9074607750299 0 0 0 0 70.278622034881295 24.331418971533225 0 24.331418971533225 8.6849203717529182 0 0 0 0 105.18544579068407 36.014877818654938 0 36.014877818654938 8.4950196086445384 0 0 0 0 111.24240519731393 34.103085629580619 0 34.103085629580619 -90.374998166156729 0 0 0 0 207.34845357328595 71.935932583284739 0 71.935932583284739 -193.12437545872854 0 0 0 0 191.00071021314216 93.474878042871978 0 93.474878042871978 -161.94251887882041 0 0 0 0 192.07486596688815 -137.23123070113414 0 -137.23123070113414 -291.78593398940575 0 0 0 0 13.814075890924869 157.7572248301617 0 157.7572248301617 -43.625269026586238 0 0 0 0 206.03353249373231 -9.5868003130682382 0 -9.5868003130682382 -473.95303906480649 0 0 0 0 60.388839370296409 237.70092893153515 0 237.70092893153515 -265.89079865994972 0 0 0 0 307.67257563389649 57.072755600148412 0 57.072755600148412 -854.4665697554874 0 0 0 0 -148.38753393608931 88.877644413423695 0 88.877644413423695 150.17827763513537 0 0 0 0 44.88463431866694 366.59262401091451 0 366.59262401091451 489.80597548202513 0 0 0 0 -132.58740729388956 -553.68661128289477 0 -553.68661128289477 144.66178845764534 0 0 0 0 121.92626912228297 25.095415504145421 0 25.095415504145421 -20.320071154521429 0 0 0 0 121.60873468129955 -4.9596160474874083 0 -4.9596160474874083 -37.287127170275198 0 0 0 0 94.457912202022271 -28.568527396542777 0 -28.568527396542777 -46.540535108461881 0 0 0 0 79.435813548945589 4.3944961692795914 0 4.3944961692795914 -12.631980145739817 0 0 0 0 125.45333774613391 -19.485069011301675 0 -19.485069011301675 -81.724443849968338 0 0 0 0 145.74450696171698 -39.348083137004323 0 -39.348083137004323 -66.13831643674348 0 0 0 0 105.33365056804176 37.774715261022358 0 37.774715261022358 8.945995615244362 0 0 0 0 96.216558755819278 -59.234463407578005 0 -59.234463407578005 -45.652362973600248 0 0 0 0 192.68922658490192 -77.432563608652345 0 -77.432563608652345 -44.39848841723142 0 0 0 0 185.99153936020684 -35.910777634469582 0 -35.910777634469582 -22.140480485457374 0 0 0 0 87.654711800656514 -28.434381621885223 0 -28.434381621885223 -43.680931827979293 0 0 0 0 41.403815456826123 21.478866848010512 0 21.478866848010512 -58.960521063123451 0 0 0 0 68.76843565586023 -28.890906628575976 0 -28.890906628575976 -28.896317004193406 0 0 0 0 -187.32729146726342 298.89087068290428 0 298.89087068290428 68.169950088713449 0 0 0 0 53.909106527877157 51.68128487978538 0 51.68128487978538 -127.86574610604021 0 0 0 0 -21.117550075272447 37.818172944282196 0 37.818172944282196 -42.016006889133223 0 0 0 0 9.8801512509508882 4.7839664382790943 0 4.7839664382790943 2.6715152978560432 0 0 0 0 234.86490968824364 -109.3167516661797 0 -109.3167516661797 30.220673849068589 0 0 0 0 13.503858306041366 -71.372803584933081 0 -71.372803584933081 40.569224878548994 0 0 0 0 425.67441931194026 391.78409222506207 0 391.78409222506207 433.73113421465678 0 0 0 0 481.31071989533666 8.6254002270552519 0 8.6254002270552519 -27.638075354381726 0 0 0 0 190.17156273365254 162.57417683767471 0 162.57417683767471 58.949749471708856 0 0 0 0 307.28202782708831 -12.149767125188191 0 -12.149767125188191 -80.060543814055563 0 0 0 0 85.361219090700615 56.581358856068618 0 56.581358856068618 -46.42110050266092 0 0 0 0 47.060005367391568 168.222483046261 0 168.222483046261 304.02591414002745 0 0 0 0 172.73853260098258 88.911140688494925 0 88.911140688494925 73.256507800679401 0 0 0 0 -13.854475661828474 29.183800092682759 0 29.183800092682759 31.398967192187456 0 0 0 0 -25.983652697443176 43.739627546891825 0 43.739627546891825 97.397976711077717 0 0 0 0 -27.027023062495573 13.608867530196676 0 13.608867530196676 22.867043402709896 0 0 0 0 23.892789029878898 12.122675810378439 0 12.122675810378439 17.96860558040056 0 0 0 0 75.582913130419911 -32.262992831432825 0 -32.262992831432825 -28.227238606148148 0 0 0 0 43.431581253760669 77.342712013340133 0 77.342712013340133 58.434502523845822 0 0 0 0 91.055818124548978 154.68504191477498 0 154.68504191477498 49.082002767716403 0 0 0 0 50.379131267683988 85.896751962442977 0 85.896751962442977 -55.388357639963942 0 0 0 0 22.296175227036812 -2.6349762504620031 0 -2.6349762504620031 -17.780582899426079 0 0 0 0 96.408563134380529 -110.2118026379253 0 -110.2118026379253 -189.8596416844648 0 0 0 0 100.55494004077676 34.702747444211731 0 34.702747444211731 9.0188276297035497 0 0 0 0 156.59554322017357 -506.38258096844584 0 -506.38258096844584 249.24935902460902 0 0 0 0 1665.9614813250228 255.09617181907652 0 255.09617181907652 454.59647745826624 0 0 0 0 1315.7064987298218 -1327.387870547007 0 -1327.387870547007 2114.5658524842966 0 0 0 0 1792.0142622615967 -1161.7571461120228 0 -1161.7571461120228 -244.32876069149643 0 0 0 0 672.26208796344145 -388.27202894240509 0 -388.27202894240509 808.23307692447997 0 0 0 0 -268.67371872503463 766.81371173089769 0 766.81371173089769 356.51800154968259 0 0 0 0 822.04493792488574 -588.68840297776001 0 -588.68840297776001 -555.98180133897404 0 0 0 0 -32.497578467999119 -446.02628956460177 0 -446.02628956460177 637.20123548040988 0 0 0 0 533.7498396935116 -279.51414937557865 0 -279.51414937557865 -579.22045049269218 0 0 0 0 14.916889383133224 -8.6193185132913115 0 -8.6193185132913115 4.1699966413912088 0 0 0 0 197.03441775985993 -764.90840516440858 0 -764.90840516440858 1057.0260336412375 0 0 0 0 403.02219993267499 174.2803878312161 0 174.2803878312161 54.753267302960467 0 0 0 0 1045.5799411694425 -943.3130073008474 0 -943.3130073008474 441.67047552008489 0 0 0 0 266.39688427931105 -413.22702684640581 0 -413.22702684640581 259.44569489147852 0 0 0 0 57.843763326836068 -0.12806380253019967 0 -0.12806380253019967 -1.0734066508805395 0 0 0 0 804.24191361508565 -408.96411534993285 0 -408.96411534993285 -202.75934805511952 0 0 0 0 81.291214810895326 -1071.9841552385885 0 -1071.9841552385885 1679.7170630702217 0 0 0 0 205.76761147589423 -524.70300560883379 0 -524.70300560883379 607.2448930338951 0 0 0 0 319.1177178643411 237.44673653286679 0 237.44673653286679 97.210015405611557 0 0 0 0 21.664281523950478 -4.7005924943542929 0 -4.7005924943542929 -0.81624634073909474 0 0 0 0 55.989289821140119 -66.416090705442912 0 -66.416090705442912 68.968631049404394 0 0 0 0 3.1074404286936783 8.0416654183286056 0 8.0416654183286056 12.851276385173378 0 0 0 0 97.98448275496412 70.747880105757758 0 70.747880105757758 125.80954354288679 0 0 0 0 1096.3884293348019 -154.32205728587223 0 -154.32205728587223 14.305236778292169 0 0 0 0 377.92510059339111 33.453976209495067 0 33.453976209495067 5.5314389040995593 0 0 0 0 -7.6465484605141683 -147.55426894663231 0 -147.55426894663231 1267.6283444763112 0 0 0 0 636.08426807255819 -756.95165780429033 0 -756.95165780429033 598.98610783072945 0 0 0 0 -53.198366528158658 -234.21268572384361 0 -234.21268572384361 600.56572506790508 0 0 0 0 -75.702689603625913 -310.30983569855425 0 -310.30983569855425 441.21846340853858 0 0 0 0 53.123868614857201 -357.58881999933146 0 -357.58881999933146 336.48163720747334 0 0 0 0 19.186062125663739 -371.21903522252728 0 -371.21903522252728 458.43299928912711 0 0 0 0 -341.30679164039611 -208.68669180178313 0 -208.68669180178313 520.7762544926818 0 0 0 0 -0.36538841344736284 -243.75233472403181 0 -243.75233472403181 68.893201970759264 0 0 0 0 -10.343978786535445 -10.437989634814357 0 -10.437989634814357 64.134641658801684 0 0 0 0 -2.8535815928319721 -5.8103966636706748 0 -5.8103966636706748 2.8041849273536767 0 0 0 0 -209.78893015328504 -97.7917634965753 0 -97.7917634965753 -19.712449779707242 0 0 0 0 -76.278432926483219 -5.0440559961682538 0 -5.0440559961682538 41.134595097743386 0 0 0 0 -277.63558655539236 174.1844998038095 0 174.1844998038095 388.62646738430522 0 0 0 0 132.89313946240145 290.01263263739929 0 290.01263263739929 91.947803612019356 0 0 0 0 -62.571135649719508 105.62360848352955 0 105.62360848352955 -52.809417919759653 0 0 0 0 81.076994670751446 97.361834338692461 0 97.361834338692461 -105.21819534411679 0 0 0 0 -60.681832906798491 43.294693342011051 0 43.294693342011051 -17.192015658743912 0 0 0 0 1363.6250769645558 -678.18361072259506 0 -678.18361072259506 258.15712325277559 0 0 0 0 608.62186873728933 560.19046261499989 0 560.19046261499989 483.44898928874727 0 0 0 0 171.85929301564829 138.88338250900233 0 138.88338250900233 97.66985932837656 0 0 0 0 93.678518341504969 -32.679924537026636 0 -32.679924537026636 -375.6541749932594 0 0 0 0 594.78255766514485 27.868900821938496 0 27.868900821938496 -810.62085575629771 0 0 0 0 300.23282099829521 291.70594405017982 0 291.70594405017982 -84.886521375877237 0 0 0 0 38.881497629801743 53.862622294725952 0 53.862622294725952 -277.74553995484257 0 0 0 0 -266.619122164906 -412.13844162396435 0 -412.13844162396435 -522.84437264170447 0 0 0 0 11.288621991996671 -0.27176336643016441 0 -0.27176336643016441 -5.5610288230771836 0 0 0 0 -454.20416819145612 -220.57217686071635 0 -220.57217686071635 244.40894356350802 0 0 0 0 43.606356197405034 -18.902258147938888 0 -18.902258147938888 -0.50973912618484629 0 0 0 0 34.121675233505812 -36.996780102710545 0 -36.996780102710545 -31.857634139294532 0 0 0 0 159.87652556103421 -100.65884658290088 0 -100.65884658290088 -307.18241466440941 0 0 0 0 24.910534279583914 -22.353704174532336 0 -22.353704174532336 5.608934501001368 0 0 0 0 43.451884300244274 -23.562917242176013 0 -23.562917242176013 -45.980215990659872 0 0 0 0 42.836662796107703 -40.798264487498273 0 -40.798264487498273 -1.8813730268680047 0 0 0 0 30.750933127339522 -16.223349819267696 0 -16.223349819267696 -42.146761475838503 0 0 0 0 16.454936726517388 -2.4557738761104133 0 -2.4557738761104133 -10.479232654111991 0 0 0 0 25.294337329687551 -33.717565746603213 0 -33.717565746603213 -17.658893980223411 0 0 0 0 16.996700793625187 -14.833721749621986 0 -14.833721749621986 -22.189765143989181 0 0 0 0 37.464460279268678 -32.190361248344743 0 -32.190361248344743 -25.588927479853737 0 0 0 0 1.5135600301728118 -46.662524020916379 0 -46.662524020916379 1.5883755389861562 0 0 0 0 4.0609978273561609 -13.388125927597471 0 -13.388125927597471 -28.382201744115868 0 0 0 0 -16.104801266570576 19.974186373963676 0 19.974186373963676 -72.829206451117898 0 0 0 0 129.39760016968648 -67.861219396814818 0 -67.861219396814818 -69.734338969100918 0 0 0 0 -6.1986670732870266 -15.284080485054623 0 -15.284080485054623 -1.8011761724300683 0 0 0 0 13.96184964767599 23.663459523520032 0 23.663459523520032 -177.45152726241577 0 0 0 0 35.839942463675101 -27.236765359909047 0 -27.236765359909047 0.63607077364734832 0 0 0 0 45.93644472300366 -53.721026130068822 0 -53.721026130068822 -30.225501827496259 0 0 0 0 44.598156044085044 -46.564090963395302 0 -46.564090963395302 -11.808450367690057 0 0 0 0 24.252560467073636 -29.774312640041899 0 -29.774312640041899 -25.377894603258483 0 0 0 0 53.072888338007033 -40.327564617336066 0 -40.327564617336066 -23.987895065793111 0 0 0 0 95.285918199559092 -106.16767999918017 0 -106.16767999918017 25.948751134785823 0 0 0 0 98.376345752527413 -119.15212326139823 0 -119.15212326139823 -27.841122811419382 0 0 0 0 65.462927100728848 -46.190255820771654 0 -46.190255820771654 -28.177137126876005 0 0 0 0 -11.49676128664106 -36.254365239195479 0 -36.254365239195479 -13.954088638608747 0 0 0 0 9.1893418555409738 -38.824260665739487 0 -38.824260665739487 -22.969118804279297 0 0 0 0 165.77767224780109 -78.97017193514381 0 -78.97017193514381 -139.39433475624548 0 0 0 0 62.638097608854878 -42.316607703250611 0 -42.316607703250611 -10.987258440732376 0 0 0 0 52.255587764499069 -38.653389639394618 0 -38.653389639394618 -2.777237268580393 0 0 0 0 123.45600716418267 -33.472144923808287 0 -33.472144923808287 -14.250372805489633 0 0 0 0 61.266218882286523 -22.911463843274849 0 -22.911463843274849 -2.9807364058362928 0 0 0 0 119.70446721411653 0.46021780382006472 0 0.46021780382006472 -2.7178995576644711 0 0 0 0 99.271087532913953 -2.6280074345802973 0 -2.6280074345802973 128.72241294208106 0 0 0 0 24.082108985545347 -23.2105671454392 0 -23.2105671454392 -15.502935244633591 0 0 0 0 8.0927068819649577 -13.702360316406704 0 -13.702360316406704 -12.246060813175493 0 0 0 0 13.42576514783029 -9.9675653125712387 0 -9.9675653125712387 -22.242087584832099 0 0 0 0 27.027737197779061 -23.0158170676591 0 -23.0158170676591 -6.8572729601601168 0 0 0 0 17.247878624333332 -21.120736972025369 0 -21.120736972025369 -1.918656460039788 0 0 0 0 58.479700877287542 -35.186788981917744 0 -35.186788981917744 -8.7807910101273592 0 0 0 0 141.77842691603291 -41.553550277102602 0 -41.553550277102602 -13.884796075659096 0 0 0 0 8.8603408365090104 -2.7089863828483658 0 -2.7089863828483658 -1.3546077911720373 0 0 0 0 18.853091760463968 -18.850192539717341 0 -18.850192539717341 -3.7998856384603532 0 0 0 0 13.066494611315647 -36.388089838234009 0 -36.388089838234009 -6.8291249547748976 0 0 0 0 23.675425056200766 -19.31437650198086 0 -19.31437650198086 -10.29066857183625 0 0 0 0 30.073392349195586 -19.214772266784145 0 -19.214772266784145 -9.3266660843339473 0 0 0 0 33.524513371470675 -23.224412303457939 0 -23.224412303457939 -25.763042378148384 0 0 0 0 35.270888158429443 -18.213922125079534 0 -18.213922125079534 -29.040286896902217 0 0 0 0 18.046780503350405 -28.277901579780156 0 -28.277901579780156 -16.214805477096899 0 0 0 0 26.595251453691162 -27.971959412699107 0 -27.971959412699107 -6.4936286493939406 0 0 0 0 30.25520956152468 -23.324514361001093 0 -23.324514361001093 -7.7369804235422635 0 0 0 0 35.873711357126012 -27.500100076062154 0 -27.500100076062154 -9.761609408973527 0 0 0 0 25.421049316908466 -14.659473556253943 0 -14.659473556253943 4.551605544578706 0 0 0 0 26.729572377509612 -22.893664488200102 0 -22.893664488200102 39.81499124885886 0 0 0 0 43.609995226375759 -95.47054482591011 0 -95.47054482591011 70.604830951013355 0 0 0 0 41.596411575010279 -54.982798497365366 0 -54.982798497365366 13.55058376646457 0 0 0 0 61.45116827529273 -40.17876259521654 0 -40.17876259521654 -4.4520409990443568 0 0 0 0 46.487424722043414 -15.514502194029969 0 -15.514502194029969 -15.310925287386491 0 0 0 0 77.01862589319353 88.632837486402423 0 88.632837486402423 -13.900494159274444 0 0 0 0 96.817784457723974 -47.742513835799855 0 -47.742513835799855 -75.097205055305494 0 0 0 0 63.061287359638101 -12.210090690080591 0 -12.210090690080591 -0.23799157754020517 0 0 0 0 67.292770509884576 -54.583582984701934 0 -54.583582984701934 -52.085968861149013 0 0 0 0 53.962092529245197 -6.0989878471055725 0 -6.0989878471055725 0.37677858667594322 0 0 0 0 119.74900412642455 -36.00593165837563 0 -36.00593165837563 -133.00808120680261 0 0 0 0 108.33748901023137 3.3417140983387981 0 3.3417140983387981 -111.6788736402641 0 0 0 0 1052.5675558710072 -663.01089662375705 0 -663.01089662375705 489.53876453430166 0 0 0 0 -0.37021125263213861 -6.1570887585463936 0 -6.1570887585463936 10.215147786391004 0 0 0 0 5.4497610649923445 4.5521538070534007 0 4.5521538070534007 68.3249299291856 0 0 0 0 -18.550221337129187 -39.820384909280619 0 -39.820384909280619 296.28632591059068 0 0 0 0 1044.6809692539355 -697.03138471578131 0 -697.03138471578131 464.94368554282119 0 0 0 0 201.83082065791677 -25.759942565578967 0 -25.759942565578967 -53.935754194662877 0 0 0 0 18.182761239011597 -188.32137718250851 0 -188.32137718250851 657.83231061928018 0 0 0 0 1029.7108541394737 -632.71271490120398 0 -632.71271490120398 585.96169915510836 0 0 0 0 922.32524443045259 -519.64874268788481 0 -519.64874268788481 504.89617381057542 0 0 0 0 1060.1451837566565 -601.82001809277426 0 -601.82001809277426 374.61483825205323 0 0 0 0 7.8646471768645654 -0.30094135781833842 0 -0.30094135781833842 -0.028443670765717854 0 0 0 0 151.43204536934354 79.305209931415447 0 79.305209931415447 -20.51154562632837 0 0 0 0 28.780986057448899 -37.428010593839645 0 -37.428010593839645 90.671344869369932 0 0 0 0 227.7620907905366 -71.805190780241901 0 -71.805190780241901 23.114270799436781 0 0 0 0 47.894478722562781 -103.26884370458538 0 -103.26884370458538 -22.633944779503508 0 0 0 0 66.166643136923085 -88.776080088580784 0 -88.776080088580784 -37.977354681023826 0 0 0 0 56.526569585766993 -146.70795682958487 0 -146.70795682958487 123.45081417420761 0 0 0 0 311.07901163911447 -185.33499626348203 0 -185.33499626348203 -207.61472937866711 0 0 0 0 89.943488141521811 -5.2286680961815364 0 -5.2286680961815364 -146.26561580860744 0 0 0 0 27.077396242577379 -109.06791193126173 0 -109.06791193126173 -47.943464790936559 0 0 0 0 1680.3335894356424 -476.93701535232685 0 -476.93701535232685 250.8870861476662 0 0 0 0 870.5734467433067 -455.60909186712706 0 -455.60909186712706 617.2019166920345 0 0 0 0 985.17624350058031 -536.15696877460687 0 -536.15696877460687 493.64398527197045 0 0 0 0 981.98542954747063 -530.86031660880076 0 -530.86031660880076 723.42586689282325 0 0 0 0 1073.4586297452624 -295.40336463188578 0 -295.40336463188578 698.65748816459063 0 0 0 0 787.04504505950899 -465.56544059289445 0 -465.56544059289445 535.14368799980002 0 0 0 0 1044.0939134100845 -395.89079032055133 0 -395.89079032055133 454.6223045376355 0 0 0 0 501.86283768193243 -130.90372768319867 0 -130.90372768319867 302.83824434509825 0 0 0 0 952.39118751547358 -869.86794627183735 0 -869.86794627183735 471.78824020572392 0 0 0 0 586.02722289310623 -1427.2896884269248 0 -1427.2896884269248 159.51775713691859 0 0 0 0 -216.95018075036569 -489.55514194595162 0 -489.55514194595162 353.90951454261085 0 0 0 0 153.92172356633819 96.868582541212163 0 96.868582541212163 -87.868534347122477 0 0 0 0 -215.97871603903332 -67.272274018245753 0 -67.272274018245753 -10.364384023570892 0 0 0 0 -0.34919032332926037 -1.4500472459615352 0 -1.4500472459615352 1.9409533432114046 0 0 0 0 1707.5312846667039 -1457.0538381814681 0 -1457.0538381814681 195.7772362367723 0 0 0 0 469.8258975853023 -1481.8892789355486 0 -1481.8892789355486 999.54450439161565 0 0 0 0 -18.300377783718432 -611.39921851181043 0 -611.39921851181043 -72.087100767272204 0 0 0 0 261.34098272942356 -58.431062302494865 0 -58.431062302494865 -134.52725810129414 0 0 0 0 1113.4653407622936 -87.412661120066787 0 -87.412661120066787 -219.31733233062187 0 0 0 0 49.602654904781957 55.947285321861273 0 55.947285321861273 30.221506604676506 0 0 0 0 137.57160950769321 -108.28397524234242 0 -108.28397524234242 -145.21248311096315 0 0 0 0 186.98942480051119 -23.998710654043407 0 -23.998710654043407 -73.95705922248635 0 0 0 0 17.807728877924092 -57.856329184789502 0 -57.856329184789502 -47.520902818429477 0 0 0 0 -9.8910708679431991 -37.287901318433796 0 -37.287901318433796 -12.874755879396616 0 0 0 0 34.226391036449058 -11.314540844814928 0 -11.314540844814928 0.55986214780386945 0 0 0 0 16.31249228791421 -41.508168096755071 0 -41.508168096755071 -16.75387423648408 0 0 0 0 26.294132450777397 -30.517982053537253 0 -30.517982053537253 -7.4957684046421491 0 0 0 0 33.962715836318239 -36.306808418925925 0 -36.306808418925925 -18.915995708710398 0 0 0 0 82.449224120660801 -37.271022766027272 0 -37.271022766027272 -19.070216397942431 0 0 0 0 67.175626864671358 -84.244779902366645 0 -84.244779902366645 -17.944898118967501 0 0 0 0 38.467310706204444 -66.417618924006092 0 -66.417618924006092 -16.985581776425533 0 0 0 0 75.064212050667265 -59.14310132062019 0 -59.14310132062019 -83.209547828046198 0 0 0 0 
</DataArray>
<DataArray type="Float64" Name="cross_section_updated" format="ascii">
1 1 1 1 1 1 0.012253986035768633 1 1 1 0.013969727406557352 1 1 1 0.010888869577107302 1 1 1 1 1 1 0.0099619769337675711 0.012374373674562747 1 1 1 1 0.0099810512551638947 0.0099899173043824039 1 0.010986204100237297 0.011227907612530973 1 0.0096750718458850013 1 1 1 0.012090455509778116 1 1 0.0097777913603357847 1 1 1 1 1 1 1 0.011721223734311115 1 1 1 1 1 1 1 1 0.020575005302728447 1 1 0.012952156739830509 1 0.021127152915726605 1 0.0098165874725258673 1 0.015221617855959617 1 1 1 1 1 1 1 1 1 1 1 1 1 1 1 1 0.0062150045364064753 1 1 1 1 1 1 1 1 0.012579922876584528 1 1 0.016285054697542392 0.010681192862719112 1 1 1 1 1 1 1 1 1 1 1 1 0.019583638553366828 1 1 1 1 1 0.0103916815856528 1 1 0.010209522615809104 1 1 1 1 1 1 1 1 1 1 1 1 1 1 1 1 1 1 1 0.01042606724478228 1 1 1 1 1 0.010131145381095732 1 1 1 1 1 1 1 1 1 1 1 1 1 1 1 1 1 1 1 1 1 1 1 1 0.010000082457984207 1 0.01186156250004269 1 1 1 0.015138289898254186 1 1 1 0.016329803405178832 1 1 1 0.0097166174418004299 0.018384337079757986 1 1 0.0071007536482854614 1 1 1 1 0.0078781445162640143 1 1 1 1 1 0.010423311639147025 1 1 1 1 0.0099677478782856724 1 0.010617069511957095 1 1 0.010488644605164906 1 1 1 0.010031439082735946 1 1 0.013488775215098222 1 1 1 1 1 1 1 1 1 1 0.010472666501891131 1 1 0.0099728066733784301 1 1 1 1 1 1 1 0.010592761919460396 1 1 1 1 1 1 1 1 1 1 1 1 1 1 1 1 1 1 1 1 1 0.014010770017727499 1 0.014589635106233685 1 1 1 1 1 0.010002052743987435 1 1 1 1 1 1 1 1 0.024968776295761955 1 1 1 0.01114945828256117 1 1 0.0083498000401233848 1 1 1 1 0.010350588120540417 1 1 0.010970558733361845 1 1 1 1 1 0.0098998970175902569 1 0.011737611980045214 1 1 1 1 1 1 1 1 1 1 1 1 1 1 1 1 1 1 0.0099716024927022761 1 1 1 1 1 0.017885199842284809 0.012798195319789209 1 1 1 1 1 1 1 1 1 1 0.011122022163889144 1 1 1 1 1 1 1 1 1 0.0097335795545094826 1 1 0.013192778733915708 0.0099978654293783019 1 1 1 0.010003425755478329 1 1 0.012693425006973482 1 1 1 1 1 1 1 1 1 1 1 1 1 1 1 0.011424705009263434 1 1 1 1 1 1 1 1 0.019843203350555325 1 1 0.010015483133070232 1 1 1 1 0.017803400424181274 1 1 1 1 1 1 1 1 1 1 1 1 1 1 0.012492444432048232 0.0097094266451760326 1 1 0.010546372616166071 0.015939611979215389 1 0.010171731826213006 1 0.015624915517434387 1 0.0093045728165586858 1 1 0.017192591880183745 1 1 1 1 1 1 1 1 1 0.01039002623571899 0.011698005363203666 1 1 0.010115926384461755 1 1 1 1 1 0.01016147548092442 1 1 0.010249182843998495 1 1 1 1 0.010270388135576868 1 1 1 0.016855224792002924 1 1 1 0.015262426744006092 1 0.011374991339716161 1 1 0.010330317338372474 1 1 1 1 1 1 1 1 1 1 1 0.0099901924841935899 1 1 1 1 1 1 0.010018619374613538 1 1 1 0.010020731204103503 1 1 1 1 1 1 1 0.013078401513868219 1 1 1 1 1 0.011303594957296955 1 0.012371066046677665 1 1 1 1 1 0.010912157094740152 0.01110446978293249 1 1 1 0.0099975995322792235 0.012702918588270919 1 0.013048300789501567 1 1 1 1 1 1 1 0.0094926993546219501 1 1 1 1 1 1 1 1 1 1 1 1 1 1 0.0093973983443353237 1 1 0.0089094189455721576 1 0.0088900976989572701 1 1 1 1 1 1 1 1 1 1 1 1 1 1 0.0099089188508699327 1 1 1 1 1 1 1 1 1 1 1 1 1 1 1 1 0.010019318162456655 1 1 1 1 1 1 1 1 1 1 1 0.01005842406090891 0.0098852717948887739 1 1 1 1 1 1 1 1 1 1 1 1 1 1 1 1 0.022251617200036388 1 1 1 1 1 1 1 0.020419400045062229 1 1 1 1 1 1 1 1 0.012535126936673696 1 1 1 0.0098727304208945273 1 1 1 1 1 1 1 1 1 1 1 1 1 1 1 1 1 1 1 1 1 1 1 1 1 1 1 1 0.010432645753204253 1 0.011808517584159604 1 1 1 1 1 1 1 1 1 1 1 1 1 0.013727445810966937 1 1 1 0.010133110851027876 1 1 1 1 1 1 1 1 1 1 1 1 1 0.012179515402293452 0.014668485828093509 1 1 1 1 1 1 1 0.015500620046095388 1 1 1 1 1 1 1 1 1 1 1 0.015204412905686332 1 1 1 1 1 1 1 0.011817903897888367 1 1 1 1 1 1 1 1 1 1 1 1 1 1 1 1 1 0.010143008294860945 1 1 1 1 1 1 1 1 1 1 0.0094383340082749134 1 1 1 1 1 0.0088339277945097949 1 1 1 0.0090806185529204147 1 1 1 1 0.016455326211862707 1 1 1 1 1 1 1 0.0082258785462327021 1 0.024274763760407291 1 1 0.0054344480529878759 1 0.00910358162563632 1 1 1 1 1 1 1 1 1 1 1 1 1 1 1 1 1 1 1 1 1 1 1 1 1 1 1 1 1 1 1 1 1 1 1 0.0100104305912619 1 0.0069528661579620395 0.0099881922210910204 1 1 1 1 1 1 1 1 1 1 1 0.012072922849522582 1 1 1 1 1 1 1 0.013727858072760755 1 0.009824682661070009 1 0.014446410896549302 1 1 1 1 1 1 0.011287693950158677 1 0.0096850247666855366 0.013905334974978754 1 1 1 1 1 1 1 1 1 1 1 1 1 1 1 1 1 0.011226633489046131 1 1 1 1 1 1 1 1 1 1 1 1 1 1 0.010423689094491973 1 1 1 1 1 1 1 1 1 1 1 1 1 0.010277807160319077 1 1 1 1 1 1 1 1 1 0.0094863096274353138 1 1 1 1 1 0.010825358635063275 0.01003957887173736 1 1 1 1 0.011705033348360649 0.0099034485476485936 1 1 1 1 1 1 1 1 1 1 1 0.010363812677210432 1 1 1 1 0.010822412918425388 1 1 1 1 1 1 0.011790164731512155 1 1 0.0098687292919157951 1 0.01091571719797203 1 1 1 0.011966611590493717 1 1 1 1 1 1 1 0.010013579820528582 1 1 1 1 0.011501441799219789 0.012206595378819945 1 1 0.010039467082917846 1 1 1 0.010442935147537597 0.014581392327100401 0.01167799956566392 0.0099973722280274329 1 1 0.010682410347467997 1 1 1 1 1 1 1 1 0.012767895344835297 0.012793105038084738 1 1 1 1 1 1 0.01280172104839826 1 0.011252125010762316 1 1 1 0.010103454557235887 1 1 1 1 1 1 1 1 1 1 1 1 1 1 1 1 1 1 1 1 1 1 1 1 1 1 1 1 0.01024646285209683 1 1 1 1 1 1 1 1 1 1 1 1 1 1 1 1 1 1 1 1 1 0.022181851082464503 1 1 1 1 1 1 1 1 1 0.0097718741824736333 1 1 1 1 1 1 0.010005714036478474 1 1 1 1 1 0.021490468006118011 1 1 1 1 1 0.012029658635454882 1 1 1 1 1 1 1 1 1 1 0.013281673368139939 1 1 1 1 0.013310769603086775 0.010192877609872048 1 1 0.010349211404457619 1 1 1 1 0.010529030219304892 1 1 0.010237066026953037 1 1 1 1 1 0.022131839256908582 0.010574111671685423 1 1 1 1 1 1 0.011755270630049984 1 1 1 1 1 1 1 0.01102317901697766 0.0098622613148429197 1 1 1 0.017003534297354034 1 1 1 0.015121799658213839 1 1 0.011739909230193149 1 0.01144339073922185 1 1 1 0.013091847032965702 1 1 0.014116333851279713 0.010671882168085543 1 1 1 1 1 1 0.012362870099303747 1 0.010272160688990169 1 0.010117138905234637 1 1 1 0.010022294966811939 0.010586442250792706 1 0.010689961821581039 1 1 1 1 1 1 1 1 1 1 1 1 1 1 1 1 0.011416156323460653 1 1 1 1 1 1 1 0.011524230850601355 1 1 1 1 1 0.0096157030926642267 1 1 1 0.012413792010972856 1 1 1 1 0.012374343378056402 1 0.010004329882396619 1 0.012714713356096245 1 1 1 1 0.012509022850128532 1 1 0.0091842313148336307 1 1 1 1 1 1 1 1 1 1 1 0.014091152667798725 1 1 1 1 0.016573708841473564 1 1 1 1 0.0084270260187011004 1 1 1 1 1 1 0.01008405236914044 1 1 1 0.017811435695774726 1 0.0099997257556118345 0.010098825818998456 1 1 1 1 1 1 1 1 1 1 1 1 1 1 1 1 1 1 1 1 1 1 1 1 1 1 1 1 0.010263881680611521 1 1 0.010101227065096075 0.015361236268109849 1 0.015872210208094196 1 1 1 1 0.010154265535474832 1 1 0.010056362826542511 1 1 1 1 1 1 1 1 1 1 1 1 1 1 1 1 1 1 1 1 1 1 1 1 1 1 1 1 0.010806530456633299 1 1 1 1 1 1 1 1 0.011337544280008488 1 1 1 1 1 1 1 0.013195383728322843 1 0.010948696045606863 1 1 1 0.012923584744330762 1 1 1 1 1 1 1 0.01193237501874911 1 0.0095315724272986239 1 1 1 1 1 0.012928493032065239 1 1 1 1 1 1 1 1 1 1 1 1 1 1 1 1 1 1 1 1 1 1 1 1 1 1 1 1 1 1 1 1 1 1 1 1 1 1 1 0.015371662862064407 0.015129879409389866 1 1 0.0156130100946531 1 1 1 0.010957853102554267 1 1 1 0.011382249885289452 0.012679202728006293 1 1 0.014260693224230283 1 1 1 1 1 1 1 1 1 1 1 1 1 1 1 1 1 1 1 1 1 0.0086896863288805012 1 0.0096650586759482824 1 1 1 1 1 1 1 1 1 1 1 1 1 1 1 1 1 1 1 1 1 1 1 1 1 1 1 1 1 1 1 1 1 1 1 1 1 1 1 1 1 1 1 1 1 0.010518932378159275 1 0.016145279608635387 1 0.012006525931786596 1 1 0.015083322203892035 1 1 1 1 1 1 1 1 1 1 1 1 1 1 1 1 1 1 1 1 1 1 1 1 1 1 1 0.0099443287361507191 1 1 1 1 1 1 1 1 1 1 1 1 1 1 1 1 1 1 1 1 1 1 1 1 1 1 1 1 1 1 1 1 1 1 1 1 1 1 1 1 1 1 1 1 1 1 1 1 1 0.010107649732796101 1 1 1 1 0.010482227275118695 1 1 1 1 1 1 1 1 0.010120088189209394 1 1 1 1 1 0.010423631018940616 0.011152506814042918 0.011168761550505476 1 1 1 1 0.011012173178746521 0.010738167755170773 1 1 0.011251377801778536 1 1 1 1 1 1 1 1 1 1 1 1 1 1 0.012497994943769337 0.010017948589427292 1 0.010267328653291545 1 1 1 1 1 1 1 1 1 1 1 1 1 1 1 1 1 1 0.0098587169247495669 1 1 1 1 1 1 0.0095181463096851958 1 1 1 1 1 1 1 1 1 1 1 1 1 1 1 1 1 1 0.010219173470661209 1 1 1 1 1 1 1 1 1 0.010642986833999132 1 1 0.009994964677706282 1 1 1 1 1 1 1 1 1 1 1 1 1 1 1 1 0.011115341979953387 1 0.013751567676002429 1 1 1 1 0.014582185343055373 1 0.011448726323774571 1 1 0.012715631926828579 0.011607339499951836 1 1 0.012187617092117561 1 1 1 0.010076814021754449 1 1 1 1 1 1 0.010002396701189735 1 1 1 0.014016460583725902 1 1 1 1 0.01152815083602338 1 1 1 1 1 1 1 0.010404284117826824 1 1 1 1 1 0.011061524309971739 1 1 0.010232179895372354 1 1 1 1 1 1 1 0.010254626314027919 1 1 1 0.01068400009260783 0.01430839949264486 1 1 1 0.010166239948076465 1 1 1 1 1 0.010005899690177403 0.01237864117011056 0.011670727036423406 1 1 1 1 1 1 1 1 1 0.013218122690830069 0.013440126140416848 1 0.013597149907363468 1 1 1 1 1 0.012010191748968793 1 1 0.013036714770869172 1 0.013156136185420761 1 1 1 0.013130309752478961 1 1 0.01037090287023989 1 1 1 1 1 1 1 0.010521072912991898 1 1 0.010011998454211395 0.013808004542447704 1 1 0.010165016808571663 1 0.01097251804624332 1 1 0.012783255877287125 1 1 0.011008830046685632 1 0.012211567589821466 1 1 1 0.010992216408965251 1 1 0.0091334837024653458 1 0.010165717324623073 1 1 0.010049342191192216 1 0.010067706215993925 1 1 1 1 0.010902414162118446 0.012359061560441581 1 1 1 1 1 1 1 1 1 0.010666079575610141 1 1 1 1 1 1 1 1 1 1 1 1 1 1 1 1 1 1 0.0099999346092258627 0.0050083366667519526 1 1 1 0.015023185750120438 1 1 1 1 0.015098512998950715 1 1 0.011809068539978795 1 1 1 0.011426937612382868 1 1 0.012302059189137545 1 1 1 1 0.010010356672519611 1 1 1 1 1 0.015626326396264843 1 1 1 0.01413007719961204 0.010001267818705717 1 1 0.010352436707229001 1 1 1 1 1 0.012449204509914782 0.016845344088264991 1 1 1 1 0.01179890409225221 1 1 1 1 0.012100512543761493 1 1 1 1 1 1 1 1 1 1 1 1 1 1 1 1 1 1 1 1 1 1 1 1 1 1 1 1 0.011326563928690213 1 1 1 1 1 1 1 1 1 1 1 0.015101289359655259 1 1 1 1 0.01043620508171072 1 1 1 0.015248343028116784 1 1 0.0099999656108104296 1 1 1 1 1 0.0097142776920154696 1 1 1 1 1 1 1 1 1 1 1 1 1 1 1 1 1 1 1 1 0.011125438892584999 1 1 1 1 1 0.011522410208382728 1 1 1 1 1 1 1 0.009732738893292698 1 1 1 1 1 1 1 1 1 1 1 1 1 0.013596590844809292 1 1 1 1 1 0.0092300903047720529 0.015851056087134236 1 1 1 1 0.0085452115261815103 1 0.01000479669807265 1 1 1 0.011939169434280009 0.011295760506103444 1 1 0.026730161357987808 1 1 1 0.024506761221575482 1 1 1 1 0.010197516573828632 1 1 0.012229647940605815 0.010823310641776406 1 1 1 1 1 1 0.0074099456890477696 1 1 0.01122224395121185 1 1 1 1 0.0095484125420383804 1 1 1 1 1 1 1 1 1 1 1 1 1 1 1 1 1 1 1 0.016465472924085137 1 0.0099786044111751047 1 1 1 0.0099452418057916266 1 0.011474317659381263 1 0.010048195511050857 1 1 0.012592469606394197 1 1 0.013517929628331121 0.01509552335217278 0.010814169321885 1 1 1 0.014646037781300735 1 1 1 1 1 1 0.010076992527252054 1 1 1 1 1 1 1 0.013129235692927061 1 0.009668553716115743 1 1 1 1 1 1 1 0.010466936074943801 1 1 1 1 1 1 1 1 1 1 1 0.01110137957388597 1 1 0.0099870998997746933 1 1 1 1 1 1 1 1 1 1 1 1 1 1 1 1 0.010738005634249303 1 1 1 1 1 1 1 1 1 1 1 1 1 1 1 1 1 1 1 1 1 0.011142904862056449 1 1 1 0.010508461363114282 1 1 1 1 1 1 1 1 1 1 0.010339420276854075 1 1 1 1 1 1 1 1 1 1 0.010741351862607704 1 1 1 1 1 1 0.011404819187816859 1 1 1 0.014442242946676615 1 1 1 1 1 1 1 1 1 1 1 1 1 1 1 1 1 1 1 1 1 0.010286864027230173 1 1 1 1 1 0.026410659758922587 1 1 0.0071328555068218627 1 1 1 1 1 1 0.0087962935496350356 1 1 1 1 0.0097858075331073938 1 1 1 1 1 1 1 1 1 1 1 1 1 1 1 1 1 1 0.010002312450032601 1 1 1 1 1 0.013110900024838114 1 1 1 0.015613257020914855 1 0.030324275278169915 1 1 1 1 1 1 1 0.021857263623106884 1 1 1 0.025168097773720137 0.024017323974846825 1 1 1 1 1 0.009698232580227624 1 1 1 0.0086502943655771547 1 1 1 1 1 1 1 1 1 1 1 1 1 1 1 0.01511697710729186 1 1 1 1 1 1 0.011682977549463916 1 1 1 1 1 1 1 1 1 1 1 0.010148090748149013 1 1 1 1 1 1 1 1 1 0.012631348686942104 1 1 1 1 0.013704887238810243 0.0097849587691112017 1 1 1 1 1 1 1 1 0.038093113920180624 0.011610306126899762 1 0.041743100929872365 1 1 1 1 1 0.0090816031123538699 1 1 1 1 1 1 0.021507420935401277 1 0.0097759629825189959 1 1 1 1 1 1 1 1 1 1 0.011254014637327272 1 1 1 1 1 1 0.010657863155745542 1 1 1 1 1 1 1 1 0.011072633279164613 1 1 1 1 1 0.012508792428047196 1 1 0.010390076462153407 1 1 1 1 1 1 0.012583527894867358 1 1 1 1 1 1 1 1 0.017377769472968332 1 1 1 1 0.021392474413206457 1 1 1 1 1 1 1 1 1 1 0.010987482394753053 1 1 1 1 1 1 1 1 1 0.024777283499240618 1 1 1 1 0.027754716984486588 1 1 1 1 1 1 1 1 0.009592057777564042 1 0.018479684704315907 1 1 1 0.009899410885739009 1 1 1 1 1 1 1 1 0.016142664703917814 1 1 1 0.018356187821103716 1 1 1 0.0093069630676302674 1 1 0.0098383649456806298 1 1 1 1 1 1 1 1 1 1 1 1 1 1 1 1 1 1 1 1 1 1 1 1 1 1 1 1 1 1 1 1 1 1 1 1 1 1 1 1 1 1 1 1 1 1 1 1 1 1 1 1 1 0.011128346935661362 1 1 1 0.010747703266057671 1 1 1 1 1 1 0.0099283400297384104 1 0.010172604541441387 1 1 1 1 0.010703100745509172 0.011215737158286443 1 1 1 1 1 1 1 1 1 1 1 1 1 1 1 1 1 1 1 1 1 1 0.02288077397772224 1 1 0.020513281515652397 1 1 1 0.010151735663978853 1 1 1 1 1 1 1 1 1 1 1 1 1 1 0.011212589154894391 1 0.015260339696450104 1 0.015004082411164237 1 1 1 1 1 1 1 1 1 1 1 1 1 1 1 1 1 0.013565433541280585 1 1 1 1 1 1 1 1 1 1 1 1 1 1 1 1 1 1 1 1 1 1 1 1 1 1 1 1 1 1 1 1 1 0.01025408263775375 1 1 1 1 1 1 0.015077768925950879 1 1 0.0076913250181956886 1 0.010032309631640396 1 1 0.015705087949248464 1 1 1 0.0096339100702366245 1 1 1 1 1 1 1 1 1 1 1 1 1 1 1 1 1 1 1 1 1 1 1 1 1 0.010204321243098183 1 1 1 1 0.010348319377204346 1 1 0.010144294641127621 1 1 1 1 1 1 1 1 1 1 1 1 1 1 1 1 1 1 1 1 1 1 1 1 1 1 1 1 1 1 0.0099066960264312005 1 1 1 0.010054467683893863 1 1 1 1 0.0096636970103594344 1 1 1 1 1 0.0094014434578662681 1 1 1 1 0.010376719671372873 1 1 1 1 1 1 1 1 1 1 1 1 1 1 0.010156068432547991 0.010453654635260526 1 0.011658285851910309 1 0.011141615018250874 1 1 1 1 1 1 1 1 1 1 1 1 1 1 1 1 1 1 1 1 1 1 1 1 1 0.0108458607065944 0.0094075747700206186 1 1 0.01019252065224769 1 1 0.01126963835561396 1 1 1 1 1 1 1 1 1 1 1 0.010823367575303316 1 1 0.010255118457396833 1 1 1 1 1 1 1 1 1 1 1 1 1 1 0.010278243462530132 0.010019365681100768 1 0.012838693574471538 0.0099604628113109106 1 1 1 1 0.010001675274339032 1 1 1 0.0090059154929114094 0.013315504603660468 1 1 1 1 1 1 1 0.0099834062455731939 1 1 1 1 1 1 1 1 1 1 1 1 1 1 1 1 0.0096861344264238675 1 1 1 1 0.0093216612475105903 1 1 1 1 1 1 1 0.01307287550038079 1 1 1 1 1 1 1 0.012431289517839367 1 1 0.010985333484065621 1 1 1 1 1 1 1 1 1 1 1 1 1 1 1 0.010097760870684154 1 1 1 1 1 1 1 1 0.010116269863541043 1 1 1 1 1 1 1 0.0099897451025178774 1 1 1 1 1 0.0099622963160800448 1 1 1 1 0.010227936492957557 1 1 1 1 1 1 1 1 1 1 1 1 0.0099363619448817053 1 1 1 1 1 1 1 1 1 1 1 1 1 1 0.011015934895666719 1 1 1 1 1 1 1 1 1 1 1 1 1 0.010003804423989092 0.0099318883585984424 1 1 0.012677085162673123 1 1 1 1 0.011362454256843789 1 1 1 0.012102949458894834 1 1 0.010291808842674076 1 1 1 1 0.01244253318596396 1 1 1 1 1 1 1 1 1 1 1 1 1 1 1 1 1 1 1 1 1 1 1 1 1 1 1 1 1 1 1 1 1 1 0.010264969746538032 1 1 1 0.010588322433416585 1 0.01036038594045903 1 1 1 1 1 1 1 1 1 1 1 1 1 1 0.010111393128074013 1 1 1 1 1 1 1 1 0.022294130483388047 1 1 1 0.010013632257389868 1 1 1 1 1 1 1 0.020454252585833534 1 0.022089877921532185 1 1 1 1 1 1 1 1 1 1 1 1 1 1 0.011524247796078477 1 1 0.010560625023674417 1 1 1 1 1 1 1 0.021830458475784183 1 1 1 1 1 1 1 1 1 1 1 1 1 1 1 1 1 1 1 1 1 1 1 1 1 1 1 0.011715237451055162 1 1 0.027917344795145724 1 1 1 0.026033462017919378 1 1 0.015430570564728678 1 1 1 1 1 1 1 1 1 1 1 1 1 1 1 1 1 1 1 0.011831773849870518 1 1 1 1 1 1 1 1 1 1 1 1 1 0.010868151077466463 1 1 1 1 1 1 1 1 1 1 1 1 1 1 1 1 1 1 1 0.011046488809071987 1 1 1 1 1 1 1 1 1 1 1 1 1 1 1 1 0.010068612044577135 1 1 0.011217293996175576 1 1 1 0.010474712292276775 1 1 0.0097421888162116752 1 1 1 1 1 1 1 1 1 1 1 1 1 1 0.01311596994899396 1 1 0.015072504377167277 1 1 1 1 1 1 1 1 1 1 1 1 1 1 1 1 1 1 1 1 1 1 1 1 1 1 1 1 1 1 1 1 1 1 1 1 0.013611842869860108 1 1 1 1 0.013108443284734535 1 1 1 1 1 1 1 1 1 1 1 1 1 1 1 0.016924256080170657 1 0.0098313518796574254 0.019462866232701093 1 1 0.012550089875376364 1 0.014240386875979141 1 1 1 1 1 1 1 1 0.03145724470704532 1 1 0.012229174635811725 1 1 1 1 0.022911633355870986 0.01723630730383216 1 0.015279325719792859 1 1 1 1 1 1 1 1 1 1 1 1 1 1 1 1 1 1 1 1 1 0.010088821077103205 1 1 1 1 1 1 1 1 1 1 1 1 1 1 1 1 1 1 1 1 1 1 1 1 1 0.021617406847597234 1 1 1 1 1 0.019810163832589031 1 1 1 1 1 1 1 1 1 0.023667113357638249 1 1 1 1 1 1 1 1 1 1 1 1 1 1 1 1 1 0.028842538366134558 0.016516686352202277 1 1 0.025979508000553361 1 1 1 0.010164858740587191 1 1 1 1 1 1 1 1 1 1 0.019384138836431683 1 1 0.0099150921781667768 1 0.013002082634809082 1 1 1 1 0.011582419749593885 1 1 1 0.012468169184888252 1 1 1 1 1 1 0.011028537822783888 1 1 1 1 1 1 0.011021065288622886 1 1 1 1 1 1 1 1 1 1 1 1 1 1 0.010187582015811422 1 1 0.010544119326106195 1 1 1 0.010421395121852937 0.010195980360985256 1 1 1 1 1 1 1 1 1 1 0.020232634409138597 1 1 1 0.020512408899379206 1 1 1 1 0.010399314083159757 1 1 1 1 1 1 1 1 0.014517898182209716 1 1 1 1 1 0.011942746480957377 0.018524227451818656 1 1 1 0.021607182494748113 1 0.010670591882903676 0.010222884465515194 1 1 1 1 1 0.019383200703845228 1 1 1 1 1 1 0.010396483763284378 1 1 1 1 1 1 1 0.010905802713751446 1 1 0.011255768358391802 1 1 0.010171069002416683 1 1 1 1 1 1 1 1 1 1 1 1 1 1 0.01144323278757152 1 1 1 0.010000035146943059 1 1 0.01106606774681991 1 1 1 1 0.0099992813741095199 1 1 1 1 1 1 1 1 0.010785457781084681 1 1 1 1 0.016011021544575128 1 1 1 1 1 1 1 1 0.018782054119115488 1 1 1 1 1 1 1 1 1 0.010563690241670035 1 1 1 0.011771339199316487 1 1 0.022437912339544383 1 1 0.026565529845244809 1 1 1 1 1 1 1 1 1 0.017674523322254353 1 1 1 1 1 1 1 1 1 1 1 1 1 1 1 1 0.0099726892858148664 1 1 1 1 1 1 1 1 1 1 1 1 1 1 1 1 1 1 1 1 1 1 1 1 1 1 0.018499268115385614 1 0.018701771758548237 1 1 1 1 1 1 1 1 1 1 0.018140576921496725 1 1 0.01003586325463781 1 1 1 1 1 1 1 1 1 1 1 1 1 1 1 1 1 1 1 1 1 0.012625949526327618 1 1 1 1 1 1 1 1 1 0.015870216048147735 1 0.0095862213426560743 1 1 1 1 1 1 1 0.01182002947366936 1 0.011143975270809559 1 1 1 1 1 1 1 1 1 1 1 0.015069583431084579 1 1 1 1 0.010001815096618443 1 0.011690014423952445 1 1 1 1 1 1 0.01506362604675557 1 1 0.015432247067719935 1 1 0.014584858079121854 1 1 1 0.01771737362735203 0.01329870986302497 0.012764291994388138 1 1 1 1 1 1 1 1 1 1 1 1 1 0.010344263985680511 1 1 1 1 1 1 1 0.015666313222942492 1 0.010916339461368742 1 0.01549301092034939 1 1 0.016317407760254348 0.010000597543630493 1 1 1 1 1 1 0.011701238022884074 1 1 1 1 0.010172842828485297 1 0.013605881159356821 1 0.010334099171298336 1 0.014915832732680269 1 1 1 1 0.011549447962714074 1 1 1 1 1 0.010671147653836808 1 1 1 1 1 1 1 1 1 1 1 1 1 1 0.011627057304852294 1 1 1 1 1 0.010807108637541472 1 1 1 0.012089722076741125 1 1 1 1 1 1 1 1 1 1 1 1 1 1 1 1 1 0.015907565541499094 1 1 1 1 0.015814616025772152 1 1 1 1 1 1 0.0099629659722882159 1 1 1 1 1 1 1 1 1 1 0.013029391627178064 1 1 0.014306164913824011 1 0.0099301326965711492 1 1 1 1 1 1 1 1 1 1 1 0.012073748735405291 1 1 1 1 1 1 0.009735959485369438 1 0.0069366599962824519 0.0137632408182225 1 0.011608330306016731 1 1 1 1 1 1 1 0.0089430235642594964 1 1 1 1 1 1 1 1 1 1 1 1 1 1 1 1 0.011671632626087655 1 1 1 1 1 1 1 1 1 1 0.011497739448062224 1 1 1 1 1 1 1 1 1 1 0.012617044457003243 1 1 1 1 0.011121957003968891 1 1 1 1 1 0.0097241400990500382 1 1 1 1 0.0099669787120257869 1 1 1 1 1 1 1 1 1 1 1 1 1 1 1 1 1 1 0.0090729242540252605 1 1 1 1 1 1 1 1 0.009211446765084591 1 0.01102364103401763 0.010004378984984528 1 1 1 1 1 0.010502550383008784 1 1 1 1 1 1 1 1 1 1 1 1 1 1 0.010445899689013185 1 1 0.014286537158895199 1 0.01003483699168512 0.0093186086365099376 1 1 1 1 1 1 0.010302789757692665 1 1 1 1 0.010266119663787456 1 0.011456508627433051 1 1 0.0094277279821977332 1 1 1 1 1 1 0.009916016957501543 0.010663736656221872 1 1 1 1 1 1 1 1 1 1 1 1 1 1 1 0.011190526341464991 1 1 1 1 1 1 1 0.010052891903869514 1 0.010587015460279374 1 1 1 0.010177830194811555 1 0.010719180506517304 1 1 1 1 1 1 1 1 0.0099794186676045536 1 1 1 1 1 0.011121497013429932 1 0.010080739339686895 1 1 1 1 0.010143443874720926 1 1 1 1 1 0.010081890749186804 1 1 1 1 1 1 1 1 1 1 1 1 1 1 1 1 1 1 1 1 1 1 1 1 0.018920346605341816 1 1 1 0.010977808586928917 1 0.019138305004097973 1 1 1 0.01035577617898435 1 1 1 1 1 1 1 1 1 1 1 1 1 1 1 1 1 0.010634853459897325 0.0099379149329272189 0.010328806457857659 0.010738405566275967 1 1 1 1 1 1 0.009694504164822898 1 1 1 0.0090034075122730553 1 1 1 1 1 1 1 1 1 1 0.011451152285817197 0.015749235912093266 0.010191310544676722 1 1 0.012023384661670749 0.0099964909214651093 1 1 1 1 1 1 1 1 1 0.012925974905398038 1 1 1 1 1 1 1 1 0.013791371369802206 0.017014972154174111 1 1 1 0.010193890359776924 1 1 1 1 1 1 1 1 1 1 1 0.015955479338725737 1 0.010028572517190002 1 1 1 1 1 0.01001806301257902 0.012350642710746648 1 1 0.010695770300697537 0.014155728339994978 1 1 1 1 1 1 1 1 1 1 1 1 1 1 1 1 1 1 1 1 1 1 1 1 1 1 1 1 1 1 1 1 1 1 1 1 1 1 1 1 1 1 0.011181790541665789 0.010361887414251572 1 1 1 1 1 1 1 1 1 1 1 1 1 1 1 1 1 1 1 1 0.010558900831134994 1 1 1 1 1 1 1 1 1 1 1 1 1 1 1 1 0.01010958703510469 1 0.011144644526779161 1 1 1 1 1 1 1 1 0.011349521208283636 1 1 1 1 1 1 1 1 1 1 1 0.0099956108158412368 1 1 0.021644063689686546 1 1 0.016408914621373082 1 1 1 1 0.022228797861509213 1 1 1 1 0.0099736293957132828 1 1 0.023649635529707745 1 0.010969094135763193 1 1 1 1 1 0.013552512037152053 1 1 1 1 1 1 1 0.011088553239598379 1 1 1 1 1 1 1 1 1 1 1 1 1 1 1 1 1 1 1 1 1 1 1 1 0.0087769058379440369 1 1 1 0.0099933272419096743 1 1 0.008077705637944502 1 1 1 0.010400524858654961 1 1 1 1 0.0097090061320149398 1 0.0074496105990295592 1 1 1 1 1 1 1 1 0.010024020137970092 1 1 1 1 1 1 1 1 1 1 0.025119435190223017 1 1 0.010021629721209083 1 1 0.017200152531534164 1 1 0.016125468976414616 0.0087667043833356793 1 1 1 1 1 1 1 0.011007588423652959 0.0060892372099021624 1 1 1 0.011975667359062539 1 1 0.011475719671913265 0.0145327585691156 1 1 1 0.0128779350934413 0.0085129129871932413 1 0.011203635855928113 1 1 0.010023416648905839 1 1 1 1 0.0046238235287760065 1 0.015315014986775611 0.012773061218401542 1 1 1 0.0094058254296104163 1 0.013511017904070827 0.011619774095075622 1 0.008559915990083598 0.0091845410716947795 0.010145691123339025 0.0073666204514632981 1 0.0090485793475532442 1 0.011402950508885424 1 0.0091054201325638795 1 1 1 0.0096019542247130427 1 1 0.011022294009171192 1 0.0087211001959638969 0.012851578330484026 1 1 1 1 0.010320893175162209 1 0.010982815099500878 0.011938996794973395 1 1 1 0.011281906571690297 0.011215587902257622 1 1 0.013371476548537653 0.011118728625937884 1 1 1 1 0.0099616279207837416 1 1 1 1 0.010253090924667491 1 1 1 1 0.0098209114836025225 1 0.016763811245243048 1 0.0093107042120121313 1 0.011446457800693388 1 0.013789266766295227 1 0.0099976893631662789 1 1 1 1 1 0.0098738646557963144 1 1 0.014242195570258596 0.01000159507110074 0.010550860187044592 1 1 0.010265921052959823 0.010583765872050514 1 0.012273165871151216 1 1 0.012188692173153508 1 1 1 1 1 1 0.01258862882100365 1 1 0.010531954452186201 1 0.011035383035435359 1 1 1 1 0.012207823325733681 1 0.0099253452706295139 1 0.010749082919513289 1 1 1 0.01005524117531555 1 1 0.012916402118798478 1 0.011426397470416495 1 0.013638231070060177 1 1 1 1 1 0.011226100693504899 1 1 1 1 1 1 1 1 1 1 0.011189392234630183 1 1 1 1 0.010476768658752238 1 1 0.010976721510500541 1 1 1 1 1 0.0095681849017398204 1 1 0.0074623842673187876 1 1 1 0.012810755722658161 1 0.010269582837662616 1 1 1 0.011507353201488742 1 1 1 1 0.016092389387878353 1 1 1 1 0.017856768445212081 0.010358481540907521 1 1 1 1 1 1 0.011265504091458906 1 1 0.013233603266510031 1 1 1 1 1 1 1 1 1 1 1 1 1 1 1 1 1 1 1 1 1 1 1 1 1 1 1 1 1 1 1 1 1 1 1 1 1 1 1 1 1 1 1 1 1 1 1 1 1 1 1 1 1 1 1 1 1 1 0.01246920144218 1 1 1 1 1 1 1 1 1 1 1 1 0.0037830841777266241 1 1 0.011589827774683394 1 1 1 0.010265439824851182 1 1 1 1 1 1 1 1 1 1 1 1 1 1 1 0.016920550699896092 1 1 1 1 1 1 1 1 1 1 1 1 1 1 1 1 0.010310594300118272 1 1 1 1 1 1 1 1 1 1 1 1 1 0.015183000923803085 1 1 0.01029573665954151 1 1 0.012573659077115664 1 0.017297750532714727 1 1 1 1 1 1 1 0.017759549926972006 1 1 1 1 1 1 1 1 1 1 1 1 0.010029463783864628 1 1 1 0.010438558141295884 1 1 1 1 1 1 1 1 1 0.010090303438548463 1 1 1 1 1 1 0.020084306450450624 1 1 1 1 1 1 0.01912693263556502 1 1 1 0.0094151686059263801 1 1 1 1 1 1 1 0.0084670835470363592 1 1 1 1 1 1 1 1 1 1 0.020104585593951226 1 1 1 1 1 1 1 1 1 1 1 1 1 1 1 1 0.012870548672774592 1 0.010062154096704813 1 1 1 1 1 1 1 1 1 1 0.007979231839117501 1 0.012956567611904259 1 1 1 1 1 1 1 1 1 1 1 0.019629878726990874 1 1 1 1 1 1 1 1 1 1 1 0.020109900227286703 1 1 1 1 1 1 1 0.010075259152378356 1 1 1 1 1 1 1 0.010041250118883693 1 1 1 1 1 1 1 1 1 1 1 0.0093191621496537709 1 1 1 1 1 1 1 1 0.018708026661706043 1 0.0079042100810938695 1 1 1 1 1 1 1 1 1 1 0.010659517620134847 1 1 1 0.011347962398256587 1 1 1 1 1 1 1 1 1 0.015936861986045832 1 1 1 1 1 1 1 1 1 1 1 1 1 1 1 1 0.010968295399357359 1 1 1 1 1 1 1 1 1 1 1 1 1 1 1 1 1 1 0.010522613565595737 1 1 0.01095110464840566 1 1 0.010640485504003523 1 1 1 1 1 0.011128429167781805 1 1 1 1 1 1 1 1 1 1 1 1 1 1 1 1 1 1 1 1 1 1 1 1 1 1 1 1 1 1 1 1 1 1 1 1 1 1 1 1 1 1 1 1 1 1 1 1 1 1 1 1 1 1 1 1 1 1 1 0.010200501114343459 1 1 0.010675823508522647 1 1 1 1 1 1 1 1 1 1 1 1 1 1 1 1 1 1 1 1 1 1 1 1 0.0095905160258004038 0.010725816257610604 1 1 1 1 1 1 1 1 1 1 1 1 1 1 1 1 0.0099649696664256548 0.011039726057958329 1 1 1 1 1 1 1 0.011856783883320994 1 0.010352774923737054 1 1 0.011745022967858737 0.0099779230131045085 1 1 1 1 1 1 1 1 1 1 1 0.010003597613076426 1 0.0060757701105398198 1 1 1 0.0072328519383420284 1 1 1 0.012032625315109804 1 0.012026308591079367 1 1 1 1 1 0.012212950257548632 0.012957506701182238 1 1 1 1 1 1 1 1 1 1 1 1 1 1 1 1 1 1 1 1 1 1 1 1 1 1 1 1 1 1 1 1 1 1 1 1 1 1 1 1 1 1 1 1 1 1 1 1 1 1 1 1 1 1 1 1 1 1 1 1 1 1 1 1 1 1 1 1 1 1 1 1 1 1 1 1 1 1 1 1 1 1 1 1 1 1 1 1 1 1 1 1 1 1 1 1 1 1 1 1 1 1 1 1 0.011614601852182332 0.0097861662151428018 1 0.015718026294362426 1 0.011069974265709801 1 1 0.010933796350832343 1 1 1 1 0.0097683328144425752 1 1 1 1 1 1 1 0.017543856091262522 0.009348196968022849 0.010441687367090609 1 1 1 1 1 0.017076940775939516 0.010780405378480856 1 1 1 1 1 1 1 1 1 1 1 1 1 1 1 1 1 1 1 1 1 1 1 1 1 1 1 1 1 1 1 1 1 1 0.013322273776606825 1 1 0.01118711943208852 1 1 1 1 1 1 1 1 1 1 1 0.010538148898330749 1 1 1 1 1 1 1 0.011212975972610874 1 1 1 1 1 1 1 1 1 1 1 1 1 1 1 1 0.016969353860878736 1 1 0.01435787530724527 1 1 1 1 1 1 1 1 1 1 1 1 1 1 1 1 1 1 1 1 1 1 1 0.0097216418702975229 1 1 0.010080563264183022 1 1 0.010640355908646509 1 1 1 1 1 1 1 0.011315182982926639 1 1 1 1 1 1 0.010591361533787641 1 1 0.011418183473839952 1 1 1 1 0.010284072191537581 1 0.0098468145978609367 1 1 0.014398149654334367 1 1 1 1 0.01085334320665836 1 0.013509442892317734 1 1 0.012683948367030946 1 1 1 1 1 1 1 1 1 1 1 1 0.015032722291536026 1 1 1 0.012031280869148292 1 1 0.012006476849018016 1 1 1 1 0.010004251893627931 1 1 1 1 1 1 1 1 1 1 0.0099651348553503188 1 1 1 1 1 1 1 1 1 1 0.010440121093739867 1 1 1 1 1 1 1 1 1 1 1 1 0.011931679817391959 1 1 0.0087420368338434785 1 1 1 1 1 1 1 1 1 1 0.010524173733738842 1 1 1 1 1 0.0095448508873436141 1 0.0096952956604843387 0.010142853927084264 1 1 0.0098891438388715742 1 1 1 1 1 1 1 1 1 0.010322728762694763 0.0091760584160411104 1 1 1 1 1 1 0.010327391202125511 1 1 1 1 1 1 1 1 1 1 1 1 1 1 1 1 1 1 1 1 1 1 1 1 1 0.010059737437077738 1 1 1 1 1 1 1 1 1 1 1 1 1 1 1 1 1 1 1 1 1 1 1 1 1 1 1 1 1 1 1 1 1 1 1 1 1 1 1 1 0.010719260550719992 1 1 1 1 1 1 1 1 1 1 0.010109376841760232 1 1 1 0.0096834265119229625 1 0.0095823199714313145 1 1 1 0.012336248798682765 1 1 1 0.010032534088097065 1 0.0099451061391568306 1 0.011326614850104173 1 0.009250586456056753 0.010900604116209691 1 1 0.012200980211653037 1 1 1 0.0099333035011018485 1 1 1 1 1 0.0099484763894616742 1 1 1 1 0.01143385978974761 1 1 1 0.01053162947638191 1 1 1 1 0.011972006169531634 1 0.0099804301945576445 1 1 1 1 1 1 1 1 1 1 1 1 1 1 0.010229987860685057 1 1 1 1 0.010825245642471925 1 1 0.009983408969237266 1 1 0.0081238364442837215 0.010019489519638719 1 1 0.0092058852777918681 1 0.010830054110858618 1 1 1 0.0097821801618530879 0.0093323596348931157 0.010416748498249492 0.009842208876333261 1 1 0.011696070385430073 1 1 1 1 0.0073170629087283452 1 0.015082153928788578 1 1 0.009746065034441068 0.0094941520616174044 0.0099990109435788444 1 0.010510716191585244 1 1 0.011289289844267239 0.010637130155699092 0.0095165959870296205 1 1 1 1 1 1 1 1 1 0.011108445819690706 0.01454837500882924 1 1 1 1 0.014101406923320391 0.011003322358610398 1 1 1 0.02493557412099319 1 0.023355766989642927 1 1 1 1 1 1 1 1 1 1 1 0.02595600501443519 1 1 1 1 1 1 1 1 1 1 1 1 1 1 1 1 1 1 1 1 1 1 1 0.010436572988175198 1 1 1 1 1 1 1 1 1 1 1 1 1 1 1 1 0.030228545895588287 1 1 0.011178370078275948 1 1 1 1 1 1 1 1 1 0.011481304759782266 1 1 1 0.013980235269770701 0.01129816098991485 1 1 0.0099869689673114607 1 1 1 1 1 0.010354078900447983 1 0.010237352586269432 1 1 1 0.011502470697705065 1 1 1 1 1 1 1 0.011554229217271167 1 1 0.010073286300789793 1 1 1 1 0.011570992084116546 1 1 1 0.010164131652237798 0.010014282153684146 1 1 0.012479952430179938 1 1 1 0.027044705910573251 1 1 1 1 1 1 1 0.0095077988195417379 1 1 0.026244485335744624 1 0.011052960985871059 0.019292587403451484 0.011196304235103293 1 0.010020180213086444 1 0.021521974043449039 0.020152419995465541 1 1 1 1 1 1 0.029427898647116014 1 1 0.028331625432078442 1 1 1 1 1 1 1 1 1 1 1 1 1 1 1 1 1 1 1 1 1 1 1 1 1 1 1 1 1 1 1 1 1 1 1 0.01011546495925187 0.022722172870763419 1 1 1 1 1 1 1 1 0.010327612427677003 0.0085405590584278455 0.022940228477755821 0.023091872948861399 1 1 0.0067154837935110567 1 1 1 1 1 1 1 1 0.0069494028049874573 1 1 0.010353436627536017 1 1 1 0.0095520653173805491 1 1 1 1 0.009211749447252492 1 1 1 1 1 1 1 1 1 1 1 1 1 1 0.010612215336972134 1 1 1 1 1 0.01928752199567238 1 1 1 1 1 1 1 1 0.012732713651798558 1 1 1 0.0086310296116416541 0.015253979096764318 1 1 0.015172949580821583 0.0083791426054183812 1 1 1 1 1 0.009999969157806184 1 1 1 1 1 1 0.0097225816112951682 1 0.025697418220370867 1 1 1 1 1 1 1 1 0.012927220753764507 0.014224047914493092 1 0.021549880228733526 0.011208356772751692 0.023951549287021326 1 0.01483152443736317 1 1 1 1 1 1 0.013658747586650324 1 1 1 1 1 1 1 0.012468939413113202 1 1 1 1 1 1 1 1 1 1 1 1 1 1 1 1 1 1 1 1 1 1 1 1 1 1 1 1 1 1 1 1 1 1 1 1 1 1 1 1 1 1 1 1 1 1 1 1 1 1 1 1 1 1 1 1 1 0.010591042850074108 1 1 1 1 1 1 1 0.011812331982747865 1 1 0.021749506242590283 1 1 1 0.0055135780442853418 1 0.010003113862653013 1 1 0.0096961522333824188 1 1 1 1 1 1 1 0.016202682508972301 1 1 1 0.010578644864412099 1 1 1 1 1 1 1 0.0090590807750400102 1 0.0099400255205179949 1 1 1 1 1 1 1 1 1 1 1 1 1 1 1 1 1 1 1 1 1 1 1 1 1 0.010131652903681267 0.019425751840362972 1 0.020453207358126009 1 1 1 1 1 1 1 0.010039919250841998 1 0.010697614774633721 1 0.012024820998126878 0.0087739609005033897 0.019773956873276832 1 1 0.02140725802779515 1 1 0.014253138160438069 1 1 1 0.011823075569695658 1 1 1 1 1 1 1 0.008657966591576997 0.014844900100871465 1 1 0.012248207282387043 1 1 1 0.010868363903614398 1 1 1 1 0.0097481404716673863 1 0.014426463729719553 1 1 1 1 1 1 0.010727078658935116 1 0.010789465809088719 1 1 1 1 1 0.012343468517848691 1 1 0.011422455270250469 1 1 1 1 1 1 1 1 1 1 1 1 1 1 1 1 0.0099463629743900914 1 1 0.012248252515794521 0.0099922670570994753 1 0.010013408430554444 1 1 1 1 1 1 1 1 0.010255533721899756 1 1 1 1 1 1 1 1 1 1 1 1 1 1 1 1 0.018396549044693046 1 1 1 0.010925306495190615 1 1 0.020925170681694645 1 1 1 1 1 1 0.021217437395713763 1 1 1 1 1 1 1 1 1 1 1 1 1 1 1 1 1 1 1 0.0084321706910863593 0.010038173644572077 1 1 1 1 1 1 1 0.0095182765065002541 1 1 1 0.010000802293662157 1 1 0.0093142226276439772 1 0.008831966104506905 1 1 0.0087181607258153271 1 0.010426208025802802 0.014719801565461949 1 0.0082597626602556665 1 0.012785123837977362 1 0.013652676709864536 1 1 1 1 1 1 1 1 1 1 1 1 1 1 1 0.010617726334080714 0.0097310469497528598 1 1 1 1 1 1 1 0.011738288981967453 1 1 1 1 1 1 1 1 1 1 1 1 1 1 1 0.010680231303591135 1 0.010519106286925135 1 1 1 1 1 1 0.011136412137250787 1 1 1 0.012634428288828943 1 1 1 0.011120878211065159 1 1 1 1 1 1 1 1 1 1 1 1 1 1 1 1 1 1 1 1 1 0.0098192596824526971 1 1 1 1 0.013422996870713052 1 1 1 1 1 0.016789936354161126 1 1 1 0.015974487442555939 1 1 1 1 1 1 1 1 1 1 1 1 0.0099517197800165109 1 1 1 1 0.014746583690941676 1 1 1 1 1 1 1 1 0.012408627258226492 1 1 1 1 1 1 1 0.011629458437545696 1 1 1 1 0.010927907679850843 1 1 1 1 1 1 1 1 0.011994040946962489 1 1 1 1 1 1 1 1 1 0.010822719066169375 1 1 1 1 1 1 1 1 1 1 1 1 1 1 1 1 1 1 1 1 1 1 1 1 1 1 1 1 0.010415151356860889 1 1 1 1 1 1 1 0.013566015524176384 1 1 1 1 1 1 1 1 1 1 1 1 1 1 1 1 1 1 1 1 1 1 1 1 1 1 1 1 1 0.010601771924140026 1 1 1 1 1 1 1 1 1 1 1 1 1 1 1 1 1 1 1 1 1 1 1 1 1 1 1 1 1 1 1 1 0.010152629535068564 1 1 0.01007934323427878 1 1 1 1 0.020421701971591995 1 1 0.021006973215377943 1 1 1 1 0.020376585877336782 1 1 1 0.020171117729440372 1 1 1 0.010848380583009116 1 1 1 1 1 1 1 1 1 1 0.012491883029468768 1 1 0.01344868209485355 1 1 1 1 1 1 0.029195465881917921 1 1 1 1 1 0.013686186199557799 1 1 1 1 0.013680854191532988 1 1 1 1 1 1 1 1 1 1 0.013294453465706929 1 1 1 1 1 1 1 1 1 0.011074500172221714 1 1 1 1 1 1 1 1 1 1 1 1 1 0.028939971538686028 1 1 1 1 1 1 1 0.013855154580441481 1 1 1 1 1 0.011247095906599728 1 1 1 1 1 1 1 1 1 1 1 1 1 1 0.011992406526758679 1 1 1 1 1 1 1 1 0.012937248225904507 1 1 1 1 1 1 1 1 1 1 1 1 1 1 1 1 1 1 1 1 1 1 1 1 1 1 1 1 1 1 1 1 1 0.011472666172210582 1 1 1 1 0.012493985347026023 0.012988074620345097 1 1 0.01599998971976805 1 1 0.012956983757777782 1 1 0.022597749607816943 1 1 1 1 1 1 1 1 1 1 1 1 1 1 1 1 1 1 1 0.025673241989046268 1 1 1 1 0.027862338699724182 1 1 1 1 1 1 1 1 1 1 1 1 1 1 1 1 1 1 1 1 1 1 1 1 1 1 1 1 1 1 1 1 1 1 1 1 1 1 1 1 1 1 1 1 1 1 1 1 1 1 1 1 1 1 1 1 1 1 1 1 1 1 1 1 1 1 1 1 1 1 1 0.011966786947346791 1 1 1 1 0.0107323454376194 1 0.010400836597609143 1 1 0.011968801656626199 1 1 1 1 0.010095322355066737 1 1 0.010121093814928156 1 1 1 1 1 1 1 1 1 1 1 1 1 1 1 1 1 1 1 1 1 1 1 1 1 1 1 1 1 1 1 1 1 1 1 1 1 1 1 1 1 1 1 1 1 1 1 1 1 1 1 1 1 1 1 1 1 1 1 1 0.0098699657463704807 1 1 1 1 1 1 1 1 1 0.010573814869917507 1 1 1 1 1 1 1 0.011282069843985679 1 1 1 1 1 1 1 1 1 1 1 1 1 1 1 1 1 1 1 0.026343043274393123 0.016744418375783145 1 1 0.0099581619042245287 1 0.01002365812682917 1 1 1 1 1 1 1 1 1 1 1 1 1 1 1 1 1 1 1 1 1 1 1 1 1 1 1 1 1 1 1 1 1 1 1 1 1 1 1 1 1 1 1 1 1 1 1 1 1 1 1 1 1 1 1 0.018980083739068496 0.01961237191580174 1 1 1 1 1 1 1 1 1 1 1 1 1 1 1 1 1 1 1 1 0.01010580423889469 1 1 1 1 1 1 1 1 1 1 0.010032259818036396 1 1 1 0.0096473364108065531 1 1 1 1 1 1 0.010039982187836485 1 1 1 1 1 1 1 1 1 1 1 1 1 0.0095209945936035479 1 1 1 1 1 1 0.010005108499669811 0.0097757684722558982 1 0.012583686603182584 1 1 0.010140406065987581 1 1 1 0.012666283816533792 1 1 1 0.01263446452680754 1 1 1 1 1 0.010142899223476824 1 0.0093830180540825179 1 1 1 1 0.01307368615526442 1 1 1 1 0.0097541046666128721 1 0.0099581126941386995 1 1 0.010074965853103697 0.010046855143465476 1 1 1 1 1 0.010119320772303701 1 1 1 1 1 0.010247398822719612 0.0099391466340474788 0.010676782420847179 1 0.01149325384255425 1 0.009992000593945843 1 1 1 1 1 0.010043212982215784 1 1 1 1 1 1 1 1 0.0099878403438591907 0.011578418173442698 1 1 0.010827588253876447 1 1 1 1 0.012333773947729075 1 1 0.010202408734161247 1 1 0.010179867455128019 1 1 1 1 1 1 1 1 1 0.010149158016339092 1 1 1 1 1 1 1 1 0.010349869818418402 1 1 1 1 1 1 1 1 1 0.0099113505162022001 0.010516571391202482 1 1 1 1 1 1 1 1 1 1 1 1 1 1 1 1 1 1 1 1 1 1 1 1 1 1 1 1 1 1 1 1 1 1 1 0.010013745821602112 1 1 1 1 0.01006499077236849 1 1 1 1 1 1 1 1 1 1 1 1 1 1 1 1 0.011072503669174748 0.013347676574716583 1 1 1 1 1 1 1 1 1 0.012711399476528537 1 1 1 1 0.011177401193345607 1 1 0.010963396162704843 1 1 1 1 1 1 1 1 1 1 1 1 1 0.010183309918925864 1 1 1 1 1 1 1 1 1 1 1 1 1 1 1 1 1 1 1 1 1 1 1 1 1 0.011301648808719741 1 1 1 1 1 0.0099751427218083191 1 1 1 0.013220926219556506 1 1 1 0.0084988457965936588 0.009981624952567757 1 1 1 1 1 1 1 1 1 1 1 1 1 1 0.01192188460703867 1 1 1 0.016556825104492863 1 1 1 1 0.012716535310975802 0.011927566765719759 1 1 1 1 1 1 1 1 1 1 1 1 1 1 1 1 1 1 1 1 1 1 1 0.011851537510859919 1 1 1 1 1 1 1 1 1 0.0094823840955114806 1 1 1 1 0.010669441536778457 1 0.0096771609574095342 1 1 1 1 0.0099585350771710449 1 1 1 1 1 1 1 1 1 1 1 1 1 1 1 0.010147811710451756 1 1 0.010395154722754974 1 1 1 1 1 1 1 1 1 1 0.00944325293897013 0.0094109344663788203 1 1 1 1 0.012759717095067798 1 1 1 0.013447836743506303 1 1 1 1 0.010738234170029698 0.010268741537645225 1 0.010675329440362608 1 0.0092413432444819199 1 0.016404572507829722 1 1 0.0095676154045474561 1 1 0.015080471688747182 1 1 0.0091502278683142473 1 1 1 0.011959906157311333 1 1 0.0099999848597155903 1 0.01032776894501238 1 0.012445960709047847 1 1 0.01042990904131033 1 1 1 1 1 1 1 1 1 1 1 1 1 0.009873821661352096 1 1 1 1 1 1 1 1 1 1 1 1 1 1 1 1 0.0087812217976220609 0.0078852315019059 1 1 1 1 1 0.011472248407944204 1 1 1 1 0.01190542442373143 1 1 0.0069487481424998655 1 1 1 1 0.010610339479946267 1 1 1 1 1 1 1 1 1 1 1 1 1 1 1 1 1 1 1 1 1 1 1 1 1 1 1 1 1 1 1 1 1 1 1 1 1 1 0.010214210583628747 1 1 1 1 1 1 1 1 1 1 1 1 1 0.009529546535405926 1 0.010249982520053722 1 1 1 1 0.0096526787460275779 1 1 1 1 1 1 1 1 1 1 1 1 1 1 1 1 1 1 0.0097943552290373388 1 0.0099304672719675753 1 1 0.0096879964849217303 1 1 1 0.0097077369042367651 1 1 1 1 1 1 1 1 1 1 1 1 1 1 1 1 1 1 1 1 1 1 1 1 1 1 1 0.010220177533387368 1 1 0.010486079942682936 1 1 1 1 1 1 1 1 1 1 1 1 1 1 1 1 1 1 1 1 1 1 1 1 1 1 1 1 1 1 1 1 1 1 1 0.010271869359054189 1 0.010937959439499901 1 1 1 1 1 1 1 1 1 1 1 1 1 1 1 1 1 0.010704446585601858 0.011495399277130836 1 1 1 1 1 0.010465465136452749 1 1 1 1 0.011083428034799878 1 1 1 1 0.010379622576974827 1 1 1 1 1 1 1 1 1 1 1 1 1 1 1 1 1 1 0.010790952691528972 1 1 1 1 1 1 0.010855090605239426 1 1 0.012187212400781203 1 1 1 1 1 1 1 1 1 1 1 1 0.010582743593943081 1 1 0.010738112394373736 1 1 1 1 1 1 1 1 0.01022425377654413 1 1 1 1 1 1 0.010425742766041479 1 1 0.011043705664388601 1 1 1 1 1 1 1 1 1 1 1 1 1 1 1 1 1 1 1 1 1 1 1 1 1 1 1 1 1 1 1 1 1 1 1 1 0.010137191571874052 1 1 1 0.01018226095601607 1 1 0.01040048874902269 1 1 1 1 1 1 0.010395258369849301 1 1 1 1 1 0.010173384595809128 1 1 1 1 1 1 0.010143529651502985 1 1 1 1 0.012145801125727627 1 0.011680699567445718 1 1 0.011104940474497497 1 1 1 0.010045069384142041 1 1 1 1 1 1 1 1 1 1 1 1 1 0.010141929028694383 1 1 1 1 1 1 1 1 1 1 1 1 1 1 1 1 1 1 1 1 1 1 1 1 0.0099989617019593073 1 0.0099975390223006125 1 0.0099615430769560524 1 0.0096645581028286503 1 1 1 1 0.010056945499744761 1 1 1 1 0.010363442528529901 1 1 1 1 1 1 1 1 1 1 1 1 1 1 0.011039744643311797 1 1 1 0.011495966697317832 1 1 1 0.010434237974664529 1 1 0.010837058950996653 1 1 1 0.010795233646198388 1 1 1 1 0.010397363808408173 1 1 1 1 0.010666649433834895 1 1 1 1 1 1 1 1 1 1 0.017398209808156373 1 1 1 1 1 0.017472925731732772 1 0.010023496679712141 1 1 1 1 1 0.01115133671105807 0.014812174103952434 1 1 0.012661138414458963 1 0.01000163993329666 1 1 0.010085270056914515 1 1 1 1 1 1 1 1 1 1 1 1 1 0.0090428997301457443 1 1 1 1 1 0.017236517689578054 1 1 1 1 1 1 1 1 1 1 0.010171294740998722 1 0.011801034474248179 1 1 0.012540226112121092 1 1 0.0099255985247786171 1 0.014711956422298632 1 0.0088874702826853853 1 1 1 1 1 0.0096954473848198004 0.0091548697519289977 1 1 1 1 1 1 1 1 1 1 1 0.0098513911170950742 1 1 1 1 1 0.0099930171153264497 1 1 1 0.016591122199284776 1 0.01010213204534734 1 1 1 1 1 1 1 1 1 1 1 1 1 1 1 0.0099853561507835635 1 1 1 1 0.0099584850887286924 1 1 1 1 1 1 1 1 1 1 1 1 1 1 1 1 1 1 1 1 1 1 1 0.0099731289379451117 1 1 0.013819600276670792 1 1 1 1 1 1 1 0.014369723304720042 1 1 0.011279807702163207 1 0.012896713928643054 1 1 1 1 1 1 1 1 1 0.011202348556734514 1 1 0.015960993796898207 1 1 1 0.015352808038029318 1 1 1 1 1 1 1 0.010260098122143679 1 1 1 1 0.014815019093080195 0.0093573787280308053 1 1 1 1 1 1 1 1 1 0.0097640463852004897 1 1 1 1 1 1 1 1 1 1 1 1 1 1 1 1 0.010432135963587663 1 0.010154453075558715 1 1 1 0.011376202179298906 1 1 1 1 1 1 1 1 1 1 1 1 1 0.010474140019524439 1 1 1 1 1 0.011356152567675911 1 1 1 0.010455412637044741 0.010424195066281217 1 1 1 0.011471701018255573 1 1 0.010305232743182083 1 1 1 1 0.020245751627167064 0.01004793000831606 1 1 1 0.0089470443843082548 1 1 0.0097301443127222401 1 1 1 1 0.018841099493586158 1 0.024829363204862537 1 1 1 0.022236266616854156 1 1 1 1 1 1 1 1 1 1 1 1 1 1 1 1 1 1 1 1 1 0.010570948921286899 1 1 1 1 1 1 1 1 1 0.016315358114809997 1 1 1 0.015579357282190655 1 0.015552651070223217 1 1 1 1 1 1 1 1 1 1 1 0.015561733210904101 1 1 1 1 1 0.020147999392337905 1 1 1 1 1 0.012801350450826374 1 1 1 1 1 1 1 1 1 1 1 1 1 1 1 1 0.013143525003877761 1 1 1 1 1 1 1 1 1 0.012391867044915855 1 1 1 1 1 1 1 1 1 1 1 1 1 1 1 0.010305809152061286 1 1 1 1 1 1 1 1 1 1 1 1 1 1 1 1 1 1 1 1 1 1 1 1 1 1 1 1 1 0.015818417552642537 1 1 1 1 0.01258290261303379 1 0.012999422076058899 0.010004923933143721 1 1 1 1 1 1 0.010193301967839491 1 0.0091725074330737885 1 1 1 0.010033232274114023 1 1 0.013314772311859699 1 1 1 1 1 1 0.010082017026284473 1 1 1 1 1 1 1 0.010170465272366612 1 1 1 1 0.010321429324408216 1 1 1 1 1 1 0.011819314015825991 1 1 1 1 1 1 1 1 1 1 1 1 0.010547893651666383 1 0.011024080369627605 1 1 1 1 1 1 1 0.011268202121007515 0.01087218911919783 1 1 1 1 1 1 1 1 0.010310624847961983 1 1 1 0.011232983770472202 1 1 0.010458839553250998 1 1 1 1 1 1 1 1 1 1 1 1 1 1 1 1 1 1 1 1 1 1 1 1 1 0.010122635404122775 1 1 0.010042667073575366 1 1 1 1 1 0.010436212201953413 1 1 0.011325553936559679 1 0.013821640095282688 1 1 1 0.0099372151907905406 1 1 1 1 0.011855886894799841 1 1 0.0093445858669558013 0.012699844660185047 1 1 1 1 1 0.010032587018750906 1 1 0.0099122470055237142 1 1 1 1 1 0.0099744141190425128 1 1 1 1 1 1 1 1 1 0.01002968221805085 1 1 1 1 0.0099742435878756152 1 1 1 1 1 1 0.015858015508714476 1 0.01446697098630308 1 1 1 0.0086084567263332128 1 0.018800603642071083 1 1 0.015777436214579346 1 0.0098512682855103825 1 1 1 0.0099375001165760458 1 1 1 1 1 1 1 1 1 1 1 1 1 0.021280037203685931 1 1 1 1 0.021830692437302873 1 1 1 1 1 1 0.0094398134833170756 1 1 1 1 1 1 1 0.011001150799551031 1 1 1 1 1 1 0.01274522029265184 1 1 1 1 1 1 1 0.014016023560456487 1 1 0.010351286499028823 1 1 1 1 1 1 1 1 1 0.010230925949112187 0.0099334706164694239 1 1 1 1 1 1 1 1 1 1 1 1 0.010068135043088795 1 1 1 1 1 1 1 0.010752208235750869 1 1 1 0.010006113310694145 1 0.01132737239157381 1 1 0.0096942885530652851 1 1 1 1 1 0.0092721040272225642 1 1 1 0.012554750590431714 1 1 1 1 0.016577404305604046 1 1 1 0.0098651872197199272 1 1 1 1 1 1 1 0.010516956021697665 1 1 0.010289032780558614 1 1 1 0.020486849767466925 1 1 1 0.019469920080494179 1 1 1 1 0.0090429358848481325 1 1 1 0.0096836029273426032 1 1 1 1 1 1 1 1 1 0.020634178790101376 1 1 1 1 1 1 1 1 1 0.019056397945388659 1 1 1 1 0.013735815966381973 1 1 0.015365182386950171 1 1 1 1 1 1 1 1 1 1 1 1 1 1 1 1 1 1 1 1 1 1 1 1 1 1 0.010083110058886678 1 1 1 1 1 1 1 1 1 1 1 0.010063950928568998 1 1 1 0.0095148161861175213 1 1 1 1 1 1 0.00978142664776235 1 1 1 1 1 1 1 1 1 1 1 1 1 1 1 1 1 1 1 1 1 1 1 1 1 1 0.017107513243266335 1 0.0045428002660253394 1 1 0.011545808497333504 0.0085072296760049064 1 1 1 1 1 1 1 1 1 1 1 1 1 1 1 1 1 0.012631994421320163 1 1 1 1 1 1 1 1 1 1 1 1 1 1 1 1 1 1 1 1 1 1 1 1 1 1 1 1 1 1 1 1 1 1 1 1 1 1 1 1 1 1 1 1 1 1 1 1 1 1 1 1 1 1 1 1 1 1 1 1 1 0.0091079327075614114 1 1 0.0077562856948043997 1 1 1 1 0.0064305067755012985 1 1 1 1 1 1 1 1 1 1 0.010004545427463658 1 0.01955745135174513 1 1 1 0.011280640775022504 1 1 1 0.0099764074558080888 1 0.0099025956749263372 1 1 1 0.010917309873806055 1 0.010134943369205132 1 0.011581033459002688 1 1 1 0.01392520887009658 1 1 1 1 0.010066808326116332 1 0.012303713597089434 1 1 1 1 1 0.0126283032769828 1 0.010011669772595991 0.0093927053970686118 1 1 1 1 1 1 0.012734422065364889 1 1 1 0.010015796098624066 1 1 1 1 1 1 1 1 1 1 1 1 1 1 1 1 1 1 1 0.009985680930481541 1 1 1 0.012436558094717158 0.010102963137833102 1 1 1 1 1 0.010274673016256664 1 1 1 1 1 1 1 1 1 1 1 1 1 1 0.011764520960582947 1 1 0.012834985362250736 1 0.011430206650112996 1 1 1 0.0099724391098763056 1 0.01078706517725932 1 1 0.012847407506361094 1 1 1 1 1 1 1 1 1 1 1 0.013160288902942081 1 1 1 1 1 1 1 1 1 1 0.013102246916225958 0.010138530380881899 1 1 1 1 1 1 1 0.012174130677514286 1 1 1 1 1 1 1 1 1 1 1 1 1 1 0.010763147229273753 1 1 1 1 1 1 1 1 1 1 0.010602910054488771 1 1 1 0.011568472176523086 1 0.012121046613710041 0.011781245754009169 1 1 1 1 1 1 1 1 0.013090351059869516 1 1 1 1 1 1 1 1 1 0.01143490929746018 1 0.012742411253969866 1 0.0098217957121111057 1 1 1 1 1 1 1 1 0.010707626988299173 1 0.011427692323187829 1 1 1 1 1 1 0.009601148580986707 1 1 0.011752016534023302 1 0.0091923425792647638 1 1 1 1 1 1 1 1 1 1 1 1 1 1 0.011086182275258729 1 1 1 1 1 1 1 1 1 1 0.010623677754566803 1 1 1 1 1 1 0.010291271900062512 1 1 1 1 1 1 1 1 1 1 1 1 1 1 1 1 1 1 1 1 1 1 1 1 1 0.011325499447104311 1 1 1 1 1 0.013542349726646205 1 1 1 1 1 1 1 1 1 1 1 0.010041798676696601 1 1 1 1 0.025436157101734462 1 1 1 1 1 0.025634349792688065 1 1 1 1 1 0.024779693179874093 1 1 0.023377986518443333 1 1 1 1 1 1 1 1 1 1 1 1 1 1 1 1 1 1 1 1 1 1 1 1 1 1 0.011217312900714571 1 1 0.011214069183116305 1 1 1 1 1 1 1 1 1 1 1 1 1 1 1 0.010298265077275614 1 1 1 1 1 1 1 1 1 0.01058953697733811 1 1 1 1 1 1 1 0.015109918044189759 1 1 1 1 1 0.010108387939688939 1 1 1 1 1 1 0.023914057749554699 1 1 1 1 0.021224586022207427 1 1 1 1 1 1 1 0.010066589262992337 1 1 0.015980614648262094 1 1 0.015403471853516293 1 1 1 1 0.018314793502852204 1 1 1 1 1 1 1 1 0.015874644445024955 1 1 0.012842159374813722 1 1 1 1 1 1 1 1 1 0.010816066293909455 1 1 1 1 1 0.010587425181319773 1 1 1 1 0.011135571128281271 1 1 1 0.012320623584627689 1 1 1 1 1 1 1 1 1 1 1 0.011145369050880542 0.011194243638988681 1 1 1 1 1 1 1 1 1 1 1 0.011140755095043971 1 1 1 1 1 0.014349138411124248 1 0.012534087551802801 0.0097141381094523228 1 0.012349471498791682 0.0097476333536756238 1 1 0.0099625328410395658 1 1 1 1 1 1 0.014831654495990828 1 0.011478793658129675 0.010030687729890015 1 1 1 1 1 0.0099691954430241089 1 1 1 1 1 1 1 1 0.014670616861808965 1 1 1 1 0.010919007222255932 1 1 1 1 1 0.010199265215319598 1 1 0.010748461424881617 1 1 1 1 1 1 1 0.012589777639202221 1 0.0096792506498477315 1 1 1 1 1 1 1 0.012948261862568988 0.011180940037534991 1 1 1 1 1 1 1 0.010364881511675101 1 1 1 1 1 1 0.010990476632128762 1 1 1 1 1 1 1 1 1 1 1 1 1 1 0.01259253752284617 1 1 0.010890494632944819 1 1 1 1 0.010369735103263037 1 1 1 1 0.014904164811641755 1 1 1 1 1 1 0.016899544069441542 1 1 1 1 1 1 1 0.010150617643952255 1 1 1 0.013018707110472694 1 1 1 1 0.017805472796727256 1 1 0.013095334775064952 1 1 1 1 1 1 1 0.017834979940135491 1 1 1 1 0.017725401928131303 1 0.0099641711425615034 1 1 1 1 1 1 1 1 1 1 1 1 1 1 0.01179389466399494 1 1 1 1 1 1 1 0.011823849178808887 1 1 0.01110291084147653 1 1 0.011422512708481717 1 1 1 1 1 1 1 1 1 0.01471946512160636 1 1 1 0.01347758030099239 1 1 1 1 1 1 1 1 1 0.012179371774054586 1 1 1 1 1 1 1 1 1 1 1 0.0096289682967673883 1 1 1 0.01075320309210418 1 1 1 1 1 1 1 1 1 1 1 0.0086343347634799516 1 1 1 1 1 1 1 1 1 1 0.0073417949322924008 1 1 1 1 1 0.01459290621266918 1 1 1 1 1 1 1 1 0.010020021329770005 1 1 0.018032445063173048 1 1 0.016393431196452236 1 1 1 1 0.019432653922598103 0.0098345874915840518 1 1 1 1 0.015390039533949832 1 1 1 1 0.0098627445433743331 1 1 0.0099458904683703397 1 1 1 1 0.012011018593237993 1 1 0.011536686243286312 1 1 1 1 1 0.011074056143203713 1 1 1 1 1 1 1 1 0.013772350809811703 1 0.010015856151190976 1 1 1 1 1 1 1 1 1 0.011280832923972891 0.012224636064309662 1 1 1 1 1 1 0.01247159298134759 1 1 0.010606462205299181 1 1 0.010528550118316188 1 0.0099953765936753314 1 1 1 0.0093772328357813791 1 1 0.0099425329096080907 1 1 1 1 1 1 1 1 0.011461490991225716 0.01146755577022348 1 1 0.010009310462632318 0.014691288603315571 1 1 1 1 0.010845876596716951 1 1 1 0.01299012040133438 1 0.0085786778185854527 1 0.010493720860435138 0.013093680316535471 0.011925743831859213 1 0.0093184648646359117 1 1 1 0.0098136190058074595 1 1 1 1 1 1 1 1 1 0.015450786964094378 1 1 0.01494552815658956 1 1 1 1 1 1 0.0092055284497642824 1 1 1 1 1 1 0.0099156553104992953 0.0098912161837703214 0.0073533281850471279 1 1 1 1 1 1 1 1 1 1 1 0.0073681222006432984 1 1 1 1 0.014393353070332423 1 1 1 1 1 1 1 1 0.013398095987000109 1 1 0.0084740929711683618 1 1 1 0.010268898688429137 1 1 1 1 1 1 1 1 1 0.0098248529983139144 1 1 1 1 1 1 1 1 0.015009085301375152 1 1 1 0.015800662328979077 1 1 0.0099950643811746089 1 1 1 0.0095165608935069198 1 0.012673864596022398 1 1 0.012142877653956457 1 0.012562225168149973 1 1 0.0098887940839398787 1 1 1 1 1 1 0.012732000341677782 1 1 0.0099212271655951655 1 1 1 1 1 1 1 1 1 1 1 1 1 1 1 1 1 1 1 1 1 1 1 1 1 1 1 1 1 1 1 1 1 1 1 1 1 1 1 1 1 1 1 1 1 1 1 1 1 1 1 1 1 1 1 1 1 1 1 1 1 1 1 1 1 1 1 1 1 1 1 1 1 1 1 1 1 1 1 1 1 1 1 1 1 1 1 1 1 1 1 1 1 1 1 1 0.010214944361333926 1 1 1 1 0.018241750093791597 1 1 1 1 1 1 1 1 1 1 1 1 0.010660323664758536 0.016864195909369929 1 1 1 1 1 1 1 1 1 1 1 1 1 1 1 0.01112118704040501 1 1 1 0.013189951112783567 1 1 1 1 1 1 1 1 1 1 0.018532177860399457 1 0.017394456835906246 1 1 1 1 1 1 1 1 1 1 1 1 1 1 1 1 1 1 1 1 1 1 1 1 0.01043406532547049 1 1 1 1 0.011019484738966636 1 1 1 1 1 1 1 1 0.010183807142272351 1 1 1 1 1 1 1 1 1 1 1 1 1 1 1 1 1 1 1 1 1 1 1 1 1 1 1 1 1 1 1 1 1 1 1 1 1 1 1 1 1 1 1 1 1 1 1 1 1 0.010828006049959283 1 1 1 1 1 1 1 1 1 1 1 1 1 1 1 1 1 1 1 1 1 1 1 1 1 1 1 1 1 1 1 1 0.014923246167896535 1 1 1 1 1 1 0.015055256155938989 1 1 1 1 1 1 0.010230501821489477 1 1 0.0097356171403288876 1 0.010658577092476603 1 0.00877455148531491 1 1 1 1 0.012251484316767728 1 1 1 1 1 0.01018636916107309 1 1 1 0.0090408849676014719 0.0099704363787034064 1 1 1 0.015111974063225918 1 1 1 1 0.010451518291612843 0.010051787029276935 1 1 1 1 1 1 1 1 1 1 1 1 1 1 0.010287245420678213 1 1 0.012454460730449875 1 1 0.010086871068106372 0.014120734946286406 1 1 1 1 1 1 1 1 1 1 0.018866431361122322 1 0.020611081892478421 1 1 1 1 1 1 1 1 1 1 1 0.01375139447757227 1 1 1 1 1 1 1 0.01606479473250608 1 1 1 1 1 1 1 1 1 1 1 1 1 1 1 1 1 1 0.017858560450104588 0.021436470341683472 1 1 1 1 1 1 1 1 1 1 1 1 1 1 1 1 1 0.021510238182676673 1 1 1 1 1 1 1 1 1 0.011191787628822298 1 1 1 1 1 1 1 1 1 1 1 1 0.012875225416424791 1 1 1 1 0.0087979318900264121 1 0.020944550861677555 1 1 1 1 1 1 1 1 1 0.011793571950390176 1 1 1 1 0.015614984000860704 1 1 1 1 0.011948224185613284 1 0.011732583622709281 1 1 1 1 1 1 1 1 1 1 1 1 0.0096399252403339582 1 1 1 1 1 1 1 1 1 1 1 1 1 1 1 0.0095500653293367557 1 0.014935478497806392 1 1 0.013310333277838208 1 1 1 0.009999272954422208 1 0.0086788813367831598 1 1 0.0067496585202264647 1 1 0.010014964451530009 1 0.014532655981031876 1 1 1 1 1 1 1 0.00709429669581884 0.0062220662995694379 1 1 1 1 0.016028307442561906 0.021967043311463194 1 1 0.0083823260734340772 0.008491546304563162 1 0.010882819484522717 1 1 0.010045519889714423 0.011805735028879615 1 1 0.012925517044773909 1 1 0.0071972337933003463 1 1 1 1 1 1 1 1 0.013360862920342099 1 1 0.016252471154619003 1 0.015368452096385776 1 1 1 0.010365789347131232 1 1 1 1 1 1 1 1 0.010454487634185983 1 1 1 1 1 1 1 1 1 1 1 1 1 1 1 1 1 1 1 1 1 1 0.010043240203125338 1 1 1 1 1 1 1 1 1 1 1 1 1 1 1 1 1 1 
</DataArray>
</CellData>
</Piece>
</UnstructuredGrid>
</VTKFile>
